! Generated by Phase II Calibration
# Hz S RI R 50
10000000 -0.154953432434 0.0572294593326 0.00132759320651 -0.00212644896932
 0.00274267038241 0.00209224579045 -0.266817406022 -0.00229041100467
51868750 -0.205247277268 0.0729094522914 -0.000791970095431 0.00274082073813
 0.00155615161258 0.00015739225865 -0.214677992998 0.0293939229446
93737500 -0.187286240047 0.0646830896345 0.00163243944878 -6.62538383289e-05
 0.000512426641146 -0.00069983040343 -0.252190246951 0.0378978786398
135606250 -0.185548527123 0.0466494039569 -4.692767642e-05 -0.00108188855505
 0.000194452182763 -0.000589528444756 -0.2570768358 0.0442165437604
177475000 -0.19768094313 0.0409566399397 0.000220386722938 -0.000326956144327
 0.00160213681903 -0.00113423726839 -0.228206844278 0.0544015740879
219343750 -0.184635089192 0.0446720056691 -0.000368615002603 -0.000829714932232
 -1.37186235498e-06 -0.000632062647387 -0.253187997378 0.0487637033618
261212500 -0.188704686565 0.0471360316181 0.000197965851254 -0.000681426578271
 0.000160927814247 -0.000464972833234 -0.254466381643 0.0409875266228
303081250 -0.197527930123 0.0618668499832 0.000427228691247 0.0010486443548
 0.00144992767357 0.000322387595137 -0.229549436212 0.0361203307226
344950000 -0.163087510541 0.038138235575 -0.00254103940393 -0.00218119497931
 0.00124592201499 -0.00148696880459 -0.274634715172 0.0491975475451
386818750 -0.203476754099 0.0359004456807 0.000246169421719 -0.000443720896343
 0.000403455243412 -0.000655757664557 -0.239423950358 0.0444716844888
428687500 -0.215918661661 0.0591711780228 0.000852657957549 -0.00047584233087
 -0.00504136293448 1.5968481492e-05 -0.213974253705 0.0461505080924
470556250 -0.159206664604 0.0583688421185 -0.00423945683908 -6.09874803355e-05
 0.000687374574879 0.00159324723347 -0.265773549102 0.0205503209054
512425000 -0.186586972129 0.0173553034932 0.00239689462646 0.000514440732545
 0.00156862489415 0.00197384939899 -0.257514697208 0.0602512741448
554293750 -0.221952516746 0.0544602301542 0.00171202884692 -0.000142249298678
 -0.00391436489169 0.00112572058901 -0.205433888513 0.0462165187603
596162500 -0.161989743746 0.0506108234795 -0.00487016247706 0.00312178534973
 0.000387972303856 0.00111659816922 -0.270349904741 0.0283078680901
638031250 -0.200062824699 0.0425157730987 1.60254396612e-05 -0.000692816766663
 -0.000168697515418 -0.001207868507 -0.23010355164 0.0387456937074
679900000 -0.197217148145 0.0472454586138 2.68947407123e-05 0.000614098941721
 -5.79576415778e-05 0.000866629681489 -0.234231291411 0.046981372
721768750 -0.169822906138 0.0378030971215 5.87470387786e-05 -0.00300329745088
 0.000231832019384 -0.00112469794804 -0.260216991715 0.0328873933696
763637500 -0.20774527175 0.0353240592055 0.000307877022921 -0.00129587339809
 0.00151082169945 -0.00147172805034 -0.228793430718 0.0532913235865
805506250 -0.203701085651 0.0562507721975 0.000612664502619 0.000627641936011
 0.000844711185177 0.00347493964542 -0.217183337857 0.0422700816585
847375000 -0.156109225182 0.0524740334229 -0.00398998552334 0.00100060689909
 0.00056465928173 0.00236953309473 -0.265332167172 0.00897157654898
889243750 -0.192995025513 0.0193545547785 0.0025122279774 -0.000494456907801
 0.00208328170839 0.000775344704509 -0.250672113101 0.0619887088132
931112500 -0.224323191187 0.0323351271637 0.000774392344667 0.00394952543892
 -0.00249796865392 0.00291428758129 -0.212896632852 0.0737390976434
972981250 -0.167600252793 0.0837392785397 0.00379572440482 0.00174404089197
 0.00290241471439 -0.00365553018082 -0.230545116209 -0.0105090132499
1014850000 -0.17519153985 0.0236177427563 0.00236581103241 0.0028228714558
 0.000540839567473 0.00165548510211 -0.269269446643 0.0420173531883
1056718750 -0.199471501437 0.0224986956326 0.00224714257822 -0.00205062291511
 0.0023869719869 -0.00035573806587 -0.240006879786 0.0724076264499
1098587500 -0.202474062221 0.0483239487224 0.000486582657185 0.000688452902137
 0.00100387419613 0.00167723500471 -0.225770960486 0.0344906062994
1140456250 -0.189777517853 0.0760759569086 0.000882481226703 0.00148600923362
 0.00360952087737 -0.00254200927721 -0.216993839637 0.015326886944
1182325000 -0.161519879659 0.00228977361106 0.00453921141337 0.00209548260941
 -0.000534663923533 0.00346520324699 -0.280764314171 0.049919254787
1224193750 -0.200497182476 0.050009199398 0.000589453599354 0.000394072565196
 0.000965094549654 0.000585412070341 -0.235590162017 0.0341786696545
1266062500 -0.223191094771 0.0407826343862 0.00165818179863 0.0039862087587
 -0.00115760863332 0.00322389949794 -0.211129432904 0.0732808244225
1307931250 -0.1476491193 0.056403869626 0.00271699714137 -0.000585286986812
 -0.000967506542822 -0.0039313824625 -0.253111761895 -0.000772792578423
1349800000 -0.203257682402 0.0318890551892 0.000324218323241 -6.40302589579e-05
 0.000387031062616 1.81438850436e-05 -0.240921047974 0.0396674458951
1391668750 -0.193110771626 0.0256979340121 0.00273084557508 -0.000404332156982
 0.00168560671781 0.000252959031404 -0.257566419053 0.0635722800216
1433537500 -0.20316306722 0.0596971712487 0.0013673022672 0.000321107969567
 0.00105808889803 0.00227828660796 -0.217657077606 0.0383916139628
1475406250 -0.164190614103 0.0435717291508 0.00157996943782 -0.000220313933888
 -0.000165418802751 -0.00218904936982 -0.24035217986 0.014863564565
1517275000 -0.222748090979 0.0174219769178 0.00297503796442 -0.00190149463758
 0.00332784220229 -0.000418877571901 -0.255499984885 0.0586420539924
1559143750 -0.1717696906 0.0640968673289 0.000831616654156 -0.000568385356783
 0.000688089316007 -0.00174427954314 -0.244419307599 0.0307226492972
1601012500 -0.195582347196 0.0333909394121 -0.000103944377084 0.000707869678826
 -0.000487401427628 0.000603944558425 -0.230548959277 0.0400306260085
1642881250 -0.205343001524 0.0236667259074 0.00154817860121 -0.000928476238832
 0.00144440553557 -0.000169051191189 -0.249197898509 0.0521308203585
1684750000 -0.185778412388 0.0555685399324 0.00144707917926 -0.00014072040972
 0.00116149210293 -0.00190800178287 -0.248490216941 0.0153181060595
1726618750 -0.206024820937 0.0514443357086 0.00133787859863 0.00128985386926
 0.000446990245101 0.00167601330458 -0.226578463073 0.0542529798667
1768487500 -0.166286668289 0.012256243923 -0.00345603515099 -0.00120545111653
 0.00182447099831 -0.00105885212412 -0.276379927258 0.0237563074028
1810356250 -0.22429388334 0.0309847993017 -0.00011933279105 0.00230271572852
 -0.00154461006225 0.00171415577418 -0.238328335981 0.0545401699352
1852225000 -0.21766282526 0.0712453168785 0.00240149086446 0.000234294557859
 0.00110946074396 0.00304662404524 -0.219338482186 0.0410604165173
1894093750 -0.1530842252 0.0303971701148 -0.00154927305847 -0.000184719325388
 0.00270089669364 0.0017466403255 -0.263031865271 0.00875113456655
1935962500 -0.19050157096 0.013542676594 0.00223769304735 0.00265954074323
 0.000123059718949 0.00164127027134 -0.275543490021 0.0252215602947
1977831250 -0.261767633732 0.0174439495702 0.0014517203413 -0.0103996554171
 0.00543696219366 -0.00607794191188 -0.239356619493 0.105300795025
2019700000 -0.185120226833 0.0977428769295 0.00175332663663 0.00444791488109
 0.00267017727932 -0.00330014190538 -0.212109949382 -0.00753817538598
2061568750 -0.133710722234 0.0287024331089 -0.000730735779471 -0.000160113744966
 0.0048335265891 0.00343684428758 -0.264519103521 -0.0144926767434
2103437500 -0.255163452159 -0.0575231279857 0.015614350306 0.00120455389429
 0.0146091137132 0.0089761273372 -0.322663165391 0.0827020689145
2145306250 -0.241311173894 0.109099140471 0.00999062858539 -0.00110544958786
 0.00405345234338 0.00329385000015 -0.186900983429 0.0637499274522
2187175000 -0.135006082898 0.0526440802211 0.00236397623777 0.00120257074955
 -0.000845724706607 -0.0054052125084 -0.228501212409 -0.0340136650528
2229043750 -0.216517248309 -0.0429935136225 0.00598455910712 0.0045419077318
 0.00389011067348 0.00869634434673 -0.306114595835 0.0384752923237
2270912500 -0.223027906314 0.0480277971436 0.00175429470596 -0.000995591606758
 0.00169646005278 -0.00153309922533 -0.268110415426 0.0303818361187
2312781250 -0.217129016513 0.0588390483739 0.00541801314992 0.00180494544727
 0.00131557685672 0.00270564553622 -0.207214672881 0.0732602820076
2354650000 -0.167495993849 -0.00800890215527 0.00233755503288 -0.00295481137607
 0.00463391899582 -0.00116384165887 -0.265037910463 -0.0254583849273
2396518750 -0.226333535007 0.0308062217695 0.00170539025575 0.000289789126959
 0.00181816438666 -8.90191418432e-06 -0.267540468911 0.0185189362639
2438387500 -0.210344318457 0.0336504726841 0.000395846295878 -0.001669641826
 0.000649963033108 -0.00142187136164 -0.265102794609 0.0402473404074
2480256250 -0.187758290416 -0.0110736925544 0.0017384341576 0.000512403967438
 0.00149879515574 0.00294904604231 -0.262616558199 0.0388961197554
2522125000 -0.233398904653 0.0421958386297 0.00127451537022 -0.00454782651319
 -0.00210214762162 -0.00181717710493 -0.217095045029 -0.00476730994567
2563993750 -0.19473149897 0.0282314401817 0.00129947331389 -0.00161157598524
 0.000931567206244 -0.00070156216723 -0.271639319252 0.0101015847727
2605862500 -0.184866788652 -0.024216396068 -0.00117581464354 -0.00466516516009
 0.00158726501084 -0.00601231293469 -0.304661910852 0.0109054140374
2647731250 -0.229669648159 0.0390184481342 0.00353328679342 -0.000409614978004
 -0.00287163818472 0.00135857241018 -0.207303646008 0.0445858489314
2689600000 -0.221355743361 -0.0128205717386 -0.000944067553712 -0.00221501919127
 -0.00099385344214 -0.00257383903955 -0.27153135952 0.00272108689705
2731468750 -0.182082179095 0.0507651247232 0.00672106659769 0.00431067870901
 0.00142125823001 -0.000194335637622 -0.244877256346 -0.0185703983106
2773337500 -0.191914965235 -0.0185824582455 -0.000892653586272 -0.00296327075977
 0.000181768957791 -0.00388948577138 -0.286128548442 0.0102899457181
2815206250 -0.230627834268 -0.0213396252057 0.00300415508525 -0.000694051114765
 0.00596808698754 -0.000597584534554 -0.253702700743 0.0399047865018
2857075000 -0.221591662442 0.026800780223 0.00154713314783 0.0033282213799
 0.00177210903475 0.001972305688 -0.244384034574 -0.0185874580049
2898943750 -0.181755465087 0.0442313221016 0.00297773588216 0.00365873566269
 0.00140185966505 0.00105088038815 -0.23369613245 -0.0018751667443
2940812500 -0.179971212316 -0.0647114433148 0.00108762848888 -0.007103436638
 0.00287400145585 -0.00918577190646 -0.298013008534 -0.0111461680579
2982681250 -0.22395559432 -0.00507866662114 0.000591308577842 -0.000789349197693
 0.000487399632735 -0.000916756806119 -0.252341194495 -0.00277747722738
3024550000 -0.262327366408 0.027143189074 0.00262910787643 -0.00541611940922
 0.00566628572224 -0.00994537473255 -0.243509398563 0.0533674523221
3066418750 -0.110563850541 0.0299039959898 -0.00202684350894 -0.000640160568267
 -0.00154500646893 -0.00801600636923 -0.214038156949 -0.071450771985
3108287500 -0.205058727346 -0.0855170406048 -0.000708036463233 -0.0117756599876
 0.000451433586615 -0.0142049093731 -0.31173582563 -0.0223443290803
3150156250 -0.254913203215 0.0104399059461 0.0045181185174 -0.00369708067576
 0.00542368388005 -0.00634131819344 -0.249636008754 0.0322844639543
3192025000 -0.202248964363 0.0115486361679 0.000936406969348 -0.00281226797081
 0.000825855518201 -0.00349610245126 -0.241155625349 0.0228851376375
3233893750 -0.116492513289 0.0260630420146 -0.00532162605462 -0.00137029443095
 -0.000377467730791 -0.00853111303129 -0.180337675581 -0.0955438768006
3275762500 -0.242517683383 -0.118545548485 0.0118617908488 0.0211430688121
 0.0115535533266 0.0260393894226 -0.351972010816 -0.007713644474
3317631250 -0.210441763662 0.0520519393812 0.00159671089897 -0.0057467392474
 -0.00185768108299 -0.00567261182962 -0.219339908559 0.0178243159411
3359500000 -0.176943976611 -0.0148246042828 0.00121671224621 0.00202971347574
 0.00172961317824 0.0018239015294 -0.212735927058 -0.000621927195672
3401368750 -0.176939757918 -0.0230506100807 0.0040977179057 -0.000132171757184
 0.00352721174057 0.000236779678601 -0.226269921359 -0.0677075062694
3443237500 -0.196254962295 -0.0410606468069 0.00275832629829 0.0056191714122
 0.00207199287402 0.00642324875769 -0.301460541788 -0.0205077658186
3485106250 -0.177167645049 0.00331280100425 -0.000335425526505 -0.00303630726073
 -0.000715764047686 -0.00274144783052 -0.214308972389 -0.00453546889065
3526975000 -0.235604907983 -0.0516478346022 0.00766009060688 0.000133904757413
 0.010679091192 -5.20353202635e-05 -0.252860907585 0.0285888226673
3568843750 -0.122116204069 0.0474494248309 -0.0147487108332 0.00717273078086
 0.000619746795552 -0.00446563997447 -0.170750386626 -0.0996623690438
3610712500 -0.195710256178 -0.0878202888537 0.00461108179226 0.0120310212418
 0.00396841923294 0.0145660998252 -0.307049401639 -0.0183478863005
3652581250 -0.187340494541 -0.014028733792 0.00151327581448 -0.00121587787142
 0.00156595406068 -0.00137762837731 -0.23345059537 -0.00414973766192
3694450000 -0.207047882021 -0.012129439833 0.00327587809062 -0.00251978426951
 0.00338229042049 -0.00419789302513 -0.216132273174 0.015155771673
3736318750 -0.119438741849 0.0259238741153 -0.0104479351508 -0.00276058175185
 -0.00123519159698 -0.00506937500235 -0.160550967572 -0.090733007727
3778187500 -0.198277368181 -0.117239897969 0.0074146569383 0.0211245158167
 0.00591840249955 0.0250989751441 -0.335828611911 -0.0282571952416
3820056250 -0.165032336054 0.0508887952333 0.00128861734184 -0.00753448279135
 -0.00304962399924 -0.00276088020013 -0.165232281487 0.00205981086747
3861925000 -0.193671520799 -0.0655518580787 0.00381061306615 0.00257824510647
 0.00492832245214 0.00289407432753 -0.234212472077 -0.0069426923932
3903793750 -0.144151851544 0.0164752305067 0.0057666055446 0.00335597800662
 0.00287427632959 0.00238257343252 -0.19569459994 -0.0641646720867
3945662500 -0.153026786404 -0.0426745408458 1.70444561014e-05 -0.00334610604498
 0.000514952562359 -0.00369149375232 -0.244428838379 -0.0259619639571
3987531250 -0.176199081749 -0.0265895730368 0.0015370120797 -0.000557803324979
 0.0015725435076 -0.00080714366434 -0.209691832882 -0.0144418039885
4029400000 -0.183287210506 -0.0349680858915 0.00436789701669 0.00183796676557
 0.00469259781915 0.00238265705218 -0.249188745414 -0.00562223746168
4071268750 -0.127866704118 0.0457608929505 0.00162708158941 0.0120445947349
 0.00200185399152 0.00171330206852 -0.126425791742 -0.0350506637069
4113137500 -0.170061057387 -0.0786247285319 -0.00250829280304 -0.0106837066457
 -0.00151237581236 -0.012188705959 -0.276468595433 -0.0398341976036
4155006250 -0.127655111529 -0.00443215455046 0.00222325333059 0.000545782176292
 0.00164360729218 0.000737387264305 -0.196496843705 -0.0317440225827
4196875000 -0.209271375652 -0.0209249448847 0.00560520113688 -0.00284550508657
 0.00761118141958 -0.00364471479814 -0.21812283797 0.022263749149
4238743750 -0.125781202968 0.0268205126873 0.00276540273475 0.00441289733676
 0.00204594531124 0.000876624440464 -0.164031061791 -0.0217554132213
4280612500 -0.117188676586 -0.0550558499984 0.0047365459828 -0.00494834695031
 0.00628838772761 -0.00398617703275 -0.227253414165 -0.0720424420668
4322481250 -0.177849701934 0.00736813783559 0.00130303520966 -0.00316265015312
 0.00181556610806 -0.00469005528227 -0.192855304408 0.0195002094419
4364350000 -0.174065191413 -0.0491254931861 0.0058835841843 0.00494473975217
 0.00556554484017 0.00627607560044 -0.25609413845 -0.0100748201128
4406218750 -0.113537467965 0.0719848414496 -0.00341313946414 0.00860326206616
 -8.76048203999e-05 0.000103174538522 -0.10603257622 -0.000620588120667
4448087500 -0.14471350426 -0.0632850085681 0.000760903544471 -0.00722981278043
 0.00189163393889 -0.00762066692998 -0.23476232887 -0.0497256816251
4489956250 -0.154399366888 -0.00470247189407 0.00204725409375 -7.35777372213e-05
 0.00191484047236 9.41001017088e-05 -0.224721389697 -0.00199945643687
4531825000 -0.147648887791 0.00133198814372 -3.31875585736e-05 -0.000696869400912
 -0.000132518277634 -0.000985873824855 -0.181498822944 0.00365345842664
4573693750 -0.167797281217 0.0373715300612 0.00193714316905 0.00275952627586
 0.00125718703479 0.00572526089715 -0.169181940401 0.0263478447155
4615562500 -0.0942035369532 -0.0349030105593 0.00197921896316 -0.0048961178032
 0.00541953980071 -0.00209593422702 -0.22277533934 -0.0637075555004
4657431250 -0.147225106833 0.0178761775107 0.00179235784321 0.000340868720932
 0.000719818676466 0.00233674924612 -0.151631925612 0.0212591384958
4699300000 -0.214207485214 -0.0269087041119 0.01433199205 0.00377445442704
 0.014053789172 0.00486036243445 -0.280647290616 0.000804580321526
4741168750 -0.0846318107412 0.0816009218596 0.00519524817374 -0.00605224884267
 0.00609622439439 -0.00239099834083 -0.119698985262 0.0321866910728
4783037500 -0.140689864721 -0.0345225106918 0.001651409373 -0.00282948749261
 0.00124480525196 -0.00367144556358 -0.182321866288 -0.0302202305814
4824906250 -0.174903094025 0.00965240712519 0.00487692178835 0.00021379458454
 0.00480194445495 -1.58296519828e-06 -0.236031112298 0.000599462733873
4866775000 -0.138185576715 0.00728539158926 0.00130547555619 0.00174782030424
 0.00110476371063 0.00125034974201 -0.220095097685 0.0100737394286
4908643750 -0.151744243498 0.083916352954 0.0139176048187 -0.000248553632149
 0.0105409096471 0.00179246151421 -0.116733739425 0.0857918047837
4950512500 -0.135129372866 -0.0621954300993 0.00205099198577 -0.0109732046771
 0.00509652179871 -0.00884887558186 -0.241155210876 -0.0798232263128
4992381250 -0.138565152735 0.0782397864223 0.00607497075182 0.00178923787108
 0.00602856627695 0.00276542837208 -0.176910603526 0.0549383435371
5034250000 -0.189407011432 -0.0148263656964 0.00667944388586 -0.00156042754135
 0.00651100083149 0.000178113580893 -0.233674689236 0.038011622299
5076118750 -0.139997440078 0.0542412817263 0.00207174008018 -0.00128006602403
 0.00342701794286 -0.000392836256307 -0.172134938177 0.0127099413717
5117987500 -0.12974835505 0.0263605891616 -0.000954883573652 0.00167099118931
 -0.00158816337365 0.00189609513508 -0.179639822668 0.00899595466682
5159856250 -0.179546158177 0.02548445289 0.00280313086155 -0.00220645335274
 0.00286217851106 -0.00191942058631 -0.226972130324 0.0377453282272
5201725000 -0.160598915061 -0.00508435193347 0.00308811379098 0.0038804906867
 0.00275169207605 0.00309050542604 -0.236888692774 -0.0020053258807
5243593750 -0.147876116369 0.0994423708148 0.0136370540744 -0.00271610896422
 0.0118466662998 -0.00107730882684 -0.138270649454 0.0903151515185
5285462500 -0.195876988902 -0.0169284790975 0.00627585880547 0.0071640997149
 0.0062151536506 0.00650809821792 -0.261356591675 -0.0232018218841
5327331250 -0.0993802123421 0.0639961818694 -0.00200588340463 0.0038380096324
 -0.00366741164996 0.00444057221437 -0.178338461775 0.0251435638552
5369200000 -0.223014601003 -0.00189089388768 0.00775093039218 -0.00660521573029
 0.00802216656503 -0.00398832458559 -0.243298442407 0.0713097924362
5411068750 -0.183713671447 0.0789706958306 0.00380312111902 -0.00118733555477
 0.00485927148766 0.000621221851647 -0.18993569619 0.0213600569782
5452937500 -0.123884958059 0.0186741360659 -0.000654073354546 0.00360127410069
 0.00265625388908 0.00454650644399 -0.23307172972 -0.00455063826335
5494806250 -0.182639874668 0.0553459318613 0.00508483631423 0.00499420810236
 0.00409436292543 0.00417875267437 -0.207246513999 0.110440529588
5536675000 -0.223367564645 -0.0259952347544 0.00294973818963 0.00853273275702
 0.0051954823557 0.00952312678857 -0.246314312976 -0.0386710517287
5578543750 -0.139754682509 0.120430015679 0.00972028525779 -0.00193172846991
 0.0108104992412 -0.000623331145665 -0.197039808992 0.069082528658
5620412500 -0.209877780793 -0.00565335687527 0.0078080937044 -0.00117710571384
 0.00641590051289 0.000177455282278 -0.269553452343 0.0541749960318
5662281250 -0.162629538737 0.0325981165507 -0.000130860882243 0.00295836744037
 -0.0021318475281 0.00230940719372 -0.189530242194 0.00430983171232
5704150000 -0.205420840337 0.0408160050071 0.00101769792486 -0.00197028984375
 0.00117256877126 -0.00188361157808 -0.245996527246 0.0451345438789
5746018750 -0.200566914111 0.0517572192188 0.000229895273094 0.00264281705446
 0.000142733958624 0.00269125699337 -0.249201875305 0.0498033381045
5787887500 -0.198195098165 -6.97693324691e-06 0.00165219306148 0.00353557494837
 0.00169237687037 0.00370105821237 -0.250583726909 0.000595467373729
5829756250 -0.160094491993 0.0954689604001 0.0116470159554 -0.00142436283172
 0.0113533179884 -0.000908094792567 -0.201676585175 0.0919712325488
5871625000 -0.249140598008 -0.0491269300133 0.00592303036622 0.00934190181
 0.00573258558813 0.0112671014977 -0.286222271852 -0.0159672540788
5913493750 -0.183084030832 0.0752377894279 0.00335830428662 -0.00207896876779
 0.00583718377875 -0.00066875606797 -0.214596346125 0.0202810907906
5955362500 -0.224882113064 0.0482889771868 0.00280138293037 -0.00776095278856
 0.00226226916846 -0.00701980422572 -0.305523029682 0.0735020366236
5997231250 -0.173492521598 0.000959152546634 0.00295115337276 -0.00523230771777
 0.00202347897662 -0.00143346618278 -0.206056051705 0.0335702181783
6039100000 -0.178178817729 0.0406808331784 0.005108682626 -0.00396767524366
 0.000841812772869 -0.00592368218454 -0.287205086958 -0.0308014796106
6080968750 -0.231670840487 -0.0396709586864 0.0106111731303 -0.00683632032176
 0.0104200818276 -0.000206392075889 -0.27365499937 0.101387832454
6122837500 -0.205101942881 0.0562772900449 0.00199028152064 -0.000509191311829
 0.00255406180019 -0.00128081455825 -0.257641939791 0.0144235901023
6164706250 -0.264952712291 0.0246694185972 0.00282191754241 -0.00384557618898
 -0.00639346787478 -0.000492762585564 -0.209020322061 -0.0191508188225
6206575000 -0.146816383851 -0.00169824617012 -0.00612021582323 0.00628537222323
 0.00528884411046 -0.00152954473305 -0.33007010414 0.0393714975284
6248443750 -0.262230999841 0.0130870106441 0.000854426148895 0.00265235389245
 0.00159554228335 0.00480944186581 -0.249904689574 0.00991689064219
6290312500 -0.221695372488 0.0107570331024 0.000582109317697 0.000413919671021
 0.000630151376319 0.000571749935456 -0.258604563484 0.0206103870547
6332181250 -0.222801120894 -0.00902318331718 0.00182377166725 -0.000504033279068
 0.00211289039422 7.813220749e-05 -0.268449506762 0.0267041567326
6374050000 -0.209776140779 0.0366958797604 0.00707164738513 -0.000981511127151
 0.00403101415625 -0.00287165093926 -0.292030934334 -0.0377628138953
6415918750 -0.256216750465 -0.0308947735728 0.00202167956698 -0.00323337830239
 0.00620908565714 -0.00437663070865 -0.245590901592 0.0295847967297
6457787500 -0.176223999334 -0.00594620765528 -0.00400997911731 -0.00921934832522
 0.00238901647633 -0.00452728627172 -0.339211820382 0.00684950571364
6499656250 -0.287658168208 0.00553042668294 0.00658388290198 -0.00126367626508
 -0.00627555528673 0.000257446591244 -0.194367089493 0.0108699215377
6541525000 -0.19266097356 -0.00944349411229 0.00479129270524 -0.00455346753912
 0.00387088333384 -0.00180915148058 -0.295501384599 -0.0504802458607
6583393750 -0.216693751028 -0.0248391134726 0.0024634862619 0.00405129411424
 0.000962574292843 0.00440878400534 -0.32778040408 0.0160247883229
6625262500 -0.244052984123 -0.0127213227539 0.000968914766578 -0.00251904074335
 9.21151874739e-05 -0.00336249059018 -0.248239763171 -0.00421166025165
6667131250 -0.248549143687 -0.0387658512969 0.00306654977713 -0.00175906751307
 0.0033852298978 -0.00429105433705 -0.240353931723 0.00228752225835
6709000000 -0.178696481361 0.0138373444936 0.0104416067392 -0.010634255215
 0.00609933553351 -0.00172374338427 -0.332830322079 -0.0740708818432
6750868750 -0.26585640806 -0.0557243930721 0.00509445209177 -0.00243403893728
 0.00863923463885 -0.00553984021566 -0.249799257589 0.0222893501282
6792737500 -0.200443705617 -0.0285702829343 0.00118709314967 -0.00326081912183
 0.00189781964217 -0.00286197173892 -0.299084475863 -0.0250229922668
6834606250 -0.227976518301 -0.0282992295657 -0.000141139772936 -0.002029456024
 -0.000368759417929 -0.00185780927974 -0.254299379882 -0.036037584185
6876475000 -0.2438563959 -0.0350305215275 0.00107290087015 0.00216189118685
 0.00117136068209 0.00203565053486 -0.27822088508 -0.039739637441
6918343750 -0.196904130653 -0.0416818106888 0.00133668821967 0.00238218209369
 0.0012771862431 0.00281244125604 -0.267950439172 -0.0185155348238
6960212500 -0.2031331529 -0.0424505677592 0.00450946812724 -0.00350174137629
 0.00485799139219 -0.00233487340118 -0.318273246727 -0.0774810351765
7002081250 -0.270936205379 -0.0619964295038 0.00534806874345 -0.00367743306618
 0.0120719111222 -0.0130250707964 -0.219870478539 0.0410404663864
7043950000 -0.169332844716 -0.0262622780339 0.00962673186116 -0.000829677482323
 0.00813221857301 0.00261644416287 -0.282596874249 -0.110577095754
7085818750 -0.228149541583 -0.0478584183736 0.00165186970776 0.000479700120949
 0.00165805796956 0.000448622396723 -0.272813010621 -0.0439367145486
7127687500 -0.202128501599 -0.0732151186876 -0.00148759183371 -0.00402855946872
 -0.00137452918161 -0.00477050910235 -0.29001298229 -0.0287386701311
7169556250 -0.217275656568 -0.0643970331605 0.00347256760251 -0.000499305211305
 0.00364082235524 -0.00126144192249 -0.233378017615 -0.0227632484927
7211425000 -0.198488604882 -0.0122168689356 0.00933583656483 0.00588301798065
 0.00614159113372 0.00547347519891 -0.257722124539 -0.116875274563
7253293750 -0.211215201766 -0.112800153532 0.0063273406071 0.00526683784292
 0.00839621878234 0.00621882452898 -0.269393154409 -0.0139367781531
7295162500 -0.173275420223 -0.0165876592361 0.00769991487764 -0.00202335224263
 0.00684295423564 0.000239196404355 -0.2870531134 -0.0824467120528
7337031250 -0.210812242719 -0.0893189056765 0.00614483886482 0.000748427495075
 0.00646634833162 -0.00130978343498 -0.20550606494 -0.0257557804587
7378900000 -0.207843491863 -0.0722357504772 -0.00108702878548 -0.00475521276252
 -0.000878075904072 -0.00474494228798 -0.271673516962 -0.0829073342167
7420768750 -0.162683092401 -0.0223031548081 0.00149238801706 0.00202659726099
 0.000946296021651 0.00204656831682 -0.24172097388 -0.0648395727247
7462637500 -0.18431447263 -0.0845036648904 0.00140138775991 -0.00299392350583
 0.0015464534297 -0.00306717299798 -0.253801293257 -0.0774794398887
7504506250 -0.18840183287 -0.103777172095 0.00541050640228 0.00366685403596
 0.00714755536774 0.00381975946903 -0.237704284625 -0.0205999054536
7546375000 -0.187772106475 -0.0200041309749 0.00667625553741 0.00610110501066
 0.0047387040007 0.00536700075821 -0.235637288831 -0.109562447675
7588243750 -0.1741375357 -0.0605891860847 0.000794670373034 -0.00180292886976
 0.00062296924803 -0.00193105225592 -0.207046433446 -0.0400947158313
7630112500 -0.127428019128 -0.103261241784 0.00678848608882 -0.00594082721076
 0.00864665288531 -0.00612177838378 -0.267138252789 -0.0959366018037
7671981250 -0.208687286416 -0.0505894234653 0.00496202149332 -0.00161284990014
 0.00476336552208 -0.00198991998187 -0.228493546758 -0.0471818211859
7713850000 -0.172233297412 -0.0521503489918 0.00184007228016 -0.00282868622674
 0.00145552026877 -0.0029915340464 -0.195283045492 -0.0421052980127
7755718750 -0.119974708901 -0.0784501681647 0.00496717994569 3.88390520468e-05
 0.00541838241976 0.000662374494206 -0.214258013564 -0.094101454107
7797587500 -0.175732555114 -0.0350461747388 0.00685843477808 0.00411558261443
 0.00544896906229 0.00421232771408 -0.246844995437 -0.10532999281
7839456250 -0.150127098742 -0.107716201148 0.00656991306066 0.00448053170011
 0.00974273240652 0.00701462580299 -0.224447151777 0.0106738150065
7881325000 -0.160547630383 -0.0358721561538 -0.00100911410423 -0.00484992755767
 -0.000732158026158 -0.00385784917179 -0.180419336531 -0.0879593126784
7923193750 -0.136192407912 -0.0273407871597 0.00407369243872 0.00304797196092
 0.0027008802374 0.00290812124778 -0.18915180354 -0.0957388423279
7965062500 -0.145486834612 -0.0981599161864 -0.00184506479834 -0.00634685902673
 -0.00172692264221 -0.00756206310905 -0.241944605924 -0.0549690574508
8006931250 -0.116983817327 -0.0447648542155 0.00015474005158 -0.00339321643699
 0.00113669817172 -0.00370334496123 -0.219193756807 -0.0345141415228
8048800000 -0.189141040134 -0.0317266941296 0.00536177312514 -0.00718951408915
 0.00139797113669 -0.00539139022119 -0.128391673454 -0.0626703540948
8090668750 -0.0972076185739 -0.0725856471553 0.00168174623216 -0.00423002187821
 0.00341076027585 -0.00475563061748 -0.227680774454 -0.0629694134292
8132537500 -0.130251991578 -0.00957678075222 0.00526306458311 0.00076833872861
 0.00350503726496 0.000989658442087 -0.201229195615 -0.0847623810476
8174406250 -0.137020966729 -0.070300823677 0.00393021320689 0.000574795084909
 0.00575483138594 0.00142987602222 -0.191235930779 -0.00175368813522
8216275000 -0.136905726945 -0.0574500807908 0.00186619630055 -0.000970115283067
 0.00183735409939 -0.00125669585473 -0.170485706929 -0.0488592694704
8258143750 -0.128282235511 0.0155035606019 0.00703444768535 0.00200583633876
 0.00415348413289 0.000537176881305 -0.187990652546 -0.0844660836047
8300012500 -0.123071690057 -0.0320296269665 0.000567217347158 0.000392292197201
 0.000593039488848 0.000463906974235 -0.177073006094 -0.027696827333
8341881250 -0.0764275039952 -0.096883177716 -0.000852605482546 -0.0059037824928
 0.00120953081036 -0.00990505859756 -0.226977740599 -0.027471004981
8383750000 -0.212538323161 0.0262049735084 0.00345754477205 -0.00893224254267
 -0.00441743118538 -0.00435512141267 -0.121271844297 -0.0517429261265
8425618750 -0.0750804206638 -0.0105827265692 -0.00503557659897 -0.00271439322584
 0.000476277387679 -0.00180219525122 -0.200630749416 -0.016104667177
8467487500 -0.0834862843547 -0.0443005590738 0.00133527274646 -0.00251960894008
 0.00258267627488 -0.00144707847577 -0.17725506087 -0.0603905587979
8509356250 -0.162912100621 -0.0160370685007 0.0018468098971 -0.00104277213965
 0.0021530783066 -0.00148783280734 -0.179061586779 -0.0211033128099
8551225000 -0.145182590075 -0.00486029008435 0.000588373309179 -0.00280310268413
 0.00132385009429 -0.00332986121937 -0.167934071497 0.00342167016073
8593093750 -0.0561550360674 0.0180737508762 -0.0031295019095 0.00370115846798
 0.0017731141019 0.00326067968982 -0.192990971544 -0.0418869746196
8634962500 -0.164549027929 -0.0141201598371 0.00305589528179 0.00115277486117
 -0.00330390236148 0.00552893866772 -0.116324565955 -0.0172776440792
8676831250 -0.109213160877 -0.0261740129559 0.00542323062925 0.00473928143341
 0.00220338268996 0.00392206690478 -0.241439357842 -0.0166405973632
8718700000 -0.122692149511 0.0459735886118 0.00263509958123 0.000537880816089
 0.00407373669651 0.000855189426125 -0.153808629252 -0.00793261756817
8760568750 -0.134299369814 -0.00621302671922 0.000736556516653 -0.00337893669697
 0.00189648036978 -0.00255128017531 -0.153459801082 0.0268828156144
8802437500 -0.119257634188 0.00376435690558 0.00048994016924 -0.00175426940925
 -0.000364204562005 -0.00213900356591 -0.168734074721 -0.0406076604717
8844306250 -0.0993110462613 0.0344406594334 -0.000958481918549 0.00559787442387
 0.00121594342229 0.00513802197438 -0.220917278817 -0.0201051934191
8886175000 -0.188455003079 0.00638868794485 0.00294498974603 0.0117742474638
 -0.00128517557774 0.0109778946048 -0.140192227847 0.0692091795792
8928043750 -0.0738274071381 0.0154809370734 0.0004843710946 0.00501457714056
 0.00340418259623 0.00393756940432 -0.205048742522 -0.0165835505913
8969912500 -0.170359423241 0.0638452139955 0.00605948381817 -0.00221359795529
 0.00653445056204 0.00306853538769 -0.123742894651 -0.0150571951338
9011781250 -0.118515884141 -0.0123687806581 0.00935411188878 0.00345129013163
 0.00579318860474 0.0018279564768 -0.248265827566 0.0340056719488
9053650000 -0.136207209296 0.0374992303486 0.00140586303527 -0.000677724647464
 0.00160070014276 -0.00042655367037 -0.163673416101 0.0119499090898
9095518750 -0.160091853641 0.051063748096 0.00248228717128 0.0022592889038
 0.00213759402697 0.0026911527493 -0.174912486943 0.0325164401862
9137387500 -0.151394561817 0.0273601480573 0.00108346498777 0.00172690393121
 0.000672115241517 0.00192270230479 -0.169394632911 0.0163296592817
9179256250 -0.0955780538296 0.0336586907848 0.00209717007656 0.00811763933109
 0.00528172630691 0.00689290629644 -0.24716336589 -0.0121649014057
9221125000 -0.209527470156 0.0527215235044 0.00844019112436 0.0098943950982
 0.00522483085829 0.0105540045451 -0.148276535305 0.0734721965628
9262993750 -0.13105043039 0.007301271497 0.00516622251923 0.00223756496856
 0.00442250666029 0.00138409249394 -0.2267123279 0.0308939399026
9304862500 -0.164425170261 0.0962220849861 0.00429944423788 -0.00508288197349
 0.00873609265366 -0.00195131306632 -0.156669164491 -0.0203951143153
9346731250 -0.154512983759 0.0153980337573 0.00883036247278 -0.000470952948778
 0.00708971595592 -0.000693684275081 -0.256398003408 0.0732831481157
9388600000 -0.171134228902 0.0244473743528 0.00142254029846 0.00399060676989
 0.000285613681579 0.00376272284881 -0.169854786661 0.0308490262944
9430468750 -0.171175402031 0.066490512081 0.00256866018807 -0.00338541217399
 0.00298949549933 -0.00414486414056 -0.229054906813 0.00279311964708
9472337500 -0.203751795078 0.0673349696979 0.00521482185542 0.00714813211747
 0.00389806911247 0.00733822153657 -0.196374016087 0.0793947263198
9514206250 -0.110374446391 0.00477726763727 0.00313353944897 0.00526846399311
 0.0048827841877 0.00339001728209 -0.240138157343 0.0174698498406
9556075000 -0.229314421244 0.0635686294283 0.0078449659205 0.000122547497234
 0.00728503723745 0.00433750725719 -0.171777099299 0.00550283119722
9597943750 -0.203404802071 0.0311477914679 0.00870096245985 -0.00443696886854
 0.00766441365483 -0.00387407747609 -0.301164879887 0.0769063752673
9639812500 -0.147907744192 0.077612981134 0.0056163397851 -0.00778563362444
 0.00669302685695 -0.0058236354676 -0.161062930588 0.0347505638866
9681681250 -0.197216164242 0.0083718690595 0.00283509654833 0.00322987665314
 0.00251003014848 0.00379940838522 -0.235893887663 0.00871692581829
9723550000 -0.249004054392 0.0545388707183 0.00412462773319 -0.00639496898206
 0.00508954445011 -0.00621464303119 -0.258831837289 0.0490698005297
9765418750 -0.118483907087 0.0405303611975 0.0036770990193 0.0041521819829
 0.005283423784 0.00325484822805 -0.257343904651 0.0341748188819
9807287500 -0.274681842635 0.0420848312022 0.0109226573591 0.00763070649796
 0.00582305724207 0.0107578714596 -0.171136198311 0.046281337676
9849156250 -0.181130760386 0.0308837475894 0.00314482261673 0.00752760649439
 0.00405068585602 0.00598023255038 -0.314940665027 0.0196303492745
9891025000 -0.178238336038 0.0609905980791 0.00449248183681 -0.00542606470795
 0.00600488918722 -0.0031854771751 -0.184833969294 0.0240267151221
9932893750 -0.250213949251 -0.0233092651821 0.0113583529804 0.00176122554186
 0.0106994651407 0.00364538252502 -0.305003754644 0.0334968133741
9974762500 -0.242401091565 0.073483308357 0.00490977225373 0.0049587047649
 0.00422249238036 0.00638743960552 -0.237942642628 0.0531083781939
10016631250 -0.148627160155 0.0422310179027 0.00283103220399 -0.0036603801247
 0.00334297641192 -0.00599779625611 -0.232653687485 0.00473036624088
10058500000 -0.263325323769 -0.00875460622977 0.00182733877081 0.00312876109629
 0.00134327802578 0.00479201439371 -0.250502056726 0.0129848408627
10100368750 -0.220290986276 -0.00327145877551 0.007438794706 0.00543167708165
 0.00578453356871 0.00463642622852 -0.340836959925 0.0203259330327
10142237500 -0.23858489262 0.093188628206 0.0175824939708 -0.000557328479451
 0.0144125580053 0.00508988015011 -0.171202527317 0.0707382874852
10184106250 -0.202466864489 -0.0437202977756 -0.000821809242407 -0.0078977998817
 0.000900468622203 -0.00719571595453 -0.292272145769 -0.0266123050425
10225975000 -0.239539960453 0.0354321212467 0.00312618478538 -0.000778916558649
 0.00354624706588 -0.00146979813151 -0.278012930241 -0.00201198422726
10267843750 -0.214182578602 -0.0121464895871 0.00569726061698 0.00079837130664
 0.00444924599397 0.00211347503012 -0.287498777226 0.0504136097429
10309712500 -0.30372382759 0.0186195447492 0.00342448523693 0.0050253314722
 0.000559581309911 0.0132207183514 -0.224810104723 0.0169534210769
10351581250 -0.144229479834 0.0382794588107 0.00904648911467 -0.00840031607937
 -0.00131477354318 -0.00929004555435 -0.313452762168 -0.0456619805116
10393450000 -0.245888314692 -0.0417222100264 0.00440063501904 -0.00491441333778
 0.00819263506683 -0.00244252130596 -0.248385113537 0.0525713216811
10435318750 -0.295691543663 -0.0409516324462 0.00548705844675 0.00612825044958
 0.00710016711277 0.00662762836128 -0.298696688334 -0.0209689767344
10477187500 -0.205810628657 0.0897834252602 0.00573954428867 0.0029701569599
 0.00849129018456 -0.00236922613913 -0.251442830235 -0.0160574995533
10519056250 -0.18983652247 -0.0673410791874 0.00518731473366 0.00487562238816
 0.00255970784019 0.00868468845738 -0.311154192348 0.021167902706
10560925000 -0.288407971074 -0.0510151459348 0.00341075754896 -0.00389925949875
 0.00217581851273 -0.0104470257215 -0.235655311517 -0.00692844693478
10602793750 -0.224021018203 0.0334222490595 0.0106632234838 0.000649662938879
 0.00721096742375 -0.00191265660676 -0.292980379968 -0.0669823497283
10644662500 -0.222318303459 -0.00974525410342 -0.00136057638941 -0.00487545175901
 -0.000226145936381 -0.00489340848019 -0.301217729478 0.0325246648495
10686531250 -0.226771501768 -0.103304092328 0.000994176333679 0.00188030052002
 0.00140639102833 0.00260712723857 -0.280310492317 -0.0185890703768
10728400000 -0.271742121709 0.0533791927988 0.000796175402415 -0.0108056385151
 -0.00783006077892 -0.00429453926673 -0.208321369225 -0.029732724346
10770268750 -0.172070596485 -0.0790027800221 0.00420484289923 -0.0096663353072
 0.00891042296502 -0.00929806613666 -0.337469491591 -0.0633965009142
10812137500 -0.277104948199 -0.0624721450484 0.00745125593923 -0.000771756373503
 0.00940465361954 -0.00115824443284 -0.288880227409 0.00331220035161
10854006250 -0.213888275018 0.0238063190395 0.00225186047524 0.00640442790418
 0.0040329277103 0.00461630538667 -0.244775836129 -0.0131535313321
10895875000 -0.216745740808 -0.0741146297766 0.00398789881528 -0.000712274312769
 0.00410578801495 -0.00134026596061 -0.249249964171 -0.0462826090665
10937743750 -0.204068727782 -0.0736074999491 0.00586981736336 -0.00695817280091
 0.00663923626524 -0.00570142290159 -0.299095737302 -0.108857536083
10979612500 -0.264263717481 -0.00987806926027 0.00925226258361 -0.00939926275455
 0.0104371573975 -0.00959843340108 -0.308360928837 0.0232225358131
11021481250 -0.195265743729 -0.0597900107422 0.00280433963023 0.00229944813504
 0.00453964954611 0.00202134035226 -0.223960680414 -0.0111891873986
11063350000 -0.197009644934 -0.0506470709162 0.00667353855093 0.00201930403182
 0.00474670860417 0.00215039970946 -0.218779185865 -0.122423895706
11105218750 -0.215634252943 -0.0574327740037 0.00303427052989 0.00221640086016
 0.00257761909958 0.0026640920107 -0.338769363113 -0.0610801535834
11147087500 -0.240794079694 -0.0882710896459 0.00938320946345 -0.000141897231057
 0.0131317382895 0.000399053458528 -0.273381975702 0.0222674871904
11188956250 -0.187042759227 -0.0120637155529 -0.00456644300919 -0.00984525793529
 -0.00240923669506 -0.00510598234237 -0.175626566617 -0.0836671244366
11230825000 -0.189365012072 -0.0421552611317 0.00522985047962 -0.00143467669597
 0.00485434801723 -0.00035041925685 -0.286977522273 -0.0855567005366
11272693750 -0.179711634943 -0.149686027955 -3.41090802079e-05 -0.011043801606
 -0.000195628460994 -0.014131461565 -0.292061496156 -0.0495839886528
11314562500 -0.274078572597 -0.0119479502076 0.0063638213334 -0.00915798468235
 0.00101811553721 -0.0112866525904 -0.206937488288 -0.0237902335043
11356431250 -0.131159058203 -0.00765420775627 0.00642589335384 -0.00224575667547
 0.00410624680021 0.00185160840913 -0.245864888694 -0.0876748012811
11398300000 -0.170665531739 -0.157231582821 0.000528853668786 -0.00943565920404
 1.1162982134e-06 -0.0119466491957 -0.274080219966 -0.0565524821268
11440168750 -0.217294396367 -0.0306720805348 0.00186617148935 -0.00748356162955
 9.94628085868e-05 -0.00578749967247 -0.195132895626 -0.0676601109483
11482037500 -0.220578235454 -0.0440176406904 0.00970157944446 0.000773713490325
 0.00927688905748 0.00114035593508 -0.287562804252 -0.0574703526842
11523906250 -0.0822998918478 -0.0776934911557 0.00288638443385 0.00338363204891
 0.00445803437714 0.00531961729272 -0.20071358351 -0.0728335432804
11565775000 -0.249712097775 -0.0719823917886 0.00633769294354 0.000260157814057
 0.00642645087958 -0.000853750993182 -0.236098099391 -0.0510138957603
11607643750 -0.145309525532 -0.047743541938 0.0022011664295 7.52520260759e-06
 0.00205590460785 0.000430377992951 -0.225507816224 -0.0738664219137
11649512500 -0.159023423148 -0.0810036292415 0.000943869182089 -0.00136915168164
 0.00105100891598 -0.00143218276603 -0.225907258278 -0.0700178624729
11691381250 -0.168889327996 -0.0416228864031 -0.000549341232151 -0.00175313697425
 -0.000479408238343 -0.00154427833492 -0.212490355531 -0.0661435640338
11733250000 -0.193554082986 -0.0702520526961 0.00688708297011 0.00147684366074
 0.00761379562596 0.00191222340294 -0.256812439367 -0.0342440827206
11775118750 -0.0767199159002 -0.0544978742571 -0.00330232562283 -0.00316202947481
 -0.00236133884753 -0.00492972263185 -0.139066497424 -0.0853445768431
11816987500 -0.227164101809 -0.0673046552447 0.00878188377524 0.00765890474289
 0.00887787730477 0.00698595196585 -0.252300754513 -0.075706871985
11858856250 -0.111726680737 -0.0722701385411 0.00106545993913 -0.00353196747411
 0.00260864723056 -0.00404155110463 -0.235228067347 -0.0634227644581
11900725000 -0.176940322988 -0.0111715891555 0.00107968973949 -0.00602875025563
 -0.000149989394566 -0.00850218953445 -0.179274075491 -0.00106212608084
11942593750 -0.0846757669423 -0.0501620813989 0.00460660332724 0.000765638399417
 0.00335656327948 0.00322372650612 -0.148934063952 -0.102702985481
11984462500 -0.188629504241 -0.122438279797 0.00554378781598 0.0163680483892
 0.0051851252739 0.0183051789429 -0.280232764348 -0.0849531960094
12026331250 -0.151687302653 -0.111195654665 0.00247538098679 -0.00965848291788
 0.00321489386433 -0.0103164249532 -0.233447767433 -0.101059185537
12068200000 -0.119098437821 -0.0684407062175 0.0018796116033 -0.00140448417528
 0.0021681972617 -0.0013479724712 -0.1878392225 -0.0690141758814
12110068750 -0.225001168027 0.0372815565583 0.00840276361423 -0.0133225700923
 0.00801998794991 -0.0160923399683 -0.220871308129 0.00869031387596
12151937500 -0.0211181309453 -0.0520330534884 -0.000584484933449 0.00108714869749
 0.00392249483721 0.0035978965434 -0.153600950442 -0.0735167903497
12193806250 -0.14563193753 -0.0709752877017 -0.000543388314578 -0.00156702228128
 -0.000752137861839 -0.00184957380304 -0.191644221942 -0.0477243510144
12235675000 -0.182658414171 -0.031829666847 -0.000604203245602 -0.00195491136539
 -0.00121690032134 -0.00183110189236 -0.183777455232 -0.0468745399532
12277543750 -0.145102015334 0.0210971442255 0.00551702324227 -0.00554090634139
 0.00382758169016 -0.00497763664109 -0.22614057965 -0.0331385133385
12319412500 -0.0180951792739 -0.0278412049465 0.00106617159508 0.00153054108425
 -0.00586119739224 0.00244913122094 -0.117957039437 -0.0343900743812
12361281250 -0.228888310604 -0.0424865499394 0.0141452403592 -0.000172202381434
 0.0161877806281 -0.000286203290728 -0.238444676283 -0.0154472630588
12403150000 -0.0758314171049 -0.040684028451 0.00357225118728 -0.00235030630785
 0.00130471181802 -0.000559539875541 -0.123007410418 -0.0705029112565
12445018750 -0.193620093157 0.0644423911801 0.00855656494047 -0.0105984497442
 0.00723440355343 -0.0124448151651 -0.227161434598 -0.00732451724785
12486887500 -0.0412313063143 -0.0401293202715 -0.000997477910364 -0.00049222295145
 0.00267695023668 0.00263879031478 -0.161291282269 -0.0258286083726
12528756250 -0.167702926791 -0.0461204356833 0.00472260732051 0.000296069373387
 0.00574919839755 0.00104968510745 -0.201267280662 -0.0156084122596
12570625000 -0.12447393349 0.0314069634758 0.003822640323 -0.00330967101622
 0.00488557864588 0.0017126887299 -0.103896022881 -0.0166879534417
12612493750 -0.174050847974 0.0164240014558 0.0121653654618 0.000235819722488
 0.0104263149026 -0.00107558249913 -0.25437818096 -0.0594319765559
12654362500 -0.0308579664613 -0.0278949729164 -0.00241249645037 0.000903104034048
 0.000519170924418 0.00482286114386 -0.157761227288 -0.00583076059347
12696231250 -0.215125167044 0.0246209048079 0.000935033136742 -0.0163084582836
 0.00505654375515 -0.0170313223326 -0.180841308268 0.0650790451668
12738100000 -0.0932421872379 -0.0115584485399 0.00903484906417 0.00074915248061
 0.000441559572184 -0.000114688338561 -0.108186214283 -0.0936240446208
12779968750 -0.129143223822 0.0454327835983 0.00345525642872 -0.00778663864736
 0.00164040951757 -0.00761915752608 -0.244087471498 -0.0160925859623
12821837500 -0.159518847839 -0.00692702656302 0.00338610443677 -0.00590020643613
 0.00465367073734 -0.00446534610899 -0.184835628675 0.0480564218164
12863706250 -0.135620086541 0.0575718048081 0.00473323774894 0.00342062006661
 0.00469377945898 0.00396830261172 -0.174553457637 0.033439956112
12905575000 -0.0668926171451 -0.0352422882444 0.00532920209519 0.013122737473
 0.00240935064336 0.00190926735786 -0.0770890298013 -0.0584664222258
12947443750 -0.269829409758 0.0669379832043 0.0316459325455 -0.014652709909
 0.0317745472833 -0.0161381509917 -0.312048062112 0.00848185936837
12989312500 -0.0566650107855 0.0342321810675 0.00644391000866 -0.00638439520152
 0.00573504275546 -0.00712786333851 -0.150987737001 0.0349478939968
13031181250 -0.15447855108 0.055853589922 0.00658086369541 0.00525933239352
 0.00556574625201 0.00577679514074 -0.173182814112 0.0685638973558
13073050000 -0.156899124038 -0.0465275245928 0.00631587858707 0.00111422893526
 -0.003578150811 0.00487327300283 -0.131200443882 -0.057284917503
13114918750 -0.196663172324 0.0789063979167 0.0145281758647 -0.00869017342543
 0.0133661642669 -0.0110092508419 -0.279303962276 -0.0239215146193
13156787500 -0.103694137557 0.0693760032508 0.016469094491 -0.00104490874844
 0.0150796344662 -0.00118257534828 -0.176012703795 0.101421010762
13198656250 -0.180304302541 0.00243893005025 0.000717198262365 -0.00413014542647
 0.00183029739653 -0.00375861434711 -0.183009762574 0.0325259227785
13240525000 -0.126287315467 -0.00496385630007 0.00815623700861 0.00306633111058
 -0.000424681761115 0.00311624657006 -0.123942607467 -0.0680665221598
13282393750 -0.246072976323 0.0965442918414 0.0177874585874 -0.0240206957705
 0.0178881901564 -0.0247819888616 -0.312333713736 0.0544236382217
13324262500 -0.127201415483 0.0298205924803 0.00398244416696 -0.00608354593552
 0.00424921900713 -0.0048521258943 -0.159809719142 0.0415378742538
13366131250 -0.109985159609 0.0440546713422 0.0063069339683 -0.00432933714308
 0.00609977020951 -0.00408498179867 -0.181153858546 0.0483851849328
13408000000 -0.246126549887 -0.029709713783 0.00639332157048 0.00518677487976
 0.0048450587295 0.0123020080201 -0.181846638832 -0.0188647936906
13449868750 -0.213827713157 0.126375610729 0.00907252859143 -0.0199036296371
 0.00826359933543 -0.0220621184273 -0.29364039319 0.0293828018878
13491737500 -0.0608853247503 0.0242295435395 -0.00452705464709 0.0152988207377
 -0.0029271299375 0.014720696308 -0.132884040236 0.0523044288
13533606250 -0.273527962124 0.0120122384011 0.0157522506968 -0.00670078416202
 0.017770868512 -0.0054171851349 -0.275606844363 0.0396956803882
13575475000 -0.170798060384 0.0264202439574 0.00166487739243 0.00464291735576
 -0.00162050182967 0.00437611605209 -0.150489208639 -0.0159992837625
13617343750 -0.171780859414 0.103506444969 0.00544621220873 0.0127324296614
 0.00607289704571 0.013382039781 -0.259442280561 0.059391821068
13659212500 -0.188953768023 -0.0353037085267 0.00241452937465 0.00517689803836
 -0.000411329024233 0.00632778407772 -0.201466833406 0.00383353015937
13701081250 -0.230587018314 0.0673563888441 0.0027433658167 -0.00669069485104
 0.00369901297747 -0.00724975341382 -0.247042384655 0.0364907666516
13742950000 -0.144751800617 0.0632964398474 0.00809802014224 -0.00620557252611
 0.00869151944937 -0.0046877340719 -0.176887305202 0.0508308337969
13784818750 -0.237382303474 -0.0234328233857 0.00861503423632 0.00219023413426
 0.00907369150114 0.00399035398306 -0.263953667006 0.0162806947459
13826687500 -0.212756911727 0.0356018625838 0.00244043495746 -0.000885494204521
 0.00384396929588 0.00223685098712 -0.184458936365 -0.0210855338452
13868556250 -0.186440803831 0.110569552001 0.00766653331223 0.0239348643176
 0.00928691143459 0.0234752378416 -0.316024811459 0.0922811077465
13910425000 -0.194860181397 -0.0729855612203 -0.00337641571515 -0.00983368036983
 0.00628260197945 -0.00737564310205 -0.16184596423 0.0154701541469
13952293750 -0.233705170375 0.0621466684427 0.00427124136772 0.000256089785433
 0.00566369800939 0.00139192892096 -0.224092315861 0.0145976624015
13994162500 -0.222381520605 0.0270138569101 0.00406546399925 0.000488585739407
 0.00468924427933 -0.000205427318225 -0.274126713408 -0.0208209111067
14036031250 -0.211010281208 0.0335050342077 0.00147693648039 0.00726432416797
 0.00117939610397 0.00673691217735 -0.303419639671 0.0702534540359
14077900000 -0.15445338333 0.00400527676648 0.00515610886172 -0.0158770777105
 0.00505339471799 -0.00766520002244 -0.124023868564 0.0543665083953
14119768750 -0.287923267261 -0.00132355513935 0.0105974259632 0.00821464463597
 0.013877691286 0.00667924168197 -0.286781563845 -0.0467383421363
14161637500 -0.224456144431 0.00904390869575 0.002104013529 0.00157206460514
 0.00266791327276 0.00157466876845 -0.267940206906 -0.0130259897788
14203506250 -0.181258091242 0.0903410509962 0.0183456810738 0.0129378349693
 0.0179102159039 0.0128284267405 -0.258360950237 0.113198243347
14245375000 -0.188958825111 -0.0774232124263 0.00452830947838 0.00271586916264
 -0.00675578482956 -0.0017458711471 -0.182813713369 -0.0285589428358
14287243750 -0.292020884236 -0.0269478999267 0.00660567686818 0.00609286697861
 0.00981269628942 0.00684066860436 -0.271290607714 -0.0219279884446
14329112500 -0.221671093092 0.115190700817 0.00360106941974 0.0115475425402
 0.00527531875961 0.0140690290299 -0.268454601782 0.0410085537491
14370981250 -0.154070975557 -0.0407517304766 0.00660334542773 0.00255570692868
 0.00134709556291 0.00306134570183 -0.273573093577 0.0185808081047
14412850000 -0.249343518454 -0.085525643816 0.00272694181182 0.00432261665262
 -0.0122712503649 0.00517692257375 -0.188305451068 -0.00538886566225
14454718750 -0.276095010825 0.0951359494645 0.0083028846677 -0.012791938286
 0.00773876979763 -0.0161146182862 -0.298479874782 0.0225933854573
14496587500 -0.171027582164 -0.0466247602126 0.00355826839408 -0.00420786119476
 0.00325602970183 -0.00342411013967 -0.241411419124 -0.0410281251234
14538456250 -0.221000634155 -0.0201092092766 0.00311868609992 -7.55006920458e-05
 0.00322488577603 0.0005152526211 -0.278549683774 0.0285057249711
14580325000 -0.242527294924 0.0019645647607 0.000518946081928 0.00306787092292
 0.000539012627064 0.00473818212363 -0.240730175367 0.0133808009735
14622193750 -0.215030405816 -0.032318946533 0.00187195926099 -0.00287752230805
 0.000657482844326 -0.00316913106357 -0.242561992892 -0.0481701450019
14664062500 -0.196724721737 -0.0207337401436 0.00245198235106 0.00107915846191
 0.00254545950606 0.00159150034867 -0.251462140865 0.0111530634725
14705931250 -0.278793686915 0.00472341794582 0.00938525103286 -0.00143636061215
 0.0100690275888 -0.00308672791729 -0.292358607456 -0.0109859509047
14747800000 -0.151365632776 -0.0425751494527 0.00272299401505 -0.0014490127181
 0.00540876347408 -0.000450624504865 -0.213771626988 -0.00896515405557
14789668750 -0.233874679715 -0.0374846024134 0.00233759469312 -0.000290412452526
 0.00287433724427 -0.000352371876701 -0.264596292196 3.72331741548e-05
14831537500 -0.250547240909 -0.0226371805126 0.00207406465495 0.00174747308971
 0.00276725602779 0.00135997163743 -0.258481436949 -0.023702390004
14873406250 -0.197274736685 -0.0260131482083 0.00294292679764 -0.000290315123164
 0.00228702811182 -0.000829861730332 -0.239118350354 -0.0436104940006
14915275000 -0.173816100719 -0.00808084502189 0.00333206445046 0.00811274463956
 0.00101666766968 0.00576880739661 -0.29115438766 0.0170359465626
14957143750 -0.241123248467 -0.0907714566506 0.00246702359544 -0.00231598860088
 0.00235927419444 -0.00393046512123 -0.241444304426 -0.0292935991744
14999012500 -0.212262301804 -0.0371497319002 0.00113103966409 -0.00113735818349
 -0.000714307359126 -0.00104165991597 -0.183253747941 -0.0330385473127
15040881250 -0.218753739301 0.0409681899306 0.0191339908311 -0.00569611396392
 0.0129754045588 -0.00682214427845 -0.322229705162 -0.071089961011
15082750000 -0.147974661599 -0.0959113088395 0.00519257033721 0.00258052165174
 0.006765353206 0.0102433870969 -0.253302434674 0.0320314556815
15124618750 -0.22945102727 -0.0684060026414 0.0045662768512 -0.00132499550308
 -0.000829263994405 -0.00438372573336 -0.178464243851 -0.0302821266777
15166487500 -0.228163220694 -0.00447686585647 0.00598761519486 0.00171109899826
 0.00527472257401 0.000221973039677 -0.258449378598 -0.0513810906135
15208356250 -0.204641742405 -0.0252757149184 0.0059969284644 0.000671223844391
 0.00451580455342 0.000520004141445 -0.277137603843 -0.078452137653
15250225000 -0.0986731808613 -0.059005879824 0.00292748179311 -0.000442797264731
 0.00139300231903 0.0139307883421 -0.231303256534 0.0651637454036
15292093750 -0.285332783238 -0.0782365448759 0.00410349448142 -0.016027056792
 -0.000176377809949 -0.0129961639392 -0.222067058025 -0.101979131316
15333962500 -0.176123589025 -0.0296797619405 0.00136970259486 0.002048437418
 0.00167614127244 0.00212022775159 -0.221841370916 -0.0161648159819
15375831250 -0.178051616474 0.00347839232334 0.00693701408327 -0.00185994282934
 0.00418312780568 -0.0018092643559 -0.251512857091 -0.0617829491867
15417700000 -0.149987666705 -0.0797726156952 0.00302834803984 0.00327058367428
 0.00257063307409 0.00651844094444 -0.256547469159 -0.00265008784991
15459568750 -0.22563679089 -0.0985217341538 0.00542076974258 -0.0031571145576
 0.00234207345078 -0.00538931579041 -0.190835478822 -0.0525628589921
15501437500 -0.188590299862 0.0196203265168 -0.000779169554233 -0.00607682927607
 -0.00306597897508 -0.00600520266577 -0.216187055193 -0.00584796174725
15543306250 -0.171571598684 -0.0385297900203 0.00633247891264 -0.000669518007573
 0.00429045199042 0.000547714334913 -0.258383204305 -0.12074713728
15585175000 -0.121472186911 -0.11493682833 0.00667121771222 0.00229349173212
 0.0118064437394 0.0129128394602 -0.219220699914 0.0545986736156
15627043750 -0.248872447053 -0.00809871740957 0.00563698624752 0.00845422407883
 0.00659602832186 0.00466239589889 -0.219736879334 -0.073713515137
15668912500 -0.130730766261 -0.0511437910936 0.00239174335864 0.000149568938011
 0.00325296867423 0.000499336146301 -0.190326814522 -0.0252285803331
15710781250 -0.170978628637 -0.0465485914829 0.000903366658751 0.00143612316898
 0.000629207652746 0.00120351474036 -0.238239611064 -0.0768216099353
15752650000 -0.160300484373 -0.0352502099836 0.00190552935829 0.00286619080231
 0.000680302226396 0.00370735675381 -0.234216294221 0.0301114615307
15794518750 -0.18851967532 -0.0457293904555 8.55695482781e-05 -0.00597602533896
 -0.000525582273109 -0.00382772489313 -0.192956066536 -0.0975970003253
15836387500 -0.114359908701 -0.0723566510639 0.00406926115654 1.22845550463e-05
 0.00553250832772 0.00702333972838 -0.205476502829 0.0315217439223
15878256250 -0.242997568569 0.00362998142828 0.0113250070934 0.0146194343141
 0.0103662569708 0.00808287194934 -0.223188995037 -0.112873334153
15920125000 -0.0754802938752 -0.0436740541863 -0.00114328834545 0.00281326451553
 3.09636523455e-05 -0.00624778155515 -0.206362997585 0.013583577075
15961993750 -0.173030116966 -0.0705069011406 -0.00113466883213 -0.00305306401201
 -0.00139434077127 -0.00334278283428 -0.219692489652 -0.0462700324101
16003862500 -0.20377607772 -0.0269872343513 0.00123552593893 -0.00426163814538
 0.00104404762789 -0.00716639406679 -0.188815407572 -0.00498034352788
16045731250 -0.128666215776 0.00014516742812 0.00771970453731 -0.000234447554222
 0.00299312064799 -0.00136264767876 -0.192717396351 -0.0829560649919
16087600000 -0.106493316932 -0.0670076331442 0.00410718831939 0.000150592478074
 0.00320616109268 0.00572753896731 -0.222178266995 0.0146766883371
16129468750 -0.233024992022 -0.0269754760448 0.00761261502522 0.00797196121123
 0.00851481413656 0.00501004868012 -0.224040647261 -0.0748099288701
16171337500 -0.0858061757029 -0.0311167502341 0.000878573487854 -0.0160870296525
 0.00234421172727 0.00250242091452 -0.148749166277 0.0483217566606
16213206250 -0.180127093985 -0.0151357556069 0.00582468691869 0.00598068273401
 0.00454772147577 0.00296351590736 -0.209259542614 -0.104687926009
16255075000 -0.158064978864 -0.0465079094589 0.00328631050862 -0.000944443480136
 0.00404458774178 -0.000104623954694 -0.210723362129 0.00459810725286
16296943750 -0.124185374589 0.0122760999719 0.00111074738119 0.00299613996352
 0.00167717565426 0.00237312428327 -0.201306229034 -0.00970946254038
16338812500 -0.13701965908 -0.0754011479187 0.00208868352909 -0.00310225208077
 0.00688118537832 -0.00167225803353 -0.165622204589 0.0113436503144
16380681250 -0.226078310702 0.00817224533256 0.00925064591324 0.0104594586564
 0.00994287695644 0.00463051677214 -0.20783045373 -0.0937056456272
16422550000 -0.0593998860978 0.00414262761294 0.0116460129372 0.00514868208356
 0.00950299467192 -0.00194934670796 -0.208183787402 0.0461511188325
16464418750 -0.177935638548 -0.0508184770501 -0.00122679130441 -0.0045092768764
 -0.00286269179112 -0.00458168134306 -0.192837793473 -0.05196744455
16506287500 -0.171276456437 -0.0259469223635 0.000106935290606 -0.00278671945293
 0.00106128322844 -0.00387335653751 -0.17440321836 0.00256425378245
16548156250 -0.118756707413 0.0342146218744 -0.000373464474173 0.00478907091268
 0.00108235450019 0.00453058497703 -0.210724177949 -0.0115395788142
16590025000 -0.150324409868 -0.0510772158078 0.000178541868313 -0.00256671567943
 0.00160437765689 -0.00487772506461 -0.163047854828 -0.0218473721682
16631893750 -0.172467464081 0.00763719179936 0.00575695514976 -0.00168872369484
 0.00541195296284 -0.00258232257146 -0.228519396639 -0.0271238649922
16673762500 -0.0988692283593 0.00319759586418 0.0103980776452 -0.00204348551072
 0.00804085694127 -0.00135878008564 -0.168284797187 0.0580120704811
16715631250 -0.18990142408 -0.040684871874 -0.000813199533287 -0.00583650931266
 -0.00531384012534 -0.00497208475925 -0.176527583189 -0.0644333441749
16757500000 -0.164448484973 0.00905985404076 0.000923417361411 -0.00398427836794
 0.00111865841182 -0.00412758118085 -0.208575779988 0.0180040099159
16799368750 -0.0972691548504 0.0563623558506 0.00420924388146 0.00561465333922
 0.00577889240567 0.00485645289098 -0.207293592098 0.01417612849
16841237500 -0.157106871953 -0.0930597325212 -0.000969682450112 -0.00486947706634
 0.00547754891225 -0.00805306936394 -0.150824064272 -0.0118583335567
16883106250 -0.212971850927 0.0377556993231 0.00817604923476 -0.00460187790424
 0.00888832005169 -0.00620487850799 -0.226897820179 -0.0059945802063
16924975000 -0.104130664556 0.0531567002236 0.00974105044777 0.00190826294658
 0.0101708689508 0.00132289828899 -0.188359642468 0.0461046577439
16966843750 -0.156034175495 -0.0542610787849 -0.00115505195067 -0.00338929257064
 -5.32611406992e-05 -0.00886608631499 -0.161468203344 -0.037838829417
17008712500 -0.164454169436 0.00957240447842 0.00280354379537 -0.00223445807749
 0.00266156096654 -0.00229882569963 -0.237338705767 0.00680115972688
17050581250 -0.165429340039 0.027397158251 0.00309780539537 0.00633302861907
 0.00255979369532 0.00655268823954 -0.205549290969 0.0558752059582
17092450000 -0.161889971592 -0.0142799515094 0.00362219016546 0.00379467999768
 5.09657193277e-05 0.00552732381433 -0.118919140348 -0.0148800210802
17134318750 -0.143618569252 0.0421141112572 0.00355794336361 -0.00888276560355
 0.00147579054706 -0.00925609882871 -0.255236311783 -0.0136581050281
17176187500 -0.145039416534 -0.0157905636892 0.00625818903566 -0.00231297736949
 0.0055181382266 -0.00122272906679 -0.207392531585 0.0569889897091
17218056250 -0.199876621622 -0.0267954694381 0.0030265562624 0.00544884698183
 0.00107735282081 0.0074771351342 -0.167450529345 0.0152622411748
17259925000 -0.171562600009 0.0743659947077 0.00272868991754 -0.00447015684517
 0.00288966887394 -0.00562542172635 -0.212553140031 0.00873211244453
17301793750 -0.113344451146 0.0109382241964 0.00187217142145 0.00278819369962
 0.0022450295367 0.00244815484104 -0.211237465663 0.0158585395727
17343662500 -0.181787563666 -0.0634365670163 -0.00109436768443 -0.0045400886788
 0.000912529352939 -0.00523279015052 -0.190776717378 0.01287725035
17385531250 -0.211567890078 0.0706717703472 0.00347689872459 -0.0107066176722
 0.00361237616511 -0.0119733618216 -0.239964624416 0.0337386223359
17427400000 -0.136887342394 0.015466891597 0.00476490393211 -0.00355701799536
 0.0049939431935 -0.00303013316141 -0.176421478833 0.038647022302
17469268750 -0.170603499646 -0.010442193804 0.00152073300401 0.00346464385324
 0.000770225262039 0.00465943056753 -0.177838726371 -0.00599625529352
17511137500 -0.162924393184 0.0188488414709 0.000727092961509 -0.00520413916091
 -9.53680621059e-06 -0.00493621388154 -0.272534303965 0.00647189907225
17553006250 -0.203600874469 -0.00407388120492 0.00232740681232 -0.00890893289271
 0.00373315857079 -0.00798724490954 -0.209742047471 0.0807070533105
17594875000 -0.165003152445 0.0298267086891 0.00449454254128 -0.00313102516894
 0.00565757860191 -0.00199396024618 -0.155873448713 0.0167081722832
17636743750 -0.166392901071 0.0322729555451 0.00287323946505 -0.00563451867035
 0.0017575840318 -0.00654995266166 -0.250830247798 -0.0127331585634
17678612500 -0.169694414579 -0.031703788204 0.00411654622424 -0.000875400727848
 0.00366620738758 -0.000223862314958 -0.226807640157 0.0360748484709
17720481250 -0.201194565301 0.00993363780624 0.00038737533506 -0.00522078740279
 0.000936380709556 -0.00514941895096 -0.222016155656 0.056680910535
17762350000 -0.185388574514 0.0474202513439 0.00374080206599 -0.000320358782558
 0.00436539543765 -0.00024208127638 -0.210309296056 0.0231582714709
17804218750 -0.159877555795 -0.0102177808815 0.000600016076348 -0.00406209181383
 0.00100994640528 -0.00412761848731 -0.197560241123 0.00955677570148
17846087500 -0.17276252607 0.0036696997673 0.00227594102547 0.00328243789838
 0.00252368559458 0.00285411910718 -0.25920814401 0.00449031663919
17887956250 -0.209629896131 0.010078088361 0.00333540240794 -0.00548752175039
 0.0036391364539 -0.00525930868999 -0.252515697557 0.0506865125657
17929825000 -0.190159731488 -0.00297522741036 0.000590720853854 0.0045749637557
 -0.000538837289003 0.00424734246475 -0.173397229529 0.0562210920744
17971693750 -0.173558341136 0.0486522066842 0.00473147195695 -0.00328278246353
 0.00590154199452 -0.00561622114881 -0.215744955103 -0.0133046407415
18013562500 -0.165154791487 -0.0275922719764 0.00441096619794 0.00726539660614
 0.00405706293454 0.00505351806638 -0.278203514369 -0.00459501312299
18055431250 -0.227961570235 -0.0177099402211 0.00516460954765 -0.010439975286
 0.00674881390213 -0.00876063107886 -0.240519800288 0.0870124128402
18097300000 -0.185358198811 0.0492515843277 0.00704719478885 -0.000542242340967
 0.0082646133106 0.000170887797968 -0.198082848158 0.0322700529822
18139168750 -0.180060278931 -0.00906232505142 0.000478054506024 -0.00313161294717
 -0.00027289045553 -0.00387926936241 -0.223820028481 -0.0229215154568
18181037500 -0.172351783131 -0.0270931441616 0.00441445698974 0.00264074075562
 0.00344038949015 0.00195548395411 -0.263502047459 0.0255318297004
18222906250 -0.213258326951 0.0153012631556 0.00309927549414 -0.00658913769492
 0.00289290418212 -0.00635976042129 -0.273410842114 0.0494526106004
18264775000 -0.187382540791 -0.00101638973355 0.000472678212536 -0.00246454196992
 0.000847206877702 -0.002151780529 -0.192480259021 0.0505755998269
18306643750 -0.192775557702 0.00380542558022 0.00213343569513 -0.000933626150773
 0.00263268142492 -0.0013742174234 -0.218553929612 -0.00620687633781
18348512500 -0.169676011555 0.00961656823495 0.00211821504832 -0.00746126957215
 -0.000327214938873 -0.00613341758062 -0.305597322707 -0.0147945547462
18390381250 -0.213063425451 -0.0451333443229 0.0066241702953 -0.00585432633435
 0.00709384693732 -0.00298769233559 -0.256755181851 0.0713980432086
18432250000 -0.199045774214 0.00983838640491 0.00399336774557 0.00293789238782
 0.00369398217919 0.00341980047157 -0.213181556227 0.0378149392558
18474118750 -0.186490679233 0.0306051154243 0.00668971094553 -0.000460354779792
 0.00538677906339 -0.00450743091119 -0.238816639816 -0.0479761930691
18515987500 -0.168329383671 -0.0575599632051 0.00700864825154 0.0025959968895
 0.00250762173173 0.00345276588884 -0.281218280552 0.0171808381536
18557856250 -0.224497009185 0.00555204087864 0.00132345856818 -0.00734843471644
 0.00181162830824 -0.00703693184105 -0.256638971936 0.0513217148108
18599725000 -0.176057190176 0.00367348169845 0.0033121654837 -0.00142627855784
 0.00328529964773 -0.00233595014969 -0.222974649441 -0.00326175613541
18641593750 -0.204754450949 -0.0415094093662 1.603868666e-05 -0.00203337237389
 0.000448300050578 -0.00194754807188 -0.245001156714 0.00945872677422
18683462500 -0.186998825923 0.024266687492 0.0028236287735 -0.00405873894924
 0.00145259897868 -0.00421430139911 -0.271288661373 0.000744134719911
18725331250 -0.178292476611 -0.0301290552459 0.00087161751044 0.00235933756927
 0.000478160064868 0.00157078015537 -0.262638115273 -0.000277651748343
18767200000 -0.191296489344 -0.062936717144 0.00497211481978 -0.00428245206279
 0.00601484534706 -0.000323736301704 -0.250491014396 0.0501063676271
18809068750 -0.236715331605 0.03247712343 0.00581728951972 0.00364627331212
 0.00783264169885 0.00169949686533 -0.240667390754 -0.0229598913279
18850937500 -0.132120845268 0.00729649644783 0.00428885077568 -0.0038939521945
 -0.000133233737123 -0.00431860277704 -0.257995451135 -0.02338930796
18892806250 -0.169692537117 -0.0843147513773 0.00502287237018 0.000895186827404
 0.00351696201327 0.00558359031735 -0.279550941894 0.0187838782433
18934675000 -0.252067603816 -0.015904750813 0.00186385637253 -0.0038668857846
 0.00223896999121 -0.00442118593084 -0.251691621456 0.00810637473107
18976543750 -0.188324897053 0.040556750401 0.00559531773229 0.00206837811615
 0.0074206203309 -0.000127881639545 -0.223116385376 -0.00863054055413
19018412500 -0.113157705817 -0.0579662088933 -0.00132477532707 0.000891597253513
 0.00298462708132 -0.0015385338591 -0.266510675284 -0.0107426507663
19060281250 -0.23378781062 -0.0402482074149 0.00505316408607 0.00367126246831
 0.00497933524675 0.00365184046449 -0.271543749518 -0.0270261004668
19102150000 -0.185999277032 -0.0223345857489 -0.000276660430048 -0.00143289558882
 8.50873799798e-05 -0.00110033698989 -0.25638878303 0.0280532474625
19144018750 -0.191691897666 -0.00650931532565 0.00205039038054 0.00264974433172
 0.0018805725842 0.00234078893103 -0.23560263256 0.00238270831572
19185887500 -0.152230448286 -0.0107372090763 0.00679130083827 -0.00291076957739
 0.0017028230784 -0.0020078459837 -0.24373740653 -0.0563001080099
19227756250 -0.177532066601 -0.0654843855742 0.00438221509873 0.00183593321374
 0.00259460672204 0.00405250124077 -0.28472937753 -0.0047972237168
19269625000 -0.194654114715 -0.0310958260186 0.00285772513724 -0.0026843088261
 0.00301919948507 -0.00141651829878 -0.268216322084 0.0190707552103
19311493750 -0.2132242026 0.0123734054193 0.00332886533071 0.00517259494714
 0.00708158449571 0.00341692758905 -0.204775823048 -0.0307296792956
19353362500 -0.109095957985 -0.0260145159186 -0.00406189704533 0.00231757348045
 0.002562271864 0.000820772202499 -0.265096986527 -0.0289423311156
19395231250 -0.183394200033 -0.0628478886554 0.00391830658823 0.00219315944424
 0.00263326919156 0.00374389613987 -0.279385814019 -0.0190867485555
19437100000 -0.215763910487 -0.0272394843948 0.000650430291971 -0.00439482557871
 0.00115479394668 -0.00490314534328 -0.233966817937 -0.00365762902841
19478968750 -0.166305127055 0.0102670758741 0.000925176112498 0.00163262656735
 0.000821272504552 0.00092438933873 -0.25025968359 -0.0194870573707
19520837500 -0.134418831832 -0.0332465294095 -0.00119303410259 -0.00346223050807
 0.00117442536957 -0.000834733607594 -0.255345603432 -0.0341566381921
19562706250 -0.199838562221 -0.0535339042557 0.000637497042587 -0.00318787419847
 0.000899406329882 -0.00359563012256 -0.230649802363 -0.0325289443886
19604575000 -0.160308460215 -0.0379961570534 -0.00215126753304 -0.00201571113479
 -0.000482104540473 -0.00202673615589 -0.28274319348 -0.021533613918
19646443750 -0.193759119104 -0.00163330658593 -0.000601715105992 -0.00372251689589
 -0.000695558588685 -0.00326859772122 -0.238486486298 -0.0179345814361
19688312500 -0.133192972413 -0.0317830121327 0.00288109166001 -0.00277416556275
 0.00231644369885 0.000261442707715 -0.212309268684 -0.0234801279774
19730181250 -0.154632975807 -0.0284372425974 0.00147184639938 -0.00358454924016
 0.00149364625043 -0.00161603555365 -0.261456193291 -0.0664034598182
19772050000 -0.170027583568 -0.0615501428214 0.00451858071613 0.00103197212055
 0.00386327096024 0.00310041269336 -0.266643169403 -0.0190128810909
19813918750 -0.21517191393 0.00773429167781 0.00176613260342 0.00727894808628
 0.00228556707502 0.00909364809105 -0.207019274486 0.00131276813354
19855787500 -0.0968948572573 -0.00354433734677 0.00725730651972 -0.00338305020984
 -0.000672551005481 -0.00261935027382 -0.241159743215 -0.0543201314979
19897656250 -0.163081626575 -0.0618755721614 -0.000151447207217 -0.00243580548908
 0.000638065318149 -0.00254191957489 -0.234214774179 -0.04506609485
19939525000 -0.181478355005 -0.055718869269 0.00413251160139 -0.000988598859282
 0.00462958594688 0.000313541792714 -0.246327279488 -0.0117496780053
19981393750 -0.174122667253 0.0310905763051 0.0054043858899 -0.000993312873987
 0.00379875587102 -0.00187743706049 -0.240440425404 -0.0436621505612
20023262500 -0.113211586424 -0.0289147236785 0.00601489506263 -0.00376875102669
 0.00172524605348 0.00105748573545 -0.220719962066 -0.00723182966633
20065131250 -0.154590660498 -0.053463187687 0.000768425639472 -0.00289660001969
 0.00161865290999 -0.00275281515134 -0.2102829984 -0.042347646945
20107000000 -0.174934541899 -0.0247262465326 0.00523224446453 0.0022843607157
 0.00358095478167 0.00211052183261 -0.265699479697 -0.0688746824069
20148868750 -0.156191067695 0.00935651092426 -0.00103831881909 -0.00691374715194
 -0.000500395440045 -0.00517604322138 -0.24382253134 0.0107575520372
20190737500 -0.132960261141 -0.0401541012589 0.00316013978784 -0.00287477844033
 0.00367380368788 8.43123061821e-05 -0.205163582708 -0.0058010269352
20232606250 -0.147062674575 0.013384384311 0.00779278300705 0.00238740237175
 0.00395309765347 -0.00047286398095 -0.208104932381 -0.10078988842
20274475000 -0.138991758594 -0.0757060018772 0.00631230625037 0.00368274683625
 0.00300056322212 0.00804226788138 -0.290198446378 -0.030327821144
20316343750 -0.193092936787 0.0155588030742 -2.07309807807e-05 -0.00778185594923
 5.11563081504e-05 -0.00843022544294 -0.211135558375 -0.00500057671581
20358212500 -0.121559962315 0.00897361750882 0.00492359412961 -4.67791659927e-05
 0.00308525237743 -0.00192315999679 -0.186837374448 -0.0545805846173
20400081250 -0.11419603118 -0.0210566445183 -0.000416395355585 -0.00449950574279
 0.00011122959577 -0.00206320583861 -0.226070969131 -0.0560668399595
20441950000 -0.166945059273 -0.0661902330569 0.00463082194062 0.000407527422672
 0.00497885500382 0.00205341964942 -0.232545419164 -0.0231534619248
20483818750 -0.191666764126 0.0493710102179 0.00513073625103 0.00284630800255
 0.00639823669317 0.000776076819603 -0.202450384053 -0.0492740786611
20525687500 -0.0845223623014 -0.00798988632919 0.00841721417457 0.00561896179764
 0.00447958188652 0.000635318430223 -0.231688634258 0.000675025356752
20567556250 -0.139446399176 -0.0320408087379 0.00077424293723 -0.00284155680253
 0.00133330243692 -0.00402375116689 -0.166559529717 -0.0442515811909
20609425000 -0.179439339219 -0.0210358309065 0.00496832984916 0.00486726519536
 0.00497800228116 0.00365651907668 -0.222470907793 -0.0713646290656
20651293750 -0.133576919908 0.0402128397039 0.000638923261564 0.0116494887641
 0.00169290941918 0.00905453300005 -0.264333332809 -0.00127112879259
20693162500 -0.131800636907 -0.0280109904689 0.00273149648825 -0.00609545032843
 0.00457005724189 -0.00330706979378 -0.16495401584 0.0183572043323
20735031250 -0.146980917397 0.0288396341762 0.00422400782719 0.00249719800028
 0.00299199258517 -0.00332636949985 -0.161979489049 -0.0883635037746
20776900000 -0.129336409731 -0.0455652385656 0.00932610985133 0.00593894605869
 0.00389271946968 0.00605453467082 -0.282000315 -0.0424681596962
20818768750 -0.178776298577 0.0327305957202 0.00339691705686 0.00947717862921
 0.00232448690195 0.0100823532626 -0.193324385526 0.0306732447868
20860637500 -0.129229084051 0.0121442849314 0.00248232759378 -0.00174766855496
 0.00335518292628 -0.00244006925763 -0.163160021553 -0.0381329106634
20902506250 -0.115597901554 0.0109870567484 0.000878337465631 -0.00603571722513
 -0.000736205520326 -0.00451586123991 -0.228094908652 -0.0572038123515
20944375000 -0.16613144623 -0.0407890664794 0.00443605124168 -0.00368088300204
 0.00551002975821 -0.00230438201864 -0.208963233905 0.0022939580437
20986243750 -0.159741388483 0.0623102392844 0.00461013039901 0.000627741712218
 0.00592088990101 0.000250926515239 -0.184497412118 -0.0266889859893
21028112500 -0.113554122683 -0.0028381901272 0.0035354534477 0.00320387754693
 0.0029383061674 0.00220891143521 -0.220279033466 -0.0179077847479
21069981250 -0.156012682004 0.00948873205357 0.00128582591753 0.00277639852226
 0.000947893682933 0.00320399623518 -0.177209389587 -0.00709105774565
21111850000 -0.148321291248 0.0215331074265 0.00115325408798 0.00015617299728
 0.00130958537444 4.19103309317e-05 -0.197809164313 -0.0364264086852
21153718750 -0.134385644817 0.0167030289362 0.00244696748252 0.00306030440542
 0.00232669731038 0.00258733741994 -0.228054660548 -0.007278473338
21195587500 -0.173915831043 0.00282893582124 0.000804237041523 0.00517370521462
 -0.000316271010672 0.0055852910716 -0.17977142644 0.00633114753286
21237456250 -0.134522169282 0.0678282861841 0.00364804883693 -0.00299459152149
 0.00385443696966 -0.00406537072309 -0.197364382726 -0.0269203362395
21279325000 -0.121623564268 -0.0186436696238 0.00434103273523 0.00220601732228
 0.00326214151784 0.00183100117412 -0.216967991137 -0.0141514044392
21321193750 -0.185526187695 0.0240595471443 0.00173874586298 0.00477320023402
 0.00106017124015 0.00555377061939 -0.186647113149 0.00233257259852
21363062500 -0.165419630776 0.0443629101625 0.00298708127882 -0.00194671506112
 0.00343457585863 -0.00270938248853 -0.205274577345 -0.0377541181586
21404931250 -0.125851337983 0.0460783012862 0.00598036042458 0.00431249234946
 0.00586450548323 0.00391061243803 -0.217594842588 0.0218210864359
21446800000 -0.150826385595 -0.018136104168 -0.000803222386684 -0.00635688493746
 0.00149564610555 -0.00617809025389 -0.164094033493 -0.00665943131885
21488668750 -0.185628892585 0.0441712814588 0.00511504908636 -0.000753350932053
 0.00644581509077 -0.00146931751882 -0.207715734299 -0.0410492466416
21530537500 -0.153279820117 0.0316291384589 0.00147031179024 0.00306636208769
 0.00149193662676 0.00300200230242 -0.231528335894 -3.41072301284e-05
21572406250 -0.147857805573 0.0550894174162 0.00696388817493 0.000460732680875
 0.00676218618332 0.00143425848472 -0.168272502394 0.0347744277158
21614275000 -0.146157791977 -0.00166921008176 0.00235776062902 0.00426930712803
 0.00147787616817 0.0065207796653 -0.174461009584 -0.0458279473839
21656143750 -0.199601936176 0.031087663167 0.00400495101173 -0.00560129286756
 0.0049133741488 -0.00550884494695 -0.21599721261 0.0191472262069
21698012500 -0.151943727847 0.0582659439467 0.00236629140272 -0.00222017220869
 0.00282497555683 -0.00221797927741 -0.190081633631 0.00457414821326
21739881250 -0.156763906606 0.040312531001 0.00431719841864 0.000877627733382
 0.00418127412993 0.00110737296079 -0.214714668227 0.0334052089713
21781750000 -0.168273257131 -0.00477280563316 0.00146700118076 0.00387362483425
 0.0006107328857 0.00410543943684 -0.193198592832 0.00317634667545
21823618750 -0.194486674633 0.075656389826 0.00422520364219 2.90866698511e-05
 0.0048332987019 0.000620792595177 -0.200858672941 0.00427091629533
21865487500 -0.147703297925 0.0105232682775 0.00261964566099 0.00529598961583
 0.00343470282746 0.00497001048387 -0.241783962317 -0.0374202223909
21907356250 -0.205045830346 0.0430306403594 0.00100093335539 0.0106517382625
 -0.000615009134486 0.0105330259139 -0.2099190276 0.0708043124579
21949225000 -0.152603230811 0.04431923653 0.00151183137678 -0.00591835407845
 0.00394704909611 -0.00510014741123 -0.147880081657 -0.0248339050058
21991093750 -0.176043016602 0.0313649245523 0.00208717514538 0.00228359541166
 0.00228089619364 0.00263724243999 -0.230397325509 -0.0127287087273
22032962500 -0.194255030787 0.00427716288905 0.00623546688802 -0.00166148354422
 0.00649913963287 -0.000759859661705 -0.23519771146 0.0220050056772
22074831250 -0.217251162288 0.0891112683324 0.0129526846214 0.00682560071635
 0.0119031355904 0.00962062198617 -0.177604459064 0.0528779465247
22116700000 -0.116673822854 0.0119242341804 0.00157226892753 0.00656056968393
 0.0028404691538 0.00975805498384 -0.205105226378 -0.0444244597781
22158568750 -0.223169495612 0.0104437763533 0.00582885539634 -0.0080993239563
 0.00734052542164 -0.00699745348533 -0.235827729305 0.0518294174863
22200437500 -0.196126816485 0.0530088541305 0.00295608815369 -0.00179417709584
 0.00405940797283 -0.000887731477953 -0.185235401322 -0.00930117989775
22242306250 -0.200421454395 0.0486667194686 7.02637685294e-05 0.00376858470349
 -0.000420542045637 0.00413728505697 -0.227722146088 0.0234534464346
22284175000 -0.170219745012 0.0277352384375 0.00277388849155 0.00211842999886
 0.00268920915312 0.00254842568217 -0.226222000991 0.0180253887741
22326043750 -0.204642171578 0.025304789189 0.00198936251897 0.00266957283216
 0.00119515924087 0.00303247453263 -0.186927416792 0.0506233347691
22367912500 -0.214453491491 -0.0154915200708 0.00260662590379 0.00511528049253
 0.00696422178009 0.00731571760156 -0.229873291032 -0.0560016774433
22409781250 -0.229506074115 0.102276204216 0.00414651352218 0.0185866196294
 0.0033824915438 0.0201985138255 -0.26000279986 0.0671145888447
22451650000 -0.122606899311 0.00781431902494 0.00202346227272 -0.00676634592744
 0.0026239696437 -0.00651842470985 -0.196894181695 0.0070425417703
22493518750 -0.238931047282 -0.0243240965806 0.00133148445114 0.00539903367035
 -0.00143823175805 0.00662659688748 -0.202780709186 0.0150963575247
22535387500 -0.252792835335 0.030544133939 0.00649985126417 0.000219915683301
 0.00999011329053 -0.00037975572694 -0.244145778052 -0.027067708567
22577256250 -0.179501991492 0.0994939087415 0.010205603113 0.00713113645164
 0.0109022581306 0.00894610416191 -0.226476889184 0.0491719476947
22619125000 -0.147064240067 -0.0764191013827 -0.00448044703123 -0.00333107107592
 0.000988403205 -0.00369725242872 -0.229804250366 -0.00168413017019
22660993750 -0.295400135072 0.0265311789966 0.00241907567608 0.0159270225501
 -0.00249778299973 0.018168971325 -0.212411943558 0.0660211808382
22702862500 -0.174584244337 0.0598670506681 0.00606560944518 0.000500985918611
 -0.000622313347294 -0.0107617325852 -0.216081524311 -0.0670098964053
22744731250 -0.191489686976 4.82527378983e-05 0.00575860027739 0.00295159194907
 0.00520402611769 0.00301266864586 -0.282469322854 0.0255219441161
22786600000 -0.239992145926 -0.0166621316103 0.00546822272992 -0.00479652219773
 0.00737738869589 -0.00339450813454 -0.246704870058 0.0497038060904
22828468750 -0.210056615205 0.0476738851048 0.0106573976506 -0.00632097476837
 0.0111804139318 0.000814340273995 -0.136883679217 0.0106022339994
22870337500 -0.19611658471 -0.0463652239799 0.000330295880989 -0.0119980949993
 -0.000883149355076 -0.00874127595778 -0.282425572844 -0.0829311115836
22912206250 -0.245187364979 0.044234696719 0.00252493105861 -0.0181657187834
 0.00407564951544 -0.0179869294667 -0.293888862988 0.0880904501523
22954075000 -0.177169158447 -0.0150533161781 0.00255783071916 -0.00690881409244
 0.00583632646721 -0.00344070408206 -0.176580020734 0.017727811801
22995943750 -0.224569187596 0.00667047100203 0.00104191662565 0.000494024556062
 0.00755681073997 0.00546901788545 -0.203882800925 -0.0314580700371
23037812500 -0.22404306098 -0.0301286339095 0.00560544628663 0.00778399427783
 0.00512026192215 0.00652973073429 -0.317545056065 -0.0581741674889
23079681250 -0.209447272715 0.0447238998551 0.0126896738332 0.00613716987104
 0.0108175676877 0.00954549062824 -0.201604469302 0.0815511655442
23121550000 -0.21843904305 -0.0708462672796 0.00231916020834 -0.00285725336139
 -0.00311461226996 -0.00644414601501 -0.211031411874 -0.0465970384098
23163418750 -0.231016555822 0.0530157573804 0.00039752064625 -0.00341260911334
 0.000187513240137 -0.00544190668286 -0.233544019403 0.00501918423454
23205287500 -0.155772884607 -0.0765352656725 -0.00101525478447 -0.00350157545782
 0.00148342959235 -0.0044639904797 -0.241356063095 -0.0215781994611
23247156250 -0.291246199996 -0.0143145780185 0.00375760144517 -0.00881103906971
 0.00761880068784 -0.0114793926159 -0.239027886022 0.039589066911
23289025000 -0.18892082741 0.024141017628 0.00526143321491 -0.00109152288748
 0.00386860473721 -0.00442162981612 -0.23846186018 -0.0372232262422
23330893750 -0.146663618204 -0.0238313038107 0.00597798581723 -0.00276194326605
 0.00566791413495 -0.000771309970862 -0.20889170508 0.0158922982355
23372762500 -0.269897197633 -0.113398529749 0.00445754859887 0.0110738251708
 0.00819429894123 0.0128710863293 -0.272559023606 -0.0425826420813
23414631250 -0.250301403801 0.0677863671758 0.00761460792507 0.0100197310314
 0.00979324373727 0.0161076114495 -0.213649393073 0.0374410560142
23456500000 -0.116339578246 -0.0388232849257 0.0140472148205 -0.000416361304548
 -0.0009213172646 -0.00145673414143 -0.217002677711 -0.0491115432009
23498368750 -0.226815647751 -0.0915412704704 0.00551681451109 0.00354850447854
 0.00692177778759 0.00560057606175 -0.270939795355 -0.00248405140882
23540237500 -0.267832886954 -0.0246378492162 0.00301210400275 -0.00437123499689
 0.00379476529669 -0.00686155510966 -0.238353673518 0.00614581339107
23582106250 -0.143182826621 0.0258253029078 0.00370549732016 -0.00298066951337
 0.0185410372232 0.00256859780172 -0.168772887342 -0.00927716471535
23623975000 -0.190086820223 -0.12853844677 0.00330080797158 -0.0146783731864
 0.00643031061974 -0.0158960036 -0.3046295242 -0.102918911859
23665843750 -0.23008742712 0.0189926842069 0.00395516404477 0.0183465420274
 0.000958395908177 0.0207477332515 -0.236171813677 0.0801217084989
23707712500 -0.166070685235 -0.0643070799875 0.0025609984973 0.000879193328988
 -0.00397929405155 -0.00544464836882 -0.160665888641 -0.0322976952448
23749581250 -0.204681507537 -0.0378141501139 0.00374357340823 0.003384608951
 0.00325446207267 0.00179404513655 -0.241358214374 -0.079115641695
23791450000 -0.19256487323 -0.0457832485248 0.00157811403922 0.00215032539152
 0.0010884538383 0.00221265813981 -0.291085312842 -0.00584668095448
23833318750 -0.180120697001 -0.0402237869108 0.00497272412759 0.00173299357385
 0.00388722991646 0.00504160091875 -0.186251289879 0.056337815663
23875187500 -0.186722956617 -0.078795596907 0.0029377013943 -0.0066712574516
 0.00194382079823 -0.00453266255983 -0.216001360287 -0.111331345642
23917056250 -0.17211736253 -0.00204937579817 -0.000833511324781 -0.00724161830027
 -0.00121747167388 -0.00652944609806 -0.24344663654 0.00114654368567
23958925000 -0.184923045754 -0.104848307787 -0.000532316136449 -0.00382587349473
 -0.00102150296684 -0.00502238803134 -0.230130374317 -0.0457540409684
24000793750 -0.207527646226 -0.00530638263731 0.0051252890356 0.0013989963654
 0.00502730235274 -0.000797533009742 -0.220788488071 -0.0461882463669
24042662500 -0.136652255059 -0.0498717374506 -0.000492068376173 -0.00241249371799
 0.000242660805343 -0.0017169863149 -0.23135772834 -0.0269777135119
24084531250 -0.15622203017 -0.0788405475583 0.00282030834124 0.00217006754731
 0.00224106594657 0.00354926708656 -0.238705370527 -0.0207115244394
24126400000 -0.231623327738 -0.0789152734106 0.00132160580481 -0.00882301177986
 0.00776405958472 -0.014735926718 -0.170287627942 0.0297452696588
24168268750 -0.141825020356 0.0593105849897 0.0225043010254 0.00341377790734
 0.0104359160743 -0.0042345716402 -0.216261199956 -0.125848101337
24210137500 -0.085811198482 -0.142299207475 -0.000923713707577 -0.004293190495
 -0.00118617521871 -0.0169171875175 -0.266323354125 0.0180115939897
24252006250 -0.244488598359 -0.0584391028372 0.00182751954896 -0.00613310147922
 0.00169299855219 -0.0110798877749 -0.186623635904 -0.0089165118718
24293875000 -0.163200586467 0.00222902311509 0.00368192092287 0.00392092989579
 0.00578669970582 -0.00324325969059 -0.158266451815 -0.0542833027381
24335743750 -0.0869338188807 -0.0447349618075 -0.00163568432568 0.0204836470104
 0.00138332110327 0.00272620464008 -0.25709246926 -0.0441335882197
24377612500 -0.164954616124 -0.116945744527 0.00579172410251 -0.00409494318712
 0.0124461434614 -0.00165317971229 -0.193332563031 0.0374000242473
24419481250 -0.173648561434 -0.00766836730661 0.00734581484466 0.00676420047143
 0.00564643973179 0.000218709907094 -0.17829596694 -0.0959983072368
24461350000 -0.114754724128 -0.0662290956136 0.00763522565015 -0.00168651011064
 0.00359690662434 0.00315983559553 -0.250474820192 0.0285146535053
24503218750 -0.141628243461 0.0083523005226 0.00460502720972 0.00128643520214
 0.00654367508442 -0.000428417243391 -0.166794551778 -0.0300326306112
24545087500 -0.11354152482 -0.0802918496015 -9.31373649979e-05 -0.00301304696828
 0.00179742451571 -0.00355131474885 -0.166700977778 -0.047085971728
24586956250 -0.152733762441 -0.0528856423447 0.00677664242643 0.00251253788252
 0.00461316807685 0.00288070529161 -0.271389108389 -0.041907702365
24628825000 -0.180297513865 -0.0186406726193 0.00508871714168 0.0145098402529
 0.000945088166537 0.015697618037 -0.172284556154 0.0756309949471
24670693750 -0.0569384208485 0.011377843082 0.0110903932821 0.00184903330086
 -0.0020214820504 -0.00429529496865 -0.142506721084 -0.100919815233
24712562500 -0.110247778522 -0.138726632285 -0.00416284948101 -0.00358536294342
 -0.00295498306329 -0.0125248466917 -0.257205053185 -0.0241566466625
24754431250 -0.195527306384 0.0423848975912 0.000722051293363 0.00633955401654
 0.00175581863898 0.00750980468362 -0.188905671403 -0.00824759689724
24796300000 -0.0602225670043 -0.00814089347493 0.00853127985182 -0.00410463842421
 0.00613536695852 -0.00565804375293 -0.1569903675 0.0174755673806
24838168750 -0.120237278607 -0.0598595465679 0.0030392697726 0.00477760873179
 0.00192059481909 0.00335645448573 -0.200761311251 -0.0585781972922
24880037500 -0.176764325695 -0.00455791608849 0.00192329980658 0.00662360166842
 0.00130525018116 0.00759026170579 -0.173965904786 0.0157911742254
24921906250 -0.0644316620742 0.00362045477632 0.00327382989281 -0.00801958358466
 -0.00196019775406 -0.00715255245232 -0.204925612197 -0.052714431797
24963775000 -0.124671040984 -0.0826132181319 0.00856354790347 -0.00925817846593
 0.00870652654679 -0.000339622887955 -0.217563812168 0.0601209903414
25005643750 -0.162051871414 0.0364525889072 0.0110229749026 -0.000480514254923
 0.0154520574576 0.0035239829065 -0.116526436943 -0.0298596872396
25047512500 -0.0503296963306 0.0126585096608 -0.000202984324608 0.00866735491748
 0.00380495960314 0.00749016820194 -0.203465039564 -0.0334465622804
25089381250 -0.0857370451307 -0.0525798768733 0.013049839961 0.00619185450845
 0.00675552104318 0.000426398758414 -0.25626310505 -0.00579497871124
25131250000 -0.217035742516 0.00126661263595 0.00950815965811 0.022982218497
 0.00365294742755 0.0251366128753 -0.127018992846 0.0860325447124
25173118750 -0.0663985714811 0.086317481262 0.00661520746496 -0.00460081941796
 -0.00159372606283 -0.0231142399456 -0.157211096668 -0.0868176934264
25214987500 -0.0903423207384 -0.0691015224639 0.0171445941867 0.00666169924203
 0.00654439291823 -0.000390617822199 -0.262281836385 0.0200583762986
25256856250 -0.14850749388 0.00757469072874 0.00446244233962 0.00832681498411
 0.00353528667412 0.00800268916457 -0.170138818024 0.0359377154909
25298725000 -0.114531509214 0.00848166066807 0.000212266329859 -0.00140139881842
 0.000111056395549 -0.00139542122236 -0.170772722321 -0.013643477204
25340593750 -0.114201964727 0.0488598406052 0.00467751290557 -0.00670415495414
 0.00284203830019 -0.00785819650997 -0.21653480102 -0.0368326692245
25382462500 -0.091872843459 0.00371008503308 0.00861776386244 -0.00499204629427
 0.0065824878531 -0.00473289824555 -0.181859979429 0.0706712935896
25424331250 -0.100165426469 -0.00169608790381 0.00330426579088 0.0055545957636
 0.00404982879236 0.00585545491933 -0.160379806191 -0.042152027329
25466200000 -0.181739425936 0.0198225857504 0.00899200327644 -0.00810700011739
 0.00854254479842 -0.00758221922925 -0.23877290312 0.0242531776959
25508068750 -0.104730828477 0.0900190269685 0.010750102387 0.00132867322311
 0.0111737925233 0.000755831370819 -0.181521647531 0.0318288976985
25549937500 -0.0507832307183 -0.0166050984062 -0.00122401752706 0.00682179508323
 0.000902624829523 0.00654936026184 -0.182787034705 0.00454785745848
25591806250 -0.184395629848 -0.0104678612855 0.00884763993475 0.00216154209223
 0.00927037079113 0.00269893468459 -0.206069615611 -0.0315290313585
25633675000 -0.143889930473 0.103277187833 0.00687449180581 0.0118045225745
 0.00718755539002 0.0118364101403 -0.201777740901 0.0426010922046
25675543750 -0.0424415092618 0.046191490366 0.00113249350163 0.00716884689649
 0.00248687318686 0.00737435198297 -0.191207156566 -0.00176410498735
25717412500 -0.179141727654 -0.00567105623771 0.00202341861238 -0.0095896741193
 0.00337168720008 -0.00827044526427 -0.183451990387 0.0365595168586
25759281250 -0.158864650378 0.0943677683124 0.0089338178095 -0.00526917625418
 0.0108913181608 -0.00495174979551 -0.16724505287 -0.0160471149806
25801150000 -0.0904388044478 0.0343879514914 0.00906756682042 0.00733045010268
 0.0098608623392 0.00549106812244 -0.24078136559 0.00707506618204
25843018750 -0.174039821183 0.0194740874848 0.00062700132382 -0.0106979151054
 0.00146238882292 -0.00948692963775 -0.195928286851 0.0726739897623
25884887500 -0.142438738054 0.0702735172608 0.00783323280672 -0.000803404374302
 0.00771190179252 -0.000166178507151 -0.152549833261 0.0269249747288
25926756250 -0.112796192745 0.0691732863931 -0.000890852497145 0.00826453310566
 0.000987025307475 0.0108809660551 -0.219466061888 -0.058694583911
25968625000 -0.161753770818 0.0138467809761 0.0138879562883 -0.00652669430187
 0.0117964351905 -0.00533087715959 -0.267958566698 0.0685875399488
26010493750 -0.177206113716 0.0731800399596 0.0128835285738 0.00505534034276
 0.0112901283951 0.00626665960265 -0.13515615003 0.0633721848699
26052362500 -0.138634121868 0.0653743989294 -0.000536717897856 0.00679724508978
 -0.00114399706119 0.00825937409405 -0.200616777786 -0.0322361541343
26094231250 -0.173240209256 0.0481572127504 0.00381811989929 -0.0031941476283
 0.00378193615956 -0.00332984815564 -0.250740080154 0.00536624335796
26136100000 -0.119157069763 0.0292889287313 0.0130032341643 -0.00369832031473
 0.0110704434858 -0.00397385788049 -0.230287057431 0.077087030228
26177968750 -0.212011578485 0.0309140859578 0.011394849003 0.0035134543794
 0.00911498114785 0.00749977825591 -0.144718778688 -0.0240892420561
26219837500 -0.184791858976 0.107163891257 0.00404890384114 -0.0108143373263
 0.00463590597165 -0.0120137295859 -0.240833861403 0.00540585338523
26261706250 -0.0711966518665 0.0725113620942 0.00941202844729 -0.00228670551644
 0.00971011424504 -0.00278327186939 -0.205129878587 0.0383285595029
26303575000 -0.218903207029 -0.0593117766253 0.00303753009238 -0.00608596415061
 0.0048277424674 -0.00403991484871 -0.20507787332 0.043838874059
26345443750 -0.267641128668 0.122404476978 0.0157324467077 0.000441915252177
 0.0175579117462 0.00423152197229 -0.192291312103 0.0117083290126
26387312500 -0.0622765957302 0.103653033736 0.0102116642595 0.0138053229559
 0.0139708324913 0.0136328596413 -0.263241132734 0.0153300299115
26429181250 -0.169271442824 -0.0383704813425 0.00127577112957 -0.00792813062082
 0.00231885307586 -0.00499703766447 -0.206708095191 0.0348378809235
26471050000 -0.264886700279 0.037824628303 0.000764565394983 0.0128428918695
 -0.00204887591511 0.013082048234 -0.220813575733 0.0484152228601
26512918750 -0.134608451602 0.142478864281 0.00438355150438 -0.0144314144115
 0.0116032466168 -0.0134294485102 -0.176351390919 -0.0389863093023
26554787500 -0.152536806151 -0.0410377342288 0.0128284843748 0.00865189965671
 0.00815508694213 0.00539766397385 -0.291398888502 -0.0137104958974
26596656250 -0.264054210669 0.0564795454172 0.00360127870153 0.0214412366933
 -0.00113318775349 0.0214996529604 -0.204599413318 0.089898819215
26638525000 -0.154023536812 0.0822699042813 0.00557050082116 -0.0113725641772
 0.00843073065755 -0.00892407556226 -0.158017402473 -9.4465997002e-06
26680393750 -0.191893548637 0.0177764267994 0.00239950872976 0.00182523412166
 0.00410918485848 0.00956589700261 -0.218682875225 -0.0645193978947
26722262500 -0.228988236762 0.0294607919746 0.0164235329249 -0.00728002670169
 0.0154499485505 -0.0058192894723 -0.345266186447 0.0629028531909
26764131250 -0.185202682929 0.0981247189554 0.0250703872512 -0.00883776253523
 0.0234264084735 -0.00337862290766 -0.125707333543 0.0828422943793
26806000000 -0.19787571098 -0.0296894272889 0.00753854703146 -0.00058723979135
 -0.00193169126898 0.00450950335713 -0.192425689111 -0.0786720687828
26847868750 -0.235340380571 0.050214751142 0.00750528587392 -0.00323915369548
 0.00852057284194 -0.0052349132424 -0.288176506444 -0.0259984900441
26889737500 -0.210781021044 0.0364575924716 0.00327719963646 0.00785417200555
 0.00200649674688 0.00781130090642 -0.251540614593 0.0926309386565
26931606250 -0.194015300953 0.0516021889566 0.00902477420921 -0.00785601140046
 0.00970750426407 -0.0034780644866 -0.135953167311 0.0301719484546
26973475000 -0.184682976157 -0.0266967135778 -0.00136681948281 -0.00795726263265
 -0.00456314544783 -0.00703030100585 -0.263373941357 -0.057839070297
27015343750 -0.254413586845 0.0389868060651 0.000397032835874 0.00133382752665
 2.38242071785e-05 0.00183090263051 -0.229112741938 0.0159938225161
27057212500 -0.246095388279 0.0252408321286 0.00561590388398 -0.00773185220563
 0.00701770847128 -0.0075600893277 -0.281097674718 0.0476351405316
27099081250 -0.153161353035 0.073116853744 0.00777292309912 -0.00981504573641
 0.0125506634933 -0.00612278721498 -0.177598798099 0.00524805695533
27140950000 -0.213278752112 -0.098779436898 -0.00107621040614 -0.00344392701781
 0.00179779463161 -0.0095027639106 -0.230932698127 -0.0234135524932
27182818750 -0.303013592578 0.0165949923537 0.00625483334119 0.00175348339314
 0.0119989149204 -0.000123763240671 -0.248323626889 -0.0325733539183
27224687500 -0.175859272137 0.0867878673588 0.00400708546057 0.0155287461886
 0.00662804311981 0.0171299466483 -0.274526712035 0.0275731969094
27266556250 -0.130801252878 -0.0397645678253 0.00534829006562 -0.0184216420249
 0.00369085641209 -0.00614874870162 -0.137651882203 0.0306522830678
27308425000 -0.273897390547 -0.0824069359044 0.00378709771924 0.00928652975607
 0.0102301173374 0.011611370466 -0.256073328326 -0.0503204138132
27350293750 -0.240610955502 0.09719233392 0.00419293315925 -0.00469544163465
 0.00515524392438 -0.00846155842472 -0.248327231069 -0.00678354447045
27392162500 -0.178774839821 -0.0087237826564 0.00765810046757 0.000295393511337
 0.00690678849087 0.00200045125124 -0.238323556894 0.041220723618
27434031250 -0.178165690661 -0.0396879631005 0.00385620057219 9.95367906992e-05
 -0.00390095322713 -0.00184172682937 -0.192984983922 -0.0567014612354
27475900000 -0.258877815468 -0.0326347827753 0.00657530744333 -0.00015201916058
 0.00954290997717 -0.000491155410794 -0.255400950617 -0.00551754381987
27517768750 -0.216747224344 0.0178386757634 0.0076585038362 0.00191788281222
 0.00743728906953 0.00679825496564 -0.178358936921 0.0280434086467
27559637500 -0.17441485312 -0.0310280742422 0.000800405822212 -0.00537797897784
 -0.00056009646407 -0.00415764160406 -0.257281457181 -0.0553059427361
27601506250 -0.17133919295 0.0105070021018 0.000324666652463 0.00306979021594
 0.00120415065665 0.00348333515796 -0.241117459142 -0.0157283039504
27643375000 -0.254891903133 -0.0571365925592 0.00858360635639 -0.00914407191578
 0.0155274546731 -0.00733151172225 -0.230621770872 0.0545803812654
27685243750 -0.204214295331 0.0324479696659 0.00293038698268 0.0145692944697
 -0.00325582343799 0.00380130951051 -0.127603049433 -0.0948732562823
27727112500 -0.210196126762 -0.0448573063026 -0.00176883331353 -0.00461174675611
 -0.00205691015954 -0.00418424333434 -0.28643207088 -0.0431626592804
27768981250 -0.213385020752 -0.0603082035033 0.00630169169043 -0.00331016018742
 0.00850712060123 -0.00116542481971 -0.247954967332 0.0546119419753
27810850000 -0.185283117941 -0.0135760959084 0.00524909351165 -0.00241865556721
 0.00715627433326 0.00277287361091 -0.15052257295 0.00790466219181
27852718750 -0.157012138346 -0.0547130056043 0.00551256581991 -0.00101910141983
 -0.000712856325532 -0.000883371802403 -0.167110064586 -0.0849899896946
27894587500 -0.240722092732 -0.0609145468217 0.0163234420662 0.004741872686
 0.0164951405587 0.00603551725397 -0.314941845017 -0.0218122876885
27936456250 -0.166349260726 0.0661244906952 0.0104454349067 0.00590932428043
 0.0131619758776 0.00837241053953 -0.201406813529 0.0310157498248
27978325000 -0.163102805964 -0.0776516807364 0.0020694978891 -0.00701060872881
 0.00890612101178 -0.00115831079357 -0.15136613951 0.029337587312
28020193750 -0.206433131986 -0.113313649347 0.00712524662711 -0.0083981073245
 0.00231117753999 -0.0049958880664 -0.195820979591 -0.120965015563
28062062500 -0.263533534614 0.0288395813246 0.0170888018946 -0.00837284176074
 0.0157870747473 -0.0131263629515 -0.274813962331 -0.0213299061921
28103931250 -0.0919276861394 -0.00720289186855 0.018458986076 0.00316755868055
 0.0151227659453 -6.82397326217e-05 -0.196135742485 0.0751085194324
28145800000 -0.140223574364 -0.14857149921 -0.000597394380161 -0.00280578213251
 0.0139507342879 -0.0039269975333 -0.139162591399 -0.0229874980547
28187668750 -0.231862763284 -0.014628706977 0.00603110545901 0.00872822174903
 0.00879721735658 0.00166279333562 -0.210788841876 -0.0848803998146
28229537500 -0.194162713769 0.0116269882977 0.0062724109982 -0.0148086941566
 0.00540384096927 -0.0138530184636 -0.287735096351 0.0239368099807
28271406250 -0.0854612306127 -0.035904929123 0.0078270139833 -0.00460420051042
 0.00531013734124 -0.00548122473393 -0.164297498293 0.0125162206812
28313275000 -0.168801832343 -0.0828940752383 0.0024717275164 0.00242885893747
 -0.00429873264107 0.00745737988377 -0.144727849816 -0.032586026675
28355143750 -0.228407603953 -0.0540033289137 0.0104669792087 0.00294195549963
 0.0115571932181 0.00225067375503 -0.257298417412 -0.0372059395132
28397012500 -0.132229705915 0.0329609324222 0.00499228175327 0.00419436724964
 0.00647509604584 0.00388097208831 -0.20175083553 0.00541963256056
28438881250 -0.127554635035 -0.04025768652 0.00360901774089 -0.00397504023208
 0.0044193276745 -0.00262650624979 -0.164562701524 -0.000851149278059
28480750000 -0.173913401687 -0.102585519427 0.00366449907627 0.00327147112886
 0.00430518187293 0.00534399080029 -0.220881202942 -0.0406767538122
28522618750 -0.173326918783 -0.00575489331496 0.000541440030543 -0.00219071136871
 0.000657183829781 -0.00299876943712 -0.190021731933 -0.0119750035118
28564487500 -0.148636103262 -0.00364680917964 0.00772558123793 0.00121258539884
 0.00776633656293 0.002995603543 -0.148988326701 0.0288238178356
28606356250 -0.108717520355 -0.0790670723927 0.00385315378507 0.00928813938722
 0.00196694683997 0.00227009276746 -0.210447520664 -0.0479459403968
28648225000 -0.16668956298 -0.017912062092 0.00329674800661 -0.00271449075778
 0.00323580555884 -0.00276381729321 -0.219539837158 0.00282748730176
28690093750 -0.152658986506 -0.0035518511695 0.00803753288343 0.00818308811907
 0.00639802352856 0.00807506840771 -0.188970983132 0.0756125449076
28731962500 -0.108302033672 -0.0691091382985 0.00572223237475 0.00578688029878
 0.000934287427657 0.00605926959457 -0.13237192041 -0.0558786684753
28773831250 -0.196723311485 -0.00230361576152 0.0103105800687 -0.00125418057708
 0.00967011792911 -0.0036346504234 -0.242217704356 -0.0440416306808
28815700000 -0.120922623854 -0.00375239043531 0.00562897575443 0.0110008813176
 0.0054564267429 0.00773554117624 -0.268738261141 0.0496397414535
28857568750 -0.0863065195656 -0.0751089357027 -0.00936152223279 0.0123044014268
 -0.000524679114373 0.00733728259712 -0.128691575809 0.0481830894817
28899437500 -0.168373424967 -0.0353624722882 0.00770297890637 -0.00478605334763
 0.00531274090217 0.00566828249923 -0.109114565258 -0.0991929785074
28941306250 -0.17924112302 0.0351308715666 0.0180465010554 -0.0142373368298
 0.0140515236133 -0.0151290187747 -0.29755661073 -0.0158517606415
28983175000 -0.0367140900444 0.0098475089151 0.0209696915446 -0.000624391022891
 0.0195068622245 -0.00565429747284 -0.20866347907 0.0842168985538
29025043750 -0.137712473609 -0.0701744536281 -0.0032411983307 -0.0178764540238
 0.00254578748519 -0.00931157968223 -0.115367090794 0.0729589273845
29066912500 -0.207709594964 -0.045672522915 0.00408895604884 0.0106762279698
 0.00917557703003 0.00361773180962 -0.200656415702 -0.111769872276
29108781250 -0.110110371242 0.0962240944879 0.00492612329353 -0.0249390216471
 -0.00160007921529 -0.023918770191 -0.293568705504 -0.00350064644971
29150650000 -0.066925903643 -0.0151143781827 0.0181214488469 -0.00580046122925
 0.0134098012102 -0.00867272631037 -0.193015326366 0.0819488476764
29192518750 -0.140089819217 -0.101263232528 -0.00698638016301 -0.00771243498401
 0.00396187803219 -0.00671904391355 -0.140652314729 0.00286303131136
29234387500 -0.200005813041 0.0215819406911 0.00437584215229 0.00529079145011
 0.0109931180332 -0.0102524831167 -0.180531636351 -0.107701266263
29276256250 -0.10275641433 0.114253033121 0.00730826711344 0.0297328851187
 0.0117514404917 0.0278587728693 -0.274833821007 0.0433607686446
29318125000 -0.0381601483921 -0.0732798599988 -0.00515861721493 0.00908661208607
 -0.000148551421111 0.0104461161086 -0.169987173154 0.0258196902325
29359993750 -0.187121538486 -0.012959168819 0.00897499474643 0.0107769672545
 0.00543900125108 0.0123841614998 -0.128949412235 0.0270405134431
29401862500 -0.199997102794 0.0403649758161 0.010664664931 -0.00254485437177
 0.0129975379394 -0.00471005304926 -0.215465495429 -0.0436126074362
29443731250 -0.0756796697216 0.0637248022738 0.00888607287162 0.009950387826
 0.0107721385675 0.0084743397308 -0.23256551859 0.024210485432
29485600000 -0.0909797944401 -0.042097922842 -0.00156899698566 0.00759275162859
 -7.61513884593e-05 0.00639172975905 -0.168080169796 0.0128081179706
29527468750 -0.202118734374 -0.00694925260757 0.00478570243927 -0.0101882950118
 0.00588023849749 -0.0091293864956 -0.213417939245 0.0435582619482
29569337500 -0.125505844052 0.0303308390151 0.00430914542426 -0.00451764460944
 0.00510571299829 -0.00501948779004 -0.170054916644 -0.0258904744195
29611206250 -0.102431375573 0.0646262870444 0.00590127638323 0.00248730050396
 0.00622519053826 0.00196925380975 -0.208250679453 0.0258067885738
29653075000 -0.142586690999 -0.0389283970318 0.00878041217528 0.00444384420615
 0.00726128428978 0.00273498418207 -0.245852767243 -0.0395415659337
29694943750 -0.124440779955 0.066890273738 0.0105856235062 0.00433645214991
 0.0104037276243 0.00413410947926 -0.198748038979 0.0505619198748
29736812500 -0.167885175412 0.0114811150301 0.0046672420522 0.00530248099655
 0.00316389767629 0.00603963247267 -0.144566822157 0.00508086468486
29778681250 -0.153791297339 0.0140365919652 0.00330730345215 -1.94060868532e-06
 0.00393965284203 0.000676307383935 -0.178317445738 -0.041298643657
29820550000 -0.136806816032 0.0405919149325 0.00267718604859 -0.00588813332959
 0.00181714210286 -0.00661896945045 -0.246401075979 -0.0242707495699
29862418750 -0.10540312096 0.0546409099819 0.0238083098397 0.00661622590596
 0.0220349899981 0.00476945051306 -0.226894642944 0.122112843297
29904287500 -0.145058619983 -0.0803412478893 0.0150855668597 0.0135938608963
 0.00230842570096 0.0100025837172 -0.10767096231 -0.0158092940476
29946156250 -0.232352562306 0.101582388295 0.0113862838893 -0.00817546137618
 0.0216002494281 -0.00467596121822 -0.174202673497 -0.0687124113113
29988025000 -0.0886636405166 0.0915007822208 0.00560665810187 0.0237526069155
 0.0100291085421 0.0222648378442 -0.303151926936 0.00409725433686
30029893750 -0.0769022180366 -0.0549988384692 0.0231989103466 -0.0172154310688
 0.0125587584823 -0.0186999753953 -0.206285266634 0.129211056362
30071762500 -0.235696204468 -0.015730289037 0.028039746997 0.0142596386932
 0.0179246617928 0.0215893710807 -0.0585420142626 -0.00855252791366
30113631250 -0.230814271505 0.145006857686 0.0251801401836 -0.00242418205031
 0.0225256865665 -0.0154988124715 -0.27468599536 -0.106715326968
30155500000 -0.0262941781737 0.0412863536269 0.0249254851524 0.0162998815109
 0.0286870420075 0.0100994608814 -0.290829272611 0.0322094705267
30197368750 -0.143619581603 -0.0610266579668 0.0108402082854 -0.0312261544263
 0.0085971239298 -0.0161897612802 -0.13861688702 0.147032420474
30239237500 -0.28490789037 0.0173372199317 0.0222863725469 -0.00808227905091
 0.0205747549432 0.00711620879262 -0.125122787141 -0.0966289150761
30281106250 -0.108802806356 0.136432807069 0.00579808519717 -0.0208780531
 0.000865954910425 -0.0260359223775 -0.26668072165 -0.0381890579527
30322975000 -0.107850131533 0.0114651809953 0.0176430961043 -0.00255433542506
 0.0154362255006 -0.00357613462575 -0.2413047669 0.068281191989
30364843750 -0.167130091105 -0.0340201488625 0.00174225057989 0.0141209030896
 -0.0017779645288 0.0108680126444 -0.138857048373 0.0411805186404
30406712500 -0.235760632439 0.0344015185272 0.0135186082122 -0.0030576634468
 0.0136061549356 0.00425914224943 -0.143490714235 -0.0576016205416
30448581250 -0.167750193805 0.136252623407 0.00197295991765 0.0200837099427
 0.00241731076504 0.0229459604305 -0.247848943143 0.0229485314612
30490450000 -0.10160476781 -0.0327231043431 0.00842235983553 0.000907426612427
 0.00766482272282 -9.13374888801e-05 -0.214421486295 0.0189965265427
30532318750 -0.184826700892 -0.00276919966126 0.000563919967883 0.0129426522021
 -0.00181654526956 0.0110926554675 -0.145831650487 0.0747695012
30574187500 -0.259710346735 0.0279288619956 0.012570465801 -0.00191084554106
 0.0153417974581 0.00341325857154 -0.179029516701 -0.0230464533011
30616056250 -0.0842516975612 0.0947687075496 0.00772023410608 0.0163323237555
 0.011125516009 0.0168247201688 -0.266585507082 0.0172690561185
30657925000 -0.15165913588 -0.0318013614263 0.00808626089147 -0.0124872497193
 0.00640050349291 -0.00887736933535 -0.190266820353 0.0790173262083
30699793750 -0.234623607183 0.0315603077268 0.00784177012486 0.00280145571459
 0.00810670049545 0.00579705941092 -0.200560639812 -0.0134399695084
30741662500 -0.170640259272 0.0595040800067 0.00394018679879 -0.00625200422431
 0.00267769609726 -0.010851998074 -0.250151611462 -0.0609773941217
30783531250 -0.113068928127 0.00126294615499 0.0165942265576 -0.00721245720527
 0.0140943814517 -0.00666895401852 -0.2063003708 0.0788510771544
30825400000 -0.27683548847 0.00699290865811 0.0185726123677 0.00446692992997
 0.0139266834994 0.0123949933285 -0.112659099012 -0.0208734798213
30867268750 -0.108894666585 0.103462999683 0.00274334293194 -0.0113513945585
 -0.000358410021749 -0.0243505592326 -0.230593362166 -0.0600370387185
30909137500 -0.153524381848 -0.0523203862854 0.0193852055902 -0.00509540105587
 0.0134406044172 -0.00263469682734 -0.261008058349 0.0832152797297
30951006250 -0.267938411378 0.00787113001516 0.0132286549439 0.0224852636488
 0.00567809825201 0.0247500271718 -0.12413107185 0.0865057426657
30992875000 -0.17112914872 0.088492044434 0.00353463506557 0.0194413046468
 -0.006259946068 0.0109946791372 -0.140514804002 -0.111347724375
31034743750 -0.0869213710255 0.0246910347704 0.0161286137343 0.0216613645802
 0.0204787946258 0.015690675836 -0.330841432664 0.0220946656956
31076612500 -0.221656803259 -0.0920431057237 0.00813783193401 -0.0210557708208
 0.0171264258028 -0.0124856572186 -0.176124408958 0.107343758036
31118481250 -0.239943740563 0.0933835508946 0.023603848624 -0.00873694604446
 0.0238606395677 0.000253991795123 -0.0969608374068 -0.00670037076756
31160350000 -0.158469897207 0.0650379902082 0.00686924967597 -0.0071623103631
 0.00256758336413 -0.0158114465465 -0.249336668858 -0.0661065382779
31202218750 -0.120751974289 -0.0470505155934 0.0182876174895 0.00293638608831
 0.0134901172284 -0.00104695809827 -0.271467855583 0.0543027341545
31244087500 -0.230896095848 -0.031094725522 0.00646250208908 0.0152933821706
 -0.000293408883432 0.0155050223024 -0.129133444693 0.0610396431124
31285956250 -0.213760884031 0.053161011364 0.00586768315927 -0.00375473982342
 0.00933335633243 -0.00190395923942 -0.184200601075 -0.0213676308391
31327825000 -0.149610793647 0.0451643080724 0.000468678242507 0.00553827684161
 -0.00215577141888 0.00853257286972 -0.194669468505 -0.0404443281841
31369693750 -0.109969733171 0.000636663309774 0.0144574834638 -8.87905667948e-05
 0.0138017470693 -0.00061709318938 -0.211138254153 0.0632201282432
31411562500 -0.266487323776 -0.0489867097215 -0.000816823285528 -0.00816708918186
 0.00277230789975 -0.00872950882593 -0.172087286471 0.0442068645115
31453431250 -0.200965014417 0.0579418435968 0.0100313990343 -0.00192409317531
 0.0110493418472 0.000158714780951 -0.168461780113 0.0405901101467
31495300000 -0.127684866577 0.0544350206154 -0.00117869530132 0.0083226397481
 -0.00168799569342 0.0114546227978 -0.213043616309 -0.0095659169695
31537168750 -0.171642112997 -0.0671601730776 0.0138704535627 -0.000871062239024
 0.00881323096266 0.00136705465263 -0.271130780143 0.0589846533132
31579037500 -0.228880240359 -0.0222460535216 0.00964248472942 0.00667826589057
 0.00529265823908 0.0112637428083 -0.146998217232 0.000184619417643
31620906250 -0.159711608288 0.0819328195375 -0.000335153523662 0.00917932393448
 -0.000426749875747 0.0123892843901 -0.219873426645 -0.00435160577834
31662775000 -0.149125730604 -0.0509369040632 0.00546786104723 -0.000463429767692
 0.00447116896607 0.000254919999331 -0.201979332874 0.0166951503721
31704643750 -0.178746653026 0.0218174841822 0.00497555536769 0.00215603027509
 0.00423421894563 0.00302390982464 -0.145063299666 0.0542903003434
31746512500 -0.187234757721 0.0350936472762 0.00372800324151 -0.00507621000672
 0.00629925821019 -0.00571682468003 -0.195320950947 -0.0120569295695
31788381250 -0.149456727336 -0.0315490939783 0.0126552381893 0.0015750323562
 0.0101823125327 0.000197154816879 -0.277078170101 0.0553867521309
31830250000 -0.236939964216 0.0070406690967 0.00981872057245 0.0114960434434
 0.00588202635014 0.0135634142433 -0.135617583512 0.0716777855882
31872118750 -0.148373749418 0.057463610386 0.00429172507942 -0.00851788262672
 0.00957468207973 -0.00961921460919 -0.173591469479 -0.025859368335
31913987500 -0.133006560148 -0.0598328854205 0.00774121723479 0.0102844143211
 0.00894556579343 0.00461379297266 -0.26058809006 -0.0319883644868
31955856250 -0.1948468231 -0.0209624816133 0.00906367836892 -0.0153457326924
 0.00906729087896 -0.011607909802 -0.234748018777 0.149397010719
31997725000 -0.235128366724 0.0496290697984 0.0224684532384 0.00160233864953
 0.0214524965841 0.00853967821337 -0.11614714299 0.0265827737855
32039593750 -0.0748483416355 0.0610011348413 -0.001501420218 0.0113478928945
 0.00506563692147 0.0217202172269 -0.219586649047 -0.0514937864958
32081462500 -0.156723666335 -0.0745258826771 0.015134101016 0.00350392943012
 0.00777965295675 0.00201002435972 -0.279149376034 0.0283036613059
32123331250 -0.257662924434 0.0109433590688 0.00528708946271 -0.0231590428285
 0.00887689995636 -0.0221064163869 -0.233995489467 0.110378527237
32165200000 -0.173836220541 0.0457166145107 0.0152012457798 -0.0107451750066
 0.0162862068088 -0.00504571439436 -0.09052620475 -0.00390717038579
32207068750 -0.0886602256805 0.0498815515519 0.00021307520292 0.0125509913638
 0.00681473695524 0.0168713703509 -0.237801592408 -0.0374175865433
32248937500 -0.18597414073 -0.116549017681 0.0122055227437 -0.000442106663397
 0.00843351338047 0.00732305568442 -0.261341823006 0.0258968314897
32290806250 -0.221961527555 0.0461380212433 0.00883802282377 0.0207407458134
 0.00626313503493 0.0209557447645 -0.19024289561 0.126597695252
32332675000 -0.157598943781 0.0774550754307 0.0141112112613 -0.011362196706
 0.017274770529 -0.00922011275106 -0.140734453453 0.0180320307842
32374543750 -0.120515807356 -0.0357464608308 0.00396867764065 0.0104986089726
 0.00804238159161 0.00673189003959 -0.263040338736 -0.0358457108319
32416412500 -0.198916663913 -0.028715717255 0.00877899740694 -0.00376381261418
 0.00821769852058 -0.00271263144916 -0.260006740517 0.0360035191332
32458281250 -0.181744075296 0.0410269334052 0.0100485072825 0.0104169117615
 0.00915644892285 0.0108632240065 -0.201447189908 0.0846130162639
32500150000 -0.177868621117 0.00111446684179 0.00783275271086 0.00210486472271
 0.00641269952669 0.00456187513408 -0.130531898541 -0.0177906562933
32542018750 -0.137138271565 0.0446718388022 0.00244465401138 0.00965801066638
 0.00393598773448 0.0100059829608 -0.244965537324 0.0261548429145
32583887500 -0.168624723773 -0.0397035016587 0.00640722696959 -0.000933227617746
 0.00509912312687 -0.00079637302474 -0.248341559478 0.0382925854198
32625756250 -0.192792998744 -5.28948798799e-05 0.00309817969558 -0.00610429710769
 0.00324987816437 -0.00555457513768 -0.230731208 0.0508736437079
32667625000 -0.188589168407 0.0426310318783 0.0107091418167 -0.00052352411726
 0.0113003298573 0.00147159485411 -0.162276072292 0.0170565785512
32709493750 -0.111457693381 0.0454654199309 0.00218236549335 0.010279897651
 0.00477242375181 0.0110888310228 -0.242941532102 -0.0043690588638
32751362500 -0.186018834774 -0.0824999690359 0.00390611604614 0.00337039097956
 0.00164032092223 0.00389129406952 -0.200477470232 0.013706592256
32793231250 -0.194949488201 0.0824675038607 0.00645208043469 0.0157143500888
 0.00638536787315 0.0162112296289 -0.22706942251 0.0855053838309
32835100000 -0.157471708054 -0.00285895405736 5.33660731556e-05 0.00515694802962
 -0.000101203924995 0.00512501591519 -0.196436628437 0.0173440389352
32876968750 -0.158416055229 -0.00655141497563 0.00218720173243 0.000748301822996
 0.00205360261176 0.000596832620883 -0.226678186372 0.0333335953573
32918837500 -0.18343058563 0.0566750905795 0.00519745687977 0.000193917756049
 0.00549119537204 0.000239551111372 -0.21942423684 0.036112156854
32960706250 -0.144614640991 -0.0150423907761 0.00598452711353 0.00595867689423
 0.00616283682855 0.00396779352907 -0.273284964735 0.0162470463593
33002575000 -0.229201068385 -0.031347579428 0.000862902856993 -0.00906597446287
 0.00270179752973 -0.00834542352563 -0.222757510751 0.0414499059525
33044443750 -0.167787421342 0.110156075231 0.0144443044996 0.00811337912114
 0.0156860919376 0.00855895371725 -0.222943993844 0.0510018716092
33086312500 -0.113072368553 -0.031664468307 0.00391928718212 0.00600827488575
 0.00457916516796 0.0127662761758 -0.191192124984 -0.0734219223602
33128181250 -0.191030371273 -0.0599232604706 0.0189282687686 -0.000642923166181
 0.0130009025779 0.00204502849116 -0.321465905544 0.0412037569412
33170050000 -0.264428572967 0.081463302082 0.0135157631771 0.0221639742894
 0.011356813331 0.0252254936827 -0.201118784011 0.0700502543084
33211918750 -0.0596593155975 0.0619732352088 -0.00269084598085 0.0152387477026
 -0.0055161862931 0.0197728152471 -0.177597417127 -0.0324408345706
33253787500 -0.189319638186 -0.0953380080679 0.00591343327251 0.00577574455258
 0.00411523465663 0.00880346354882 -0.238845142736 -0.0580446743802
33295656250 -0.230692522838 0.0695148566462 0.00720221019718 -0.0251527529466
 0.00739822978442 -0.0252389171996 -0.287200693166 0.065936316416
33337525000 -0.135957971404 0.0168493827264 0.00518640261189 -0.0126852729767
 0.00617183398619 -0.0107022484441 -0.129519020902 0.0247188242875
33379393750 -0.165860850343 0.0163635199564 0.00309101319777 0.00340167794713
 0.00336050382826 0.00349953716554 -0.240068827337 0.00244053828378
33421262500 -0.230831853168 0.0154238677648 0.00570492758836 -0.000874662495342
 0.00654053157811 -0.000514551208497 -0.23868370078 0.00377786037678
33463131250 -0.117658893605 -0.00666685371786 0.00540803369196 -0.000834914904834
 0.00487254162476 -0.00178028883349 -0.242455080229 0.0158768097301
33505000000 -0.23833259983 -0.0089715039958 0.00356610295384 -0.00259953056702
 0.00435868082484 -0.00251476740803 -0.24510484642 -0.00436446209174
33546868750 -0.172996409203 0.0490206665716 0.00654670413321 0.00607545000538
 0.00682351566247 0.00683540340428 -0.219492357291 0.0173244512023
33588737500 -0.120559873849 -0.0183208696311 0.00483009043626 0.00833422266137
 0.00141516284703 0.00909367608731 -0.15483877718 -0.0599170649265
33630606250 -0.185162601869 -0.0084665356935 0.0112263801304 0.00178523080506
 0.0104708453647 0.00118439591563 -0.29619095372 -0.00879858736433
33672475000 -0.244057433667 0.0527508671768 0.00948619488717 0.00930148040141
 0.00784437027906 0.0122896479849 -0.178582183943 0.0316325683391
33714343750 -0.102944971517 0.00978531234195 0.00694272244065 -0.00978129493117
 0.0076276356141 -0.00935087839064 -0.1729062038 0.0127559047351
33756212500 -0.24350916699 -0.0194392757524 0.00734358023762 0.00189274252225
 0.0132238005362 0.00493127643654 -0.22085791214 -0.0565724481121
33798081250 -0.165641092097 0.0292851529658 0.00766866042746 0.00793188350187
 0.0077293233853 0.00811025894225 -0.244443611728 0.0422389494882
33839950000 -0.157259886778 -0.0402071195778 0.00192769491934 0.00873041925873
 -0.000709127139555 0.00747397686848 -0.148164428213 -0.00247464355853
33881818750 -0.21579441924 0.00479459178218 0.00853489715772 -0.00626467090908
 0.00909083981522 -0.00662546992415 -0.266220949772 0.00455216937417
33923687500 -0.166468921592 0.043027369903 0.00841753157285 -0.000758853597828
 0.00899788898453 0.000620436049821 -0.175275898728 0.0148541771567
33965556250 -0.107783002643 -0.0193130353916 -0.000786790164213 0.00586077152976
 -0.000647660971871 0.00594205777629 -0.192817281596 -0.000210415258195
34007425000 -0.25480705993 -0.0261621923777 0.0102698293819 0.00427441567816
 0.0144356286176 0.00355318959821 -0.260193994382 -0.0569147716926
34049293750 -0.176250156226 0.03646673287 0.0123655468021 0.0102578848637
 0.0111067579729 0.0104720044828 -0.221718388842 0.0918598989959
34091162500 -0.155452879778 0.0351576017038 0.00511786929132 -0.0109011408269
 0.0091617108732 -0.00780132057009 -0.140276264036 -0.0401463459705
34133031250 -0.172855935763 -0.0748478264705 0.0044199316962 0.00585876787622
 0.00615893401698 0.00517114839545 -0.244110820617 -0.0731231427152
34174900000 -0.216420360534 -0.0118114511396 0.00256658975294 -0.00704265366467
 0.00445478653182 -0.00712599251441 -0.210847240449 0.0121525757009
34216768750 -0.134260974896 0.0338153818969 0.0132093011888 0.000238920673578
 0.0129180845923 0.00112481539795 -0.180912314975 0.0602146699374
34258637500 -0.198665475568 0.00165042766665 0.00568361156706 -0.0033086013659
 0.00666081079669 0.00111718981074 -0.147271939778 -0.0682182535728
34300506250 -0.111560429603 -0.0248426412836 0.00924142679564 0.00158608154953
 0.00908712922058 0.000727453510737 -0.224936537586 0.0190937752932
34342375000 -0.22889233677 -0.00461214740116 0.00587065515199 -0.00146881672091
 0.0079953172843 0.000887386946628 -0.189809885641 -0.0258111715584
34384243750 -0.186602572 0.0022008881568 0.00281840120545 0.00408924007418
 0.00218752758001 0.00460897812513 -0.197170577665 0.0419840820034
34426112500 -0.127610754987 0.01762764652 0.00609662696036 -0.0075855988618
 0.00733383470493 -0.00647476292519 -0.144430594837 0.0135225790265
34467981250 -0.171752503681 -0.0351676045949 0.00402598230861 0.00166259710303
 0.00389351077641 0.00280674185578 -0.193594983562 -0.0170459323104
34509850000 -0.196450988018 -0.00222437692308 0.00556650110511 -0.00193963897874
 0.00733971020262 -0.00186639637246 -0.221697089681 -0.0211365102171
34551718750 -0.154783319094 -0.0135457665531 0.00938666892416 -0.00192353716587
 0.00851246995026 -0.00116009383834 -0.190565512688 0.0829609415009
34593587500 -0.18197038722 0.0304571105888 0.0076075260704 -0.00660310273755
 0.0101783413037 -0.00329914643248 -0.137955125728 -0.0359176853257
34635456250 -0.126709123252 -0.0325139266218 0.00427670469961 -0.000122489802429
 0.00415434536391 -0.000128992155875 -0.191601862868 0.0205330258737
34677325000 -0.177672128298 -0.0007275787896 0.00175816765097 -0.00160218141099
 0.00207532163717 -0.00154566757665 -0.208287735144 0.00839084320577
34719193750 -0.205991737762 -0.022601312517 0.00366427144707 -0.0058382479635
 0.00472231366088 -0.0053687603376 -0.215280884926 0.025441180396
34761062500 -0.159738050375 0.0392682193379 0.00876614063512 -0.00361100186072
 0.00975662874349 -0.00170743471772 -0.1451539498 0.00938827774831
34802931250 -0.0933204841651 -0.0233744736502 0.00190398506749 -0.00534267834045
 0.00205114562782 -0.00539578889905 -0.161969709872 0.0169163763245
34844800000 -0.231703690515 -0.0486187157551 0.00873137441105 -0.000351765932327
 0.0123307808379 0.00550418798579 -0.192360906164 -0.0493456191539
34886668750 -0.159056022566 0.0181340002184 0.00744963369397 0.0104678409797
 0.00703636797242 0.0104421186946 -0.211659490854 0.0883761119428
34928537500 -0.123446048943 0.0244676631633 0.00816151967803 -0.00700758815936
 0.00882892290354 -0.00627530293152 -0.134118913858 0.0400951050663
34970406250 -0.16952235618 -0.0450356639965 0.00728049064787 0.0034730645659
 0.00566723366621 0.00525156694564 -0.153117307032 -0.0228662026616
35012275000 -0.120054278477 0.00166952839698 0.0044213459675 0.00490589815822
 0.00523764538584 0.00469529297559 -0.230244191046 0.0242869146935
35054143750 -0.187709649147 0.0050672688532 0.00035497216104 0.00966244087788
 -0.00055941135587 0.00924646752937 -0.185155438897 0.0731855129728
35096012500 -0.166361070734 0.0319072978105 0.00668494676855 -0.00453216529726
 0.00812190678961 -0.00309555968834 -0.149854497736 -0.0102750438145
35137881250 -0.105677927218 0.000992636387222 0.00850121109651 -0.00231637543189
 0.00863253653905 -0.0024173259993 -0.174669347784 0.0476141180158
35179750000 -0.165402415927 -0.0349795218044 0.00634719098387 0.00135865811703
 0.0061900060569 0.00238173623764 -0.178227260509 -0.00479743862259
35221618750 -0.212236410532 0.000352478958407 0.0017906224266 -0.00747485210863
 0.003004602263 -0.00733751275242 -0.18007115815 0.0440480957945
35263487500 -0.0950924016322 0.066159003039 0.0141466698102 0.00223440772924
 0.0151029243675 0.00250778422379 -0.172361248103 0.0702778494197
35305356250 -0.133875971363 -0.0547719187182 0.00474393929247 0.00858208550314
 0.00417999867455 0.00748221041012 -0.132388809778 0.0418479992734
35347225000 -0.184667221682 0.0133881216989 0.00858448888316 -0.00203483012439
 0.00952021125721 -0.000955104003125 -0.175794762525 0.00729754154362
35389093750 -0.122783499538 0.044384162569 0.0120452723039 0.0101321303095
 0.0129304610434 0.0098351582792 -0.222293236216 0.0955657506708
35430962500 -0.168390339554 -0.0186176986717 0.00439552881235 0.00867434840882
 0.00368375441775 0.00811346456545 -0.144080734627 0.0779093075675
35472831250 -0.156396310295 0.0437310931986 0.00580285234015 -0.00405998416218
 0.00634568130674 -0.00400841191203 -0.173612136719 0.0434634062985
35514700000 -0.101755111922 0.0078130950352 0.00921912980552 0.00537573716939
 0.0105599761127 0.0044484529433 -0.228252516015 0.0595046041032
35556568750 -0.191240918809 -0.0242856791841 0.0039811564595 0.00639224116326
 0.003347942703 0.00596939548042 -0.181989155574 0.0617760275873
35598437500 -0.184355594605 0.0506997815723 0.000674994947926 0.00454938745574
 0.000634267811425 0.0047578236468 -0.204871070083 0.0580542722653
35640306250 -0.0774060453724 0.0654565383952 0.00992129823768 0.00143919743321
 0.0109460114583 0.000977343123556 -0.197492903326 0.0662455001273
35682175000 -0.162545451296 -0.0643216494651 0.00753842957663 0.0101760274321
 0.00646017061606 0.0077263062509 -0.152048061769 0.0429947903117
35724043750 -0.210364852241 0.048177250608 0.00718883090031 -0.00965741994542
 0.00757316479078 -0.0100024547044 -0.227571412451 0.0592892969507
35765912500 -0.117490448886 0.0861684411948 0.0129660745494 0.00774177393831
 0.014101927705 0.00740880843566 -0.216858537931 0.0997425156798
35807781250 -0.151369678719 -0.0488578846258 0.00209403296765 0.0112325843317
 0.00329223474543 0.00932776040319 -0.171999163737 0.071774051603
35849650000 -0.175534172762 0.0307014779667 0.00572809596124 -0.00304350244113
 0.00585815132487 -0.00335252287146 -0.21768164518 0.0409201600603
35891518750 -0.131720749586 0.0453635772699 0.00551119103551 0.00711071266199
 0.00650733392246 0.00673713827679 -0.239690449451 0.0752745210922
35933387500 -0.169652124758 -0.0204599719594 0.00304740630754 0.00995019858416
 0.00328250016427 0.00846737161154 -0.18658057852 0.0798159598192
35975256250 -0.154721609493 0.0896080558729 -0.000727625189912 0.0101637844623
 -5.27871966668e-05 0.0109301880779 -0.240479476426 0.0566405094695
36017125000 -0.114945262198 0.00347052125398 0.00410522499935 -0.00406546606276
 0.00342171426292 -0.00470065929966 -0.221486378839 0.0727202096003
36058993750 -0.178373570211 0.00219494997164 0.00565490118678 0.00565363518681
 0.00533102498817 0.00543085369862 -0.196748462864 0.0344284735137
36100862500 -0.121576976284 0.0552574784001 0.00902377282229 -0.00669660656807
 0.00899744120083 -0.00719920862201 -0.185367840014 0.0720700487621
36142731250 -0.123618787539 -0.0129626244781 0.00506248747247 0.00665067352755
 0.00595117253756 0.00599367418221 -0.202931622044 0.0435218838453
36184600000 -0.244396195617 0.0469844940062 0.0117272417519 -0.00943894648343
 0.0118746809823 -0.00944526162239 -0.260741024824 0.0650953656476
36226468750 -0.109550227853 0.0689853023349 0.0144363477845 -0.00474457569667
 0.0144185449314 -0.00591768420167 -0.204665375281 0.107369339806
36268337500 -0.182276894248 0.0186558746771 0.00444718361317 0.00257041779169
 0.00446720076066 0.00223506071728 -0.237435721232 0.0549090295507
36310206250 -0.194065020885 0.0431861506203 0.00188782030943 -0.000771983679463
 0.00183255835668 -0.000845757456752 -0.243324078579 0.0638990499508
36352075000 -0.138538633855 0.0362967702482 0.00248571871786 -0.00364885121795
 0.00205787675418 -0.00405072006114 -0.238564519865 0.0590317450961
36393943750 -0.206261695325 -0.00973177888696 0.00673250941779 -0.0011741827624
 0.00573617550599 -0.00133040795006 -0.265702898037 0.0548865505775
36435812500 -0.184744160764 0.085616636461 0.00263050028534 0.0103583813631
 0.00335614361546 0.0103816880865 -0.261002647344 0.0635070210683
36477681250 -0.105960635072 0.0250189313198 0.00682273528563 -0.0155845215668
 0.00553559525659 -0.0162141620754 -0.175569877871 0.061133076926
36519550000 -0.201427394696 0.00426896786748 0.0119091332821 0.00323461131672
 0.0123054369298 0.00201238180573 -0.2674801025 -0.00453720061579
36561418750 -0.213390455606 0.0655994292194 0.00287769395171 -0.0124114979701
 0.00228071036677 -0.0119121533149 -0.284729309519 0.105067560331
36603287500 -0.157009106141 0.0861014166277 0.0182342993481 -0.000897404919498
 0.018064323135 -0.00172728158967 -0.220954802985 0.106038894911
36645156250 -0.186370981346 -0.0223599280507 0.00462145349281 0.00898145395112
 0.00490639478049 0.008023262798 -0.237256760137 -0.00756801884478
36687025000 -0.216524183022 0.0482791572183 0.00810565639034 -0.00552640908996
 0.0070462594523 -0.00640412069334 -0.319835596584 0.0187245314525
36728893750 -0.171856608319 0.0155617651802 0.0079409441658 -0.00152535678131
 0.00676285421885 -0.00194766963369 -0.242801382847 0.093360177159
36770762500 -0.22238111766 0.0398257475081 0.005855208142 0.0011835747276
 0.00599391505296 0.00130356161836 -0.249710412851 0.0254556135459
36812631250 -0.154431583888 0.0254128208022 0.00424198940857 -0.00269060794738
 0.00368218660454 -0.00322244392565 -0.25232514143 0.0351804472005
36854500000 -0.163232900273 0.00774204490438 0.00331256944385 0.00432179965942
 0.00382951679289 0.00323943991627 -0.280551094961 0.0117532393956
36896368750 -0.243944574111 0.0103139786425 0.00639806613147 3.7059676998e-05
 0.00649979277369 0.000403805764059 -0.27028957112 0.00871680570985
36938237500 -0.173693516755 0.0889882634599 0.0101614578886 0.0105282097651
 0.0109002667185 0.0103880771631 -0.259315759779 0.0578739568856
36980106250 -0.156645788888 0.00732437225808 -0.00242463116695 0.0118760093848
 -0.00232719843364 0.0105784665283 -0.187807170733 0.0401127613485
37021975000 -0.241756346214 0.00313500589657 0.00716074307624 0.00476661308486
 0.00882604045186 0.00395739878083 -0.285824105968 -0.039780179015
37063843750 -0.212899852008 0.0211840145592 0.0023806346457 -0.00756250433288
 0.00191167022906 -0.00669757895528 -0.301832645474 0.0864400668331
37105712500 -0.191704132713 0.0307866256474 0.00868052901972 0.00229065129676
 0.00822400581696 0.00205472312418 -0.236457908532 0.0550986302718
37147581250 -0.181672505737 -0.00938221076949 0.00135360988711 0.0061667859077
 0.00193326312329 0.00603042645463 -0.239335072775 -0.0200895116058
37189450000 -0.170126419921 0.0165810827141 0.0011794495287 0.00721205953216
 0.00244699230159 0.00533157378715 -0.341850935614 0.00898547139875
37231318750 -0.215185178897 -0.00107256050166 0.00265158671474 -0.007018599641
 0.00303293634252 -0.00602402625342 -0.260705644799 0.0187535828401
37273187500 -0.217136700242 0.0603472038139 0.00515692032538 -0.0006310677878
 0.00639674546537 -0.00191633968624 -0.269462900673 -0.0407293001752
37315056250 -0.182374811448 0.0293736567399 0.0065952540517 0.0014758648215
 0.00721355117233 0.00181208752708 -0.245829198461 -0.00059543519781
37356925000 -0.2027451824 -0.0417804108475 0.00185447710741 0.00378851071737
 0.00040886012296 0.00460107887344 -0.223889657398 -0.0216359230658
37398793750 -0.263899224542 -0.00896109132085 0.00530413926237 0.00200391028287
 0.00745917979694 0.00298728709865 -0.251246663541 -0.0311363381611
37440662500 -0.162449992775 0.0250547485028 0.00498557820571 0.0131546917229
 0.00634523192097 0.0110551907855 -0.299852570761 0.0350581736922
37482531250 -0.191152504605 -0.028885614525 0.000280625182122 -0.0076315870011
 0.00234897427054 -0.00601054588535 -0.185768983421 0.0113912033094
37524400000 -0.168718720107 -0.0116860797527 0.0014061457531 -0.00240421484983
 -0.00116673059946 -0.00386342316396 -0.242618893504 -0.083070852282
37566268750 -0.194875368924 -0.00499627697437 0.00742682147675 -0.00171061202681
 0.00630465519979 -0.00155833121055 -0.300474678613 0.0246433151954
37608137500 -0.229290156446 0.0160839865831 0.00201346002343 0.0056271420824
 0.00150969360091 0.00649657644203 -0.244237528126 0.00363982236919
37650006250 -0.173424135826 0.0221602960542 0.00418348011588 -0.0028619229442
 0.00642648256613 -0.00318573720507 -0.217193838959 -0.0387364687794
37691875000 -0.166161228045 -0.0283896819469 0.00250735723753 0.00669885882092
 0.00330718889916 0.00449105973534 -0.290529121824 -0.0536451726732
37733743750 -0.262847249964 -0.0614451155948 0.00114831132375 0.00341809703943
 -0.00237731142196 0.00890326047954 -0.208259309231 -0.0562232004715
37775612500 -0.204586388653 0.0296874132811 0.00338231387978 -0.00357121586659
 0.00371854379936 -0.00909740820421 -0.231549831272 -0.0641313040666
37817481250 -0.111382714999 -0.0399040388582 0.00983061540192 -0.00160917593839
 0.00836701757898 -0.00221372164377 -0.19894039163 0.0112468055299
37859350000 -0.186297054859 -0.0675401090257 0.00726401474913 0.00515383250356
 0.00161133970108 0.00745885430802 -0.151786138438 -0.0402619464529
37901218750 -0.211314808222 0.026840019401 0.00529884303035 -0.00277660637871
 0.00869824480938 -0.00546971519417 -0.232258446818 -0.0561365336376
37943087500 -0.141981859265 0.00378137586632 0.00781908304784 0.00738675074271
 0.00828628941761 0.00620912780929 -0.267019166635 0.0185903688386
37984956250 -0.217579782489 -0.0416179919763 0.00347653868284 0.0103088509553
 -0.00143072840059 0.00979016733918 -0.139612978084 0.0231468915099
38026825000 -0.179626080712 -0.00465901128255 0.0033035104523 -0.00025358063371
 0.0015358522539 -0.00820178170646 -0.224622328668 -0.0905768271414
38068693750 -0.158279604678 -0.0659090201846 0.00662385145884 0.00261123755956
 0.00470961836659 0.00175977131177 -0.263976297932 -0.0159006682333
38110562500 -0.19449306314 -0.0397678986519 0.00322781062709 0.00587468473294
 0.00059690029466 0.00698619768726 -0.174223858514 -0.0184787756024
38152431250 -0.160426163764 0.0240198572275 0.00255296290779 -0.00398742042386
 0.00511732048843 -0.00345939428679 -0.173658599892 -0.0520752027376
38194300000 -0.127824245502 -0.0301324035138 0.00454202609805 0.00360900795536
 0.00528263940059 0.00339892596315 -0.224117693227 -0.0260437283658
38236168750 -0.198264981556 -0.0723245527583 0.00313569789117 0.007758146406
 -0.00159520983144 0.00750437727834 -0.149168564452 -0.0124236878971
38278037500 -0.193946846008 0.0136557117906 0.00352547890953 -0.00474083186292
 0.00760890364698 -0.0066319969263 -0.204111130008 -0.0546664353766
38319906250 -0.116569360687 -0.0375207811617 0.00581071790746 0.000615544079334
 0.00586313699439 0.000242065877626 -0.205858366986 -0.00836634110819
38361775000 -0.175839920161 -0.0477081150887 0.00359128955986 0.00376692337382
 0.00170115342319 0.00420082315481 -0.131821515176 -0.00892204525909
38403643750 -0.105365330063 -0.00792079221911 0.00148719871726 0.00369666422124
 0.00111680655585 0.00438692659449 -0.170509643356 -0.032771494744
38445512500 -0.195547400172 -0.0456782050287 0.00480713119513 -0.00138839158862
 0.00513845334817 -0.000152212501473 -0.193798868087 -0.00629555888649
38487381250 -0.166898327674 0.00119026546991 0.00486733015621 0.00383978537765
 0.00455608854996 0.00457648329258 -0.184393108044 0.010409945104
38529250000 -0.0920079039667 0.00319032393647 0.00309353626652 0.00452839627781
 0.00385666659346 0.00559951688004 -0.193025729113 -0.0308532166814
38571118750 -0.135524489265 -0.109131710316 -0.00211987304555 0.0102404218197
 -0.000495833196404 0.00454704914477 -0.155977594937 0.00143052294726
38612987500 -0.203482011385 -0.00386966990774 0.011663247481 -0.00489126697194
 0.0126545441309 0.000934803352879 -0.121869688506 -0.0668421844864
38654856250 -0.0844118111771 0.0592659829451 0.00654892591874 0.0159956026788
 0.00931119020361 0.0184705877687 -0.223880507961 -0.0111212835399
38696725000 -0.0842691916782 -0.0605798403483 0.00951241831247 -0.0134222329954
 0.00695582080941 -0.0128988296118 -0.1526310862 0.0634487513053
38738593750 -0.204378822127 -0.0366288493106 0.0158254685717 0.0084501004967
 0.0104755357566 0.0115081488782 -0.0701021693058 -0.00925918409724
38780462500 -0.134414982952 0.0566017130746 0.00183991913641 -0.0107498213069
 0.00964135920416 -0.0180547165717 -0.196296924086 -0.0826922328358
38822331250 -0.0862664303836 -0.0549639185013 0.0170197360685 -0.00391518208359
 0.0150323668127 -0.00636592924993 -0.224264240934 0.0627012870196
38864200000 -0.155980965651 0.00115476479254 0.0132182658309 0.00914371004444
 0.0107033938482 0.00978320488167 -0.0778555401178 0.0521489255316
38906068750 -0.0991829971792 0.0208998144509 0.00129052382705 0.0102122313324
 -0.000560264798198 0.0103145582746 -0.113640204416 -0.0418977981068
38947937500 -0.125655624604 -0.0214544795643 0.00780071410374 0.000180361510269
 0.00817910611859 0.000668104984394 -0.179520242533 -0.011692305785
38989806250 -0.155008680292 -0.000742474499449 -0.000897354862978 0.0117884925732
 -0.0013383352794 0.0112916679793 -0.172805795083 0.0750233727749
39031675000 -0.116777747025 0.0633472094747 0.0125288231107 -0.0063110456775
 0.0130466921375 -0.00533643932563 -0.105928135737 0.0447652665399
39073543750 -0.0699468249899 -0.0447328430035 0.00327781843828 0.01031734817
 0.00370218281066 0.0101023938565 -0.122398742278 0.035776055811
39115412500 -0.164916204372 0.00219188153496 0.0107396062895 -0.00370625995241
 0.0115349541194 -0.00222600772803 -0.158408997506 -0.0157243784604
39157281250 -0.145319779222 0.0587552949154 0.00308922977757 0.0152015562846
 0.00301947451959 0.0159169597992 -0.205455466905 0.0630764487416
39199150000 -0.0830476520443 0.0225784596217 0.0126619641274 -0.0119709019483
 0.0124346138725 -0.0116649266388 -0.0839823689466 0.101417757023
39241018750 -0.106611440528 0.00681337590513 0.00808501755936 0.00818833342024
 0.00760682473412 0.00843472016158 -0.104495182145 0.0321407041062
39282887500 -0.150436575412 0.00933597342092 0.00868107785941 -0.00389100939125
 0.00908564231406 -0.00417173279911 -0.202627444162 0.0300262595173
39324756250 -0.154027837558 0.0328053747745 0.00135991743222 0.0155507403983
 0.00157309569496 0.0150864997951 -0.185091913392 0.131985010594
39366625000 -0.101977456766 0.0902455392255 0.0124693968821 -0.0150209041639
 0.0135546340983 -0.0148874765057 -0.121176705766 0.0483857311968
39408493750 -0.0670293764513 -0.0275029159068 0.0120791989529 0.00143049878114
 0.0129622291846 0.000291383785617 -0.189433988465 0.0432046891496
39450362500 -0.18145795197 0.0215591279693 0.00466781876319 0.0107672952152
 0.00395707868092 0.0104140363285 -0.141107415463 0.086189017616
39492231250 -0.167013392794 0.0894391729928 0.00637093699024 -0.00769847153371
 0.00693741098416 -0.00751830192861 -0.158428433821 0.0640626817775
39534100000 -0.0680037480176 0.0876412569234 0.0084311450573 0.0121404027826
 0.00922029422455 0.0130559786458 -0.189046716719 0.0716833335051
39575968750 -0.123745411001 -0.0472394771403 0.0130431119923 -0.0185729685573
 0.00953016906295 -0.019323608795 -0.188191515799 0.163334417402
39617837500 -0.199177005863 0.0564747719977 0.0242830451062 -0.00118591252036
 0.0236804999166 0.000887162754086 -0.119923555567 0.0311705784353
39659706250 -0.114346907397 0.102366611008 0.000691954050849 0.0177211945592
 0.00189505498369 0.0195564906335 -0.25303975124 0.0426315753565
39701575000 -0.0869591214796 0.0362440649943 0.0190926719176 -0.00308810924721
 0.0190475179753 -0.00488059687356 -0.222875127227 0.128999768789
39743443750 -0.156091068454 0.0220349199288 0.00534654993983 0.0161330986207
 0.00522176605887 0.0149146115699 -0.145236851991 0.106820492451
39785312500 -0.180787575915 0.0840100908783 0.0123181030759 -0.00844444156704
 0.0133039265988 -0.00683657339456 -0.142203746986 0.00292494846678
39827181250 -0.116114230092 0.0666397388564 0.00849670705162 0.00702820705773
 0.00918777380372 0.00697469275506 -0.235995350251 0.0880328547658
39869050000 -0.148886024665 0.0705767571626 0.00589005743546 0.000475150490538
 0.00591157544507 0.000338089289066 -0.199276782548 0.1242786345
39910918750 -0.163717137081 0.0340503857949 -0.000866076132331 0.0129772309836
 -0.000360391602537 0.0123331639129 -0.179555218451 0.141551635499
39952787500 -0.151531204465 0.0880774927096 0.00769853106108 -0.0104871159082
 0.00842162874734 -0.0101919797763 -0.162205835493 0.0450807491864
39994656250 -0.167928285198 0.040307716089 0.0110335304261 0.000341142311028
 0.0115402654914 -0.00031127701745 -0.2624244278 0.0470569290776
40036525000 -0.166986806427 0.091778170685 0.00638890397145 0.0122476600658
 0.0067175292365 0.0121046915376 -0.236576181698 0.139868546699
40078393750 -0.150480508505 0.069173038743 0.011412609264 -0.00990401530442
 0.0109031052232 -0.00981068160411 -0.152142236273 0.154847508291
40120262500 -0.16281631745 0.0556176313998 0.00712242814145 0.00733691495368
 0.00650501285777 0.00806322041649 -0.164567334652 0.0119355963249
40162131250 -0.221965091714 0.0342983750402 0.0201364337932 -0.00556627698702
 0.0186877688211 -0.00714148551291 -0.337017361669 0.108220576304
40204000000 -0.182565825184 0.117773315955 0.0218486792458 0.0125503471326
 0.021954570894 0.0120852584274 -0.207613070822 0.15903946467
40245868750 -0.131843793229 0.0515311616713 -0.00308798818592 0.01472081574
 -0.00264859702161 0.0152644279421 -0.185751429372 0.074416267035
40287737500 -0.17141656658 0.0113053879118 0.0111730599312 0.00680426022242
 0.0124029694163 0.00563442434294 -0.26323446957 0.0319216675066
40329606250 -0.263270790556 0.0788323496351 0.00784343648757 -0.0231206988834
 0.00763164596439 -0.0221105698063 -0.276761803104 0.145793893842
40371475000 -0.159285963421 0.141105816285 0.0182034850937 -0.0129081209146
 0.0196263915715 -0.0128375027546 -0.19676129379 0.0787644585973
40413343750 -0.151537522464 -0.00988721737813 0.0114377975363 0.00547167473856
 0.012421621657 0.00239297254964 -0.290314351958 0.0743387752802
40455212500 -0.226871750228 0.0303824051194 0.00118217789536 0.00781238851212
 0.00105404138815 0.00717383070259 -0.23567838344 0.0931694840275
40497081250 -0.246665147998 0.0751329750358 0.00684567529687 0.00533176993516
 0.00654984375716 0.00559380611522 -0.23809843997 0.0824686385495
40538950000 -0.145777463397 0.10087434771 -0.00235183446581 0.0145544468006
 -0.00103989534837 0.0168549267407 -0.280933458155 0.0458350806225
40580818750 -0.179135292354 0.012317764127 0.0140669070899 -0.00404891345488
 0.0117824463785 -0.00589433372066 -0.292105280186 0.111963312047
40622687500 -0.248989778371 0.0274268357333 0.00644381641505 0.00786080098085
 0.00493402549625 0.0079450314711 -0.20882228903 0.0595179672255
40664556250 -0.224952883401 0.0648541400009 0.00600704738017 -0.00458823799832
 0.00584373820404 -0.00496183236732 -0.290464703964 0.0624801651673
40706425000 -0.190628622602 0.0802968056115 0.00529526699811 -0.00515668468372
 0.00555052697453 -0.00588721433033 -0.260939713759 0.045609973384
40748293750 -0.174141852995 -0.00588183448849 0.0101681013639 0.00150839680927
 0.00884402735858 -0.00118104952191 -0.298782658261 0.0878412835675
40790162500 -0.250273559124 0.0233818791512 0.00159724854592 -0.00579174762306
 0.00160444692763 -0.00528228938144 -0.283659278842 0.0658291726953
40832031250 -0.246713958952 0.0716441724848 0.0112042261227 0.0057087937071
 0.0106960963864 0.0072958418192 -0.228284091089 0.0470990596988
40873900000 -0.157762897749 0.0455608551071 0.00428580086867 -0.0109338787051
 -0.00144318716026 -0.0159405364441 -0.29362179765 -0.0376625638474
40915768750 -0.249187391413 -0.0262741531444 0.0201050908794 -0.00347819347405
 0.015513630228 -0.00120925839955 -0.349194628623 0.0935710607799
40957637500 -0.231617505766 0.0649777087266 0.0180259907242 0.00609576006458
 0.0157627763061 0.00733124595964 -0.183093372283 0.102720665084
40999506250 -0.207781761483 -0.00639563263984 -0.000474200796705 0.0052278110091
 -0.000227789176587 0.00780451425809 -0.250047235235 -0.0359420887793
41041375000 -0.224484076589 0.00621526554749 0.00696979798414 0.00326111425299
 0.00601732613372 0.00131307381532 -0.369438236797 -0.00569739024473
41083243750 -0.247138933818 0.0379616411617 0.00223336253225 0.0198447015434
 0.0012115382399 0.0173823126979 -0.286343196899 0.13567299906
41125112500 -0.154226863223 -0.00179485607726 -0.00393563680593 0.0133465582677
 -0.00516523509234 0.0122581501096 -0.184250294181 -0.0114983971635
41166981250 -0.253636505472 -0.0452293936539 0.0113506485958 0.0109712892219
 0.00872975330611 0.00944985322174 -0.342461164905 -0.0268700613604
41208850000 -0.286344177048 0.0601242252927 0.00157125901786 -0.014554804286
 0.00174750241755 -0.0154926800429 -0.30126272177 0.0443227893878
41250718750 -0.131182117176 -0.00207653716289 0.00695114340117 -0.00117887006511
 0.00618793895654 -0.00429358725024 -0.263668971161 0.0173046483898
41292587500 -0.213842613054 -0.07622781478 -0.00168466754304 -0.00588441490158
 0.000966976594527 -0.00516368747683 -0.282599666768 -0.0335137998925
41334456250 -0.2951918532 -0.017558827158 0.00559769794455 -0.0110085033423
 0.00821136392187 -0.0109922903461 -0.281604603646 0.0310406063658
41376325000 -0.163981743367 0.0499547701182 0.00850184440953 7.37845739464e-05
 0.00605531397743 -0.00938125987948 -0.260176870448 -0.072395840312
41418193750 -0.181438675019 -0.0513322951785 0.00722046477398 0.00700768573454
 0.00362852075475 0.00344563214442 -0.309502583432 -0.0207367133914
41460062500 -0.20462981919 -0.0616471789309 0.00280608291094 -0.00682574651995
 0.00521349906836 -0.00328680929598 -0.22605354633 0.0134978523732
41501931250 -0.262794914112 0.00728176563235 0.00451086725781 0.000967147385221
 0.00713911974144 0.00737104089425 -0.212263687706 -0.0431560571904
41543800000 -0.179147369642 -0.00143395398632 0.00501682372141 -0.00504987100905
 0.00203770813753 -0.00668354983762 -0.277013527478 -0.0421013946952
41585668750 -0.19665437806 -0.0495232987364 0.00725913126473 0.000821817906222
 0.00470643498405 0.00169433318749 -0.274644304972 0.029566221595
41627537500 -0.180281863017 -0.0982042291527 -0.000318245477661 -0.00293502332781
 0.00228840839232 -0.00329632140535 -0.241534036157 -0.0611781441699
41669406250 -0.260510603248 -0.0352090264471 0.00756562009158 -0.00642304012871
 0.00882559010125 -0.00691224969098 -0.276057476601 -0.0146957919786
41711275000 -0.12495622972 0.00883967029759 0.00509091078899 -0.00513154084335
 0.0105530050597 -0.00438885232836 -0.184542972561 -0.0524801545702
41753143750 -0.115679579197 -0.0733937610573 -0.00407256518421 0.00701312157357
 0.00438360766891 0.00111763109785 -0.262207405189 -0.0961739311831
41795012500 -0.267588465599 -0.0581160886764 0.0123241073048 -0.0034181523551
 0.0148532687615 -0.00182571906533 -0.280863471366 -0.00293249296582
41836881250 -0.176148954209 0.00528190146768 0.0156921019313 0.00643998764946
 0.0126549279159 0.00909414279181 -0.169378003549 0.0334074572138
41878750000 -0.120832297365 -0.0515709391306 0.0162244020634 0.00839333673317
 0.00310799708439 0.00232881651139 -0.1518945001 -0.161471549413
41920618750 -0.220005119261 -0.112457541247 0.0121099283957 0.00668281416895
 0.0100263630861 0.00958690007224 -0.320913078344 -0.0670529790328
41962487500 -0.160244762112 -0.0084234693261 0.0113899153941 0.0146577451683
 0.00901406845121 0.0124629984682 -0.21650031837 0.0686359653872
42004356250 -0.0867784401153 -0.0415636055927 0.000579813536274 0.0137188061513
 -0.000418240322684 0.00992643994798 -0.0915338859378 -0.0656753521998
42046225000 -0.189782900189 -0.0963545684576 0.00118623976217 -0.00943435592851
 -0.000928905848631 -0.00252330738975 -0.22173630391 -0.144510467419
42088093750 -0.192773563066 0.0142202169743 0.00724233549939 -0.0157178622957
 0.0060310171559 -0.0165765072461 -0.266562397176 0.00219484080984
42129962500 -0.0856325281428 -0.0502321305928 0.0117971953186 -0.00746791166548
 0.00927911754052 -0.00854347142836 -0.143461393843 0.0198902517931
42171831250 -0.151697773099 -0.127190872851 -0.00447343992536 -2.54835712763e-05
 0.0034434366847 -0.0033280609906 -0.151255002882 -0.0476584438907
42213700000 -0.166200349019 -0.0294093974867 0.00300002393838 0.00028997792195
 0.0101395285494 -0.00832176010685 -0.19783537517 -0.0948541944194
42255568750 -0.0855965674784 -0.00106818594625 0.00206835623431 0.00862841344303
 0.00546037418015 0.00784746236213 -0.237047957509 -0.0335057416481
42297437500 -0.0737576850775 -0.0634870152756 0.00742132246429 -0.00598011806409
 0.00518060964492 -0.00699860149328 -0.167790983438 -0.00642205232028
42339306250 -0.158341416497 -0.0500758445272 0.00929090572505 0.0033122868573
 0.00458488216566 0.00557306975192 -0.0849907097094 -0.0637043123992
42381175000 -0.148123031709 -0.014160984723 0.00195459270366 -0.00580846229466
 0.00663996893699 -0.00286248691188 -0.151910175085 -0.0979202610624
42423043750 -0.0939366102539 -0.026145503314 0.00572246128911 0.00717428454893
 0.0067176367562 0.00630833328332 -0.209203320095 0.000142856707465
42464912500 -0.0594444021286 -0.0446925545288 0.0055952659842 -0.0120506958917
 0.00433093168118 -0.0112054014742 -0.0839639074957 0.0319555389241
42506781250 -0.132462257384 -0.0664060466519 0.00897131909686 0.000694164827949
 0.00644563268798 0.00289440703711 -0.112871275596 -0.0676458345949
42548650000 -0.130826261168 -0.00405749571882 0.00357438079723 -0.00831943479522
 0.00437957894192 -0.00922285584828 -0.183507150553 -0.0272749703652
42590518750 -0.0445076688241 0.0350346694464 0.013844925451 -0.00293404946398
 0.0143010857255 -0.00285190755613 -0.115892323492 0.0285525401929
42632387500 -0.0759174717095 -0.0650669674375 0.00650007526257 0.00661173003426
 0.00582551251315 0.00605428604557 -0.101284202286 -0.0293803425201
42674256250 -0.1456787104 -0.0454591186932 0.00615510065296 -0.00722655392325
 0.00650271768063 -0.00605480059101 -0.152883842999 -0.0036924638617
42716125000 -0.0782547324124 0.0587673356091 0.0140380948139 -0.00193078514906
 0.0142139285403 -0.00109318482927 -0.0874145622374 0.0356545412653
42757993750 -0.0519119197033 -0.0268504197167 0.00469204072235 0.00529141490103
 0.00494765210726 0.0052746874446 -0.124596197638 0.00642117201111
42799862500 -0.0764765641142 -0.0282408818897 0.00469442047795 -0.00199386719721
 0.00464459609112 -0.00215008688973 -0.143629931238 0.00407780115571
42841731250 -0.107832854393 0.0304611303659 0.00324414073372 0.00555417410161
 0.00297941444289 0.00562934445067 -0.121234668633 0.0401775970144
42883600000 -0.0622088921386 0.0249734593593 0.00473739995619 -0.00336757074266
 0.00482072470386 -0.00327564139766 -0.10542029589 0.0311909580575
42925468750 -0.0798236210294 0.000179906481239 0.00504589170926 0.00314596314073
 0.00481988609181 0.00332029932698 -0.0941376116866 0.00759126595962
42967337500 -0.091243387178 0.0239762024154 0.00232246306272 -0.00421502383014
 0.00240158123281 -0.00419797468675 -0.119477851404 0.0429228943706
43009206250 -0.0632377534944 0.0202588900955 0.00674590227164 -0.000340619927197
 0.00683378256693 -0.000637123721427 -0.158275811836 0.0656652159348
43051075000 -0.0709510826047 0.0230970814141 -0.000736351408852 0.00544054037309
 -0.000619379018425 0.0053184846048 -0.0919097386013 0.0889260193663
43092943750 -0.0831071317955 0.037049158868 0.00776330205727 -0.00295664492264
 0.00799495111783 -0.00242368496603 -0.0965654373056 -0.0169864430287
43134812500 -0.0741968396048 0.0591740943585 0.00302827083186 0.00882203891087
 0.00326874008648 0.00922017624649 -0.176646673009 0.0313893254606
43176681250 -0.036980579323 0.045519122304 0.0130324069013 -0.00762155531468
 0.0128306687688 -0.00782731787001 -0.105958849989 0.109646466919
43218550000 -0.101333280773 0.0408598737939 0.0140862607314 0.0114020559882
 0.012947658427 0.011292190579 -0.0170643092893 0.0695396221355
43260418750 -0.117484191861 0.0667677885101 0.0105730424696 -0.0127584691629
 0.0114331950949 -0.0129875175158 -0.165392521846 0.0292059067339
43302287500 -0.039945304405 0.114970574106 0.0242075217062 0.00403540412515
 0.0247966910256 0.00402260465317 -0.133609686899 0.130278684703
43344156250 -0.0808906101832 0.00591644133406 0.00681879087155 0.0154996768023
 0.00698456507864 0.0150392272759 -0.0752742219417 0.110052763379
43386025000 -0.130857762841 0.0641983808307 0.0103703082392 -0.00687548520669
 0.0104488959845 -0.00680240949979 -0.144190758772 0.0790377973632
43427893750 -0.0738825780952 0.140481878238 0.00921564497023 0.00724797385457
 0.00944522253214 0.00743198233241 -0.146365909634 0.119989421757
43469762500 -0.073255354636 0.0558527414618 0.00311727971966 -0.0115802057501
 0.00291885024753 -0.0116667957341 -0.120765806566 0.113176984442
43511631250 -0.111080839651 0.0621843138878 0.0138645255741 -0.0024764621743
 0.0140461681913 -0.00247770298159 -0.165840281216 0.0653218077695
43553500000 -0.128109199141 0.120717876391 0.0146097275499 0.0120685629441
 0.014610869992 0.0120286458491 -0.149669849507 0.156410947106
43595368750 -0.0768836731592 0.0770587524856 0.00367188846406 0.0122878091145
 0.0036677421452 0.012301496169 -0.105337494691 0.10249232015
43637237500 -0.136066138625 0.103153430587 0.00607923130801 -0.00588135006824
 0.00625403605296 -0.00592953880737 -0.18105149083 0.0911342143322
43679106250 -0.105483597714 0.101139542641 0.00916147218011 0.00281715321957
 0.00931958652112 0.00274534915356 -0.170186546987 0.136797284417
43720975000 -0.116757731438 0.0674459065255 0.00238497940768 0.010657361959
 0.00249092402099 0.0105556474387 -0.134075596941 0.130161775098
43762843750 -0.171520705643 0.0984412654853 0.00874347678136 -0.00804574581371
 0.00888288867921 -0.00797257280072 -0.176560942735 0.0991419818881
43804712500 -0.0618603158852 0.140675419818 0.0177418995057 -0.00501478948132
 0.0181198013818 -0.00524993483995 -0.142282525081 0.158221465914
43846581250 -0.142207190966 0.0556585842572 0.014263499269 0.00836076191195
 0.0143817799567 0.0080444012725 -0.170300058716 0.109416236759
43888450000 -0.166843469647 0.132992663509 -0.00196533559983 0.0160215597407
 -0.00174820575179 0.0163291635485 -0.229541985094 0.151562166839
43930318750 -0.146741350757 0.117827337515 0.012634211042 -0.00137528038868
 0.0125908806812 -0.00157385788014 -0.171771522253 0.168964562194
43972187500 -0.127227312328 0.0751797209165 0.00437809453003 0.0119155414868
 0.0045120338578 0.0119393362702 -0.149560540782 0.0962174927299
44014056250 -0.169913062218 0.0884633930038 0.0134415917612 -0.00617101601775
 0.0137440934449 -0.00695985612594 -0.257593384956 0.0913223655871
44055925000 -0.130603122896 0.146740976574 0.0225057708652 0.00944129706679
 0.0230826200767 0.00867429732463 -0.225892099737 0.211696741537
44097793750 -0.15443671462 0.0537389066032 0.00843542263491 0.0174374570674
 0.00865074162701 0.0164492746182 -0.142289450826 0.106910236062
44139662500 -0.207553802748 0.153812251259 0.0126101620778 -0.0114812635799
 0.0135395176573 -0.0114415594972 -0.233004056075 0.0846071726461
44181531250 -0.135407871896 0.103915133741 0.0135073396876 0.00717036107057
 0.0143546281052 0.00676328136599 -0.245669744696 0.151592756003
44223400000 -0.166225467959 0.0598741054465 -0.003571343375 0.0129477302223
 -0.00254910552669 0.012925481753 -0.205313766074 0.16388561246
44265268750 -0.229742116532 0.10406947699 0.0113033802327 -0.00177287847663
 0.0113710280672 -0.00164962984119 -0.244623797907 0.093011328132
44307137500 -0.141673374925 0.147304835816 0.0122123584067 0.00160901511514
 0.0126364575795 0.00158269959886 -0.22343157873 0.132551047824
44349006250 -0.171295225025 0.054362853754 0.00780592900166 0.00843958090278
 0.00821629714354 0.00822980781515 -0.23022431915 0.0817442203036
44390875000 -0.222793547158 0.110996776158 0.00373948343591 -0.0109466148874
 0.00366162029652 -0.010950766707 -0.257001463124 0.136000276426
44432743750 -0.196998032205 0.101929062778 0.00517481878918 0.00191112707507
 0.0051156709676 0.00170986353002 -0.220212261703 0.166743501977
44474612500 -0.195135249929 0.0891988567398 0.00336051556811 -0.00737130862789
 0.00334462892003 -0.00739553880512 -0.221456045358 0.0973137086036
44516481250 -0.219637192725 0.0799445596891 0.00915213249661 -0.00127040131669
 0.00965557914934 -0.00200076523756 -0.300961952476 0.0696450309578
44558350000 -0.189302573648 0.0897834789137 0.0141599938926 0.006019431681
 0.01449842276 0.00460354672798 -0.286108445583 0.1716182323
44600218750 -0.220372723411 0.03385468029 0.00481875845146 0.0131459471
 0.00456560494268 0.0114338619686 -0.192546850365 0.102651667543
44642087500 -0.233260982819 0.129314527337 0.0106117931886 -0.00685977422766
 0.0112754450817 -0.00751697525259 -0.281443728885 0.0865537735733
44683956250 -0.183154428167 0.0706722276858 0.0064392561897 0.00811887230107
 0.00789220319474 0.00718090561369 -0.314371968035 0.105845474227
44725825000 -0.222550649307 0.0244222876948 0.00618393962792 -0.00697556673214
 0.00458938538406 -0.00659514288528 -0.27514359367 0.111994859931
44767693750 -0.274144567542 0.0818292701869 0.00749216903018 0.00270266560085
 0.00749438361016 0.00335957093341 -0.262493422079 0.0657700913761
44809562500 -0.181956652665 0.0703950546018 0.0022890953085 0.00399753857393
 0.00292871216398 0.00382685679359 -0.286211986188 0.083043083462
44851431250 -0.221783053647 0.0289165360349 0.00189577037572 0.00475409600307
 0.00218393112152 0.00422281037647 -0.283342019456 0.0608456277059
44893300000 -0.237503331453 0.0329369119844 0.00248374237521 -0.00389676464181
 0.00213528835048 -0.00373381979392 -0.290604455421 0.0667654234729
44935168750 -0.21318913686 0.0632902031502 0.00132409577498 0.000368433417009
 0.00132750449388 0.000318409403594 -0.260616985571 0.0750452617245
44977037500 -0.220870614474 0.0301162414833 0.00280482880347 -0.00189825631887
 0.00247320060198 -0.00183153616233 -0.259054178808 0.0762202889984
45018906250 -0.246403297945 0.0395838956289 0.00578851000011 0.000946641233173
 0.00584562296454 0.000636501655552 -0.289507637614 0.045136099883
45060775000 -0.191265803617 0.0379534384579 0.00521987208757 0.00605624481176
 0.00594439353402 0.00408654263387 -0.313242122097 0.0881974314719
45102643750 -0.250887908509 -0.019691048839 0.00162515648472 -0.00607384272985
 0.00199080718151 -0.00434751016202 -0.294104564052 0.0514168591342
45144512500 -0.232655693743 0.0573211618018 0.00197718977469 0.0013211335874
 0.00226075203595 0.00115326421402 -0.291655544882 0.0226106186768
45186381250 -0.19710166041 0.00441455868205 0.00219257550997 -0.00349664530848
 0.000959195278256 -0.00362141238539 -0.285946764447 0.00346072696101
45228250000 -0.195912553212 0.00764899840479 0.00406416185334 7.92610992445e-05
 0.00336418932382 -0.000526568086871 -0.279400233582 0.0388873008609
45270118750 -0.269303327024 2.32243630453e-05 0.00193215272676 0.00199735182937
 0.00171056161586 0.0023903040567 -0.276732387467 0.0251040655526
45311987500 -0.205114108457 0.034684275903 0.00247633745552 0.0035385721759
 0.00283572975924 0.00297565836645 -0.283643703927 0.0351682624134
45353856250 -0.212376442766 -0.0246344586074 0.00141180951234 -0.00224789042185
 0.00115162548182 -0.00177656783293 -0.273132869423 -0.00298616893946
45395725000 -0.222655232977 -0.0230211867596 0.00155489670395 0.00188145425503
 0.0012323045617 0.00161712248562 -0.286178121476 -0.0017727646559
45437593750 -0.209347261977 -0.0214799352344 0.00228489718782 -0.00172249916027
 0.00162274991144 -0.00133263047279 -0.293157925534 -0.00556197363673
45479462500 -0.196689408192 -0.014863132852 0.00317379557799 0.000337414375113
 0.002513020269 0.000355468814196 -0.260325722785 0.0126900095236
45521331250 -0.190348423282 -0.0296342792444 0.000660760634256 0.00158161690826
 0.00282213746589 0.00196147858631 -0.229741867563 -0.0542641647214
45563200000 -0.188150559889 0.00646063360919 0.00121371315614 -0.00391800825722
 -0.000105514746712 -0.00419915224911 -0.268144382505 -0.0252168336175
45605068750 -0.189923737787 -0.0461771806823 0.00413099710378 -0.000947720712224
 0.00301892460354 3.88879740974e-05 -0.258538987192 0.00291992490433
45646937500 -0.222493140958 -0.0127239383997 0.00205494180617 0.00207843521941
 0.00131895704873 0.0029819295162 -0.208786531367 0.0120026358446
45688806250 -0.186642587811 -0.0385926531031 0.00203901831539 0.000665754087516
 0.00321189255565 -0.00032948198251 -0.226075889557 -0.0494227646516
45730675000 -0.169718859186 -0.0359958275899 0.000788209114868 0.00613903644808
 0.00125321129864 0.00327103959538 -0.284296079164 -0.0175813430133
45772543750 -0.164048689756 -0.0781662959197 0.000140436324741 -0.00493321693214
 0.00210702081405 -0.000102486501488 -0.211221689963 -0.00190970500265
45814412500 -0.194959151598 -0.0204511383963 0.00238120154781 0.00147272534445
 0.00291005500723 0.00236982122966 -0.211263572768 -0.0260755032635
45856281250 -0.1567788759 -0.0237011533649 0.00137960336344 -0.00234046977489
 0.000632210799928 -0.00241555437237 -0.227290807895 -0.0211308697443
45898150000 -0.139551593757 -0.0774253443695 0.000938022135335 0.00348130951496
 0.000287816737018 -0.000974667539879 -0.250866830699 -0.00466111814206
45940018750 -0.155954290674 -0.0367253444185 0.000956096577563 0.00158327403308
 0.00124786717805 0.00104029197862 -0.223161593736 -0.0490309952964
45981887500 -0.146802116108 -0.0503317039547 0.00094036853888 -0.00115377818062
 0.000345519084453 -0.000682790439046 -0.245315460973 -0.0426229550255
46023756250 -0.133164368166 -0.0111890926656 0.00122890870693 0.000852524647296
 0.00166133418485 0.00148524691194 -0.190346776799 -0.0492970587014
46065625000 -0.149482774563 -0.0266862974455 0.000119366292974 0.00180128627493
 -0.00185903958316 0.00105360366984 -0.166451722621 -0.071172386274
46107493750 -0.124792944214 -0.0656308741727 0.00223023203535 0.00234583176409
 0.00223199636367 0.000889783610023 -0.208015980439 -0.0440142859088
46149362500 -0.150946816792 -0.0558011081671 0.000301263912612 -0.00437257143558
 0.00138870621756 -0.00296296858483 -0.164558823972 -0.008807927296
46191231250 -0.133938198544 -0.0216200316355 0.00507960005157 -0.00113844549578
 0.00515918998053 0.00031943074208 -0.149254161458 -0.0331605367304
46233100000 -0.0630019291175 -0.0111636910757 0.00240364998813 0.00363295861859
 0.00471777272757 0.00521524974387 -0.183410762839 -0.0478088694221
46274968750 -0.124911294691 -0.102103052337 -0.00647383495511 0.00387772127851
 0.000617228899659 0.00163284125167 -0.156105213536 0.00271216613465
46316837500 -0.141738879464 0.0186522117551 0.00392644778203 -0.00272522554228
 0.00535458099705 -0.0026697403927 -0.17169345378 -0.0336133084751
46358706250 -0.087868945337 -0.0187375343948 0.00421793245684 0.00103765943396
 0.00450156234805 0.000614940210606 -0.168428014987 -0.00920012489958
46400575000 -0.0730586868926 -0.0461257503127 -0.000855643016627 0.00455982710486
 -0.000128482596255 0.0045159030787 -0.139926891003 -0.00541141283852
46442443750 -0.150176387341 -0.0446726828583 0.00508997664085 -0.000906107649333
 0.00454793915486 0.00145695072799 -0.139425931684 -0.0593949104276
46484312500 -0.0477344353619 -0.00129950258412 0.00288798105774 0.00696280129234
 0.00514142780652 0.00712505053697 -0.195809867293 -0.0124816367886
46526181250 -0.0817913632078 -0.0475888075578 -0.0028687569625 0.00823628196829
 -0.00122387860193 0.00716285654125 -0.124614542222 0.0310611368711
46568050000 -0.0768004122757 0.0169781414718 0.00709905194663 -0.00476746173246
 0.00738321216646 -0.00339027502682 -0.096399301424 -0.0505426515713
46609918750 -0.0433789836725 0.0185732780568 0.00472803354342 0.00459424467794
 0.00531778032328 0.00629868119805 -0.160627260071 -0.0560561053417
46651787500 -0.100402005664 -0.0163796687498 0.0074824598503 -0.00782342118902
 0.00693064782284 -0.00693926689909 -0.138468926351 0.0335163876286
46693656250 -0.131917207113 -0.00124454195447 0.0150964327266 0.00437998231022
 0.0123807689489 0.00554657866244 -0.0380977639489 0.0252304018295
46735525000 -0.0230072558999 0.0590079888282 0.00315277728872 0.0133757683014
 0.00276586261728 0.0147655594829 -0.11903803498 -0.00340027217783
46777393750 -0.029514166838 -0.0622275317167 0.00645448975487 -0.00509821913736
 0.00581151486146 -0.00613885014735 -0.125510532041 0.0403971125129
46819262500 -0.126573181281 0.0488198034648 0.00136853741955 -0.00489540286897
 0.00157508210611 -0.00476082535827 -0.13078417135 0.0411419255411
46861131250 -0.0382380174093 0.0625713193878 0.0077000186863 -0.00115277346269
 0.00782470140073 -0.00113868682916 -0.109127880427 0.0472980894681
46903000000 -0.0576345203588 0.033277765639 -0.000672241633803 0.00393168344557
 -0.000691389940364 0.00394522927039 -0.117526858254 0.0348700278361
46944868750 -0.0843643513925 0.00105062387089 0.00886738908017 0.00229835615675
 0.00828342482584 0.00228787932237 -0.0811916365356 0.0211879400393
46986737500 -0.0751578898425 0.0624029846863 0.00215922599137 0.0110645511925
 0.0026131531676 0.0114206065789 -0.182772834588 0.0489556497133
47028606250 -0.0427265654999 0.0330939926031 -0.00149344910896 0.0111550652465
 -0.00116148664944 0.0108979184453 -0.0905664794051 0.0877030519303
47070475000 -0.0840520863411 0.0772311527821 0.00889480762345 -0.00697571829923
 0.00901651849655 -0.00631327446069 -0.0742305742121 0.0263713437169
47112343750 -0.0244881918202 0.0737219911962 0.00808445842089 0.00609908091561
 0.00822652046854 0.00654384083051 -0.127459490887 0.0261011068551
47154212500 -0.0982690060004 0.0379416592363 0.00881621150406 -0.00975015559278
 0.00855677398138 -0.00938640292651 -0.133506178882 0.0966165603618
47196081250 -0.116630265463 0.100677966119 0.0182955923489 0.00489136834073
 0.0175358117879 0.00545205239575 -0.0566951259349 0.097129293537
47237950000 -0.047148737191 0.102724283761 0.00560800998694 0.0139318928746
 0.00530252499434 0.0145730847492 -0.122236926289 0.0552296408387
47279818750 -0.0738647562734 0.000915215172837 0.00283865426511 -0.00667333276727
 0.00253226161993 -0.00667830095284 -0.111833197334 0.104036077865
47321687500 -0.100052717889 0.0877766059817 0.00232271961627 -0.00541629277804
 0.00234787100683 -0.00537574361213 -0.115411915543 0.0957667771439
47363556250 -0.0680715972714 0.124474890439 0.00311627306788 0.00305484918625
 0.00314947494914 0.00311850265136 -0.12904102242 0.111785720503
47405425000 -0.0472129860624 0.0720242112232 0.00648704385659 -0.00567428858839
 0.00640604167171 -0.00587349642325 -0.126392010042 0.124954491208
47447293750 -0.120482748717 0.0887160351459 0.0119193830824 0.004537134397
 0.0115817163024 0.00463060343958 -0.109040114278 0.0832698240692
47489162500 -0.0597539208272 0.132828617531 0.00566481113468 0.0137048415532
 0.00555669321955 0.0142331437215 -0.158513519395 0.0775215696376
47531031250 -0.109868789571 0.0738948542879 0.0065990097732 -0.0137020414551
 0.00625072143569 -0.0135478898584 -0.131188983094 0.163073291692
47572900000 -0.100445181851 0.140157284579 0.015087778498 -0.00118547381542
 0.0149497400144 -0.000957100440308 -0.0891832700548 0.128775394009
47614768750 -0.0853992947528 0.123412886053 0.00424990305877 0.0130938328571
 0.00405100981119 0.013394559742 -0.14904078289 0.0902076058634
47656637500 -0.093858056904 0.0818349667978 0.0139344121265 -0.00735124758361
 0.0139403410418 -0.00777237481302 -0.180624559362 0.14910444271
47698506250 -0.160731108508 0.128941082418 0.0139408984323 0.011001381777
 0.0135230740717 0.010856725417 -0.114349730924 0.152127450021
47740375000 -0.0703823130851 0.176486977642 -0.00157717076242 0.0145321537118
 -0.00184388275865 0.0147441590112 -0.144799701317 0.134443122479
47782243750 -0.123560847281 0.0796673371104 0.00648319474929 -8.9333449942e-05
 0.00650544638964 -0.000235892566501 -0.170313337662 0.13767437348
47824112500 -0.152187890519 0.151028711932 -0.000255971928447 0.00685759832431
 -0.000245413972375 0.00684225081195 -0.175614255171 0.169179565295
47865981250 -0.150315767351 0.129736115537 0.00446970619666 -0.00288808323462
 0.00449698229834 -0.00286435688207 -0.182191747863 0.130824279371
47907850000 -0.114331413575 0.121046449617 0.00677422864835 -0.000260767918044
 0.00689445212461 -0.000358541692186 -0.190026037455 0.147129302796
47949718750 -0.171452159155 0.119110880731 0.00621650572379 0.00367302196791
 0.00607471356144 0.00365967055397 -0.162910096676 0.133040239535
47991587500 -0.124061381172 0.128954512454 0.0019600709852 0.00738909263698
 0.00198861376742 0.0075112673243 -0.187548752801 0.13548448402
48033456250 -0.123943005799 0.152981476389 0.00592839878587 0.00642529719177
 0.00608359834429 0.0065606823297 -0.204180670055 0.15259624653
48075325000 -0.14054722303 0.123076633525 0.00464909507428 -0.00612397343963
 0.00464842541818 -0.00617341916269 -0.18649964202 0.147997650675
48117193750 -0.192861022575 0.108924159648 0.00777203915207 0.00396115040403
 0.0075377763133 0.00392236264391 -0.173190421671 0.136815477394
48159062500 -0.195735419011 0.158640057812 -0.00144689437719 0.00756621779156
 -0.00154642387797 0.00760938886485 -0.210263387905 0.156233060177
48200931250 -0.121019442181 0.122170953864 0.00458293906388 0.00268472322403
 0.00487768508754 0.00268049647438 -0.218756078562 0.164375707312
48242800000 -0.205110745246 0.0901288815247 0.00259822836321 -0.00571070623109
 0.00232897539704 -0.00571303118532 -0.229666804191 0.150577285746
48284668750 -0.194038488913 0.115917919893 0.00383995253138 0.00180882748798
 0.00384239744803 0.00174275485608 -0.212281692934 0.142323877536
48326537500 -0.173262927869 0.148921953011 0.0040531717312 -0.00499437877605
 0.00418465778258 -0.00510043528001 -0.222104289082 0.131712165234
48368406250 -0.161499663395 0.0995594521718 0.00569588271223 0.00253239860061
 0.00597145831361 0.00224350638341 -0.239811697947 0.152801300661
48410275000 -0.197049107951 0.110446838516 0.00201317824432 -0.00503601759586
 0.00174960507148 -0.0051121592282 -0.249329655234 0.159130881307
48452143750 -0.21433417812 0.135829063871 0.00330711764604 0.00146252588188
 0.0033143413859 0.00145217682958 -0.249837895286 0.137468574172
48494012500 -0.202194370771 0.114549737968 0.00262855211936 -0.00182615095835
 0.0027144659821 -0.00183889344933 -0.251829243547 0.101222978044
48535881250 -0.207349398928 0.124982683124 0.00312798990934 0.00338067295835
 0.00317802066957 0.0035039954997 -0.25577824561 0.116629417083
48577750000 -0.219911645694 0.0740928713415 0.00165473483627 -0.00218880211941
 0.00152093944664 -0.00212956231671 -0.235802469253 0.132872407433
48619618750 -0.227157386092 0.0989153423485 -0.000519796551982 0.00296952303732
 -0.000451529804017 0.0029253446915 -0.251150842542 0.136221729985
48661487500 -0.216750588521 0.0919342588164 0.0041261565406 -0.000948726430527
 0.00404442092239 -0.00101798135396 -0.239405276548 0.118684399974
48703356250 -0.21285062437 0.102164634621 -0.000388863940844 0.00377169893443
 -0.000152667273844 0.00392246551892 -0.286095896848 0.117061120233
48745225000 -0.187129898138 0.0766975468372 0.0051247966041 -0.000309069338585
 0.00507612010634 -0.000903889499125 -0.264188930711 0.135940727197
48787093750 -0.259766131751 0.0874544396048 -0.000457691775542 0.00485817062615
 -0.000378256567406 0.00461942015036 -0.276838155596 0.128421337123
48828962500 -0.252433859604 0.109189197853 0.0062545686814 0.000160679440461
 0.00632274250699 9.61013477678e-05 -0.286809329917 0.1089310369
48870831250 -0.223451079007 0.0700991200621 0.00158123120865 0.00401528893375
 0.00221671162507 0.00385913700092 -0.315422240926 0.0780050185803
48912700000 -0.233536879594 0.0376525910141 0.000638031064485 0.00291973162777
 0.00068113166615 0.00260981032554 -0.270174478016 0.080454159402
48954568750 -0.269070463313 0.0372959088247 0.00471227248197 -0.00416913042622
 0.00417073540422 -0.00360448127782 -0.303722377906 0.096084201236
48996437500 -0.201444454939 0.0743659324515 0.00552236589263 0.00104423004556
 0.00571322921973 0.000618400783749 -0.263774798673 0.083572026486
49038306250 -0.227587090917 0.0505287507422 -0.000673293984083 0.00296949012796
 -0.000680595757115 0.00317022135766 -0.271872194447 0.0413770373082
49080175000 -0.224827222638 0.0531537891834 0.00151270173155 0.00304107021431
 0.00198685507202 0.00268824960695 -0.317938422573 0.0600209627299
49122043750 -0.243795002162 0.034007738878 0.00631988454751 -0.00208031477366
 0.00523262426166 -0.00172018918817 -0.283343019392 0.10868840935
49163912500 -0.270716928239 0.0322467415204 0.00563798356428 0.006312498226
 0.00293513386848 0.00732844000011 -0.221141157741 0.0533725445954
49205781250 -0.220433610728 0.0545066601309 0.00856405961227 -0.00457244382145
 0.00751384828487 -0.00764463212828 -0.306503020568 0.0203213571684
49247650000 -0.174899586676 -0.0001974479877 0.00787113083169 0.00972922700539
 0.00920166751792 0.00198942200463 -0.334917391481 0.0898179247395
49289518750 -0.265913488062 -0.0146664468833 0.00355241331041 -0.0138606391002
 0.00711974500462 -0.00874647927306 -0.253080317741 0.0825112462813
49331387500 -0.255513821259 0.095370958748 0.00873845249745 0.00203871592699
 0.0153075166712 0.000327021491685 -0.275677659378 -0.00681131504638
49373256250 -0.167086570555 0.0250373301082 -0.00042872064781 0.00980904531074
 0.00497340891825 0.00780355692949 -0.31784912383 0.0243571037607
49415125000 -0.267824148233 -0.0556027744428 0.0056969801091 -0.00294354505273
 0.00709099560091 0.000338198052329 -0.28523844513 0.0453124715567
49456993750 -0.261435343003 0.0339316426844 0.000885665932928 -0.00343245252375
 0.00111989177483 -0.00412199157841 -0.276147813842 0.0216627109269
49498862500 -0.19012149695 0.0246333235039 0.00457451623497 -8.31403914842e-05
 0.00517622663355 -0.00155462965428 -0.259070506297 0.00895144520795
49540731250 -0.222225021863 -0.0476062151658 -0.000851177813913 -0.00330231814568
 0.0012487667828 -0.00374338283276 -0.252199448866 0.00108058643999
49582600000 -0.241109034055 0.000464813889551 0.00688004312863 -0.00102858735277
 0.00594954278067 -0.00136912985412 -0.308796775312 0.0061352149251
49624468750 -0.173540262875 0.00143983345696 0.00729044686773 0.00567735868533
 0.00586096974333 0.00219182714125 -0.274112717117 0.0514869247898
49666337500 -0.234419320529 -0.0566818841038 0.00366113246523 0.00380667152618
 -0.0065195602347 0.00490402281939 -0.192360597113 -0.021248856213
49708206250 -0.229762077226 0.0498605929768 0.0119014660893 0.000886197048552
 0.0101240692931 -0.00441808688876 -0.302448642025 -0.0370777476738
49750075000 -0.16096899932 -0.0494825881504 -0.0420498399006 0.0235578947203
 0.000613193966234 -0.00110553653569 -0.286343427848 0.0237387036958
49791943750 -0.239781070013 -0.0793642721356 0.000938067326867 -0.00685753784637
 0.0101765911052 -0.00578115749395 -0.201509936246 0.0177529653334
49833812500 -0.223470891981 -0.00268511077017 0.00538376801672 0.00531843162217
 0.00657115845811 -0.0019279784717 -0.238634340973 -0.067200167774
49875681250 -0.119461308859 -0.0305926383355 0.000815350402474 0.0090104869316
 0.00584668388482 0.00198501400068 -0.28693839935 0.0133110465588
49917550000 -0.185215287484 -0.0878450266691 -0.000451870923369 -0.00307040198391
 0.00704242594328 -0.000941686916151 -0.194943172892 -0.0196815898998
49959418750 -0.199212478747 -0.0072745596081 0.00497779724529 0.00221552817716
 0.00571620139499 -0.00166863978592 -0.241129159336 -0.0549133170745
50001287500 -0.13262626039 -0.00574171950913 0.00481555471894 0.00420610777119
 0.00559092741408 0.00222583489808 -0.22371468737 0.0127509868334
50043156250 -0.203044824037 -0.0791832331092 -0.00177779221644 -0.00377532920429
 0.0044560706601 -0.00406170922825 -0.172260103584 -0.0109608202545
50085025000 -0.148818338014 -0.00058603648255 0.0064277295601 0.00182050068778
 0.00240115524861 -0.00420014242395 -0.232022292839 -0.0796326917568
50126893750 -0.133325202767 -0.0803750555251 -0.00083543098527 0.0111079544518
 0.00201674402866 -0.00335284989092 -0.237133592428 0.0275314481733
50168762500 -0.167114117919 -0.0687012138728 0.00920956714025 0.00797371313667
 -0.00178232240859 0.00565931010104 -0.135011929483 0.0143313640079
50210631250 -0.141889785676 0.0398449173635 0.00372551529098 0.00205270189176
 -0.00319994724646 -0.0149579376849 -0.2004138691 -0.075156820089
50252500000 -0.0533459601094 -0.0557697629449 0.00698251091632 0.00459070617566
 0.0111646167441 -0.00186162113297 -0.237734000897 0.0119348546801
50294368750 -0.205339146813 -0.0598332647964 0.00075801062669 -0.00982991164451
 0.00640850207697 -0.00679731770591 -0.171318772636 0.0273263494925
50336237500 -0.148253667713 0.0267909891147 0.0032277057783 -0.0032272009
 0.01264358142 0.00133317172376 -0.180856478146 -0.0617171636775
50378106250 -0.0806399952109 -0.0389256194262 0.00372310059693 0.00495763392456
 0.00764860373894 0.00199073854942 -0.216125823876 -0.0256106279343
50419975000 -0.13732716484 -0.0794309369712 0.00254318524108 0.0107843408365
 -0.000563152811163 0.00285749370682 -0.129648150263 -0.00292626288103
50461843750 -0.148795627345 0.00485406380616 0.00435981155954 -0.00406757114698
 0.00757172904855 -0.00272320782758 -0.162730027497 -0.0447602254043
50503712500 -0.0521030154618 -0.0215168138939 0.00766968409487 0.00293197484864
 0.00946777866141 0.000627166183943 -0.19437983329 0.0152918557082
50545581250 -0.133894898897 -0.0533982435681 0.00368701116473 0.00973339612575
 0.00153320938386 0.00623429168541 -0.107085527957 0.0133695544346
50587450000 -0.121332212281 0.0469906033785 0.00310675785742 -0.00820367835084
 0.0082208359701 -0.00674288904833 -0.140901381175 -0.0644763101898
50629318750 -0.0593933448155 -0.0668743968947 0.0100488824616 0.00238024008249
 0.0110656274127 -0.00200753471601 -0.192218630976 0.0296422874352
50671187500 -0.13661379292 -0.044293885443 0.00402377030007 0.0130368216985
 0.00236721293129 0.00945424385027 -0.096952691415 0.0478779329329
50713056250 -0.105721781257 0.0344816477121 0.00844227885491 -0.00840764414938
 0.0100660309631 -0.0076327803241 -0.121289481945 -0.0181919318617
50754925000 -0.00738419103207 -0.0220631366834 0.00926334052504 0.00456619870194
 0.0124271353628 0.00326139501609 -0.182532406212 0.00450570148128
50796793750 -0.0845586719132 -0.0628471586607 -0.000320059188975 0.00935450786586
 0.00173495720449 0.00793324525436 -0.116795529494 0.0503729565644
50838662500 -0.114816034838 0.0710717725997 0.00790371394488 -0.00432722831848
 0.00890232718161 -0.00381940784836 -0.140300384164 -0.00775202778814
50880531250 -0.0294144270074 0.0343123695112 0.00999398449095 0.00273695826974
 0.0107377297334 0.00251500353131 -0.141103313122 0.0320301854814
50922400000 -0.0554239540467 -0.022491683624 0.00473409401264 0.00942471872065
 0.00487032396536 0.00875100645007 -0.0813937174555 0.0181348792902
50964268750 -0.107286700068 0.0469126097744 0.00676992168523 -0.00661501420924
 0.00775827230509 -0.00603324690845 -0.128882235492 -0.0166937892701
51006137500 -0.0524065791125 0.0341558379484 0.00932688575299 0.00334729067192
 0.00950559979807 0.0031450695766 -0.12560824105 0.0778574329224
51048006250 -0.0748779803697 0.0444057173752 0.00343101480236 0.00639544922085
 0.00327388981848 0.0062020418886 -0.0435099714243 0.0863544005148
51089875000 -0.0683518810284 0.0365259412853 -0.000472729287377 0.00812411131778
 -0.00062947052339 0.00820083003981 -0.0923719490518 0.0287811678517
51131743750 -0.0512631516658 0.0271149220513 0.0107598053577 -0.00252022750429
 0.0110036526226 -0.00363759027671 -0.197494631999 0.0849216427459
51173612500 -0.0872753867947 0.067184910475 0.0097355160771 0.00873721198847
 0.00965178796167 0.00839486914682 -0.0793992012187 0.113165320731
51215481250 -0.0507951417031 0.0713538001307 0.00321082666082 -0.00930969894156
 0.0033292299235 -0.00936958401765 -0.0886204552542 0.0508110185581
51257350000 -0.0485322972869 0.0660437342482 0.00853837518186 0.00143413397748
 0.00887263153665 0.00130187669118 -0.146893651447 0.0725653960703
51299218750 -0.107503819376 0.0765978742868 0.00220068226725 0.00603038361535
 0.00218532066345 0.00599035576934 -0.117831776512 0.102852050222
51341087500 -0.0669020331369 0.0792859489598 0.00074364167772 -0.00273450261748
 0.000730606843071 -0.00278212183538 -0.113768103516 0.0945653965469
51382956250 -0.0686097980921 0.0675491064774 0.00302833687911 -0.00342104397518
 0.00297542180253 -0.00355567284586 -0.125820587525 0.112529448353
51424825000 -0.0932055947227 0.0983818107636 0.0081557704863 -0.000130135320831
 0.00815944925431 -0.000165175589904 -0.103794340979 0.103310270484
51466693750 -0.056711039008 0.100200673551 0.00470472169535 0.00831951485627
 0.00495010238217 0.00856367801079 -0.148294063719 0.0913822032324
51508562500 -0.0876401312207 0.0643556706763 0.00902364160755 -0.00831504859964
 0.00877883024133 -0.00883405452131 -0.165245365968 0.135768580823
51550431250 -0.125689723189 0.124418375352 0.0151364134473 0.00479937246899
 0.0148151109244 0.00479882953367 -0.0867584568758 0.115956097112
51592300000 -0.0591213150458 0.107878115279 0.00185098412368 0.012487784497
 0.00195087216807 0.0128544054519 -0.137466448366 0.100892352659
51634168750 -0.0637319079384 0.0800136131542 0.00995608209776 -0.00364540257022
 0.0101289769211 -0.0040729391832 -0.149868908963 0.135335400983
51676037500 -0.133219884461 0.108800160752 0.00621662414857 0.00664134761876
 0.00631402530136 0.00642964874172 -0.130652318899 0.153856475254
51717906250 -0.091315828981 0.141015243821 -0.000341557470547 0.00745174253787
 -0.000264923012528 0.0076507709787 -0.17411156004 0.132004246517
51759775000 -0.0810761826532 0.131088679736 0.00957245837014 -0.0040962743173
 0.00964228428095 -0.00432629249434 -0.149685953271 0.149518298766
51801643750 -0.109792797556 0.0927884431046 0.00749786127956 0.00864949967638
 0.00751939203449 0.00854828097889 -0.122929052795 0.0941142124058
51843512500 -0.115253844266 0.115080559157 0.0109191807286 -0.00948814737759
 0.0109726704554 -0.00995828093282 -0.188428491076 0.136992549413
51885381250 -0.128287248509 0.164007729533 0.0146228275152 0.0129472775454
 0.0149993592881 0.0125407792559 -0.159204434543 0.226466774306
51927250000 -0.0661697187549 0.150291225079 0.00967505337685 -0.0200700653827
 0.00966705112906 -0.0203649523844 -0.1144392271 0.140281061584
51969118750 -0.119716385463 0.111298554633 0.0203472989628 0.00751425656308
 0.0212631749096 0.0075495166017 -0.216756094098 0.106327742462
52010987500 -0.200074643843 0.165269540831 0.00717183014914 -0.0267422346061
 0.00643390307363 -0.0267785456412 -0.238280356057 0.211840137445
52052856250 -0.125516879228 0.185888805046 0.0281004061978 -0.0074778227578
 0.0278843419163 -0.00765260236407 -0.136681803385 0.18497072859
52094725000 -0.113062190257 0.0983101171163 0.0116511957014 0.0154525952438
 0.0121672185083 0.0159539095467 -0.191053858481 0.100805514917
52136593750 -0.206028596461 0.111513739604 0.0149843178024 -0.0103447100926
 0.0144113949779 -0.0107072099478 -0.23335946489 0.15440061534
52178462500 -0.145252010982 0.198317200367 0.0177540597354 0.0096675798053
 0.0179740582997 0.00956351347876 -0.189228252907 0.200857770754
52220331250 -0.114312812802 0.127572669179 0.00162411627065 0.0114648120069
 0.0020213408015 0.0118253029647 -0.194478307226 0.158290238252
52262200000 -0.21034704457 0.146263176185 0.00141058761975 0.00591732582634
 0.00154819991209 0.00572504587429 -0.215191770724 0.187699750933
52304068750 -0.194506279891 0.176929933265 0.00728294057558 -0.0070010238003
 0.00743608456808 -0.00718823141807 -0.249969709139 0.153573733808
52345937500 -0.166195188558 0.108753565499 0.0105161155011 0.00512151371444
 0.0115108540871 0.00433920757927 -0.283393995389 0.15814197156
52387806250 -0.224386352256 0.115033205523 -1.20896463077e-05 0.0145756775363
 0.000632757511265 0.013783882512 -0.229560337817 0.174948942564
52429675000 -0.166943949886 0.151143989881 0.0128404490347 -0.00803344416468
 0.012912294448 -0.00768907645977 -0.196651092086 0.109417566713
52471543750 -0.138133472734 0.132333249698 0.0122574207655 0.0112408261008
 0.0140211864289 0.0117599628399 -0.281984815949 0.125503992801
52513412500 -0.240543569157 0.133145571848 0.00743483005706 -0.0185130417163
 0.00613145951597 -0.0177193227851 -0.265295643099 0.210971318954
52555281250 -0.211207567791 0.193560051065 0.0157121471871 -0.00409022986871
 0.0156389084634 -0.00296566280865 -0.213558311597 0.132961922044
52597150000 -0.216112190459 0.103771694852 0.00456581413001 0.00986018910013
 0.00524758440582 0.0102822877076 -0.297279054239 0.0996896133484
52639018750 -0.247080128036 0.10500089008 0.00565220149105 -0.00930486648443
 0.00497558331325 -0.00889345822333 -0.267925685124 0.165136006671
52680887500 -0.20516216411 0.113329107337 0.00792762566802 -0.00229658527371
 0.00759483462611 -0.00248084232733 -0.228904112117 0.141547500491
52722756250 -0.18988667703 0.0907237049794 0.00643079571502 0.00487925697147
 0.00744883300851 0.00442968414597 -0.290918815861 0.102955235224
52764625000 -0.231064749674 0.17274395177 0.00218248078961 0.0146831553541
 0.00250204946312 0.0145083885232 -0.283777240637 0.184095964054
52806493750 -0.198885787031 0.12585049669 0.00837294279487 -0.0104362303614
 0.00847808001545 -0.0102854266469 -0.241618606593 0.118476295719
52848362500 -0.257083156728 0.0950992703569 0.0102865772998 0.00782979164471
 0.0110628171952 0.00764081904454 -0.322555693004 0.0896164658719
52890231250 -0.303717560888 0.126237895716 0.00462183153758 -0.018553884716
 0.0049771852479 -0.01722043395 -0.310159071374 0.171991573218
52932100000 -0.177894937624 0.134805424574 0.0143014564936 -0.00581156471544
 0.0155354581585 -0.00623401271644 -0.254911968846 0.107977017697
52973968750 -0.23703843745 0.0315527384596 0.00333724154965 0.0125224329718
 0.00436301309193 0.010663966147 -0.306157250222 0.0611216439733
53015837500 -0.303183334315 0.120404881464 0.0135516572015 -0.0124035180232
 0.0145168881899 -0.0121037618486 -0.327424324834 0.113818580147
53057706250 -0.222169275575 0.161571304695 0.0145005353502 -0.00046774669804
 0.0149213340669 0.00112013108331 -0.243830195565 0.120153490071
53099575000 -0.25033291513 0.0472190862979 0.000751917001011 0.00826879090131
 0.000882661485733 0.00715330274371 -0.30410352117 0.0951547629098
53141443750 -0.315452364899 0.0738213218652 0.00376721639873 -0.00483665550774
 0.00441299117342 -0.0041918045035 -0.310650890259 0.108561421993
53183312500 -0.265071867214 0.111252448971 0.00565445766095 -0.00188915446745
 0.00625764078683 -0.00260056804512 -0.322113561751 0.0793477338547
53225181250 -0.267842956051 0.0339080351008 0.00362250570682 0.00482957942903
 0.00329999889943 0.00415414433271 -0.339108700694 0.0641488173389
53267050000 -0.284766827477 0.0531867933918 0.000388877949997 -0.00680838924078
 0.00174770638045 -0.00643441312657 -0.284987913114 0.0960410006103
53308918750 -0.248617667072 0.0370231407284 0.00307454657376 -0.00203054446751
 0.00542901674706 -0.00430453820131 -0.274749243031 0.00968405716123
53350787500 -0.261790420614 0.0392643277039 0.00653487746826 0.00392286442678
 0.00607917755461 0.00288339042691 -0.349066666722 0.0533236727561
53392656250 -0.274229092892 0.0547146330532 0.000637498425658 0.00946275748573
 -0.000908308145256 0.00904633854529 -0.288774888312 0.100080345324
53434525000 -0.212806826076 0.0680300746517 0.00516636545003 -0.00447040404947
 0.00901142581779 -0.00455839331178 -0.249983469084 0.033989616923
53476393750 -0.322780571095 0.00717721636269 0.00345388672602 0.00991731734089
 0.00505676412354 0.0107735764326 -0.339679642078 0.0134852948454
53518262500 -0.285965735658 0.0560014046307 0.00437396452138 -0.0121388684057
 0.00480401501674 -0.0124392498999 -0.324691020405 0.0811792468794
53560131250 -0.235151515988 -0.0105000755802 0.00489486704889 -0.00281833304406
 0.0092061567036 -0.00105356206275 -0.251771292647 0.0184756516383
53602000000 -0.281087546848 -0.0293306135112 0.0040374460734 0.00560303319056
 0.00455011805462 0.00630206212857 -0.313507113939 0.0041151545727
53643868750 -0.237670040067 0.0467315462378 0.000367692905943 -0.00628143911244
 -0.000194679475356 -0.00664696169944 -0.291174865096 0.0474399357412
53685737500 -0.216616615148 0.00956818377675 0.00444788591068 -0.00160424745993
 0.00464600707778 -0.00277040788003 -0.267917394917 0.0119631952816
53727606250 -0.283012316558 -0.0267077522673 0.00371667523854 0.00528065161256
 0.00478336251648 0.00634086304508 -0.30483686863 0.00630397750562
53769475000 -0.282053985127 0.0721581239943 0.0012862708814 -0.0091814150827
 0.000127965683361 -0.0121856640792 -0.289649493178 0.0391337519775
53811343750 -0.216865819114 -0.0363320353606 0.00546461845827 2.53480768227e-05
 0.00469584933583 -0.00414445858302 -0.245424487231 -0.0274621353064
53853212500 -0.27500794592 -0.0790885502235 0.00435120989138 0.00594035396164
 0.00538348527812 0.00824376418928 -0.302711061199 1.46269214002e-05
53895081250 -0.281596460028 0.0276901970017 6.07223926146e-05 -0.00576796551412
 -0.000479741855823 -0.0105708294411 -0.245292589661 0.0177834208651
53936950000 -0.174023175869 -0.0148931013362 0.00529422619301 -0.00133968165907
 0.00198698279851 -0.0024179336282 -0.264852240864 -0.011146953719
53978818750 -0.246762936036 -0.0763998515859 0.00231160719365 0.00289071798182
 0.00334548388458 0.00493298440444 -0.263398031744 -0.00371971533214
54020687500 -0.259510416464 -0.00628074148659 6.04100060409e-05 -0.00522416964201
 0.000579762556431 -0.00774114137399 -0.247009957793 0.0221861954318
54062556250 -0.222197045227 -0.0222480101869 0.00505954953309 0.000629131434308
 0.00311332911623 -0.00187251870677 -0.253257125334 -0.0584451606182
54104425000 -0.215140519374 -0.0599293659918 0.00319937849015 0.00358760726275
 0.00158229492093 0.00423044738899 -0.300856283107 0.0144067671053
54146293750 -0.222179321522 -0.0469827953218 -2.94272290696e-05 -0.00182796743113
 0.00259260870611 -0.00286935046613 -0.197297853845 0.00771847204642
54188162500 -0.209346723815 -0.0579416808831 0.00346428127534 -0.00230056008751
 0.000634292857128 -0.00140371015647 -0.222141638872 -0.103416136039
54230031250 -0.235807320261 -0.040767648943 0.00837339619007 0.00012601192337
 0.00840565531664 -0.000684923777297 -0.283193729088 -0.017800044407
54271900000 -0.170222083973 -0.0307850898328 0.0106702479936 0.00248392324585
 0.00718121870417 0.00515383119261 -0.183313167398 0.0428682237724
54313768750 -0.188685275625 -0.107319780986 0.00490775914994 -0.000306846489648
 -0.00234619614902 -0.00139022214186 -0.166516504376 -0.0820211270323
54355637500 -0.23723339801 -0.0551741961212 0.00715116930814 0.00342857440242
 0.00870592090047 0.00063828275655 -0.247274181934 -0.0472962103532
54397506250 -0.151829229214 -0.0206010923812 0.00677143056293 0.0066887651269
 0.00587258387628 0.00594538150569 -0.187021399202 0.0410583073982
54439375000 -0.135008279246 -0.107180747548 -0.00238367354375 -0.000413923376753
 0.00443892452117 0.0027855669363 -0.164938949911 -0.0257941307774
54481243750 -0.21673541405 -0.0582242536557 0.00408466367507 0.00146719768184
 0.00795716260479 0.00183080390111 -0.205756671995 -0.0352011320778
54523112500 -0.139745039768 -0.0229955290298 0.0061110430952 0.00384960180852
 0.0060371427358 0.00360730558595 -0.171479250329 0.0236468346083
54564981250 -0.118973161178 -0.0816509668766 0.00117894509751 0.00277813704014
 0.00239632724949 0.00476137652618 -0.163037099599 -0.0527849362785
54606850000 -0.206210516679 -0.0644175082623 0.00629546451909 -0.00493146450521
 0.00748721062874 -0.00252672272689 -0.201183340417 0.0362884396352
54648718750 -0.114280011054 -0.0217886562413 0.0100150031446 0.000305747441425
 0.0096124375809 -0.000480776767041 -0.12918912045 0.0328806447305
54690587500 -0.0999851356801 -0.0878502352422 0.00198594060233 0.00350255750512
 0.00521425838598 0.0062415756155 -0.156471583874 -0.0560044394333
54732456250 -0.175847576643 -0.0606953840493 0.0111090125139 -0.0040202359404
 0.00833581012516 -0.00279753942026 -0.229293457992 0.0225429759247
54774325000 -0.108689888769 0.0118025062581 0.0145739011666 0.00430517718216
 0.0144158541187 0.00380295256423 -0.119337919143 0.062983700312
54816193750 -0.0840081405524 -0.0658632024321 0.00463689052744 0.007158729927
 0.00417997155867 0.00754499231486 -0.102245494791 -0.0538028628894
54858062500 -0.151956706215 -0.0527102270077 0.0105321531825 -0.00104158085734
 0.00844149960654 -0.00253907216184 -0.209706833486 0.0257820855178
54899931250 -0.136779112239 -0.0125442606552 0.00962656836972 0.00854600808496
 0.00911353205488 0.00715434866261 -0.126115132473 0.0877123361809
54941800000 -0.0630628882448 -0.0447685268606 0.00177569332398 0.00762534046911
 0.00255259137393 0.00898710525138 -0.108993600714 -0.0166318396894
54983668750 -0.121996539423 -0.0473648724929 0.00600592320977 -0.00200977164425
 0.00527366083417 -0.00367694097037 -0.189781536813 0.0166784280327
55025537500 -0.0697282216809 -0.0169400770196 0.00764438684659 -0.000611325108567
 0.00759422510835 -0.0020124353756 -0.116601176236 0.110041287151
55067406250 -0.10009657685 -0.0237295663967 0.00713773198935 0.0028148848546
 0.00720373978302 0.0027885692654 -0.0929382848056 -0.0105274861266
55109275000 -0.10315288986 0.0194996824801 0.0032027080987 -0.00924288171715
 0.00175544118152 -0.0108697437891 -0.210040890981 0.0392474714493
55151143750 -0.069563008439 -0.000561799416067 0.0133553870036 -0.00438557857289
 0.0131229506363 -0.00604954460567 -0.0937824865968 0.118822197774
55193012500 -0.0987044661847 -0.0635003091105 0.00799976537275 0.00829021386072
 0.00952311679697 0.00694569144193 -0.0748589852036 0.0235492050966
55234881250 -0.116718100877 0.00559778268079 0.00994259244284 -0.00982493259927
 0.00937433636455 -0.0123410427517 -0.178957121033 0.0394530975701
55276750000 -0.0214525520324 0.0427056317484 0.0208461515379 0.00376337324042
 0.0230476713047 0.00165926522191 -0.135515358201 0.151642866307
55318618750 -0.0558301059951 -0.0353735075068 0.00660273123915 0.0136505726466
 0.00934323194844 0.0139219861416 -0.0745233070597 0.076122014696
55360487500 -0.0956499448424 0.0221288534732 0.0101040651492 -0.00679661656857
 0.0102310319631 -0.00884780441971 -0.1803304055 0.0511299816246
55402356250 -0.0609146247838 0.0723727992091 0.0127415699604 0.00519087102295
 0.0139178109706 0.00443488031981 -0.127196094427 0.141307598843
55444225000 -0.0547339422368 0.0252156635189 0.00363083786319 0.00885754674123
 0.00462185623168 0.00933518199072 -0.101806794853 0.0775620406525
55486093750 -0.109182971697 0.0315958327579 0.00482371955424 -0.00591746064598
 0.00427590712649 -0.00687822273297 -0.167370572268 0.116615217846
55527962500 -0.048240669452 0.0482862451918 0.00861368538456 -0.00319245453723
 0.00892592637064 -0.00444745483207 -0.121798255743 0.159336631259
55569831250 -0.0974463124543 0.0142934739002 0.00898221516881 0.00411218109808
 0.0101509241792 0.00318111995806 -0.118947545097 0.085954973929
55611700000 -0.0474690377232 0.0817843898247 0.000488331284924 0.0142114100463
 0.00225258290242 0.0158080017149 -0.202660477169 0.116218305239
55653568750 -0.0318109417683 0.0597727114211 0.0143562473529 -0.00928576355394
 0.0143916098935 -0.0117278880347 -0.132109443565 0.207481876153
55695437500 -0.0825373144965 0.0744449140212 0.0116987998329 0.00918001053379
 0.0131083090442 0.00864752546683 -0.110782954908 0.107316976438
55737306250 -0.108431100982 0.0964120450296 0.00865669236716 -0.0118022265852
 0.00773576084045 -0.0137499496937 -0.23174440024 0.124316623753
55779175000 -0.0555166227375 0.0963143771556 0.0164827222072 0.00214788611076
 0.017996954913 0.000311022644724 -0.194761216417 0.186952088094
55821043750 -0.0824206546446 0.0593768704168 0.00669857844707 0.0119440185433
 0.00858201841065 0.0117272939534 -0.129413013974 0.134746252632
55862912500 -0.102166512672 0.122486558068 0.00458048190707 -0.00935105345039
 0.00431784465296 -0.0103896161838 -0.207037851699 0.0958479164247
55904781250 -0.0813734891203 0.0819648361843 0.00714858426504 -0.00419622436398
 0.00709813466784 -0.00541418394636 -0.184414260544 0.169952992683
55946650000 -0.116302600334 0.0950729668432 0.00569124221364 0.00157492682304
 0.00605631011145 0.00106177244751 -0.165151213498 0.138902112782
55988518750 -0.0817865306899 0.138200013222 0.00164642173865 0.00518630300203
 0.00216562647189 0.00543800364734 -0.19208141635 0.147217797983
56030387500 -0.0885576743917 0.0577496428715 0.00542444837171 -0.00515792418775
 0.00504902887499 -0.00643864966589 -0.174876705699 0.168735545869
56072256250 -0.121162673508 0.109504536493 0.0119323148895 0.00364795989837
 0.0127145006203 0.00252303686524 -0.175084429124 0.146529687795
56114125000 -0.0998133459195 0.170022978961 0.00396078066539 0.0163183636221
 0.00570888343814 0.0169497884791 -0.235740143725 0.181810309012
56155993750 -0.0902850862876 0.109649433991 0.00897484649821 -0.0104931492403
 0.00826144515584 -0.0123480632941 -0.199074552972 0.187644340928
56197862500 -0.144588076311 0.10652225589 0.00851468495147 0.00413592776467
 0.00924103098474 0.00333342531125 -0.211275041005 0.124983823613
56239731250 -0.154041103162 0.140466223235 -0.0019210450673 0.0081879353663
 -0.00126560614603 0.00860469533788 -0.222431698974 0.152680083169
56281600000 -0.102806744689 0.12154932635 0.00755487110083 -0.00161054872589
 0.00779563797115 -0.00270156737901 -0.198523532783 0.201033815669
56323468750 -0.15492351993 0.106299863069 0.00486245545779 0.00410840504765
 0.00558641728761 0.00334988337459 -0.214929162454 0.171323260966
56365337500 -0.0909660197675 0.12833378014 0.00465679066762 0.00655168867982
 0.00627828508173 0.00652233787129 -0.271542517318 0.184532336404
56407206250 -0.158664656133 0.132160335082 -0.000291659900772 0.0106030118627
 0.00134702469947 0.010639489867 -0.244743188653 0.186323114115
56449075000 -0.162721810504 0.174127213604 0.00782957453112 -0.00573558904663
 0.00786928709167 -0.00656051493946 -0.266117421206 0.127140442579
56490943750 -0.124079941351 0.139534533241 0.00711354380665 0.00484039686537
 0.00825996037412 0.00419304105476 -0.258090406604 0.162272239473
56532812500 -0.174658509335 0.09742172572 0.00500892477736 -0.00756806232161
 0.00333018929655 -0.00830031255907 -0.251015910683 0.175730085778
56574681250 -0.223093345566 0.157836187628 0.0118333728099 0.00253586813279
 0.0114352777836 0.00179250504368 -0.247233341476 0.148899227845
56616550000 -0.119612251343 0.138651954681 0.00506362404937 0.0102343087986
 0.00760492418433 0.0103035119199 -0.297292464866 0.165748366504
56658418750 -0.163871193987 0.0966439163819 -0.0031896089058 0.00757172966384
 -0.0012644871841 0.00828906182738 -0.269779140365 0.163237740291
56700287500 -0.199560201132 0.159612631083 0.00654541470686 -0.00348919989011
 0.00617879214836 -0.00426307161366 -0.302199318533 0.141999953416
56742156250 -0.197256191219 0.171217170867 0.00809454657798 0.00247889123629
 0.00828452165335 0.00173075427303 -0.285993513297 0.159764130079
56784025000 -0.188908968204 0.0663443841757 0.000701877822136 0.00692569976908
 0.00281288349489 0.00605593279302 -0.292772160031 0.10885308828
56825893750 -0.229331044584 0.171157844724 0.00821595430637 -0.00644916685049
 0.0081065005056 -0.00716526905522 -0.312347653472 0.116272386076
56867762500 -0.163589367713 0.105923577863 0.0116036581286 0.00409805622328
 0.012338179177 0.00116942601907 -0.28764021551 0.162566292948
56909631250 -0.222993419466 0.0990628247175 0.00244335890962 0.0135355542243
 0.00296295664748 0.0113923364844 -0.252683532208 0.120059503438
56951500000 -0.243283905854 0.158592949534 0.0135215172165 -0.00542334955914
 0.0134749796214 -0.00734200496382 -0.344126268626 0.100733005029
56993368750 -0.184291464998 0.129330569385 0.0114623035826 0.00954359081787
 0.0130512376342 0.00663763133938 -0.325612932488 0.157666832087
57035237500 -0.237299083608 0.0654682616761 -0.00374078007223 0.0114437272332
 -0.00291390765702 0.00897945501693 -0.270860758009 0.0885431254373
57077106250 -0.260808882128 0.101322898006 0.0111267372675 0.000470653126356
 0.0114722100287 0.000211854216394 -0.308540809797 0.0678475872094
57118975000 -0.164964286741 0.157467808989 0.00831974263524 0.0101510586282
 0.0103539589403 0.00934816183617 -0.299918821524 0.148661213038
57160843750 -0.246960583354 0.0811827288485 0.00424758913688 -0.00990501278663
 0.00332704103808 -0.00790080675264 -0.276829528641 0.120354680364
57202712500 -0.261083067125 0.114389429579 0.00932049333226 0.000236733144474
 0.00862626229298 -0.000860814203246 -0.348835849433 0.102315036464
57244581250 -0.241411243713 0.117196486178 0.00577754328541 0.00713321939012
 0.0058596315962 0.00549281690786 -0.342982159238 0.13591731639
57286450000 -0.285093836821 0.0502025696009 0.00121588667961 -0.0072059067645
 0.00277549836 -0.00663743269618 -0.298559520668 0.0624253044891
57328318750 -0.242343183665 0.0933166079874 0.0103607719437 -0.00163543786439
 0.0081522944256 -0.00434834182957 -0.361642793249 0.0381644068014
57370187500 -0.210984303918 0.0264409032678 0.0120500212249 0.00978757970079
 0.0059540353662 0.00314311019719 -0.330211552377 0.111732514558
57412056250 -0.237172296517 0.0763479799255 0.000429000222328 0.0123422006611
 -0.000933346625783 0.0110154127352 -0.270279949115 0.077860760289
57453925000 -0.278238777572 0.12293946603 0.0125598060578 0.000911762097543
 0.0131182533386 -0.00402562397455 -0.347687431619 0.00633621635388
57495793750 -0.188764569032 0.0410619149028 0.00866427690077 0.00951283715474
 0.00762170788527 0.00336553175903 -0.318053136931 0.0881300794867
57537662500 -0.308742533463 0.0614618421756 0.000676288364902 -0.00975609428816
 0.00436452927165 -0.0102962436525 -0.27193352344 0.0817309853046
57579531250 -0.260011245517 0.0858028770279 0.00810353446773 -0.00112673235204
 0.00790987431941 -0.00215024389722 -0.325463903032 0.0566766288234
57621400000 -0.220727842938 0.0369197074048 0.00595424903439 0.00591931607132
 0.00359121201538 0.00332281639566 -0.351757097261 0.0766796947823
57663268750 -0.300349154794 0.0110567811554 0.00140468973442 -0.00590378696168
 0.00178426853968 -0.00744093942711 -0.307032961305 0.0169116480313
57705137500 -0.241839924721 0.0745251065867 0.00995524563211 -0.00514265534512
 0.00703056554042 -0.00575183464378 -0.357590620325 0.0333641711324
57747006250 -0.225316210514 0.0081652167456 0.011277897101 0.0015851301405
 0.00762241644727 0.00443682682435 -0.291814541273 0.0622299112942
57788875000 -0.27529137131 -0.0176420063641 0.00152797427056 -0.00865721805019
 0.00034832704481 -0.011901433718 -0.285042151918 -0.0115358282879
57830743750 -0.23355097288 0.0903342147063 0.0169778314653 -0.0049092795768
 0.011712871234 -0.00711664815788 -0.384172579592 0.00397433005711
57872612500 -0.209746359495 0.028603114557 0.0113040025479 0.0088274601177
 0.00876966535869 0.00750652325773 -0.308323214853 0.0450103931519
57914481250 -0.287357682781 -0.0252742064684 0.00769269311807 0.000127330016189
 -0.0056979421205 -0.00784019000113 -0.215980574251 -0.0394322085023
57956350000 -0.272833502517 0.0483923899819 0.0130346111775 0.00698223191604
 0.0117271077222 0.000286637640084 -0.313482425926 -0.0606153214723
57998218750 -0.222660387923 0.0116444252103 0.00753456449524 0.00996512216377
 0.00427783816277 0.00986827262551 -0.27823973065 0.0891596491476
58040087500 -0.235105517359 -0.0548169867638 0.00278439231275 -0.00435825926151
 0.010026702094 -0.00277977162555 -0.223829395518 0.0258483612145
58081956250 -0.254067335176 0.000445371740438 0.00535460320579 0.00728073430255
 0.00535821563964 0.00525422862523 -0.319295188966 -0.033418892751
58123825000 -0.208273221236 -0.00573399049878 0.00140691573434 -0.00704943449218
 0.0016455013215 -0.005204876469 -0.301768921577 0.0236617537422
58165693750 -0.225482078702 0.00983584657455 0.00178310144751 -0.00122358893945
 0.00290139779933 -0.000615770314401 -0.218469475234 0.0325815706521
58207562500 -0.209378989396 -0.0317667214014 0.00476399983687 -0.00355325750263
 0.00314476615976 -0.00247829361334 -0.294730662053 -0.0532478677657
58249431250 -0.241082476627 -0.0170255764182 0.00794972536504 0.000297306690228
 0.00774924217943 0.00140602032206 -0.301191848931 0.0296625227519
58291300000 -0.237950771123 -0.0131681611017 -0.000797257586512 -0.00328827422757
 -0.0056113165159 -0.00604237336081 -0.219131898744 -0.0207824526144
58333168750 -0.182823246993 -0.0331949374256 0.00405647680032 -0.00239720199881
 0.0022799545202 -0.00260618913046 -0.244208818278 -0.0423345547363
58375037500 -0.198928857686 -0.0656799942992 0.00434239228289 0.00190571517776
 0.00318980855695 0.00420007888515 -0.259432714088 0.00793830021956
58416906250 -0.22262203891 -0.0264743592953 -0.00124392158354 -0.00569404638941
 0.00137721868799 -0.00710842431056 -0.213187244378 0.0269982907713
58458775000 -0.145625982289 0.0126942946161 0.00567432312954 -0.00239505015409
 0.00230073219642 -0.00455681775731 -0.258812241748 -0.0222451595151
58500643750 -0.2006590421 -0.0879163782367 0.0030925840159 0.000313115340675
 0.00359433416047 0.00252948768593 -0.250704756918 -0.00571427574761
58542512500 -0.168167842122 -0.00474669115763 0.00165904925108 0.00197963877354
 0.00356600627704 0.00173935353477 -0.217194313127 -0.0324306200207
58584381250 -0.174823680561 0.00374588784445 0.00143447019294 -0.00340385747845
 5.49297437345e-05 -0.00438793864694 -0.234558401109 -0.0222535428252
58626250000 -0.160217884569 -0.0608269263834 0.00460591145233 -0.0050820320247
 0.00307456349446 0.000357327493692 -0.186396285438 0.0321160441316
58668118750 -0.202160909132 -0.0220726665007 0.00181229339201 0.00258396310054
 0.00643796221634 0.00803403833913 -0.202502036444 -0.0405786981298
58709987500 -0.154762783211 -0.0207093869725 0.00454127128391 -0.00583407966042
 0.000603254386136 -0.0062582817509 -0.243113896768 -0.0348266570067
58751856250 -0.103588210405 -0.0623952742715 0.00636875152606 -0.00138046228128
 0.00252003228273 -0.00470823919357 -0.180122306999 0.045433242793
58793725000 -0.168852768298 -0.00362467571864 0.00607186668082 0.00318795778483
 0.00281924405087 0.0042383930146 -0.109670421939 -0.0184750295451
58835593750 -0.139155474414 0.000381400808419 0.00478998016461 -0.00250534535533
 0.0046838855768 -0.00470062022448 -0.222402035597 -0.00881261780466
58877462500 -0.151579980898 0.017911048849 0.0058204868428 0.0055171497158
 0.00603424207049 0.00422236895642 -0.231495581468 0.0724784200564
58919331250 -0.166648359427 -0.0572394359304 0.00194428209267 -0.00631210008506
 0.00179120747493 -0.00231421184642 -0.115022096818 0.0248989181435
58961200000 -0.133339274844 -0.0501257215012 0.00316299226821 0.00332094704143
 0.00515262568899 0.00185739249956 -0.195794199557 -0.0325636484515
59003068750 -0.161932327347 -0.00897781090429 0.0042631517854 -0.00960884196694
 0.00222312354459 -0.00838808580421 -0.221898697005 0.0578734578182
59044937500 -0.0284895891776 -0.00349001174197 0.00848706954943 -0.00430787028802
 0.00942199381793 -0.00662392270989 -0.141949555385 0.0416111342447
59086806250 -0.121134335504 -0.0165553794527 0.00401300792431 0.00714551279031
 0.00418092706293 0.00650138257099 -0.141489639579 0.00140170749278
59128675000 -0.13956423396 -0.0131250900656 0.00790708496493 -0.00383776990416
 0.00686095149772 -0.00522364784446 -0.204524138107 0.0267490441309
59170543750 -0.125371176331 0.114539194917 0.0115606622944 0.0057852558898
 0.0120223968137 0.0067706337163 -0.14228524073 0.0683233895429
59212412500 -0.0819407933432 -0.0967183499707 0.00037927411873 0.00549654034299
 0.0037602410516 0.00683526454834 -0.114891147954 0.0506474311954
59254281250 -0.144405733284 -0.0125866740665 0.00653894105576 0.00267301727085
 0.0061750307877 0.000882737381026 -0.161196233344 0.0935023119029
59296150000 -0.129584540572 0.047553318792 0.00409670064435 -0.00809306336379
 0.00254168770822 -0.00906079915409 -0.215352053063 0.0727854157395
59338018750 -0.0109211493045 0.00932753385974 0.00948964105896 -0.00104106870229
 0.0114357860123 -0.00348384374389 -0.188431566124 0.077507519931
59379887500 -0.108331424048 -0.0159550684512 0.00196583036313 0.00965449954133
 0.00443170497751 0.00842220655491 -0.128096285404 0.0735640082829
59421756250 -0.116490568273 0.0756362314246 0.0105297391704 -0.00487731416834
 0.011163071353 -0.00576797026644 -0.182419625377 0.035643481275
59463625000 -0.0412284160428 0.0614520480378 0.00895583683659 0.0084707682435
 0.0116770311328 0.00834455837758 -0.207247321666 0.0805182005959
59505493750 -0.107368713503 0.0500559576291 0.00604622239371 -0.0110066886326
 0.00424382401524 -0.0114555897336 -0.147331812135 0.145368854361
59547362500 -0.118072222948 0.0477051880434 0.00863189285613 0.000882539360986
 0.0084147509271 0.000869737741902 -0.128141908924 0.021151252072
59589231250 -0.105718308755 0.0786157318563 -0.000450420492234 0.00779654241476
 0.00028899307138 0.00862946518422 -0.206883269588 0.0677514499834
59631100000 -0.0877137869392 0.0355150948965 0.00643902209034 -0.000700694693484
 0.00652581773496 -0.00205047997002 -0.187386934771 0.154383226558
59672968750 -0.0851133106693 0.0713434588073 -0.00188957745834 0.00624689077738
 -0.00131588644893 0.0064040059651 -0.0915901754126 0.10848634215
59714837500 -0.100154701671 0.0529528134542 0.0088927775512 0.00227028019135
 0.0098874640876 0.00127121765364 -0.189721567616 0.0744211556894
59756706250 -0.0873859457575 0.121175106077 0.000401388861623 0.0136020163807
 0.00220494437237 0.0146087603455 -0.242326396276 0.135983068875
59798575000 -0.0864934395672 0.119330201921 0.0126796445029 -0.00846941664747
 0.0122059159481 -0.00942612224743 -0.132983941721 0.148822606203
59840443750 -0.146089520864 0.0421726354134 0.00772418380837 0.00877409849503
 0.00844928833617 0.0071688562105 -0.157370093883 0.10340017263
59882312500 -0.153574480602 0.150653632398 0.00988246801858 -0.010870539633
 0.00956184529796 -0.0119317233626 -0.229583417956 0.130596263923
59924181250 -0.0897483802976 0.064257570351 0.0116596777678 0.00508788469654
 0.0136955995582 0.00287938796395 -0.232752715875 0.150181038996
59966050000 -0.0827916035331 0.0610598809754 0.000162731555757 0.0125045588716
 0.00207563785859 0.0132336272807 -0.163428303089 0.115558463086
60007918750 -0.166814233282 0.11275356575 0.0124423316362 -0.0019135995007
 0.0120880201986 -0.00204478938654 -0.180450938586 0.0895336046023
60049787500 -0.0681682983184 0.16244865876 0.00572002384403 0.0132493649992
 0.00712675022391 0.0141411505544 -0.212700695936 0.147909630081
60091656250 -0.115206241664 0.0880750707854 0.0115206938886 -0.0080958687173
 0.0101960986762 -0.0101318443147 -0.193717053484 0.189596152361
60133525000 -0.187017472313 0.105452349096 0.0102436359607 0.00988564786879
 0.0102656147096 0.00815557742099 -0.19227203424 0.151828146998
60175393750 -0.108182064352 0.172228843111 0.00547289189563 -0.0121712685796
 0.00516761606601 -0.0140925046052 -0.253090159592 0.122291339505
60217262500 -0.145059431312 0.103693521022 0.0129435325324 0.00268763279259
 0.0131574857515 7.51413774968e-05 -0.258173164949 0.189468313968
60259131250 -0.14731785819 0.109896552623 0.00268166035666 0.0118797918637
 0.00427021441471 0.0110192275636 -0.20746459608 0.161392426624
60301000000 -0.181086874094 0.149050236458 0.00961096272542 -0.00417631199661
 0.00990142680759 -0.00461658588384 -0.248907577573 0.0994204905207
60342868750 -0.110616621154 0.118823564195 0.006000852614 0.00813383589115
 0.00835262116005 0.00741272257082 -0.301097783161 0.146935106271
60384737500 -0.15968657459 0.124359648192 0.00686699450812 -0.00752447034521
 0.0057342051531 -0.00790063861773 -0.233906636455 0.161570577798
60426606250 -0.169832617875 0.13974901543 0.00841220100834 0.00423064364508
 0.00788609357133 0.00432206001516 -0.197589584491 0.102260982742
60468475000 -0.157280063706 0.17892196845 0.00444076431015 -0.00808517620337
 0.00473651306468 -0.00915978397543 -0.271349316547 0.111999467675
60510343750 -0.192134605945 0.147460324794 0.00967151612829 0.00538357647974
 0.00973397288302 0.0043381634201 -0.271043986482 0.184983607155
60552212500 -0.182313751124 0.0931005805467 -0.00323211836265 0.0104566254401
 -0.0014336819534 0.00961411825867 -0.235020747945 0.16232526615
60594081250 -0.224627494472 0.183557160833 0.0104571199144 0.00130472418318
 0.011179607411 0.00246426195398 -0.257029659769 0.101592899471
60635950000 -0.169845902473 0.133427007907 -0.00106489830642 0.0108891200132
 0.000125956314772 0.0121108535695 -0.282458706692 0.111434960956
60677818750 -0.168121279339 0.109315188637 0.0138733127306 -0.00117919541214
 0.0127271172737 -0.00361754559524 -0.266122835781 0.184697727304
60719687500 -0.257763771138 0.135888998506 0.00451471257999 0.015247380056
 0.00290475561841 0.0137546949205 -0.232153296912 0.158646664771
60761556250 -0.203164838205 0.19057298142 0.0133983955963 -0.00668570315786
 0.0151243785121 -0.00779044525531 -0.283245085381 0.11828232631
60803425000 -0.180350072191 0.116650310267 0.00820432506942 0.0131055671265
 0.0113521590329 0.0103140325943 -0.333149838925 0.145014810789
60845293750 -0.271972700381 0.0976997901286 0.0110728694204 -0.0132165203542
 0.00981959799996 -0.010019615337 -0.284916103756 0.176017675109
60887162500 -0.244903936068 0.158878551796 0.0116421124226 0.00451024248104
 0.012743056819 0.00682874227395 -0.264414644141 0.0926954073597
60929031250 -0.218569063954 0.145727097617 0.00433672249317 -0.0112724530746
 0.00270313826406 -0.0133537215913 -0.323990283156 0.0953862055113
60970900000 -0.228881193567 0.069192468599 0.0135947739433 0.00075050352998
 0.00963210661116 -0.000391114409061 -0.295804400937 0.169965020183
61012768750 -0.272216791084 0.119920481149 0.00356697865218 0.0108135649056
 0.00219870741837 0.0105961419908 -0.271531249375 0.136186499666
61054637500 -0.225470475048 0.125296790975 0.00813773066095 -0.00197580863241
 0.00821870080965 -0.00429514261657 -0.325143003279 0.0749457992379
61096506250 -0.237398758879 0.125753906747 0.00481043542374 0.00989488273537
 0.00540549658766 0.00833130341748 -0.338274268466 0.146656575354
61138375000 -0.243584791141 0.0776383027433 0.00634113527591 -0.00822358484492
 0.00577460917426 -0.00587906159071 -0.266027567199 0.134821706391
61180243750 -0.277833736524 0.128752576469 0.00601398328018 0.00520119568741
 0.00798965828883 0.0054536009439 -0.316032644673 0.0684104690541
61222112500 -0.262973781948 0.106920073748 0.00499730572288 -0.00848239428024
 0.00370916443611 -0.00813362350712 -0.354786407145 0.109840531457
61263981250 -0.232899507608 0.0736910713406 0.0106972782665 0.000746216386116
 0.00788744617579 0.000804249042163 -0.298124218953 0.147852822621
61305850000 -0.283097211287 0.103896469762 0.00130630520364 0.00802638673788
 0.00167088706048 0.00971094376754 -0.301724451291 0.0713149128471
61347718750 -0.274197361472 0.101729312207 0.00817310384349 -0.00305301765548
 0.00753786235792 -0.00406234363042 -0.349440377117 0.0746087929818
61389587500 -0.24209433755 0.0844741061002 0.0052744568147 0.00651923543297
 0.00489551144609 0.00504117094102 -0.344996754662 0.103793494487
61431456250 -0.301643124299 0.0708746498952 0.00450668696706 -0.00488808002511
 0.005839016334 -0.00537541310412 -0.308603012597 0.0815487614269
61473325000 -0.303253892209 0.115796999886 0.00477130581182 0.00445219232921
 0.00767425463177 0.00502544745547 -0.298596838732 0.0584049915058
61515193750 -0.249165048048 0.0420951067363 0.00597333493584 -0.00563646174685
 0.00452279873621 -0.00622751312249 -0.312619475209 0.0347454864775
61557062500 -0.313798938218 0.0280074357372 0.0108962635772 0.00624478632999
 0.0103340564739 0.00831145910412 -0.335984748406 0.104209239374
61598931250 -0.304691090089 0.0610123886269 0.00158687535545 -0.0142460717126
 0.00438406088976 -0.0145611806379 -0.296221451684 0.12642009166
61640800000 -0.244616843918 0.0653071397724 0.0118591403797 0.00193474211378
 0.0120157466593 -0.00162239785637 -0.296457894412 0.0342260857626
61682668750 -0.250394877644 0.00464878209135 -0.00110828037337 -0.0162855915362
 0.001365405728 -0.0118336603301 -0.375085286794 0.0297614594119
61724537500 -0.334940835628 0.0457173241052 0.0163268517497 -0.00850196635657
 0.0185431605951 -0.0067944452003 -0.339791915101 0.118694117212
61766406250 -0.270694835019 0.0783717316979 0.00867906917728 0.0075788376406
 0.0130432222215 0.0100594446802 -0.260532439767 0.0600569316245
61808275000 -0.273989332899 -0.0127277093617 0.00963477101281 -0.00674741220526
 0.00841175299463 -0.00584417980602 -0.338796191636 -0.0153275029985
61850143750 -0.26897734639 0.000509396602122 0.00985267587428 0.00678978642535
 0.00702740883722 0.0078117618824 -0.376453466857 0.0781621531795
61892012500 -0.307409850965 0.00874875423487 0.0046690333152 -0.00789998533331
 0.00617412424541 -0.00964288399621 -0.295149805177 0.0558827375686
61933881250 -0.244865987357 0.035379159298 0.00674485235135 0.00403585438889
 0.00680576001066 0.00039661742453 -0.278358362215 -0.0177893599538
61975750000 -0.257594475545 -0.0074464258917 0.0010825874567 -0.00738961856799
 0.00172293387564 -0.00659302728445 -0.334779348504 0.0333038183295
62017618750 -0.271760211842 -0.00602830520833 0.00637592327679 -0.000577624444721
 0.00698666654277 0.000527678488726 -0.303894015462 0.065660590561
62059487500 -0.309922523581 -0.00120659566975 -0.000201721556956 -0.00627340504054
 -0.00204099038992 -0.00656442170291 -0.290774778737 -0.00340219719448
62101356250 -0.253529503352 -0.0286502292125 0.00495207304489 -0.00369380833222
 0.00516589882253 -0.00291400591667 -0.318065515487 0.0166586128153
62143225000 -0.196446768784 -0.0340270003726 0.00505590937011 0.000688364282553
 0.00338616608208 0.00303363111633 -0.282639778641 0.0456512097363
62185093750 -0.287000622195 -0.0152563254976 0.0014499441648 -0.00500385988346
 0.0009869721372 -0.00618805805555 -0.274730937541 0.00948818629203
62226962500 -0.223764734308 -0.015969991672 0.00607939154757 -0.00168662503246
 0.0049830756725 -0.00017382638036 -0.334172279407 0.0221125009039
62268831250 -0.240618770428 0.0106220548064 0.00327592518791 0.00458861742751
 0.00300395337105 0.00381183487592 -0.311201201349 0.0113513668564
62310700000 -0.278813823821 -0.0541568911251 0.00214885262372 -0.00228032183638
 0.00174225802936 -0.00390924460384 -0.248203756786 -0.0168931787011
62352568750 -0.238921467708 -0.0252835183821 0.00305686384436 0.000773891067279
 0.00300958621957 0.000301106576908 -0.271455441639 -0.0153173829817
62394437500 -0.221029134342 -0.0637025326925 -0.000241410500371 -0.00216815000196
 0.000299272624836 -0.00264787923179 -0.25952331814 0.00880917588334
62436306250 -0.228552419701 -0.0577988680666 0.00221572099599 0.000418102104694
 0.00243079996127 0.00119723552801 -0.264117046637 0.0259567260346
62478175000 -0.236319549804 -0.0138983607923 0.000537145548924 -0.00470405409793
 0.00119350447834 -0.00481966912876 -0.255787634203 0.0400451487534
62520043750 -0.185955552549 -0.0646684129808 0.00430938955822 -0.000788048784529
 0.00449786474834 0.00156041627186 -0.248897979536 -0.00734110782632
62561912500 -0.205085510148 -0.0601178088448 -0.00144066274672 -0.00605171248442
 0.000547067220518 -0.00605243713556 -0.270014692131 -0.00484185365078
62603781250 -0.254827120061 -0.0721082751129 0.0080842212355 -0.00304117753274
 0.0100120118902 -0.00047892716956 -0.297142043495 0.0518636735512
62645650000 -0.157344012026 -0.0116618357503 0.00832164803717 0.00686787804903
 0.00396405766084 0.00376689819591 -0.231322880726 0.0289746579999
62687518750 -0.174967855221 -0.112885502586 0.00372133998007 -0.0018055626406
 0.00614211066774 -0.00137048045387 -0.242257337233 -0.0637464457618
62729387500 -0.145539783401 -0.0532879256567 -0.0102512403752 6.65926469193e-05
 -0.00119935514098 -0.00353541607554 -0.289230178903 -0.0139134555448
62771256250 -0.213042760778 -0.015797814622 0.00208951932141 -0.00832740082986
 0.00424206774332 -0.00725742162918 -0.222634425279 0.0518713668933
62813125000 -0.145832131084 -0.0311372629997 0.00737519901553 -0.00115994249632
 0.0040184835933 0.000495597565837 -0.180176389356 -0.000912524662657
62854993750 -0.145996598778 -0.0475948207747 -0.00149293616222 -0.00940909139817
 0.000800322757514 -0.00212208019716 -0.237269554788 -0.0323274594794
62896862500 -0.220953858672 -0.0533655530506 0.00575643337889 -2.98549505281e-05
 0.00528114365352 0.00211665768907 -0.257939520483 0.0440468156405
62938731250 -0.160053012112 -0.0791407808066 -0.00197928986238 -0.00238873634364
 0.0026332161955 -0.00241828351389 -0.191486105727 0.0223875479994
62980600000 -0.139693284159 -0.034214327443 0.00627877327902 -7.31642167714e-06
 0.00175278578674 -0.000938680731089 -0.184601791025 0.0168088098725
63022468750 -0.0836051708079 -0.0635138200568 -0.000446829495324 0.00221326560915
 0.00340753752732 0.000381947980051 -0.239874490545 0.0424760364541
63064337500 -0.150468323628 -0.0638228409341 0.00102520070721 -0.00278085531416
 0.00112685935713 0.0006985642925 -0.230179107324 0.0274031229947
63106206250 -0.120198554473 -2.91713005349e-05 0.00207412692929 -0.000109323255787
 0.00113829268955 -0.00091929505023 -0.222807870817 0.0301116660666
63148075000 -0.136194647326 0.00179487587249 0.00132546786066 0.00354128810319
 0.00196128569168 0.00168298369287 -0.238214411899 0.0138232881637
63189943750 -0.102206341099 -0.0483529996226 -0.00212132242868 0.001174563357
 4.98328477527e-05 0.00259266992417 -0.165610475921 -0.00791083262088
63231812500 -0.142705833677 -0.0777261270995 -0.00321100470582 0.00153362380201
 0.00126498154874 -0.00174985255752 -0.181956606833 0.0276818972263
63273681250 -0.101756779027 -0.00155935233411 0.00378112585474 -0.00343893695775
 0.000988850454313 -0.0044524817309 -0.209923602974 0.0453253244706
63315550000 -0.0667160093508 -0.0225342755678 0.00381792302712 0.0015433702855
 0.00462236929298 -0.00130713421299 -0.178869134606 0.0595450385744
63357418750 -0.0649207976151 0.0199954321384 -0.000341975916373 0.00355434492358
 0.000846187523596 0.00409191691865 -0.152341434451 0.0371277311927
63399287500 -0.121467724557 -0.0149083887587 0.0025306362821 0.00187626347498
 0.00230495967868 6.51396998886e-05 -0.187667329657 0.0724197865768
63441156250 -0.0887419088724 0.0258539673911 0.00203132780818 -0.00187510175373
 0.000990804274438 -0.00262301665937 -0.207522595568 0.0776784615053
63483025000 -0.121740946027 0.0408837377067 0.00153106474495 0.00271234591859
 0.00196404436031 0.00182415879298 -0.192312863637 0.103164919006
63524893750 -0.100249906496 -0.0101553788782 0.00240495150987 0.0004991361547
 0.00186414501232 -0.00126475681609 -0.225273985497 0.0774667972593
63566762500 -0.0601148963737 -0.0141137496302 -0.000423756933565 0.00323443398262
 0.00211286334142 0.00376193376031 -0.196514244138 0.046276284057
63608631250 -0.103962691767 0.00124858068474 0.00496968019184 0.00157698209353
 0.00478373209502 -0.00159507678219 -0.217965481384 0.0333874330883
63650500000 -0.0549747960655 0.0744764006812 0.000750456134091 0.00939693263485
 0.0036163332523 0.0094400337148 -0.20174105002 0.105379764703
63692368750 -0.0542479606504 0.0646478466709 0.0109000903326 -0.00330695500019
 0.010288216396 -0.00624144471009 -0.168548650889 0.10261593958
63734237500 -0.0814073066815 0.0166652163452 0.00373403124468 0.00841476675395
 0.00705739539794 0.00752126569174 -0.175242951658 0.036912128675
63776106250 -0.139757898448 0.0627104494414 0.0126166233874 -0.00389537198234
 0.010299375859 -0.00655865307361 -0.251890726453 0.0689271834557
63817975000 -0.0732856634468 0.0933056809337 0.00984388612125 0.00960549335328
 0.0118590070706 0.0077793244175 -0.185485896757 0.121608244133
63859843750 -0.0616168331368 0.04965006386 -0.00592272948591 0.0100012869548
 -0.00356759912922 0.0111956888017 -0.113172931572 0.105213019285
63901712500 -0.102802262116 0.0295611231724 0.00593006374434 0.00679990286298
 0.00827346030145 0.00389629144442 -0.213591576559 0.0810794904355
63943581250 -0.0872834192976 0.0707699408315 0.00704774326548 -0.00716658544202
 0.00426494016587 -0.00926625976989 -0.238782612839 0.129102923522
63985450000 -0.0904678987113 0.1258892139 0.00854790095257 0.00579492040312
 0.00938338683604 0.00426593163246 -0.195536508407 0.144767257969
64027318750 -0.052630736139 0.0659945857565 -0.00313928696371 0.00617805648458
 -0.00162337158368 0.00770344987858 -0.19249646917 0.0969416300395
64069187500 -0.0748879774213 0.0920595404993 0.00494235093435 0.00382586588726
 0.0062192107622 0.00253560909604 -0.233510736041 0.110384904486
64111056250 -0.14346549979 0.107933185265 0.0038540825763 -0.00254995603352
 0.00331486590929 -0.00282027877981 -0.222434175287 0.107826043597
64152925000 -0.102805074039 0.13800481411 0.000825709452834 0.00735530176072
 0.00196204768222 0.00730397555506 -0.226838635404 0.129724115444
64194793750 -0.0637196118476 0.0975165626034 0.00925282827063 -0.0031771179342
 0.00891410800268 -0.00548210419351 -0.208731737049 0.130080469681
64236662500 -0.132174618117 0.0713299967045 0.00466460082568 0.0089692336914
 0.0054261020304 0.00719383326462 -0.192841021915 0.0905506334392
64278531250 -0.115266976517 0.139177060717 0.00933081552731 -0.00661637210371
 0.00849740096828 -0.00819964419845 -0.245230402077 0.119196897751
64320400000 -0.0832837320774 0.148756747271 0.0087384089004 0.00731441017225
 0.0103365639587 0.00602854139464 -0.246779884334 0.160249500316
64362268750 -0.117273073307 0.136288062584 -0.00302418578372 0.0086737611512
 -0.00235441194689 0.00852980602242 -0.183417871572 0.129606847283
64404137500 -0.156795390849 0.123040380686 0.00564513906016 0.000903151606084
 0.00560561210146 0.000556244241509 -0.227184323021 0.103329589175
64446006250 -0.119907242221 0.142761833722 0.00184413565372 0.00226078521825
 0.00221166127861 0.00190531852717 -0.247976739928 0.16380103808
64487875000 -0.158281438074 0.124255439799 0.000387870017513 0.00429757279495
 0.000899812388297 0.00371650602451 -0.23697755241 0.170352192304
64529743750 -0.108772163292 0.163479680916 0.00298132739658 -0.00242885547261
 0.00264174786185 -0.0031426750017 -0.274495487864 0.144165541846
64571612500 -0.146477049469 0.154884430241 0.00592861988515 -0.000180522166801
 0.00579879425779 -0.000991119557177 -0.268957961601 0.14085720068
64613481250 -0.19391360048 0.10638836065 0.00327715396973 0.00708724313468
 0.00313990359287 0.0064297865146 -0.259199107755 0.0968226610918
64655350000 -0.145333389625 0.176778234433 0.00684744856216 -0.00727609575325
 0.00673213258077 -0.00870590109668 -0.269808348345 0.113835900086
64697218750 -0.165683491561 0.164585857216 0.010769958514 0.00567854176499
 0.0106439167334 0.00453348582385 -0.259861676602 0.176080810079
64739087500 -0.167008801815 0.0994194493444 -0.00285581848697 0.00977257052889
 -0.001431566805 0.00836342377035 -0.235919924648 0.137510294515
64780956250 -0.186406395878 0.154958513694 0.0076417125273 0.00291741052576
 0.00931288078004 0.00193079260299 -0.30009155637 0.0715217075512
64822825000 -0.174916370202 0.165288058901 -0.00111610028315 0.00847767288946
 -0.000189910321358 0.00864500010496 -0.294911266086 0.14369359909
64864693750 -0.187950258039 0.134721538031 0.00592577327568 0.00133790126179
 0.00525965871263 0.00121640477822 -0.233779743574 0.155671821783
64906562500 -0.153273649107 0.14909531218 0.00286940723908 -0.00584715682905
 0.00296087861931 -0.0064395094152 -0.240759895201 0.106839544994
64948431250 -0.214106450825 0.137283675505 0.00702131468093 0.00438692102667
 0.00705861534753 0.00404494808844 -0.290178644168 0.123992799046
64990300000 -0.204855071843 0.178989809154 0.00349011835198 -0.0083675236872
 0.00290271291297 -0.00845584386878 -0.297832767881 0.164513796749
65032168750 -0.199880253692 0.167946599978 0.00663249616734 0.00243657211236
 0.00692239873772 0.00239563099964 -0.271282293615 0.138546769443
65074037500 -0.221235808287 0.122445562556 0.00362968538738 -0.00611538176359
 0.00352824605322 -0.00552017419766 -0.270117617092 0.13549087121
65115906250 -0.2419932171 0.11696335859 0.00669926703792 0.00462433888353
 0.00643118610283 0.00445550343006 -0.299167108337 0.113864425478
65157775000 -0.208114453331 0.17172663003 0.00306852395027 -0.00929957120508
 0.00170873669713 -0.00926327546606 -0.325180755645 0.156759510674
65199643750 -0.215632210655 0.114474590521 0.00752912047785 -0.000156266517419
 0.00629366176318 -0.000503257581831 -0.309607219353 0.138707405253
65241512500 -0.219698853987 0.137128808869 0.0014646111996 0.00399845894071
 0.00188131222246 0.00447437366789 -0.284012420909 0.0905919643285
65283381250 -0.238591433303 0.169158104354 0.00270140212246 -0.00288418776116
 0.00277309110466 -0.00356593166543 -0.308250287248 0.105262412276
65325250000 -0.265533638398 0.0940164564703 0.00496643041954 0.000490323669445
 0.00436540135826 0.00108907921148 -0.308734529162 0.141756965327
65367118750 -0.229015074888 0.148099346328 0.00196379281624 0.00464354380156
 0.00220760648563 0.00440428251506 -0.306055545254 0.135950053759
65408987500 -0.247316508505 0.13869674991 0.00176926857561 -0.00295599721062
 0.0013856973364 -0.00311691110258 -0.33601341608 0.103362238721
65450856250 -0.247584315763 0.0927760706918 0.00362100401247 -0.00206337141294
 0.00344664226392 -0.00173466859533 -0.31157494423 0.108427365329
65492725000 -0.276237821601 0.114977948156 0.00300544505713 0.00435346561088
 0.00368876512402 0.0045437754889 -0.319948467427 0.0798491158889
65534593750 -0.265663241482 0.154633998613 0.00493581002685 -0.00528832329867
 0.00479234028515 -0.00663233323612 -0.320111082747 0.0991072692497
65576462500 -0.23821304229 0.0740044103243 0.0083818580693 0.0028542108526
 0.00624472374404 0.0035276957221 -0.298219328458 0.138535554571
65618331250 -0.291291350941 0.105727689875 0.00235945211868 -0.00727977109819
 0.0024198698781 -0.00799439507048 -0.323391272373 0.0924935090972
65660200000 -0.277827763528 0.0717881251478 0.00548028855362 0.00171948266301
 0.00533480678112 0.0015325452219 -0.336378471913 0.0714299454109
65702068750 -0.260359671741 0.123221034284 0.0026023678967 -0.00416098452504
 0.0020723467181 -0.00419206608072 -0.343488247763 0.0994648984193
65743937500 -0.263342904136 0.074354425668 0.00364209813002 0.00354877068328
 0.00351418580824 0.00389120055609 -0.305255632316 0.0929466849179
65785806250 -0.262563903821 0.0624200395407 0.00430414467356 -0.00365473762623
 0.00470150486243 -0.00339051279834 -0.306420388569 0.0812211823543
65827675000 -0.290627840825 0.0665723982368 0.00293519859572 0.00600656231295
 0.00339530483866 0.00616179180811 -0.32787766495 0.061517995467
65869543750 -0.263263356177 0.104278362969 0.0088934263317 -0.0042070128856
 0.00735205642551 -0.00487199246726 -0.348271485174 0.0725740515092
65911412500 -0.242215391105 0.0844087915412 0.00776177694466 0.00787570652193
 0.0066778916063 0.0078717795394 -0.301423596501 0.110514505516
65953281250 -0.291472104896 0.023574257386 0.00656987944971 -0.00690507173366
 0.00963833716145 -0.00787126091808 -0.288678664481 0.0748127025949
65995150000 -0.307269838665 0.0790165149535 0.00810721175399 0.00901294573153
 0.00910003423671 0.00744991701269 -0.346550635969 0.0372480669433
66037018750 -0.27472873281 0.052635943439 0.00688008976048 -0.0112243281066
 0.00739299218274 -0.00904117905913 -0.363506169184 0.09824572395
66078887500 -0.213240987425 0.0352586551162 0.0104617453249 0.0014063656812
 0.00767429900024 0.00409349090582 -0.282702830008 0.0837807126433
66120756250 -0.285200357519 0.0392899485059 0.00386576398806 -0.00766887365418
 0.00297068189475 -0.00969567802262 -0.292774185296 0.0346553377328
66162625000 -0.296418746611 0.057454277494 0.00937012601325 0.00307617224721
 0.00881572494427 0.00304174977253 -0.353149072706 0.0654497003273
66204493750 -0.267670954939 0.0602402848328 0.00135337347946 -0.00811027968897
 0.00209316736476 -0.00742026861954 -0.33772534876 0.0951737079813
66246362500 -0.262329568089 0.0193852309713 0.00576087357748 0.00163375625767
 0.00529322621034 0.00217144868295 -0.33100460846 0.0473895840578
66288231250 -0.265749275442 -0.0194836987405 0.00165992916913 -0.00265628948097
 0.00211063074302 -0.00287900830463 -0.310787915507 0.0219781208523
66330100000 -0.292452653697 0.0355969665004 -0.00152644653523 -0.0037996114639
 -0.00191548563806 -0.00406448592847 -0.306900014498 0.0475305240029
66371968750 -0.212882508142 0.0281101754385 0.0057352707214 -0.00312171085967
 0.00459006691294 -0.00125028631976 -0.323963075229 0.0420429164774
66413837500 -0.251223576628 0.0478582991506 0.00458456107431 0.00681027858878
 0.00345943217314 0.00653906495073 -0.331903423098 0.0769975712397
66455706250 -0.282360078166 -0.023483289184 0.00505232055584 -0.0033241644611
 0.00732798979019 -0.00420258358665 -0.2821231116 0.0502029138999
66497575000 -0.278241539885 0.0220436260549 0.00373296914724 0.00610674732817
 0.00338051207819 0.00548440012089 -0.346316648751 0.00737475528252
66539443750 -0.260455156788 -0.00750300870917 0.00547615318727 -0.003016562484
 0.00585415897995 -0.00223662709697 -0.331861735464 0.0313283476363
66581312500 -0.195724901556 -0.0046809994685 0.00421673383267 0.00308689347659
 0.0022991830957 0.00478567256364 -0.28035073772 0.0510419593098
66623181250 -0.250860133876 -0.00567409042324 0.00393861645622 -0.00350882001277
 0.00471874575203 -0.00310305636953 -0.308867265274 0.0433802809585
66665050000 -0.265730116245 -0.0324101509001 0.00104794464325 0.00142420888719
 0.00103408456106 0.00171217029559 -0.316890123121 0.0153169298674
66706918750 -0.243889748334 0.0640828412663 0.0067987492337 0.00319878229523
 0.00586679311043 0.00187769899659 -0.316544517734 0.0176572311972
66748787500 -0.219999911535 -0.0756422310531 0.00160043566762 -0.00721519032384
 0.0048682137178 -0.00837062154147 -0.327826325562 0.0171467572094
66790656250 -0.22186669349 -0.0450800939455 0.00727785879806 -0.0018663482049
 0.0103682824035 0.000586845567891 -0.282244308411 0.0454971874498
66832525000 -0.228226859392 -0.00925971042276 -0.00123531179371 -0.00744543001557
 -0.00292596956634 -0.0068418115132 -0.24813365268 -0.0194761083549
66874393750 -0.192794465306 0.015869402941 0.00864404282834 -0.00565524748979
 0.00657537535159 -0.00191293472206 -0.34366707717 0.0019082433538
66916262500 -0.202475908343 -0.0236114869464 -0.00458289411284 -0.00461072753337
 -0.00225770651708 -0.00666614398063 -0.302112986058 0.0596397341944
66958131250 -0.221679625397 -0.0257753252834 0.00353520213684 -0.00168638578042
 0.00561199183892 -0.00219727677076 -0.235631556942 0.0270681998891
67000000000 -0.212351993347 0.156129246386 0.0103096666317 -0.038382605846
 0.0148388326677 -0.0378612164865 -0.173887710368 -0.174876628224
67048000000 -0.2095158043 0.352387008629 0.0254571938383 -0.0690568049959
 0.033254791661 -0.0683074030014 -0.0188692557749 -0.320137403961
67096000000 -0.209720239921 0.357235658139 0.0320449140567 -0.0676788688969
 0.0396687134811 -0.0662130164298 -0.0125975155148 -0.323193800944
67144000000 -0.211362205857 0.364723912626 0.0376002947142 -0.0658243790962
 0.0450394869001 -0.0638436690481 0.000672238482041 -0.324528608668
67192000000 -0.210482522713 0.374076894148 0.0443553783673 -0.0628983859834
 0.0515415658246 -0.0603680517266 0.0177891960721 -0.326888694337
67240000000 -0.207680093298 0.367766416616 0.0514122375393 -0.0634237585114
 0.0587958663492 -0.0605438734378 0.0340753790916 -0.325162657966
67288000000 -0.212841125242 0.375619460607 0.0576693787301 -0.0591965808747
 0.0647110316062 -0.0557817589252 0.0475712348948 -0.327276907271
67336000000 -0.203618960861 0.365119260283 0.0672298196531 -0.0594357466693
 0.0745872767781 -0.0553270492474 0.0560847781037 -0.328110490326
67384000000 -0.203060023562 0.36650351801 0.0748158819729 -0.0561827475071
 0.0819812344788 -0.0513890348601 0.0623817422116 -0.331026386786
67432000000 -0.188908965406 0.375563499247 0.0875856646457 -0.0511964633672
 0.0945809137644 -0.0451562849484 0.0724554978997 -0.341133836036
67480000000 -0.176222390542 0.374656237872 0.101116540787 -0.048212048395
 0.107975210461 -0.0411045801882 0.0734308004101 -0.361463151109
67528000000 -0.181076760858 0.387340067794 0.112026107779 -0.0387283477101
 0.117961166538 -0.0307876652971 0.0845359937582 -0.382249192832
67576000000 -0.17711989912 0.389581978213 0.12418527853 -0.0314516811966
 0.129739333983 -0.0227573367958 0.101679401423 -0.400640349315
67624000000 -0.175019717711 0.386962429589 0.134865176946 -0.0264816932922
 0.140141924485 -0.0172688310408 0.112355845961 -0.420136876798
67672000000 -0.173359209537 0.393228419174 0.146952252801 -0.0174630823442
 0.151767128588 -0.00758613834734 0.129000096758 -0.438916855423
67720000000 -0.168752313667 0.411523997136 0.16499447001 -0.000109570212337
 0.168878835943 0.0108769066908 0.161486677378 -0.467409617599
67768000000 -0.171893225283 0.426761327959 0.179479368839 0.0194965800201
 0.182465586291 0.0311507694544 0.200169212947 -0.491559732655
67816000000 -0.189321738197 0.44110465761 0.185292072961 0.0466101264658
 0.186906173372 0.0584280548095 0.25166663756 -0.503741467054
67864000000 -0.224213758574 0.448219128089 0.176526948092 0.0724303662921
 0.176622884268 0.0835726474994 0.295471291109 -0.499757830864
67912000000 -0.250515621697 0.467332967457 0.170244744057 0.105256330026
 0.168668292701 0.116275811114 0.345774193922 -0.489271579816
67960000000 -0.278519551774 0.470368857478 0.153594689469 0.133566635545
 0.150808861204 0.143862155174 0.398708929313 -0.46555844438
68008000000 -0.313451101776 0.46458493455 0.124804680893 0.152498214022
 0.120954914547 0.161414059106 0.439315529122 -0.436923327424
68056000000 -0.325973877612 0.460632449571 0.10525260464 0.167144919772
 0.1008101467 0.175471749783 0.480351609369 -0.396053191397
68104000000 -0.35157348665 0.461052006676 0.0743318142151 0.18214448505
 0.0689175320886 0.189482849517 0.508566129152 -0.348888204794
68152000000 -0.374360677812 0.456682724821 0.0437184180643 0.185526917132
 0.0377054855628 0.19170728817 0.523930839987 -0.300998558132
68200000000 -0.392272839989 0.444287290793 0.0140616064776 0.179937814625
 0.00792591801738 0.184974733785 0.540930398304 -0.25663369899
68248000000 -0.411300712875 0.434614427102 -0.0165654897528 0.174183710402
 -0.0229588480565 0.17809603251 0.554177274292 -0.211043967361
68296000000 -0.432776143092 0.427017943423 0.0466403473136 -0.162702981567
 0.0531775401333 -0.165500429677 0.558405276228 -0.16699096933
68344000000 -0.452227783611 0.420376201255 0.0688183311755 -0.149757305555
 0.0753968646901 -0.151598510603 0.556164392995 -0.129182378353
68392000000 -0.46640686415 0.415214448355 0.0832356190644 -0.140630661327
 0.0898537553419 -0.141869265735 0.5561084446 -0.0949540384898
68440000000 -0.479409696936 0.407081660664 0.0981612436801 -0.127218406063
 0.104660595752 -0.127858257184 0.560979142662 -0.0566086154456
68488000000 -0.494697030667 0.400727020442 0.116085180885 -0.10830868537
 0.122426383102 -0.1082142019 0.564392467404 -0.0148030531618
68536000000 -0.509441931608 0.390548880039 0.125069450774 -0.0883917794375
 0.131184342899 -0.087684307737 0.560460347703 0.0209923376124
68584000000 -0.524104790908 0.379419143452 0.1282808535 -0.0705791533768
 0.13404774493 -0.0694688140133 0.555329918522 0.0530559669377
68632000000 -0.536527403482 0.366041077756 0.129238491744 -0.0540260667133
 0.134618834977 -0.0525905912332 0.55151847382 0.0843714620722
68680000000 -0.546205169988 0.35194858559 0.127619881597 -0.0400825857021
 0.132658253982 -0.0384019920453 0.546653729968 0.115469281419
68728000000 -0.555084684356 0.337158577298 0.125094125782 -0.0274511411472
 0.129833124797 -0.0255953912592 0.539150426767 0.145800977663
68776000000 -0.564769225446 0.322607325977 0.122527585309 -0.0163655540603
 0.126967244035 -0.0143829391164 0.531035571664 0.175743297258
68824000000 -0.573161985656 0.306907567176 0.118547170964 -0.00476808883043
 0.122693779987 -0.0026583605228 0.521541553733 0.207003619705
68872000000 -0.581871706243 0.287620550036 0.112319057486 0.00523160187877
 0.11609458904 0.00743819807962 0.510773200003 0.229443688427
68920000000 -0.589689048978 0.266100017237 0.104772807956 0.0150157479267
 0.108109880981 0.0172865676674 0.499534475168 0.252585585894
68968000000 -0.595967989367 0.243476768508 0.0963299821236 0.0254254795695
 0.0992072211905 0.0277517135002 0.487326447594 0.277469490237
69016000000 -0.599377820257 0.222011160154 0.0877190276378 0.0332774911505
 0.0901740188198 0.0355584883176 0.473116694138 0.30113439937
69064000000 -0.601043488646 0.202436860159 0.0783309204086 0.0404187492149
 0.0803655175724 0.0426056887219 0.456004530897 0.328231324418
69112000000 -0.602429828498 0.183058944938 0.0717549744215 0.0443556196587
 0.0734984467112 0.0464621433485 0.440783576294 0.347781649205
69160000000 -0.602559439885 0.162788093902 0.0637828893 0.0487026104235
 0.0651423586843 0.050677154119 0.423706270537 0.366511860299
69208000000 -0.602420030874 0.139423556798 0.0544432519459 0.0533195380285
 0.0553368960482 0.0551595859496 0.405346820695 0.385093241623
69256000000 -0.601450244006 0.118891441086 0.0458854590306 0.0567837456806
 0.0463860700603 0.0584302368034 0.384875862875 0.404693865126
69304000000 -0.600002048946 0.0958017077646 0.0352943967473 0.0595116036289
 0.0353464370588 0.0609208451034 0.360945845317 0.422662221442
69352000000 -0.595564951133 0.0747405310656 0.0260015147481 0.0596969226601
 0.0256246772858 0.0607244695067 0.33623372399 0.437753853949
69400000000 -0.590070460817 0.0548750133427 0.0171785613135 0.0591750844612
 0.016382100842 0.0598147135109 0.310790314289 0.452916615833
69448000000 -0.583713675511 0.0384582442614 0.0103512933064 0.0571667120792
 0.00920116401577 0.05740282983 0.287268905319 0.464922667613
69496000000 -0.574722194235 0.0221855318588 -0.00298929443292 -0.0539979185342
 -0.00155663835591 -0.0536783833812 0.25972961479 0.476784350421
69544000000 -0.565210421413 0.00464414629709 0.00451186553089 -0.0500868745183
 0.00620617673399 -0.0491044526171 0.229587603427 0.488325556405
69592000000 -0.555698870846 -0.00974797285821 0.0100603517963 -0.0457640582675
 0.0119541612198 -0.0441243764724 0.200712950462 0.497366447306
69640000000 -0.544314250504 -0.0243268729885 0.0145710919436 -0.0405676013255
 0.0165985352319 -0.0381370991476 0.172996806886 0.503989010342
69688000000 -0.532364786942 -0.0371384620282 0.01770487504 -0.0350534685999
 0.0197561312598 -0.0317246107217 0.145869003189 0.50896782311
69736000000 -0.51871463251 -0.049483317227 0.0196561954627 -0.0295723874825
 0.0216906208826 -0.0251425080576 0.120111544609 0.512086492855
69784000000 -0.506690607143 -0.0595934793374 0.0204201639309 -0.0246464468419
 0.0224173600102 -0.0189749149005 0.0944086940188 0.514253761186
69832000000 -0.493795967352 -0.068732419669 0.0196812384152 -0.0202050768717
 0.0216930140103 -0.0130679121673 0.0711352008344 0.514704783358
69880000000 -0.479859613101 -0.0773905160185 0.017495346636 -0.0163472819018
 0.0196855652336 -0.00728489097622 0.0489520737654 0.513103687622
69928000000 -0.465555123138 -0.0847449856613 0.0134891673015 -0.0135456731874
 0.0164792928342 -0.00188548152318 0.0281721273052 0.511071668811
69976000000 -0.44956566327 -0.0923044321354 0.00544925322688 -0.0111123296236
 0.0121413623766 0.00357636699598 0.00951182583796 0.508723097829
70024000000 -0.433400328494 -0.0979755786974 -0.00475906390033 -0.00223386536087
 0.00758781210631 0.00950792813055 -0.00766635962822 0.507263384453
70072000000 -0.416866781722 -0.103445788821 -0.00756260394949 0.00674350074725
 0.00405894105878 0.0144617092277 -0.0230919248995 0.505670468774
70120000000 -0.400090362565 -0.1082050902 0.00918170315335 -0.0116436573365
 -0.000749863754828 -0.0181033710496 -0.0379910288692 0.503701326547
70168000000 -0.382991713183 -0.114417048156 0.0113583593031 -0.0148818505544
 0.00255945547963 -0.0210214100215 -0.0524184522203 0.502214633032
70216000000 -0.369044083348 -0.118367093182 0.0131047434967 -0.0162760411759
 0.00526438990978 -0.0222115147402 -0.0661067937809 0.500558649072
70264000000 -0.351467147104 -0.117882066716 0.0162240982894 -0.0162719574495
 0.00923791124364 -0.0223040119025 -0.0786929971587 0.498412257319
70312000000 -0.332921423789 -0.119383517447 0.0196321446162 -0.0162277993223
 0.0132503257665 -0.0224510864929 -0.0926730343774 0.49702141775
70360000000 -0.316091932261 -0.119358228516 0.0226568259658 -0.015599773468
 0.0168028100523 -0.0219776713865 -0.106485519574 0.496412766556
70408000000 -0.299325502915 -0.115980199179 0.0256054495982 -0.0133487520513
 0.0204182374255 -0.0199609890755 -0.120558855282 0.494465711556
70456000000 -0.284550201292 -0.110485418517 0.028036872121 -0.0105982682533
 0.0234828736974 -0.0174024425988 -0.134904163415 0.492937348454
70504000000 -0.269834352597 -0.106354978429 0.0300156605304 -0.00800606981389
 0.0260082194839 -0.0149419862995 -0.148951000533 0.491420820375
70552000000 -0.25416659396 -0.101050473404 0.0321612113054 -0.00451373814748
 0.0287613264612 -0.011700009496 -0.163288955474 0.487600034698
70600000000 -0.239506148277 -0.0944519129244 0.0339306766197 -0.00113357710551
 0.03107360841 -0.0085305379461 -0.179412684284 0.483268969111
70648000000 -0.226836995044 -0.0870009548572 0.0350958606732 0.00261513426825
 0.032801563928 -0.00498201219791 -0.195439585904 0.478427783678
70696000000 -0.214023494442 -0.0782451317609 0.0358913016893 0.00651062331676
 0.0341364994406 -0.00128737988353 -0.211358486733 0.473214284589
70744000000 -0.202898419519 -0.0693285666897 0.0362422160735 0.0101864163976
 0.0349814068084 0.00223676782475 -0.227270231569 0.466437541368
70792000000 -0.193066994806 -0.0619830103136 0.0355612720899 0.0133333197345
 0.0348007558939 0.00538367987986 -0.242934397967 0.458902562768
70840000000 -0.186555806045 -0.05478839045 0.033889624613 0.0160283040923
 0.0336525478043 0.00820142898084 -0.258352036426 0.451747800807
70888000000 -0.183519580164 -0.0468827473975 0.0311349073678 0.0192831604885
 0.0316301234689 0.0116111569227 -0.27461553594 0.44213896596
70936000000 -0.180807792252 -0.0409593441122 0.028337283076 0.021582381558
 0.0294625027573 0.0141596710469 -0.289546755372 0.43182764554
70984000000 -0.179213536051 -0.0351262960076 0.0252389457178 0.0234938274727
 0.0269817110525 0.0163631183015 -0.303550363275 0.421710950795
71032000000 -0.176155765114 -0.0298462658207 0.0225157938932 0.02542251615
 0.0248409023591 0.0185179878283 -0.316991180615 0.409488819483
71080000000 -0.173379784291 -0.0243741932001 0.0203578676787 0.0268128401046
 0.0231260071083 0.0200876666903 -0.329856220407 0.397235580496
71128000000 -0.171191218017 -0.0194103406164 0.0183157060351 0.0278294609192
 0.0214742346731 0.0212738535123 -0.341681074158 0.385503173068
71176000000 -0.168606829814 -0.0167910504438 0.0164023970035 0.0282358422736
 0.0198466184 0.0219227125511 -0.352343468182 0.372755374899
71224000000 -0.166604892543 -0.0143240107652 0.0144540175278 0.0287256645838
 0.0182313759678 0.0226382052097 -0.363146700434 0.360201373786
71272000000 -0.164538029791 -0.0118704369985 0.0129488690494 0.0289652840742
 0.0169704198869 0.0230585455569 -0.372416966253 0.348609011559
71320000000 -0.162310701101 -0.0105985519336 0.0108920017877 0.0296032431302
 0.0152944948202 0.0239272147632 -0.381143859279 0.334952776131
71368000000 -0.159830265943 -0.00917739816577 0.00883999968441 0.0298177372576
 0.0135447031443 0.0244608511703 -0.387205398051 0.321860121826
71416000000 -0.156837897964 -0.00758494337105 0.00649221227387 0.0300735250632
 0.0115507788592 0.0250961757871 -0.391697106761 0.308748460023
71464000000 -0.153873627265 -0.00533414883774 0.00440470608787 0.0304557355567
 0.00980466760541 0.0257679102074 -0.396022550277 0.297315623354
71512000000 -0.153198609461 -0.00228098425411 0.001846501679 0.0307593282622
 0.00768732981593 0.0264385984101 -0.399680765929 0.286939422149
71560000000 -0.153113975435 0.00211372022529 0.000747413943202 -0.030997725811
 -0.00554369284011 -0.0270692100364 -0.402250001083 0.277367915826
71608000000 -0.155355121803 0.00533845446909 0.00365455495218 -0.0307833466575
 -0.00311946689607 -0.0274007696602 -0.403279306098 0.267711903097
71656000000 -0.160225808284 0.00540567859928 0.0066282430525 -0.0298881573424
 -0.000585491235035 -0.0272555918333 -0.404939613364 0.258634238958
71704000000 -0.16529802909 0.00177616041451 0.00950106789046 -0.0281023530035
 0.00207403199295 -0.0264918932181 -0.404042672018 0.250373684169
71752000000 -0.158183699753 0.00836714115289 0.0103871374239 -0.0270950364965
 0.00307611984413 -0.0256177766444 -0.403824993767 0.24274535037
71800000000 -0.136551007543 0.00647626135278 0.0109348845346 -0.0255294247455
 0.00427994283611 -0.0242726159417 -0.404402201014 0.231175865005
71848000000 -0.129348682253 0.00592349386345 0.0129320173704 -0.0242467231772
 0.00633089364274 -0.0235375851265 -0.405447524186 0.219829572396
71896000000 -0.130143618056 0.00288077553689 0.0154575046809 -0.0221364619047
 0.00889167581185 -0.0223328280257 -0.404871303409 0.211417371502
71944000000 -0.123287509773 0.00335902365499 0.0175250106265 -0.0191868364429
 0.0113012820434 -0.0201618886256 -0.400793785882 0.20458682733
71992000000 -0.120087622579 -0.000774571962107 0.0195978285218 -0.016283111119
 0.0137296357679 -0.0181285460645 -0.397278437872 0.198093830066
72040000000 0.0764951175816 -0.0576188430505 0.031380923707 -0.012666061622
 0.0270630567395 -0.0152617661041 -0.42575183216 0.239857105773
72088000000 0.0961157712591 -0.0310571427573 0.0292445138857 -0.00892607635633
 0.0254843162489 -0.0113942953347 -0.42398871795 0.226953781518
72136000000 0.104371141113 -0.00993096071601 0.0255137995129 -0.00750455532463
 0.022188829057 -0.00957037855736 -0.4230411068 0.214783163437
72184000000 0.108866963977 0.0143596735231 0.0230231624563 -0.00487327526333
 0.0201487234851 -0.00683139030701 -0.422683298379 0.203476969
72232000000 0.113781824643 0.0460623717931 0.0217362572702 -0.00107108994683
 0.0192709455358 -0.00315144319204 -0.423326069361 0.192852145695
72280000000 0.112147750909 0.0682518442419 0.020155113347 0.00146497044931
 0.0180089359677 -0.000677485851966 -0.423804234898 0.181641851075
72328000000 0.106408336047 0.0896089497545 0.0185170534507 0.00345311639964
 0.0166412990737 0.00127872902268 -0.424461450063 0.171089762585
72376000000 0.0962496221617 0.111937368279 0.0162341542016 0.00548820257925
 0.0146857851692 0.00329758687359 -0.424944039531 0.160679038699
72424000000 0.085186214667 0.135216670888 0.0137916384634 0.00748611335797
 0.0125992873933 0.00527212222341 -0.425391389512 0.150601459462
72472000000 0.0770124032969 0.153397792649 0.0121740994477 0.00894023290459
 0.0112142025764 0.006668430319 -0.425632966406 0.140375663299
72520000000 0.0667968892331 0.169275405201 0.0103398240139 0.00975901377365
 0.00959612106024 0.00750030800432 -0.425529231287 0.13061631403
72568000000 0.0566150255189 0.183164233407 0.0084779104773 0.010075499253
 0.00793548739476 0.00788560821098 -0.424241598368 0.121222757122
72616000000 0.0454308104495 0.197493591874 0.00670366518901 0.0103347103024
 0.00634824195608 0.00819363831964 -0.423678664091 0.112137529839
72664000000 0.0349256422909 0.208771437168 0.00501975454673 0.010357760878
 0.00483567810773 0.00828165995737 -0.422490208706 0.103069283255
72712000000 0.0241435780218 0.218804553209 0.00321124404161 0.0102752374218
 0.00323673361146 0.00826751640209 -0.420802091535 0.0936069645459
72760000000 0.012551665417 0.227170382989 0.00153519430065 0.00992845922418
 0.00175352628922 0.00800804326295 -0.419295338649 0.0846724640139
72808000000 0.00208273476207 0.233885308815 -0.000240825192519 -0.00927509465979
 -0.000590059511282 -0.00746892617758 -0.417828725408 0.0763053511575
72856000000 -0.00753511370291 0.238609952538 0.000814688549409 -0.0084438991834
 0.000355370791026 -0.00677303824977 -0.416222617318 0.0680182459325
72904000000 -0.0154401197859 0.242545620958 0.00157562307654 -0.00757811983399
 0.00104238278297 -0.00604232397908 -0.414624376633 0.0603525922261
72952000000 -0.0229765460067 0.245833427736 0.00211373969527 -0.006672543687
 0.00153179086665 -0.00527758157449 -0.413138696199 0.0523623076457
73000000000 -0.0293907979358 0.248543971068 0.00250175483272 -0.00572701126547
 0.0018891337061 -0.00448499335489 -0.411556124893 0.0450316190542
73048000000 -0.0341528146051 0.251491592648 0.00263448274206 -0.00477409210529
 0.00202891687035 -0.0036976579772 -0.409650911866 0.0378448155041
73096000000 -0.0387886203704 0.254052371762 0.00258409189861 -0.00384403300384
 0.00201551849599 -0.00293983248928 -0.408067713066 0.0304088312085
73144000000 -0.0422459681296 0.257262023742 0.00235989884791 -0.00297096341361
 0.00186110882741 -0.00224064216171 -0.406462096667 0.0234220828251
73192000000 -0.0449531500761 0.2602702716 0.00195509184429 -0.00218178140581
 0.00155775552153 -0.00162500017911 -0.404663745608 0.0160921997865
73240000000 -0.047113780527 0.263962697662 0.00137864416572 -0.00148992503592
 0.00111581417415 -0.00110032235555 -0.403871644405 0.00867683159374
73288000000 -0.0494341682858 0.267813311164 0.000475384102767 -0.000936125826512
 0.000410528560522 -0.000707306649488 -0.402427844554 0.00246704372543
73336000000 -0.0506362952578 0.273327427865 0.000590356817754 0.00134738995782
 0.000395818039754 0.00108853706098 -0.403042164025 -0.00456906740464
73384000000 -0.0518704239862 0.279578935224 0.0009994979904 0.00176932603801
 0.000701380289636 0.0014618228642 -0.40181582697 -0.0107605479908
73432000000 -0.0535891045603 0.286347475393 0.00124520613523 0.00212086485123
 0.0008881830624 0.00178057162492 -0.400960740616 -0.0184230348088
73480000000 -0.055827178396 0.293126737843 0.00138634201312 0.00253903352732
 0.000997754333627 0.00215364114584 -0.399961389468 -0.0262187596845
73528000000 -0.0582687891468 0.300849514455 0.00143177463704 0.00296455938099
 0.00104046088733 0.00253091761678 -0.399237019839 -0.0339347725704
73576000000 -0.0611094993899 0.309210733278 -0.00134213314918 -0.0034425579942
 -0.000980063649096 -0.00294624087225 -0.398028102482 -0.041645312856
73624000000 -0.0651795200243 0.318435233397 -0.0010435746904 -0.00396554581904
 -0.000757442238654 -0.00338548229129 -0.396361277272 -0.0502592532466
73672000000 -0.0693784853336 0.327010001907 -0.00064127000332 -0.00450570783415
 -0.000450754515152 -0.0038267018675 -0.394425959683 -0.0592782087277
73720000000 -0.0744741252389 0.335331369857 -1.75645777665e-05 -0.0050081865077
 2.82426828316e-05 -0.00421865677756 -0.392177262731 -0.0684112003791
73768000000 -0.0803397060086 0.344130659205 0.000798128229461 -0.0053810881632
 0.000661082731225 -0.00447159262292 -0.389418738372 -0.0780521565873
73816000000 -0.0875753864224 0.351575525517 0.00173904883735 -0.00562447452469
 0.00140077255552 -0.004588963838 -0.385742816587 -0.0879696093972
73864000000 -0.094672714134 0.358277368824 0.00293486608007 -0.00573721696088
 0.00233412572404 -0.00456887150525 -0.381425795292 -0.0979529021651
73912000000 -0.101481743247 0.368373238219 0.00435918899049 -0.00549950839748
 0.0034289927486 -0.00422572713313 -0.376069697798 -0.108015706646
73960000000 -0.111229268817 0.377775737218 0.00590439686914 -0.00471533171763
 0.00459846798333 -0.00341460175382 -0.369505031934 -0.118004170627
74008000000 -0.121846552003 0.383721694962 0.00732150886259 -0.00375453620203
 0.00565315178889 -0.00239449705097 -0.361759048172 -0.128337265213
74056000000 -0.133271377242 0.389286012686 0.00851842917407 -0.00249058872761
 0.00653726544666 -0.00115467561964 -0.354565487295 -0.137994034994
74104000000 -0.144005258116 0.395942792454 0.00969124435037 -0.00130572815454
 0.0074390605059 9.12595245073e-05 -0.349392473834 -0.148089594986
74152000000 -0.15412901748 0.39968169474 0.0106924703295 -5.15305550523e-05
 0.00820604886869 0.00139230238798 -0.342429640404 -0.158218013252
74200000000 -0.162933969026 0.401175073176 0.0114953571577 0.00123006726396
 0.00880544655267 0.00272476877108 -0.334997455054 -0.167960484362
74248000000 -0.172502526404 0.402477312837 0.0121491573867 0.00293939795192
 0.00917346546367 0.00442948894143 -0.324785580174 -0.17671765071
74296000000 -0.17991591728 0.401640759424 0.012547638802 0.00446608601954
 0.00936978812881 0.00595623214531 -0.31546027407 -0.184714780712
74344000000 -0.187672588355 0.400063891679 0.0126469873109 0.00597091686311
 0.00930552859964 0.00743606625627 -0.305815087043 -0.191938018471
74392000000 -0.194672592217 0.398170949764 0.0125925528348 0.00750778888923
 0.00907927784782 0.00893267843941 -0.295732843348 -0.198588944666
74440000000 -0.20117970442 0.396479201096 0.0122314154672 0.00919281230529
 0.0085483154036 0.0105055551737 -0.2848863908 -0.204439377176
74488000000 -0.207275783583 0.39604732315 0.0116857738463 0.0107610536914
 0.00787249410388 0.0119532390928 -0.274282568324 -0.210219682867
74536000000 -0.213348250812 0.394315913813 0.0109047355005 0.0121759946518
 0.00698678929996 0.0132063248254 -0.263731139051 -0.214805833042
74584000000 -0.219290390378 0.393358129609 0.00986368323408 0.0135235063462
 0.00587272848583 0.0143465004442 -0.253151180179 -0.219122299398
74632000000 -0.225111222196 0.393171760402 0.00852426344834 0.0148025391108
 0.00446262446494 0.0153632499258 -0.242200918981 -0.222930358344
74680000000 -0.231380724513 0.393209872065 0.00698984950589 0.0158718165734
 0.00289872531268 0.0161468035347 -0.231632578024 -0.226221836694
74728000000 -0.23739297726 0.394414684544 0.00532350157632 0.017023066672
 0.00116672848053 0.0169814583822 -0.220534685901 -0.229592477739
74776000000 -0.243797484132 0.39535317093 0.00363531349371 0.0177371975159
 -0.000522353172994 0.0174199667451 -0.2098399376 -0.232404212112
74824000000 -0.249463972096 0.395536534415 -0.00165157269407 -0.0184033172075
 0.0025108767418 -0.0177702794092 -0.197818722786 -0.234061414681
74872000000 -0.256022463562 0.397029410931 0.000538498182393 -0.0187942449328
 0.0046574190215 -0.0177998872925 -0.186116302496 -0.234983681037
74920000000 -0.263042588672 0.397923108974 0.00271963269489 -0.0187215206931
 0.0067256224739 -0.0173829087757 -0.174841645105 -0.234658178366
74968000000 -0.270439524088 0.398827717897 0.00496514435265 -0.018370556365
 0.00882750321604 -0.0166848547053 -0.163095126584 -0.233814125517
75016000000 -0.277809826654 0.399309082283 0.00703585212227 -0.0177587681603
 0.0107172753819 -0.015771437945 -0.151631839015 -0.232810419521
75064000000 -0.286626728346 0.399878983046 0.00897169604994 -0.0171276560614
 0.0124932323472 -0.0148525881212 -0.139868174541 -0.231829836626
75112000000 -0.297237598255 0.400492648509 0.0112912692754 -0.0161027461869
 0.01460079289 -0.0134741884668 -0.127891199172 -0.229811060146
75160000000 -0.307852437998 0.400588389669 0.0133187332031 -0.0149768601932
 0.0164042945672 -0.0120566714289 -0.116402093754 -0.22791086621
75208000000 -0.318182731415 0.4004987717 0.0154075848031 -0.013344592244
 0.0182000435789 -0.0100805319633 -0.105577048816 -0.223607723372
75256000000 -0.330008830286 0.399771713199 0.0176347418685 -0.0117626088168
 0.0201759910811 -0.00812804519978 -0.0943214009371 -0.219570051611
75304000000 -0.341809676145 0.398049090358 0.0194598189873 -0.0099734241255
 0.0217220527108 -0.0060457904664 -0.0834075055139 -0.214753746899
75352000000 -0.352618796849 0.396572985147 0.0211001537313 -0.00838609960105
 0.0231481908803 -0.00418556753063 -0.0723001687912 -0.209801153292
75400000000 -0.365300669671 0.392253881741 0.0223913814771 -0.00620788479208
 0.0241280087158 -0.00178201272703 -0.0612756088213 -0.205270343345
75448000000 -0.377122680042 0.386855279565 0.0232760307492 -0.00340384870063
 0.0245705841854 0.00120086799633 -0.0525276771316 -0.199093300511
75496000000 -0.389068659733 0.380452902345 0.0237868509605 -0.000753040359079
 0.0246654996069 0.00396562032748 -0.0429656449501 -0.194108912513
75544000000 -0.400399455846 0.374913730863 0.0241699316713 0.00137937708487
 0.024746158312 0.00619654023275 -0.033594841104 -0.188859187863
75592000000 -0.41101537976 0.367201855603 0.023998287728 0.00390206775937
 0.0241832268656 0.00875207183164 -0.0253358177866 -0.183312316243
75640000000 -0.420966517101 0.358911393698 0.0235024947807 0.00620251305945
 0.0233107420828 0.0110165666939 -0.0177967745201 -0.177860105022
75688000000 -0.430840535658 0.348644961017 0.0227549751211 0.00849577682574
 0.0221722677057 0.0132616991973 -0.0102510284097 -0.172491081636
75736000000 -0.438503586608 0.339438299057 0.02168266602 0.010435954166
 0.0207623567868 0.0151015927931 -0.00390657514497 -0.166683539697
75784000000 -0.445393616056 0.328751251348 0.0199831167058 0.0124721569727
 0.0186440827987 0.0169319263721 0.00152979677152 -0.161773609123
75832000000 -0.451449316225 0.316878367437 0.0181704387537 0.0141000985453
 0.0164939883756 0.0183286816619 0.00768102602399 -0.156501908728
75880000000 -0.455603784083 0.305598513777 0.0160233878842 0.0154905747507
 0.014012345362 0.0194261478517 0.0125911192878 -0.151573510991
75928000000 -0.459287816174 0.292122918113 0.0133587833639 0.0167498880292
 0.0109901410243 0.020287370675 0.0170868980586 -0.146950863568
75976000000 -0.46110761054 0.28161534273 0.0114479951115 0.0172062243101
 0.00890162059098 0.0204703096007 0.02267284153 -0.142325999938
76024000000 -0.463313505267 0.267581226085 0.00858748390861 0.0179810825269
 0.00574326396993 0.0208178347119 0.0275852706703 -0.137652383457
76072000000 -0.463443893855 0.25482718284 0.00566227646377 0.0184042796977
 0.00256327861912 0.0207550546548 0.0314768412973 -0.134485406835
76120000000 -0.462944934854 0.24286022426 0.00309802558779 0.0182890780344
 -0.000138533433288 0.0202027100859 0.0363714664599 -0.13043661241
76168000000 -0.461304091122 0.233495918751 -0.00105703901546 -0.0177265236179
 0.00221460112089 -0.0192897663639 0.0421776506063 -0.125922149916
76216000000 -0.459061352696 0.224898890514 0.000820511015551 -0.0170649995364
 0.00409589998415 -0.0182794615416 0.0473254364574 -0.121708007228
76264000000 -0.456531962238 0.216397921479 0.00255985722574 -0.0163004910352
 0.0058440472298 -0.0171789512472 0.0524148432073 -0.117687206784
76312000000 -0.453067782458 0.208702718158 0.00421721260478 -0.0154721293086
 0.00750155891902 -0.0160309451035 0.0573216961478 -0.112579363725
76360000000 -0.449608070268 0.201319558741 0.00571731644786 -0.0144199674193
 0.00894768597633 -0.0146477937835 0.0623246572038 -0.108394463274
76408000000 -0.445730331981 0.19518966318 0.00708680231643 -0.0132791631127
 0.0102525441973 -0.0131820711974 0.0669960167034 -0.104560161832
76456000000 -0.4416168799 0.190064624523 0.00819663356075 -0.0120287473552
 0.0112529361289 -0.0116513525834 0.0719190218237 -0.100919933159
76504000000 -0.438648533486 0.186409716645 0.00902893033585 -0.0107683291083
 0.0119431894082 -0.0101558955472 0.0783933510519 -0.0971002236433
76552000000 -0.43622345522 0.183593763515 0.00954381987048 -0.00995669204994
 0.0123872393201 -0.00918873742458 0.0827102965011 -0.0927255141024
76600000000 -0.433950212857 0.182292959408 0.00971121843033 -0.00904239931628
 0.0124303032195 -0.00818198478475 0.0881505107672 -0.0874882358593
76648000000 -0.432250145638 0.179845231566 0.00985443079112 -0.00812185640908
 0.0124438914211 -0.00717224425308 0.0935149180697 -0.0821459239691
76696000000 -0.431070514226 0.178665198517 0.00981689362459 -0.00714272343212
 0.012244825114 -0.0061302804631 0.100197304572 -0.075733155826
76744000000 -0.430001710975 0.177249863644 0.00953630542242 -0.00637049450526
 0.0118310665591 -0.00534666034883 0.104623524929 -0.0683879472451
76792000000 -0.43038070944 0.175602872731 0.00912846133128 -0.00533453160167
 0.0112390713852 -0.00431445470756 0.110828469861 -0.0578926051194
76840000000 -0.431001687322 0.174108662562 0.0093762116329 -0.00442907601437
 0.0113433600622 -0.00331259774069 0.123097481061 -0.0538200839101
76888000000 -0.432219989674 0.171137745656 0.00931214502618 -0.00390139573476
 0.0112268209609 -0.00275838632002 0.12634793756 -0.0451538531232
76936000000 -0.434166447012 0.168252151422 0.0091277085885 -0.00349891155135
 0.0109960348176 -0.00236635430525 0.131046906064 -0.035447991805
76984000000 -0.435483318414 0.164542017209 0.00880061648611 -0.00296671757739
 0.0105886051841 -0.00184796640621 0.134342571621 -0.0253579298461
77032000000 -0.436236075576 0.160196342127 0.00850640424927 -0.00241180045652
 0.0102142961676 -0.00129597340204 0.137164070461 -0.0151072414205
77080000000 -0.438178462161 0.155092934598 0.00827124581713 -0.00177366831036
 0.00989909585116 -0.000640825631824 0.14003007364 -0.00410989670876
77128000000 -0.438744154756 0.149176496012 0.00799146003851 -0.00107250361664
 0.00953087622585 0.000102899877049 0.140621023368 0.00756719886253
77176000000 -0.439240445404 0.142991326207 0.00764748270133 -0.000377867602705
 0.00909075700548 0.000824275760014 0.141992149386 0.019552236616
77224000000 -0.43992804349 0.1359952446 0.00736355312069 0.000211287687533
 0.00872904155467 0.00144454382461 0.142315240035 0.0304125885613
77272000000 -0.439614334162 0.129106468397 0.00683002689643 0.000575814011765
 0.00812300311077 0.00178007964781 0.140133054955 0.0413174300511
77320000000 -0.439021072214 0.122227805068 0.00636126786785 0.0011818561176
 0.00754186173158 0.00240072613283 0.140382948299 0.0529120923432
77368000000 -0.436845785291 0.114544912004 0.00578684589314 0.00170085474316
 0.00684046729545 0.00291727748063 0.13960627534 0.0632778832933
77416000000 -0.434877406106 0.10679696779 0.00515832806265 0.00213653352584
 0.00608135123197 0.0033428268536 0.13810496845 0.0729322501737
77464000000 -0.431790301116 0.099131751129 0.00457055656889 0.00246202526888
 0.00537492308767 0.00364185424104 0.135901948253 0.082032282592
77512000000 -0.428040684985 0.0913815517313 0.00405263802225 0.00264954749108
 0.00475649234419 0.00379642876534 0.133664715735 0.0897464858398
77560000000 -0.423281971275 0.0844168863633 0.00347675213274 0.00273118742852
 0.00406838788684 0.00380873640678 0.132120164816 0.0977269699486
77608000000 -0.418412443145 0.079325747449 0.00294547150825 0.00270605737884
 0.00343442223557 0.00370172458317 0.130267908122 0.105759826455
77656000000 -0.412634396657 0.0720561311707 0.00245874290583 0.00242617867576
 0.00287087855732 0.00327854610961 0.12919110174 0.113842667832
77704000000 -0.405954214389 0.0668037440709 0.0021968388966 0.00215956321018
 0.00256948727936 0.00290387745623 0.128755328092 0.119956290514
77752000000 -0.399930922237 0.062042660765 0.0022151126715 0.00176434494229
 0.00263334773092 0.00239180355217 0.125356778848 0.126972778897
77800000000 -0.393136330524 0.0587653228428 0.00235342997924 0.00124444718917
 0.00284534832241 0.00172743282697 0.120932207132 0.135047343405
77848000000 -0.386303220475 0.0563778158741 0.00270278150398 0.00102795250017
 0.00326627948576 0.00145877181595 0.118295611766 0.144819565753
77896000000 -0.379355076753 0.0545145993452 0.00324129261349 0.00107573444029
 0.00387334811914 0.00154444015908 0.116986139393 0.15333326927
77944000000 -0.372738593663 0.0543735378758 0.0037405105618 0.00124001725084
 0.00440362822914 0.0017748564071 0.11403241773 0.161848867478
77992000000 -0.367087768802 0.0549883674368 0.00414298506234 0.00151253873795
 0.00477990305161 0.00212509981886 0.110220750418 0.170754723594
78040000000 -0.361093364945 0.0564520361521 0.00448642703213 0.00184297606922
 0.0050598297371 0.00254065574021 0.105430524218 0.179791182471
78088000000 -0.355941933549 0.0584867759267 0.00473265683727 0.00221527386049
 0.00520754546149 0.00298489438168 0.10007044587 0.188470088524
78136000000 -0.35232780486 0.0608094765561 0.00486827714781 0.00270304886709
 0.0052083608388 0.00353376716474 0.0935553200184 0.196772737969
78184000000 -0.348978281545 0.0637049916361 0.00497778509955 0.00325624074912
 0.00516909535225 0.00413555053835 0.0869790043278 0.20588956736
78232000000 -0.347154665026 0.066360944687 0.0050187676092 0.00399642966757
 0.00504082451302 0.00491111153619 0.0802860905895 0.215379038643
78280000000 -0.344716877918 0.0686740138781 0.00475343839619 0.00445862233877
 0.00460011299812 0.00532605312209 0.0714172377855 0.222441371187
78328000000 -0.343748293024 0.0721682387464 0.00463457065461 0.00517099116619
 0.00431747185024 0.00601914580205 0.062737233965 0.229832178125
78376000000 -0.344374773286 0.0730585976357 0.00413587583364 0.00599316692523
 0.00360854981192 0.00678887397487 0.0540181489736 0.237197971215
78424000000 -0.345358031045 0.073233561918 0.0035003608137 0.00673299295692
 0.00274671951974 0.00744664104119 0.0450221960501 0.244210624207
78472000000 -0.346211732003 0.0732118050818 0.00269922219023 0.00734357121776
 0.00171618395997 0.00791492124669 0.0348463464224 0.251371836149
78520000000 -0.348351049246 0.0719557956453 -0.00173712367669 -0.00793407222272
 -0.00049544041505 -0.00835526678569 0.0245814825931 0.257523604604
78568000000 -0.352343689633 0.0707739083023 -0.000964011819982 -0.00848662849453
 0.000539342561179 -0.00881195673815 0.0155266610166 0.262636304849
78616000000 -0.352827049294 0.0675077616687 -4.67760696516e-05 -0.00842514995923
 0.0017285721775 -0.00855888263964 0.0062969404039 0.266945470348
78664000000 -0.354337738858 0.0623525780814 0.00105564442208 -0.00837797581088
 0.00318557462538 -0.00830828777846 -0.00389241114475 0.272452990896
78712000000 -0.355914396133 0.0569917737106 0.0019658265114 -0.00819838115605
 0.0044604388771 -0.00794568173751 -0.0134037930433 0.277523167577
78760000000 -0.357167104958 0.050610700312 0.00293392768171 -0.00771391646039
 0.00583837566853 -0.00724179306375 -0.0235664177961 0.281890823744
78808000000 -0.359256589043 0.0433742257206 0.00401355619445 -0.00705259525639
 0.00739072199088 -0.00635019402548 -0.0349247531005 0.286028327085
78856000000 -0.362200664281 0.0399814996991 0.00484736276206 -0.00671635975913
 0.00860525817031 -0.00592151752982 -0.0458829804886 0.28963464046
78904000000 -0.35854310659 0.0348486201573 0.00494630258504 -0.00571844245264
 0.00911031280263 -0.0045985607255 -0.0568659873971 0.292308262098
78952000000 -0.354463468691 0.028085540532 0.00483452061386 -0.00445802923832
 0.00952226620952 -0.00304812424874 -0.0678827185423 0.294860371409
79000000000 -0.350523293359 0.0208204874388 0.00454878266492 -0.00293930039948
 0.00982407609995 -0.00132446980865 -0.0785602810941 0.295878536867
79048000000 -0.344426358127 0.0152023293426 0.00380325157962 -0.00139922404827
 0.00961369869114 0.000287575846351 -0.0883303861906 0.296631262452
79096000000 -0.338056181512 0.00865486709253 0.00311128698464 0.000425289137499
 0.00942912268874 0.00208531169606 -0.0986966834939 0.296133917008
79144000000 -0.33088161403 0.00214720248287 0.00238415725396 0.00241017892149
 0.00912610131297 0.00394568409828 -0.108990830352 0.295121365075
79192000000 -0.323082068951 -0.00441509295614 0.00164618410015 0.00440987497059
 0.00866257020436 0.00586991247599 -0.119949631967 0.292727874734
79240000000 -0.315197743514 -0.00899113401225 0.000903662287198 0.00598174345712
 0.00809823791721 0.00739380343166 -0.130304952245 0.290460529192
79288000000 -0.304921191344 -0.0128757499257 -0.000286096008848 0.00735466989939
 0.0070181269675 0.00882036888758 -0.140411377148 0.286559317779
79336000000 -0.293574487295 -0.017785320575 -0.00169129107308 0.00877447273873
 0.00566509944572 0.0103466091006 -0.150038129074 0.281832894311
79384000000 -0.28116987456 -0.0227404515956 -0.00335113694765 0.0100831700454
 0.00405985877334 0.0118452626244 -0.159510805325 0.277231793144
79432000000 -0.267979527751 -0.0260443837216 0.00524444320676 -0.011105523773
 -0.00222039011546 -0.0131023995709 -0.168486158319 0.271953539494
79480000000 -0.257267823104 -0.0274992635125 0.00684277258658 -0.0117908028237
 -0.000717937893376 -0.0140124489796 -0.176927105028 0.266175865347
79528000000 -0.245311795697 -0.0290895486931 0.00873720311111 -0.0122806313525
 0.00110074684833 -0.0147617535577 -0.184381279545 0.260418914577
79576000000 -0.232845703957 -0.029925917079 0.0111609172548 -0.0126470916483
 0.00343226769873 -0.0155429728448 -0.192983931788 0.253208773402
79624000000 -0.219925529817 -0.0286428961822 0.0133158987956 -0.0125881339807
 0.00558511635522 -0.0157804674744 -0.198954607011 0.247064350027
79672000000 -0.208033408986 -0.0249778634489 0.0155993162047 -0.0119215656206
 0.00792659147594 -0.015496590081 -0.204920155057 0.239112695696
79720000000 -0.200418174062 -0.0227106706702 0.017234608625 -0.0119359657995
 0.00940957702425 -0.0157739470057 -0.210604175856 0.23344131952
79768000000 -0.19641401585 -0.0252137808784 0.0190470771694 -0.0125744260869
 0.0108699639098 -0.0169091439887 -0.216673427063 0.226416006562
79816000000 -0.186547352724 -0.0193552141577 0.0211853136248 -0.0111704432724
 0.0131323433607 -0.0159930623955 -0.2208645081 0.21795108659
79864000000 -0.170982407374 -0.00870638941761 0.0232926974356 -0.00870329514386
 0.0156705348997 -0.0139012144577 -0.224431612359 0.210732360963
79912000000 -0.162324689186 0.0010317362719 0.0245800522238 -0.00647643483311
 0.0172866410801 -0.0120740039021 -0.226937669363 0.203334543211
79960000000 -0.152554072168 0.0131445924171 0.0258849480681 -0.00376282281528
 0.0190048131363 -0.00975450505087 -0.23060219897 0.196341315712
80008000000 -0.145585274775 0.0238485332628 0.0269924720269 -0.00128573882682
 0.0204399121344 -0.00776072142078 -0.234582626562 0.188778963388
80056000000 -0.13401254136 0.033411914293 0.0283037087987 0.00198529092624
 0.022358344686 -0.00517127111384 -0.23755109889 0.180799440847
80104000000 -0.126637451115 0.0390233902962 0.0295534555481 0.00456746710482
 0.0240122155454 -0.00340185597539 -0.239487455871 0.172059996905
80152000000 -0.123615611491 0.0501648162332 0.0293542083788 0.00701049267944
 0.0241888605504 -0.00133663887294 -0.242559882927 0.165792962483
80200000000 -0.119030520244 0.0596807209728 0.0289692316956 0.00960540187077
 0.024370698766 0.000781719535656 -0.242839042093 0.158384707588
80248000000 -0.114934986245 0.0685091788136 0.0285114124653 0.0121407275387
 0.0244537312245 0.00277703944554 -0.243557411346 0.151011851638
80296000000 -0.110926135188 0.0781426962241 0.0276112196727 0.0145245968413
 0.0241391909539 0.00478819836971 -0.243583630701 0.145611980314
80344000000 -0.105465028322 0.0882158486612 0.0264623888638 0.0172520348904
 0.0237175645056 0.00710162539236 -0.242857196475 0.13879072863
80392000000 -0.100043561454 0.102480563146 0.0248940182325 0.0201423514076
 0.022873800523 0.00975709565444 -0.244958793602 0.134961391137
80440000000 -0.0942392882268 0.113053421308 0.0230420308967 0.0224856713059
 0.0219024875551 0.0119422497762 -0.241460731295 0.130125232991
80488000000 -0.0832388239524 0.126258587274 0.0205841056004 0.025260362515
 0.0207782959748 0.014765938871 -0.233365611483 0.126725570287
80536000000 -0.0847069196609 0.133934408277 0.0179112116131 0.0261092294325
 0.0189495022932 0.0157149268864 -0.226355284051 0.119608979814
80584000000 -0.0855031917767 0.148698533999 0.0146340190732 0.0272389813082
 0.0165645670774 0.0172313499004 -0.221370522174 0.11389712649
80632000000 -0.0845148103119 0.166498101085 0.0112204964182 0.0286520896686
 0.014137985089 0.0192294801846 -0.217365766802 0.110756143198
80680000000 -0.0835074728806 0.18265344353 0.00807333243916 0.0296371390106
 0.0118552137991 0.0207892453275 -0.213121492016 0.10719375221
80728000000 -0.0868505550162 0.196384261624 0.00530152649044 0.0295555227927
 0.0095080660971 0.0215338636746 -0.208785988735 0.107249362873
80776000000 -0.0899296255374 0.214528501495 -0.00198845417039 -0.0297226878797
 -0.00661460316994 -0.0226711798178 -0.206415563018 0.107931854459
80824000000 -0.0935831846798 0.231123250783 0.00107148099595 -0.0297169896899
 -0.0039476392773 -0.0236300776668 -0.202937841345 0.107662916343
80872000000 -0.0969812167983 0.247293678873 0.00386234515984 -0.0295366324665
 -0.00125567871039 -0.0244258747408 -0.200970649498 0.110389662872
80920000000 -0.102232420423 0.264194987828 0.00700282135015 -0.0289333189187
 0.00197118700923 -0.0250020669663 -0.197556321535 0.114396607247
80968000000 -0.106506660429 0.280458441287 0.0102040028383 -0.0285193384567
 0.00508234803265 -0.0258934611714 -0.190877842065 0.114787019682
81016000000 -0.11220201807 0.291978992956 0.0125801353852 -0.0276865597348
 0.00755544278414 -0.0259077372902 -0.189821374315 0.114850537227
81064000000 -0.120645503872 0.30173361034 0.0146370937667 -0.0261979402995
 0.00987027143656 -0.024957327595 -0.193826083568 0.115782308029
81112000000 -0.132455803939 0.308608811967 0.0161763343743 -0.0239892543747
 0.0118069962787 -0.0231086053705 -0.198807431021 0.116971819288
81160000000 -0.1435108467 0.317724378176 0.0179885172345 -0.0219894590726
 0.013616820607 -0.0215075785414 -0.206208603606 0.113769322046
81208000000 -0.149667437508 0.333841709901 0.0208693827055 -0.0209207535142
 0.0159544134737 -0.0212062459244 -0.212664274011 0.106428842532
81256000000 -0.171776853716 0.333505403265 0.0211679830772 -0.0165271491369
 0.0172317635695 -0.0172836924851 -0.213353473343 0.105758730094
81304000000 -0.191788657631 0.33221830489 0.0210329116913 -0.0125974955926
 0.0179932631497 -0.0135848217929 -0.215063070066 0.106851187887
81352000000 -0.206410888764 0.33100672674 0.0204357767582 -0.00952510555134
 0.0182511726334 -0.010637540527 -0.214318046377 0.109871848502
81400000000 -0.211163318307 0.335165880595 0.0204101984066 -0.00833589543441
 0.0183537804787 -0.00962035733759 -0.218090136063 0.109159640306
81448000000 -0.218730563774 0.341047915602 0.0206738326381 -0.00665526853646
 0.0188268982682 -0.00837881839956 -0.219658651242 0.107489797607
81496000000 -0.236472546616 0.34085635696 0.0198592165106 -0.00350956178328
 0.0186210991486 -0.00570372018329 -0.219683314882 0.103088200643
81544000000 -0.250492668441 0.33875221345 0.0187274325247 -0.000930660069745
 0.017893329191 -0.00358177438112 -0.219992403559 0.0985762869414
81592000000 -0.258129366808 0.350804843042 0.0196934985942 0.000522586913282
 0.0185098580054 -0.00281690638228 -0.226095241511 0.094549103339
81640000000 -0.273324340833 0.346000263992 0.0182469512196 0.00294138584545
 0.0169825427578 -0.000806618259941 -0.227971892881 0.0851395592331
81688000000 -0.285994610099 0.338654901193 0.0162412769568 0.00486892016046
 0.0151598508838 0.000793661884059 -0.225681728662 0.0779441558602
81736000000 -0.29367803702 0.332272163163 0.0143986053003 0.00575618359947
 0.0134204127709 0.00191000922762 -0.226348538662 0.0759183377538
81784000000 -0.30275873971 0.332648176731 0.0137762351196 0.00699711580738
 0.0126059373182 0.00304880795369 -0.228819100092 0.0717440664985
81832000000 -0.315502436538 0.334141336653 0.013184571878 0.00878408772796
 0.0120298868981 0.00450864770735 -0.229651524288 0.067429483687
81880000000 -0.327757115726 0.331284039393 0.0120003165015 0.0103378963665
 0.0110734306159 0.00585325492171 -0.228994382888 0.0638979515891
81928000000 -0.338737166273 0.322564070746 0.00996853958363 0.0112839365019
 0.00941064193032 0.00691314334214 -0.228288339423 0.060918392673
81976000000 -0.347504615412 0.314409815743 0.00810459290582 0.0119200744139
 0.00791528269489 0.00760229243113 -0.225917481799 0.0589012986686
82024000000 -0.355567916626 0.306350964545 0.0064561629944 0.0124895766829
 0.00656804137539 0.00817285965096 -0.223548041003 0.0561369704207
82072000000 -0.361003591547 0.299249368402 0.00514753815019 0.0128192545481
 0.00538055982831 0.00840466524888 -0.220097495652 0.0528303986554
82120000000 -0.367059405118 0.29443531895 0.00403433325423 0.013315644065
 0.00452603553735 0.00865472621582 -0.215093580353 0.0516259835638
82168000000 -0.373719735782 0.290196165839 -0.00302763114171 -0.0138754437582
 -0.00389445109693 -0.00916459459702 -0.212677545006 0.0524679831668
82216000000 -0.379075284637 0.28332510209 -0.00200633204125 -0.0142283931992
 -0.00294096390748 -0.0095868298128 -0.211681444523 0.0492441437735
82264000000 -0.384588049375 0.277802104017 -0.000871589299486 -0.0146348223832
 -0.00210281554734 -0.00987426656249 -0.20816815479 0.0476333865433
82312000000 -0.389363809401 0.268189480414 0.000572565476482 -0.0144067291393
 -0.00126669964674 -0.00993490365648 -0.20531307802 0.0495406197879
82360000000 -0.392677594177 0.257508226177 0.00202521785739 -0.0139161010491
 -0.000358289284249 -0.00978773772545 -0.202188278106 0.0506524094181
82408000000 -0.395238887834 0.248727962819 0.00323962831401 -0.0133877849227
 0.000331485206957 -0.00959007978442 -0.198401215952 0.0521661233259
82456000000 -0.396030413805 0.241742570124 0.00411249790824 -0.0130142307988
 0.000927055909346 -0.00932163584787 -0.194741648518 0.0510854167024
82504000000 -0.396662230344 0.237241237035 0.00474974985911 -0.0127943298962
 0.00120338080421 -0.00914549387785 -0.190121605604 0.051881018597
82552000000 -0.396959855703 0.233049919422 0.00534102819182 -0.0125441202163
 0.00146720539208 -0.00888464212063 -0.185847451644 0.0515916237111
82600000000 -0.397649755234 0.228960574444 0.00601012172495 -0.0122940691717
 0.00169610305713 -0.00871180363135 -0.181672271746 0.0524081575193
82648000000 -0.399246217501 0.224246725062 0.00679996064144 -0.0120106145103
 0.00194011853569 -0.00866503676164 -0.177951820573 0.0547916318254
82696000000 -0.399221748919 0.220861237355 0.00738253322879 -0.0117126733666
 0.00219699986777 -0.00860430874817 -0.175697479673 0.0563412033875
82744000000 -0.399741586093 0.218042751804 0.00785019349655 -0.0115490385009
 0.00240340608551 -0.00850324050657 -0.172621322078 0.0568298843541
82792000000 -0.401117259927 0.216454156061 0.00836259320178 -0.0114239506191
 0.00257567249405 -0.00846322455484 -0.169608172935 0.0574041320424
82840000000 -0.401594393239 0.2174882165 0.00852098282821 -0.0114950637856
 0.00260160067067 -0.00837417169635 -0.166847132886 0.0564394869229
82888000000 -0.402766861539 0.217996384984 0.00867586613025 -0.0115889973319
 0.00268284290102 -0.00858381900417 -0.166413710312 0.0573161923477
82936000000 -0.40501118257 0.217519826831 0.00911953352771 -0.0116192041741
 0.00291839416438 -0.00913769726611 -0.167586282059 0.0610431288089
82984000000 -0.408084185245 0.216188270305 0.00973367503377 -0.0115647975598
 0.00337941916424 -0.00989448008531 -0.170130578129 0.0667143270329
83032000000 -0.410961683773 0.215757197807 0.0102038139412 -0.0114821084156
 0.00376983147632 -0.0103238164149 -0.172208347666 0.070490128308
83080000000 -0.412310820543 0.213644043072 0.0107288583059 -0.0110858379927
 0.00423582358717 -0.0100551646274 -0.172632575383 0.0700833393797
83128000000 -0.414908075902 0.211804173529 0.0112429087276 -0.0106170709815
 0.00470836401957 -0.00964622870215 -0.172845326561 0.0688074210724
83176000000 -0.417449349659 0.20996050744 0.0117719954027 -0.0101228913103
 0.00512879528906 -0.00896768122384 -0.17191353006 0.0657314746756
83224000000 -0.420517716172 0.207414306876 0.0122615863824 -0.00951212363236
 0.0056037896034 -0.00804937391365 -0.170581651603 0.0616683582748
83272000000 -0.42331125863 0.204822307311 0.0128628583677 -0.00885231742516
 0.00633668054831 -0.00691419809704 -0.169427867037 0.0552653142223
83320000000 -0.426108882748 0.200162282683 0.0134109476235 -0.00784446864641
 0.00703719477044 -0.00527116506373 -0.164817073317 0.0459139457867
83368000000 -0.428691304377 0.196082241341 0.0141113265472 -0.0069967258712
 0.00791976225405 -0.00413408818191 -0.162260323977 0.039750158461
83416000000 -0.431434421634 0.189206796765 0.0147482788926 -0.00577772346916
 0.00861705968386 -0.00267780388862 -0.157428162326 0.0328121227087
83464000000 -0.433890276532 0.183595516039 0.0151690172703 -0.0047642150439
 0.00915655381791 -0.00160043830108 -0.153718127609 0.0279278623795
83512000000 -0.434974769445 0.1774279551 0.0154615048153 -0.00362232685217
 0.00965169580305 -0.000557869079891 -0.151440817555 0.0227393762851
83560000000 -0.437982643162 0.172539612994 0.0157385281663 -0.00279131309255
 0.00972525179342 0.000155664643609 -0.147191136487 0.0227502804196
83608000000 -0.442310253855 0.166239619699 0.016373688083 -0.00184558375827
 0.0101260068186 0.00110345990634 -0.142762913077 0.020112768032
83656000000 -0.447271751311 0.159367430657 0.0171122452188 -0.000971631205835
 0.0107199253459 0.00190870993566 -0.140502278031 0.0172538481984
83704000000 -0.451262680054 0.150449668188 0.0177601427195 8.54577433762e-05
 0.0113303862103 0.0027646176546 -0.139500228605 0.0141597657345
83752000000 -0.454475812065 0.143101509308 0.0181794031557 0.000942956845573
 0.0117318514154 0.00337012348966 -0.138288814486 0.0131072599246
83800000000 -0.456320002518 0.132629298263 0.018426900077 0.00208992639777
 0.0119082459892 0.00401828546614 -0.137598887692 0.013212430874
83848000000 -0.459555651065 0.122274125793 0.0189017704767 0.00326663374559
 0.0121437554747 0.00469386178788 -0.136015954466 0.0140198549554
83896000000 -0.464021169465 0.111562654161 0.0194892220836 0.00423450537921
 0.0123731192011 0.00518748582569 -0.133627813126 0.0160978207752
83944000000 -0.468878770845 0.104832695108 0.0200773320717 0.00451170421571
 0.0126766406817 0.0053375009586 -0.130183947863 0.0165387529475
83992000000 -0.471911889806 0.0960872402517 0.0204046396424 0.0050436912065
 0.0127364044663 0.00536295813705 -0.128180291084 0.0193224287155
84040000000 -0.474553111378 0.0857145582996 0.0207544491523 0.00584547173879
 0.0127174305481 0.00538640398081 -0.126387745847 0.0237726894038
84088000000 -0.4769302568 0.0783472546075 0.0211457929822 0.00607626157818
 0.0128550154805 0.00508369323242 -0.124878357866 0.0268107675295
84136000000 -0.478762534591 0.0708729688421 0.0216445090597 0.00638163507882
 0.0132950727873 0.00453862639579 -0.12576088136 0.0324088438228
84184000000 -0.479469169933 0.062905553436 0.0220522697706 0.00693337041886
 0.0138544591173 0.00413361177828 -0.127968282316 0.0381207367714
84232000000 -0.480724866855 0.0514717142209 0.0232363522834 0.00841685386972
 0.0158587502995 0.00423747025367 -0.137914874457 0.0459059451938
84280000000 -0.487641446281 0.0428649579002 0.025973707786 0.00928729489338
 0.018856867613 0.00357372561944 -0.14446709999 0.0595738604833
84328000000 -0.48532333402 0.0391832048176 0.0266533572402 0.00984007103465
 0.0201612440953 0.0037262046894 -0.148870692236 0.0644573644087
84376000000 -0.479584901851 0.0296827452903 0.0274815952583 0.012441168082
 0.0224206564193 0.00567008427367 -0.160865501493 0.0709831676352
84424000000 -0.471569061638 0.0168206766838 0.0279397153635 0.0160726932443
 0.0243818132916 0.008693730895 -0.172785771832 0.0771606513582
84472000000 -0.466363906633 0.00680894266645 0.0283627920404 0.0201590753254
 0.0261809982742 0.0126731022846 -0.188601419122 0.0805469392771
84520000000 -0.457686948809 -0.00512073991522 0.0276021816202 0.0244072421381
 0.0266998935225 0.0169197394377 -0.200227834706 0.081673221312
84568000000 -0.451468980728 -0.0148765287408 0.0265517577554 0.0284677980489
 0.0267155894427 0.0211619368021 -0.212361273611 0.0800304979821
84616000000 -0.444349278914 -0.0212802480808 0.0251886177816 0.0314919635235
 0.0261842533348 0.0244091981305 -0.221195817837 0.0786519937485
84664000000 -0.434703684902 -0.0261877078859 0.0224335611633 0.0341561702844
 0.0241943848637 0.0275892625826 -0.230139551401 0.0740381884834
84712000000 -0.420844494207 -0.0283369728928 0.0181217015505 0.0363560381153
 0.0206751191141 0.0306207919751 -0.240161913349 0.0676906061466
84760000000 -0.405483893764 -0.0309916160455 0.0130984356584 0.0378015963158
 0.0162857101095 0.0329268015959 -0.248288549662 0.0589233599236
84808000000 -0.395037656364 -0.0312103034068 0.00852302994273 0.038486275307
 0.0120072518126 0.0343833927236 -0.255074327495 0.0483799627568
84856000000 -0.386390863557 -0.029544097741 -0.00428990744199 -0.0383647165821
 -0.00782350558418 -0.0350061741314 -0.26073116452 0.0365015126778
84904000000 -0.381082020399 -0.0345479253552 -0.000835741868269 -0.0388215319357
 -0.00444522686206 -0.0358239042921 -0.261921763207 0.0267835574842
84952000000 -0.371408235191 -0.0407255121536 0.00264577743447 -0.0385007008079
 -0.00118873482244 -0.0358479451273 -0.260130361884 0.0209808916029
85000000000 -0.353290250068 -0.0421550951648 0.00730431422184 -0.0361116506893
 0.00338436319315 -0.034233583673 -0.257685109868 0.0131968749951
85048000000 -0.336323182769 -0.038534805182 0.0110459817885 -0.0322653492004
 0.00735238225913 -0.0312283014466 -0.25315745311 0.00390708864866
85096000000 -0.3201525234 -0.032668503307 0.0133341600823 -0.0283738839064
 0.00993054209979 -0.0280741581011 -0.247469591925 -0.00153902980414
85144000000 -0.317519864777 -0.0294687822942 0.0145618558852 -0.0261146829612
 0.0115983986024 -0.0261221939744 -0.243897582371 -0.0101548102286
85192000000 -0.301387392107 -0.0443884492513 0.0185973065811 -0.0240720150155
 0.0153036132453 -0.0246083413667 -0.237854516646 -0.0187634278265
85240000000 -0.292259918298 -0.0277688704921 0.018401769752 -0.0201124548308
 0.0159400358048 -0.0212081194294 -0.233491575374 -0.0251159471432
85288000000 -0.287372311306 -0.031468422885 0.0197340173715 -0.0184170860402
 0.0174199940243 -0.019713705811 -0.229177903976 -0.0325407083034
85336000000 -0.261753770047 -0.0260810295413 0.0214780403178 -0.0124596054533
 0.0200187790243 -0.0147686186988 -0.222286585205 -0.0477221109189
85384000000 -0.259858936035 -0.0182471994501 0.0206166453752 -0.0114845516418
 0.019630858916 -0.0137670940039 -0.219506107876 -0.0493163004967
85432000000 -0.243348615674 -0.0225172267747 0.0216981170934 -0.0078623304078
 0.0211543753749 -0.0108146152054 -0.21404679088 -0.06039559416
85480000000 -0.23686106493 -0.0267667251241 0.0218323696436 -0.00540749146775
 0.0215597117221 -0.00847250370027 -0.206398308603 -0.0693367226117
85528000000 -0.238004891972 -0.0286761331729 0.0212467803977 -0.00371235206996
 0.0212841613262 -0.00638770250696 -0.196240163649 -0.0785190642292
85576000000 -0.229133934824 -0.0138944156337 0.0188962251893 -0.00161980180777
 0.0200275871737 -0.0039920024735 -0.18768782353 -0.0858417710362
85624000000 -0.209548598583 -0.0158777412099 0.0175590507937 0.00122232282207
 0.0194970944139 -0.00180323199765 -0.180973095504 -0.0908653530443
85672000000 -0.202007676747 -0.0177162263573 0.0166670434674 0.0026681756627
 0.0189623105675 -0.000507651316501 -0.175184592629 -0.0950487476612
85720000000 -0.202681275669 -0.0158234611375 0.0157824118082 0.00294057327303
 0.0182663048512 0.000134492584033 -0.169180375345 -0.0986538683438
85768000000 -0.193295779941 -0.00558445706269 0.0133651658953 0.00300369742858
 0.0167499711271 0.000529226060655 -0.163469503652 -0.0988120830178
85816000000 -0.190198386792 -0.000473617855402 0.011976628152 0.00309648304707
 0.0158258782306 0.00118914953972 -0.156735138698 -0.102697419009
85864000000 -0.184288047608 0.00375930922067 0.010525786256 0.00299503001765
 0.0148873884877 0.0014345767345 -0.151700460648 -0.104157877012
85912000000 -0.178321048052 0.0130874408635 0.00885603046434 0.00206319813512
 0.0138366456345 0.00146530386677 -0.145176463106 -0.106288404765
85960000000 -0.17116867215 0.0171341529902 0.00741785596371 0.00136164751237
 0.012883563757 0.00146213147599 -0.139463268912 -0.108171451639
86008000000 -0.162066526661 0.0140075364486 0.00553984507892 0.00150017490223
 0.0118799106139 0.00161072105306 -0.13542097901 -0.110858965116
86056000000 -0.162677147573 0.0290694414569 0.00606593704939 -0.00110513088235
 0.0115767789602 0.00129760841539 -0.125855596007 -0.113817687666
86104000000 -0.15984831184 0.0403002098341 0.00683944725354 -0.00326736020295
 0.0116352422018 0.000566289925223 -0.12323031583 -0.114067180503
86152000000 -0.153356808268 0.0465323572166 0.00700265714404 -0.00527022046018
 0.011589539197 -0.000360901122282 -0.123194913223 -0.115085049266
86200000000 -0.143261037283 0.0566540794357 0.00813078606364 -0.00820915638911
 0.0120949663693 -0.00183256466857 -0.124644073293 -0.116332530077
86248000000 -0.144568899574 0.0578660530445 0.00875510633454 -0.00827540657023
 0.0121245984342 -0.00171710729569 -0.122863194011 -0.121742456071
86296000000 -0.143152094633 0.0836965211288 0.0137933930158 -0.00882562231011
 0.0147943051013 -0.00128090460015 -0.119050231801 -0.130355500321
86344000000 -0.147721468559 0.0957005709029 0.015975521307 -0.00652373267821
 0.0152330150446 0.00103889354823 -0.104673617211 -0.138230353835
86392000000 -0.143344181394 0.0978202305364 0.0165116238363 -0.00612133931424
 0.0151704349828 0.0016263655671 -0.0948695105332 -0.14279399288
86440000000 -0.136313759949 0.110615657536 0.0181816150223 -0.00684097784386
 0.0160333603984 0.00105217821557 -0.0939823961671 -0.139851579823
86488000000 -0.139332470462 0.124621737479 0.0189858836396 -0.0049844129663
 0.0157271591817 0.00242806225261 -0.0858207983027 -0.13498921059
86536000000 -0.142063642572 0.13790810813 0.0206561278766 -0.00323435529716
 0.0164206223717 0.00402792060731 -0.0819226709262 -0.138138261489
86584000000 -0.152052922643 0.142549347865 0.0201929415165 0.000991927006384
 0.0150151882205 0.00765239543168 -0.0637777424668 -0.143175691135
86632000000 -0.157561059978 0.154678775413 0.0202796821695 0.00564927472771
 0.0138957436299 0.0118358088134 -0.0429193239576 -0.147580610955
86680000000 -0.158904388429 0.167524397899 0.0189500434399 0.00857988034436
 0.0116166049661 0.0143760466458 -0.0246040065364 -0.136672099408
86728000000 -0.16341325665 0.186951578085 0.0163263694028 0.0108272712799
 0.00801996337131 0.0160624885379 -0.01367812073 -0.115477822021
86776000000 -0.177956619196 0.191669954606 0.0137400937068 0.0100757318739
 0.00530339754144 0.014531088115 -0.0191880478303 -0.100385232788
86824000000 -0.194280615711 0.194938967948 0.0104241579551 0.0116257554076
 0.00171082707096 0.0152533814726 -0.00945077105541 -0.0914686953148
86872000000 -0.202864395581 0.197033403092 0.00896400714277 0.0134044119477
 4.13462949949e-05 0.0166228339413 -0.000713389130169 -0.092359132917
86920000000 -0.210336300657 0.198776713221 0.0066820529328 0.014784083425
 -0.00227850317161 0.0176112588117 0.0111564036756 -0.0884355189649
86968000000 -0.213258412101 0.206811505778 0.00536012678142 0.016030295835
 -0.00388221378976 0.0187865395976 0.0195107842007 -0.0835730271269
87016000000 -0.21519856077 0.219278450748 0.00432476448727 0.0180604520295
 -0.00548671103672 0.0208738987674 0.0274603024396 -0.0789567862603
87064000000 -0.222036446357 0.229665970481 -0.000988467220893 -0.0192873953963
 0.00903887587622 -0.0218276653735 0.0389644787116 -0.0659405802678
87112000000 -0.23358251185 0.230756602494 0.00393067711362 -0.0186001511006
 0.0135709761346 -0.0204467942966 0.0518663113721 -0.0475407285349
87160000000 -0.248546046275 0.224635546556 0.0080948104455 -0.0165180925847
 0.0170603018401 -0.0172559617283 0.0615799973828 -0.0325345077825
87208000000 -0.261833270056 0.215383410631 0.0107462355264 -0.014436353466
 0.0192328640637 -0.0142442030539 0.0689052268296 -0.0223246650236
87256000000 -0.264060738721 0.205130294181 0.0116801414373 -0.0135168832128
 0.0197833629142 -0.0127211108106 0.0770205055259 -0.0196204469302
87304000000 -0.26471100261 0.197746021039 0.0131477335995 -0.0127227212877
 0.0207793060453 -0.0113481494683 0.0897380153349 -0.0130010545625
87352000000 -0.263401165712 0.199503141001 0.0142725768864 -0.0122381083266
 0.0216882378693 -0.0106403444198 0.095459006112 -0.00266915215132
87400000000 -0.26274163755 0.203285125396 0.0151219650567 -0.0116304695445
 0.0223494895471 -0.0100452746597 0.0953967682577 0.00949109511719
87448000000 -0.259355524553 0.204988901296 0.0156423389583 -0.0116788654193
 0.0226942814204 -0.010064745204 0.0976148636197 0.0179787328596
87496000000 -0.266237511749 0.210228481511 0.0178235591741 -0.0116975882958
 0.0251752605233 -0.00963257917883 0.101186747755 0.0219502840886
87544000000 -0.272538414374 0.207376911782 0.019069642079 -0.0103553490638
 0.0263117403184 -0.00780159130096 0.10220486132 0.0281557222023
87592000000 -0.270844936903 0.20115964861 0.0187620579475 -0.00900490921851
 0.0255454576752 -0.00619751691616 0.10143776373 0.0343582390231
87640000000 -0.269885304276 0.197980072135 0.0190218660192 -0.00764413044205
 0.0254038230106 -0.00452249243295 0.101684309269 0.0435558760919
87688000000 -0.270081467411 0.205173573823 0.0205871592989 -0.0067192009656
 0.0267103676539 -0.00343866975628 0.1026035888 0.0583413237988
87736000000 -0.273427518466 0.197950083605 0.0200228095942 -0.00480630586101
 0.0257566789594 -0.00118606279455 0.097649454029 0.0627583332527
87784000000 -0.27035032219 0.186222707678 0.0186045613468 -0.00262053481596
 0.0234759772746 0.00134494529061 0.0962169667985 0.071195960026
87832000000 -0.266323081426 0.183710245817 0.0177210049184 -0.00207354318653
 0.0221757202579 0.00192510037431 0.0934361526313 0.0751621079988
87880000000 -0.264627439803 0.182500560949 0.0173429424637 -0.00159240236022
 0.0215055396612 0.00253243919935 0.0909768665065 0.0766172690182
87928000000 -0.263075391706 0.185088295109 0.0175108798718 -0.00126372866962
 0.0214534175255 0.00297778680306 0.0911871426375 0.0804330348469
87976000000 -0.260770485638 0.184896645403 0.0171503012611 -0.000715978644287
 0.0207195970286 0.00361081012761 0.0904188870278 0.0833140522805
88024000000 -0.261135355058 0.188762023095 0.0172326405413 -0.000455784955252
 0.0206652353444 0.00390834948136 0.0869889566937 0.0861730536853
88072000000 -0.260950663248 0.190696873928 0.0170247556265 4.1520828802e-05
 0.0201829803891 0.00449175137164 0.0846721611177 0.0885380652845
88120000000 -0.262083984278 0.192934475723 0.0168685100671 0.00062728386425
 0.0197878519719 0.00522993772017 0.0821853172135 0.0908470122538
88168000000 -0.258841126851 0.195676032892 0.0166403360453 0.000877854543461
 0.0191832614371 0.00555233776219 0.0852407423295 0.092286157313
88216000000 -0.267308615829 0.204251312597 0.0178098388106 0.00168424854226
 0.0204675488371 0.00655100916998 0.0832125327056 0.104121702069
88264000000 -0.276238362206 0.206047119267 0.0183242310092 0.00299459555944
 0.0209426324577 0.00832998705096 0.0801238221405 0.108275027682
88312000000 -0.282844080033 0.20626756603 0.0181390498059 0.00537510442449
 0.0202133745869 0.0109867217616 0.0781459404221 0.123476768764
88360000000 -0.285942849269 0.205773479013 0.0170325544933 0.00705868226058
 0.0185658989476 0.012660734064 0.0729768006228 0.135862913943
88408000000 -0.292878945572 0.209663791613 0.0167249072784 0.00881086287893
 0.0179544885638 0.0145090474153 0.0696564439681 0.150378338141
88456000000 -0.298614758382 0.209180133235 0.015551250382 0.0104824844538
 0.0162916506268 0.0162524677205 0.0648314438943 0.162091482106
88504000000 -0.308739770598 0.209768671794 0.0151587158739 0.0125016145825
 0.015685582935 0.0186378932908 0.0614129319719 0.173699186477
88552000000 -0.310896342069 0.213706973258 0.0137336174389 0.0129285685401
 0.0140349587693 0.0187326758731 0.0529735441912 0.184510240734
88600000000 -0.318154729588 0.205366302403 0.0113968353577 0.0156344472006
 0.0106392527567 0.0217478706419 0.0497349024835 0.199997916599
88648000000 -0.327388852261 0.206092204356 0.0103037004344 0.0175738052085
 0.00920819116681 0.0239998594837 0.0474696176401 0.212017524318
88696000000 -0.336960757551 0.204878440983 0.0084243652196 0.0197290178871
 0.00678088208896 0.0263403078116 0.0418971074313 0.227979108919
88744000000 -0.343543964208 0.205706349698 -0.00622596944779 -0.0213479694002
 -0.00408857795615 -0.0279133802506 0.0340288721385 0.243497788191
88792000000 -0.354803639116 0.206405542728 -0.00412722040476 -0.0232154971702
 -0.00171059232164 -0.0299228144174 0.0255304838294 0.257142626262
88840000000 -0.359800756792 0.202365360221 -0.00144104093419 -0.0238540077077
 0.00154124871411 -0.0304846685363 0.017313067826 0.26776488988
88888000000 -0.365328499709 0.201429169677 0.000693627124276 -0.0247776162661
 0.00414609142783 -0.0313818478505 0.0102400658317 0.280245213665
88936000000 -0.365878548924 0.200836076184 0.00196342334401 -0.0254543443801
 0.00584410806132 -0.032067562542 0.00973136023582 0.290833111328
88984000000 -0.373363392092 0.20300612377 0.00292374358237 -0.0271512134233
 0.00705898803441 -0.034087142472 0.00977915357768 0.301303221106
89032000000 -0.372993632546 0.200489914371 0.00521149892091 -0.0257908597528
 0.00962089005573 -0.0321209407027 -0.00263815123564 0.308065271256
89080000000 -0.375593547984 0.192507641765 0.00799307951469 -0.0245660439914
 0.0129058863031 -0.0305867577273 -0.0137839243596 0.312350229932
89128000000 -0.376356357909 0.187175423795 0.0101504458104 -0.0229705955705
 0.0153606687427 -0.0285585060064 -0.0253726001944 0.315387592355
89176000000 -0.378946490115 0.184384129122 0.0121601580644 -0.0221443924588
 0.0176783191031 -0.0273701246387 -0.0353185011078 0.322836842768
89224000000 -0.376252452089 0.180795528485 0.0142588842931 -0.0203137008297
 0.0202238363613 -0.0247819932527 -0.0476281349823 0.33045169007
89272000000 -0.374246511269 0.177216757472 0.015822556443 -0.0189465764594
 0.022261392617 -0.0228266061814 -0.056363370329 0.338368807124
89320000000 -0.368990519913 0.174936362007 0.0166351339684 -0.0172102911234
 0.0234391506517 -0.0204070259907 -0.0630818507889 0.344076717613
89368000000 -0.366357626719 0.171186452916 0.0175267413192 -0.0162774104418
 0.0248292100382 -0.0190937397003 -0.0665114235385 0.350948001989
89416000000 -0.361301592313 0.170433304086 0.0176670900942 -0.0143190320285
 0.0250874850957 -0.0164396494251 -0.0738448140117 0.352626498457
89464000000 -0.354225084995 0.169103439416 0.017788269506 -0.0122103304876
 0.0252654793199 -0.0134940517289 -0.0831600552641 0.354543542579
89512000000 -0.35158495717 0.17093516901 0.0176770717808 -0.0106565331696
 0.0249227363869 -0.0115186429082 -0.092497674254 0.352878099593
89560000000 -0.349751327685 0.170385560079 0.0175190755062 -0.00877743779642
 0.0245426502683 -0.00918727865823 -0.102573848579 0.349288277427
89608000000 -0.343330245716 0.172401878777 0.0170658731293 -0.00689097567825
 0.0237073730574 -0.00653423963527 -0.113066249713 0.346659318461
89656000000 -0.339293134754 0.175873021187 0.0165895639769 -0.00561889816853
 0.0227433731826 -0.00478005824221 -0.121259408283 0.344279552979
89704000000 -0.337447043694 0.179457953872 0.016186898926 -0.00441211464522
 0.0218433742363 -0.0031914938171 -0.130419240172 0.34076315837
89752000000 -0.335088951643 0.184331579944 0.0156041044695 -0.00325184473396
 0.0206395862398 -0.00171806748596 -0.138775468733 0.336571755371
89800000000 -0.33606792419 0.188689630227 0.0154058468284 -0.00244298500884
 0.0200803537585 -0.000763791136206 -0.145201231802 0.33449059968
89848000000 -0.333817155718 0.193444132131 0.0150434637587 -0.00149492923752
 0.0192994335875 0.000433200127835 -0.150947897773 0.330844606631
89896000000 -0.331697095062 0.191283509086 0.0147087349615 -0.000411418724007
 0.0188688198985 0.00176869644677 -0.158263139903 0.323972818248
89944000000 -0.32582657031 0.190305525752 0.0139588664544 0.00126071421383
 0.0176916742489 0.0040595879196 -0.169838845408 0.314977109752
89992000000 -0.335227124313 0.184261899011 0.0134473984914 0.00266505269953
 0.0172305819646 0.00514608929519 -0.181421567143 0.308484991034
90040000000 -0.341067637303 0.185032109482 0.013253047822 0.00465947974237
 0.0166930102245 0.00728658886987 -0.196485968528 0.306789736753
90088000000 -0.347143604879 0.187808931715 0.0131119943051 0.00566448422924
 0.0163849626783 0.00808504133821 -0.20334362153 0.304415600621
90136000000 -0.355066070049 0.190097688534 0.0124143792733 0.00660857947273
 0.0153235211401 0.00874672826362 -0.210599231923 0.298744664578
90184000000 -0.365113577713 0.187254318941 0.0117460365238 0.00797793826043
 0.0145169534532 0.00992399078268 -0.221442802714 0.292707282472
90232000000 -0.363975368192 0.186925611619 0.0107136758343 0.0100299301929
 0.0131372311571 0.0124033412273 -0.233958667684 0.288573663556
90280000000 -0.365007545307 0.181478690419 0.00931140137752 0.0122900333977
 0.0114644996207 0.0150818811029 -0.247703644876 0.283216178915
90328000000 -0.37566780611 0.176123390478 0.00836806709453 0.0143382016999
 0.0105064218991 0.0171068641547 -0.260990183137 0.278649348666
90376000000 -0.38545652777 0.173278750461 0.00752020061199 0.01616314378
 0.00960476515389 0.0189215960003 -0.273043119961 0.275427822876
90424000000 -0.394253609273 0.170280940135 0.00640765412832 0.0181860251805
 0.00840397973368 0.0210232598872 -0.286483761091 0.271981962735
90472000000 -0.403076653435 0.163783402497 0.00606727278999 0.0204637815808
 0.00828692612417 0.023353858779 -0.29884360906 0.271428497544
90520000000 -0.411332063133 0.160060963565 -0.00535982725552 -0.0224269196857
 -0.00761196336259 -0.025370347836 -0.311266354074 0.270423269569
90568000000 -0.414828167153 0.163029023281 -0.00357239676646 -0.0230137932522
 -0.00543217604184 -0.0259799197448 -0.321036270574 0.266687948921
90616000000 -0.409896462427 0.159518283008 -0.000957187550058 -0.0242364477572
 -0.00253660375674 -0.0276464687167 -0.329096616724 0.263669137814
90664000000 -0.412981322041 0.14723899593 0.000583867095997 -0.0258622151212
 -0.00126275954265 -0.0294390435176 -0.335449927977 0.257386346547
90712000000 -0.420017699569 0.144257592392 0.00206350349909 -0.0270499081634
 0.000316824952264 -0.0305711707153 -0.34851029001 0.252920296178
90760000000 -0.422282881123 0.138283186666 0.00364982171191 -0.0281642171405
 0.00191233087437 -0.0317729101386 -0.356938291272 0.24921392136
90808000000 -0.423603951196 0.136015100254 0.00546274454013 -0.0284689848122
 0.00392244787994 -0.0321333090556 -0.36491060887 0.245675934519
90856000000 -0.419891971209 0.136809689751 0.00811794751657 -0.0278482057273
 0.00706358732128 -0.0316544108648 -0.370791197767 0.241596747723
90904000000 -0.415232431914 0.134224854867 0.0106218551366 -0.0274848887917
 0.00990267129891 -0.0314899383453 -0.374385023389 0.236401555365
90952000000 -0.410723866667 0.128948010974 0.0132129442629 -0.0272601717768
 0.0127857554119 -0.0315182452487 -0.378651377644 0.229346130615
91000000000 -0.40644851817 0.123193443789 0.015623303774 -0.0269839828246
 0.0154454362836 -0.0314649045352 -0.383875976251 0.220841892508
91048000000 -0.405436655077 0.1190771053 0.0173345066352 -0.0263756343606
 0.0173471818976 -0.030939419158 -0.3878666988 0.213825243579
91096000000 -0.403094216418 0.117499795573 0.0187162978736 -0.0255423214132
 0.0189443638935 -0.0301662598829 -0.390467567898 0.208731870404
91144000000 -0.400993506028 0.116746332824 0.0201813347791 -0.0241684592397
 0.0207222569238 -0.0287894935351 -0.392515233404 0.20149480232
91192000000 -0.397125358018 0.118494859622 0.0214169662959 -0.0225680612318
 0.0222855388624 -0.0271097156338 -0.393338248206 0.195121851401
91240000000 -0.393489543667 0.121493521842 0.0232167516559 -0.020296759607
 0.0246304385672 -0.0246557411666 -0.39458905012 0.185219725844
91288000000 -0.390128727598 0.125987383763 0.0245588247691 -0.0181647058318
 0.0264565392581 -0.0222709901509 -0.394653436694 0.177113002225
91336000000 -0.386104858082 0.127133335579 0.025978651958 -0.0162876032744
 0.0282819950776 -0.0202437324186 -0.394909322957 0.167805210099
91384000000 -0.383182972128 0.128198081534 0.026716472 -0.0146308574241
 0.0292578085623 -0.018358618478 -0.394173814761 0.159410525409
91432000000 -0.381467896138 0.130942511832 0.0272057317877 -0.0131825219501
 0.0299537209892 -0.016643630768 -0.39305266867 0.153350035266
91480000000 -0.380588354347 0.134595131241 0.027732108616 -0.0112866478513
 0.0307261904059 -0.0143416776281 -0.392472244353 0.14534957902
91528000000 -0.378951486984 0.136695140774 0.0282724332845 -0.00988599961897
 0.031447435258 -0.0126726382624 -0.392371050233 0.138676019087
91576000000 -0.378937920719 0.139086172859 0.0287907044799 -0.0080667401205
 0.0321172246379 -0.0104816367072 -0.392278848451 0.130076255354
91624000000 -0.378456723752 0.139796286564 0.029279903739 -0.00675290914124
 0.0327491090259 -0.00893015586706 -0.393266500515 0.123225224391
91672000000 -0.378117059375 0.141819752536 0.0297886422883 -0.00500369502357
 0.0333806150504 -0.00687518174009 -0.393849927144 0.11469955134
91720000000 -0.379425141056 0.142224046767 0.0302191717361 -0.00321979784397
 0.0338464304106 -0.00477299558466 -0.394142346832 0.106187436906
91768000000 -0.37908606668 0.142023511287 0.0310745178392 -0.00173682105747
 0.0348231941684 -0.00308730420004 -0.397347746425 0.0968849517951
91816000000 -0.381885994329 0.141042473024 0.0313396461393 -0.000533639654175
 0.0350150645345 -0.00172745758115 -0.398880519508 0.0903574805731
91864000000 -0.387287617561 0.141486217827 0.0316987891536 0.0015387979979
 0.0352783416827 0.000677488349888 -0.40017650672 0.0806453521721
91912000000 -0.390070254773 0.13984006884 0.0322472750442 0.00323833374092
 0.03580054811 0.00258557105506 -0.402524271995 0.0704515471825
91960000000 -0.392523598193 0.13733037729 0.0328945613377 0.00527620350097
 0.0364384838972 0.00487542900225 -0.40455602016 0.0584492331522
92008000000 -0.398239871156 0.138096563691 0.0336213268923 0.00751792416803
 0.037097869841 0.00742851837747 -0.407663701323 0.0475015559208
92056000000 -0.401410822711 0.137341554703 0.0345684824921 0.00942098029682
 0.0380413349963 0.00956588249088 -0.411355857366 0.0371948965604
92104000000 -0.402487128287 0.132346072586 0.0354080255699 0.010876644036
 0.0389437642693 0.0111255083174 -0.414359128799 0.0255412360336
92152000000 -0.40679890262 0.126962179031 0.0356355009382 0.0125881991191
 0.0391017442495 0.0129075897165 -0.416960489945 0.0140516494592
92200000000 -0.410672331674 0.120983290936 0.0355364580313 0.0143502042369
 0.0388907246374 0.0147529151624 -0.417571963137 0.00250906185421
92248000000 -0.411681703922 0.113920176088 0.0364535533804 0.0149305581677
 0.0399109043179 0.0152395822714 -0.422180278288 -0.00726660077151
92296000000 -0.417038523204 0.108291974055 0.0360272036345 0.0173922368569
 0.0393566361095 0.0178657311138 -0.422104423325 -0.0208717534406
92344000000 -0.42116588684 0.103564862134 0.0356078594917 0.0196235480381
 0.0388165031856 0.0202396542824 -0.422287611384 -0.0323681600208
92392000000 -0.425837432466 0.0987947673647 0.0349618947193 0.0218173743315
 0.0380803524589 0.0225389256222 -0.422613510189 -0.0429442712926
92440000000 -0.429663471065 0.0928930545616 0.0346887087338 0.0237793371863
 0.0377886313514 0.0245483843243 -0.425539190106 -0.0527617416919
92488000000 -0.432055257117 0.08739630727 0.0343527713912 0.0259414877241
 0.0374509050438 0.0267717847676 -0.42542551785 -0.0629839686394
92536000000 -0.435281249071 0.0808115531718 0.0331260908637 0.0276074987119
 0.0360967591607 0.0284252834692 -0.42485821533 -0.0696822578228
92584000000 -0.437370433482 0.0763531786224 0.0321735872979 0.0299061376132
 0.0350718294629 0.0308160256616 -0.424055338337 -0.0790146471258
92632000000 -0.436868599445 0.0701519457016 0.0314307247874 0.0315241179812
 0.0343189323704 0.0324610794741 -0.421137272578 -0.088173064687
92680000000 -0.43628926572 0.0650870635062 0.0302157026861 0.0335797457379
 0.0330327198234 0.0345890058292 -0.417735954732 -0.0967635302065
92728000000 -0.435952408311 0.0599544257001 0.0287466086423 0.0357795997546
 0.031485785492 0.0369296805134 -0.413768857479 -0.106261834064
92776000000 -0.435142751774 0.0561827397589 0.0269246308378 0.0379075294067
 0.029614157802 0.0392001427729 -0.407242150977 -0.114652607506
92824000000 -0.433147206375 0.0525118422649 0.0251108788049 0.0400830937332
 0.0277454879398 0.0415154176862 -0.400772884818 -0.123490699224
92872000000 -0.430229136029 0.0492535443766 0.0235024630466 0.0414394818135
 0.0261066523094 0.0429785892154 -0.395115459832 -0.129330124927
92920000000 -0.428003785901 0.0459936730145 0.0213099800287 0.0423280921345
 0.0238502171367 0.0439244160945 -0.388262826949 -0.132727736465
92968000000 -0.425786242682 0.043272214541 0.0183327172903 0.0432207366984
 0.0207317901085 0.0448685393825 -0.376902280279 -0.136689912687
93016000000 -0.423520146642 0.0423092938074 0.0151186824947 0.044384271067
 0.0173360342592 0.0461444288522 -0.364910110007 -0.142921554785
93064000000 -0.419492670388 0.0409612014026 0.0122552071202 0.0451881964012
 0.014329695629 0.0470382061517 -0.353016916397 -0.148193512606
93112000000 -0.41734078409 0.0396795078808 0.00907551873598 0.0457061329853
 0.0109559148541 0.0476203961773 -0.339832744953 -0.153019132344
93160000000 -0.413780510962 0.0403767398054 -0.00632995236657 -0.0458657051196
 -0.00802946692287 -0.0478432915288 -0.326885878485 -0.155275314165
93208000000 -0.409728964927 0.0405012601867 -0.00334510482314 -0.0453750904495
 -0.00484177362497 -0.0473228668169 -0.311424196313 -0.157378170074
93256000000 -0.408575713508 0.0421482197141 -1.29554867822e-05 -0.0452073774303
 -0.00123057227715 -0.0471370456524 -0.297396953285 -0.158100316513
93304000000 -0.406868609808 0.042214416555 0.0031898313573 -0.0440596738668
 0.0021953087654 -0.0458917970639 -0.282174490363 -0.157424713453
93352000000 -0.403424025647 0.0443166907013 0.00602896255557 -0.0428084673645
 0.00526738321126 -0.0445199473254 -0.266068208054 -0.156382098891
93400000000 -0.402879930284 0.044534509207 0.00915846978174 -0.0418305966992
 0.00865080439443 -0.0434047795294 -0.250465238561 -0.156059453594
93448000000 -0.402472194002 0.0456033580756 0.0126975114158 -0.0414005448648
 0.0124776174318 -0.0428623916845 -0.234095369601 -0.159391503551
93496000000 -0.402744614063 0.0446599861618 0.0148900522098 -0.0398329521789
 0.0147564934362 -0.0411086124824 -0.223421732434 -0.157028049953
93544000000 -0.401291217056 0.0428563363214 0.0165875316572 -0.0369128562209
 0.0164388406664 -0.037953223443 -0.213798515439 -0.148619466666
93592000000 -0.40392177324 0.0402894437973 0.0194350581888 -0.0344871275101
 0.0192699043278 -0.0352281724287 -0.201364936252 -0.141255270153
93640000000 -0.409102707406 0.0447775659752 0.022458853725 -0.0338616360052
 0.0223298715211 -0.0342620038186 -0.187598540436 -0.134043333402
93688000000 -0.410259431536 0.0469302693404 0.0246280674641 -0.0325611033654
 0.0244501249163 -0.0326191848914 -0.172406457034 -0.127289738574
93736000000 -0.409208953308 0.0449182624028 0.0264222247691 -0.0307949044008
 0.026176715549 -0.0305374168487 -0.157623387186 -0.124313072126
93784000000 -0.407072258364 0.041633532787 0.027204457228 -0.0291076482227
 0.0269422444878 -0.0286422322188 -0.146307857321 -0.125441495692
93832000000 -0.403971163162 0.0371750666065 0.0278441942434 -0.0273152302262
 0.0275533667113 -0.0266777241442 -0.137547529879 -0.126871654276
93880000000 -0.405342877475 0.0288286827829 0.0285974513287 -0.0245501235322
 0.0280563033246 -0.0239372236394 -0.137642589456 -0.123661622099
93928000000 -0.405693555041 0.022683922514 0.0299358384359 -0.0217225460778
 0.0291581151844 -0.0208847810004 -0.125798991014 -0.119540485705
93976000000 -0.407081469677 0.0160592441416 0.0310291656805 -0.0196795179223
 0.0301047524326 -0.0188086410886 -0.12173428215 -0.119361394736
94024000000 -0.407770444522 0.0112542043233 0.0319085439843 -0.0180221653876
 0.0308798531345 -0.017093407859 -0.116230119306 -0.120314672585
94072000000 -0.40722638363 0.0042299597084 0.0325505438757 -0.0156708144807
 0.0312992130962 -0.0147542943266 -0.110513547869 -0.118448420955
94120000000 -0.406688103258 -0.00170268141361 0.0329910843695 -0.0136338223397
 0.0315499196215 -0.0127299829608 -0.105123424128 -0.116155340599
94168000000 -0.406115030126 -0.00870716484062 0.0331540273632 -0.0114272296485
 0.0314893250004 -0.0106134896982 -0.099630173488 -0.113502813248
94216000000 -0.404091863755 -0.0164977012206 0.0333646777352 -0.0090803852468
 0.0314678065702 -0.0083939250788 -0.09531943038 -0.111701229575
94264000000 -0.401854939126 -0.0219876716185 0.0331183292292 -0.00721654154125
 0.0310153382932 -0.0067192272903 -0.0925443293197 -0.107818628912
94312000000 -0.398195462551 -0.0279981941323 0.0323703785089 -0.00514391865281
 0.030095564899 -0.00498017396284 -0.0922021103387 -0.102444472265
94360000000 -0.394785843083 -0.0367804436221 0.0320486248724 -0.00287689617328
 0.0296079215822 -0.00289953505758 -0.086675468404 -0.101304763442
94408000000 -0.389871135603 -0.0429445296545 0.0314040694797 -0.00138369697095
 0.0289302800972 -0.00156548349221 -0.0835446732695 -0.102567068091
94456000000 -0.384488473308 -0.0498296045671 0.0304975438933 0.000641727733256
 0.0278817245705 0.000182245889597 -0.0795866064483 -0.0992903931074
94504000000 -0.378443509465 -0.0552504285847 0.0294519881783 0.001971751314
 0.0267510576795 0.00128909188557 -0.0750927448653 -0.0968768599156
94552000000 -0.372748389642 -0.0597932517155 0.0284464897388 0.00316518275292
 0.0256581133026 0.00222189582199 -0.0717797067363 -0.0926430213539
94600000000 -0.365554285327 -0.0628836190231 0.0273101134995 0.00404244967594
 0.0244404750265 0.0027910563405 -0.0681713373569 -0.0865061405447
94648000000 -0.360432834812 -0.0670823285685 0.0263310473286 0.00506693626778
 0.0234360570876 0.00347067942605 -0.0661767378454 -0.081514826896
94696000000 -0.353557441107 -0.0707724970387 0.0252602478385 0.00608776298671
 0.0224081733347 0.00405292397285 -0.0647419199525 -0.0748394344837
94744000000 -0.346757052517 -0.0758550692944 0.0242861757786 0.00702761382361
 0.0214807309198 0.0045450640833 -0.0624853973954 -0.0688416127923
94792000000 -0.339328701975 -0.0772851122224 0.0232646480546 0.00751650299044
 0.0206046443923 0.00459399613534 -0.061215996033 -0.0609874570816
94840000000 -0.332500250959 -0.0766922377981 0.0224793321677 0.00780229940367
 0.020018382663 0.00440855310027 -0.0612268558002 -0.0521319342677
94888000000 -0.323040287468 -0.0827710176985 0.0214946518548 0.00915317924909
 0.0195558268661 0.00514063847096 -0.0631078727776 -0.0424338947812
94936000000 -0.319428618766 -0.0861017213467 0.021318768945 0.00973021444415
 0.019577975147 0.00518452199394 -0.0610561377012 -0.0361687312199
94984000000 -0.304845573343 -0.0688023767018 0.0194724575809 0.00797761406711
 0.0181402223391 0.00370008947789 -0.0634253140412 -0.0294527707351
95032000000 -0.290460633332 -0.0778468850667 0.0178975994537 0.0101531297937
 0.0174967335591 0.00545973185682 -0.0668737491023 -0.0220662968267
95080000000 -0.284240556036 -0.0786843614183 0.0174566728389 0.0111228122071
 0.0176041871943 0.00614666083058 -0.0694576845077 -0.0151989086435
95128000000 -0.276373058324 -0.0770380511423 0.0169454822918 0.0115532869704
 0.0175677615128 0.00643749944457 -0.0706027459148 -0.00830882348137
95176000000 -0.266544296281 -0.0722013355021 0.0160435714138 0.0119303857304
 0.0172429339091 0.00690490391068 -0.0737158251522 -0.00162889441659
95224000000 -0.256897813411 -0.0680220107636 0.0150484153562 0.0122327295452
 0.0167506300207 0.00731669639123 -0.0746709969888 0.00431095624769
95272000000 -0.248144789709 -0.0638336958774 0.0139867530666 0.0127666835948
 0.0162195863653 0.00814164206522 -0.0786731828969 0.00880474104416
95320000000 -0.23679889689 -0.0595360925932 0.0125988652454 0.0131293256305
 0.0153635579628 0.00881873375598 -0.0802959535185 0.0128199567783
95368000000 -0.228258656332 -0.0552112865066 0.0113840573264 0.013261222437
 0.014516739443 0.00930720908375 -0.0820841988564 0.0156276707441
95416000000 -0.220290644565 -0.0483851320127 0.0104512419768 0.0129586104605
 0.0138499799147 0.00931624168303 -0.0811867952215 0.0185876822772
95464000000 -0.210807835522 -0.0442688678642 0.0090349648508 0.0130866985856
 0.0128136321086 0.00992011414016 -0.0833917511709 0.0209820349517
95512000000 -0.203904716299 -0.0395851611326 0.00801843322029 0.0128676532561
 0.0120211247454 0.0100827233104 -0.082748941498 0.0233182842624
95560000000 -0.198730755618 -0.0343015347508 0.00709633908361 0.012707124817
 0.0112386001133 0.0103728899807 -0.0849113701462 0.0250926668133
95608000000 -0.191906651294 -0.0298967168875 0.00603797003726 0.012517067114
 0.010283286803 0.0107042167899 -0.0867204930869 0.0261757271736
95656000000 -0.182904110882 -0.0261657800677 0.00453759172037 0.0123692146207
 0.0088588360165 0.0113300303641 -0.0916080546471 0.0266883695526
95704000000 -0.177386238404 -0.02176382159 0.00378466939984 0.0117682732745
 0.00806903436685 0.0111964733028 -0.0904808090152 0.0279920423313
95752000000 -0.16953196215 -0.0163333136656 0.00296221946208 0.0105381801108
 0.00698667074117 0.0104681473413 -0.0871019802066 0.0274183744355
95800000000 -0.165793504044 -0.0114226083242 0.00263099923756 0.00970925779341
 0.00642172361266 0.00997064071463 -0.0838228679099 0.0281650645113
95848000000 -0.161219694863 -0.00866353190664 0.00211824529874 0.00929728974263
 0.00565600261648 0.0101223233833 -0.0865285122583 0.0288031960918
95896000000 -0.159159400045 -0.00424363427255 0.00196140916214 0.00874335848833
 0.00505157037768 0.00998775808679 -0.0877390886381 0.028631978717
95944000000 -0.153150441947 0.00161746999633 0.00192730144342 0.00780637525316
 0.00435992304614 0.00957045542561 -0.0884142545805 0.0280357152451
95992000000 -0.148381600355 0.007375077629 0.00231491496206 0.0069114551738
 0.00403908456526 0.00902624249968 -0.0872240503273 0.0286210664385
96040000000 -0.140061993612 0.0153415500349 0.00336080065424 0.00582231297601
 0.00389427279809 0.00821685499452 -0.0859239962149 0.0297126433576
96088000000 -0.133952868943 0.0247698309663 0.00469555072426 0.0053543037135
 0.0039672387316 0.00765951961987 -0.0854750495616 0.0304408605469
96136000000 -0.126738777825 0.0340649199601 0.00617877204964 0.0054230713091
 0.00423921540097 0.00707493033272 -0.0828475000561 0.0308518366657
96184000000 -0.119514585219 0.0452276836229 0.00745280609888 0.00640702755759
 0.00457209685808 0.00686284767155 -0.0816014907711 0.0299605984104
96232000000 -0.113751238343 0.0555938884711 0.00812395256453 0.00751346899676
 0.00503828367542 0.00675000095577 -0.0780650785033 0.0300410415239
96280000000 -0.10888350042 0.0648127182163 0.00818535176805 0.00863576550652
 0.00531659862075 0.00677418883399 -0.0741965471017 0.0293827926642
96328000000 -0.107634947567 0.0770270291084 0.00780524564602 0.00951360023554
 0.0055743293116 0.00682586459233 -0.0688081766804 0.030746634876
96376000000 -0.103264924411 0.0885961155426 0.0076049316785 0.010299976119
 0.00597746515195 0.00687700872683 -0.0634699205037 0.0327246697327
96424000000 -0.100657006255 0.101862570039 0.00717190709519 0.0110673356871
 0.00625985104428 0.00704829249945 -0.0585400765568 0.0345589096035
96472000000 -0.0936711289279 0.118349662111 0.00691461289116 0.0120196232993
 0.0068523334088 0.0073472614588 -0.0533810224678 0.0376794866149
96520000000 -0.0885240981981 0.13772646232 0.00624363329008 0.0131260901684
 0.00723632383487 0.00797952560689 -0.048746684596 0.0407446662494
96568000000 -0.083112866699 0.145325345601 0.00662594419521 0.0137292750076
 0.00810992164959 0.0082111531505 -0.0452666618792 0.0451245353967
96616000000 -0.0956948703783 0.164090358402 0.00507284550216 0.0132517203097
 0.00756272595521 0.00840097933853 -0.0396980994404 0.0488056778633
96664000000 -0.0971097284347 0.183963832905 0.00341715473313 0.0137250645754
 0.00712268327804 0.00896704694501 -0.0350108363654 0.0478979056155
96712000000 -0.102629107097 0.199979908969 -0.00229881040054 -0.013814280273
 -0.00693045737251 -0.00952668575249 -0.030938079672 0.0503125494245
96760000000 -0.109014336076 0.216291046325 -0.000999329302221 -0.0140541838245
 -0.00653829944638 -0.0103409068737 -0.0286857151408 0.0525440203179
96808000000 -0.115451278838 0.233597527547 0.000233365826545 -0.0147080525767
 -0.00614931339983 -0.0115454999495 -0.0282881643621 0.0560108379615
96856000000 -0.122031680353 0.24765271285 0.00095577420425 -0.0153568455411
 -0.00587528013902 -0.0127054491574 -0.0283778256089 0.0612972376404
96904000000 -0.130354565704 0.259977981593 0.00141508507617 -0.0155754624956
 -0.0056783389444 -0.0136402983004 -0.026758615858 0.0682307706127
96952000000 -0.141555377912 0.272205929646 0.00214560349456 -0.0157741433708
 -0.00508306991222 -0.0145467699292 -0.0254471894405 0.0745697824967
97000000000 -0.154377085034 0.285269854265 0.00304364023854 -0.0157023704892
 -0.00413732780717 -0.0154121064408 -0.0234659645816 0.0818605565445
97048000000 -0.165281570405 0.2966204885 0.00397764747331 -0.0156832159862
 -0.00317304980199 -0.0160984785802 -0.0222762674086 0.0878056132719
97096000000 -0.175251318169 0.303802489198 0.00513678393133 -0.0155420805753
 -0.00203158655183 -0.0163949481124 -0.0226100986695 0.0911233900036
97144000000 -0.189722891205 0.307222367373 0.00575633181377 -0.0150890877479
 -0.000855271058292 -0.0162921605934 -0.0229227786893 0.0975879534153
97192000000 -0.210851545924 0.313922937502 0.00728579970675 -0.0141172685627
 0.00117035361553 -0.0160319819399 -0.0239664200419 0.102456528751
97240000000 -0.227559947596 0.323142176149 0.00875234166361 -0.0136540322895
 0.00298086541661 -0.0162359271534 -0.0238212678303 0.108546593424
97288000000 -0.239515701 0.329779527174 0.00996549548679 -0.0133829118107
 0.00440923750197 -0.0161792350227 -0.0264702071577 0.113541392217
97336000000 -0.253298371242 0.330817453152 0.0111822536841 -0.0125872808656
 0.00584302776467 -0.0156644826437 -0.0287502965916 0.115945118243
97384000000 -0.266677517072 0.332186811716 0.0122399495052 -0.0117631922028
 0.00713469302404 -0.015011263909 -0.031676034019 0.11927930663
97432000000 -0.280880058565 0.3325335824 0.0133442754611 -0.0105926171759
 0.00851998606795 -0.0140815322567 -0.0339750089552 0.121602095673
97480000000 -0.294584251211 0.33317778213 0.0143026685416 -0.00912618776403
 0.0098169183247 -0.0129010001603 -0.0348710178401 0.12325139754
97528000000 -0.307802170814 0.329036561544 0.0147482896598 -0.00759166731042
 0.0106883295598 -0.0115070835347 -0.0355883122541 0.124394732697
97576000000 -0.321213050948 0.326225247012 0.0155106223674 -0.00600485930004
 0.0117533382171 -0.0101093220613 -0.0382125071386 0.125114658799
97624000000 -0.33269346073 0.322728590287 0.0158113148738 -0.00466584804224
 0.0124444666857 -0.00878781521162 -0.0397188650908 0.127542449256
97672000000 -0.342903280882 0.317009517002 0.0155838294174 -0.00335227773408
 0.0127440186173 -0.00743019834746 -0.0396090513966 0.131127106443
97720000000 -0.354084452964 0.310447805441 0.0151103371019 -0.00189832085981
 0.0129047937559 -0.00593221507839 -0.0380153405944 0.135132672818
97768000000 -0.365654664147 0.304299131083 0.0143468813145 -0.00051355406315
 0.0128452139675 -0.00434504686794 -0.036405916276 0.141057503119
97816000000 -0.37952990472 0.302257067785 0.0146851541527 0.00167778333155
 0.0137377584025 -0.00254579743142 -0.0338733666424 0.140884803619
97864000000 -0.390495627929 0.30274822053 0.0157743530017 0.00323311121002
 0.0148631499383 -0.00132677921432 -0.036552028226 0.139516031616
97912000000 -0.394941066279 0.286923950735 0.014235844532 0.00420841289368
 0.0137993179802 0.000193463707217 -0.0365196773546 0.142030176362
97960000000 -0.403507955475 0.277880314249 0.0130714272409 0.00546505470272
 0.013168204512 0.00186807801986 -0.0366254114111 0.145923938572
98008000000 -0.412989462402 0.268885065084 0.0121966973749 0.00684477738051
 0.0127880326292 0.00354216975758 -0.0372639854682 0.149779991866
98056000000 -0.421803289906 0.260617380071 0.0114614060924 0.00808073089307
 0.0124607943718 0.00510592796684 -0.0378074390163 0.15512582926
98104000000 -0.430713386098 0.253337870123 0.0107523007466 0.00920643706497
 0.0121055181228 0.00654332427091 -0.0376526987864 0.159963298944
98152000000 -0.437651125334 0.245365770382 0.00985225128105 0.0102039202663
 0.0114643847943 0.00789943758611 -0.0395825213494 0.163815212603
98200000000 -0.445252239693 0.237462624756 0.0089686100682 0.0114327870583
 0.0108565630808 0.00943061926084 -0.0417268760215 0.16753794129
98248000000 -0.449351492693 0.227243549928 0.00792331349024 0.0123352694751
 0.0100091152421 0.0106357412268 -0.0433370466793 0.169613715206
98296000000 -0.452901239164 0.221451494738 0.007020165054 0.0126742817806
 0.00913007607401 0.0113462513414 -0.0465420357771 0.175462293289
98344000000 -0.457497196698 0.215669824882 0.00634408231245 0.0132844658867
 0.00851361440215 0.0121960098269 -0.0489778591307 0.178833626974
98392000000 -0.462734941206 0.209548567377 0.00519814106546 0.0140018177546
 0.00747580851197 0.0132726235256 -0.0508451936108 0.184736478304
98440000000 -0.465508640953 0.204615699604 0.00414332451066 0.0143161114309
 0.0064292325636 0.0139277127641 -0.0524939552337 0.190414239842
98488000000 -0.465319267191 0.199415850917 -0.00312959466192 -0.014517215946
 -0.00540409402838 -0.0144370699327 -0.0535601515341 0.194814296345
98536000000 -0.462761373682 0.193463200697 -0.00172552631897 -0.0142808828776
 -0.00390728778742 -0.0145754276043 -0.0541963943596 0.199678350598
98584000000 -0.461800386598 0.188317990124 -0.000558797299668 -0.013948090647
 -0.00258543747248 -0.0145346516535 -0.0566080094804 0.204697012294
98632000000 -0.462696299038 0.18175009961 0.000635553287554 -0.0135055236053
 -0.00117061669501 -0.0143268971759 -0.0626242729693 0.211090792631
98680000000 -0.465073634161 0.1755198012 0.00172352546249 -0.0131545425347
 0.000126936238767 -0.0141604127007 -0.0689864197139 0.217965293644
98728000000 -0.467332581625 0.174232265231 0.00254146767311 -0.0129230896643
 0.00111356665855 -0.014065320185 -0.0729378432831 0.22484706825
98776000000 -0.47023626614 0.173078840806 0.0033514645721 -0.0126968400961
 0.00208389401751 -0.0139603549728 -0.0764245161704 0.23070078846
98824000000 -0.467656962089 0.171870806839 0.00388872923439 -0.0120373886839
 0.00283997118749 -0.0133546675486 -0.0805494585824 0.235307741776
98872000000 -0.464374462874 0.16958528702 0.00457553259696 -0.0112893513342
 0.00373058011549 -0.0126830858618 -0.0835523201688 0.239240504377
98920000000 -0.463493385281 0.166912043896 0.0055447509061 -0.0107366012818
 0.00487822739376 -0.0122420098346 -0.0865473265587 0.242339332047
98968000000 -0.464994930123 0.162120476674 0.00647455179333 -0.0101575858938
 0.00598673801626 -0.011749001457 -0.0906104463847 0.246554635677
99016000000 -0.466203397024 0.159004688 0.00748094060241 -0.00941735555326
 0.00719095671834 -0.0110687044693 -0.0951649818039 0.250851729616
99064000000 -0.464014862385 0.157414869626 0.00783449802177 -0.00831116642343
 0.0077212721647 -0.00990096330144 -0.10029115917 0.252952369085
99112000000 -0.466965554811 0.153445983651 0.00862430529682 -0.0077083104451
 0.0086507076021 -0.00932337445504 -0.105655178151 0.255354029662
99160000000 -0.467491743982 0.150510583094 0.00893234798394 -0.00678827024976
 0.00909108431721 -0.00832196647535 -0.111221893658 0.257225512208
99208000000 -0.465818253397 0.147907282661 0.00913380308128 -0.0053875321898
 0.00947579070789 -0.00679462725897 -0.117950515922 0.259080236623
99256000000 -0.466254276774 0.142658585143 0.0092964034143 -0.00412844417242
 0.00978083351693 -0.00541465949438 -0.124780951044 0.259907083296
99304000000 -0.469078061117 0.140745261123 0.00952375747579 -0.00314435823908
 0.010114293154 -0.00434383875612 -0.131407920245 0.260493582578
99352000000 -0.470271835826 0.137008371559 0.00969568879094 -0.00214150642362
 0.0103840245115 -0.00326443212718 -0.136882078409 0.260907635947
99400000000 -0.472058256611 0.134677935364 0.00965622436691 -0.00117535761318
 0.0104094489924 -0.00220524243863 -0.142773462115 0.259837509718
99448000000 -0.475097997826 0.130956645136 0.00949012698573 -0.000346825969514
 0.0102753077296 -0.0012771852921 -0.150208624134 0.25866258277
99496000000 -0.477642526207 0.1252286479 0.00958723342447 0.00074218034766
 0.0104594881608 -0.000113889536633 -0.156088113002 0.258527173809
99544000000 -0.479512639144 0.118220297254 0.0100028928403 0.00174361980608
 0.0109810185492 0.000910166808307 -0.159726354465 0.257934573718
99592000000 -0.48194048742 0.112286591896 0.0103195534876 0.00258400341881
 0.0113801677554 0.00176169916369 -0.16264440814 0.257394769667
99640000000 -0.485230413018 0.107915446233 0.010126735713 0.00288905851525
 0.0111639310768 0.00209636650683 -0.167269766137 0.254268484782
99688000000 -0.488008955577 0.101695018632 0.00968388965673 0.00298944837255
 0.0106669884636 0.00224705393754 -0.173749101084 0.251271411858
99736000000 -0.490630823714 0.0958466423873 0.00916190915006 0.00279944295742
 0.010059201396 0.00209383095909 -0.17866292235 0.248580235836
99784000000 -0.493071443163 0.0889736423126 0.00895281039747 0.00261740237891
 0.00980106038981 0.00190839128556 -0.183699565571 0.24671590493
99832000000 -0.495273878103 0.0824892604362 0.00879017056968 0.00199745996537
 0.00954623936892 0.00124855012711 -0.186466665037 0.244851424729
99880000000 -0.496432416574 0.0763023058748 0.0086332309324 0.00119239943961
 0.00929678894928 0.000409556218355 -0.192723560459 0.245038978082
99928000000 -0.497802581644 0.0680277102941 0.00907073432705 -0.000119005070429
 0.00962118533869 -0.00104038089412 -0.19670453528 0.245016821303
99976000000 -0.499165298094 0.0620591069473 0.00990330906678 -0.00148212341324
 0.0103490457821 -0.00258198192687 -0.200715389592 0.245150400878
100024000000 -0.500899155223 0.0550479309771 0.0111979131157 -0.00247088357622
 0.0116246331381 -0.0037695222732 -0.204774899594 0.246178420276
100072000000 -0.502033805882 0.0493514016625 0.0126586465855 -0.00344186889188
 0.0130644181331 -0.00495960218571 -0.210182439469 0.245751232636
100120000000 -0.502962542258 0.0434046368484 0.0142461346881 -0.00393373199335
 0.0146963025144 -0.00567199357063 -0.213349929736 0.248150981845
100168000000 -0.502805921816 0.0378412095219 0.0163767959703 -0.00403123224089
 0.0169406182825 -0.00601881317607 -0.219112218347 0.250797427739
100216000000 -0.503336278273 0.0320411929009 0.0185270601472 -0.00394443020479
 0.0192299655045 -0.00618312739221 -0.224430480925 0.254241521491
100264000000 -0.505370096437 0.0262391207247 0.0213306857082 -0.00385798979866
 0.0222025358604 -0.00640638072537 -0.228205520371 0.255787767396
100312000000 -0.504850209392 0.0200299784507 0.0240836558295 -0.00385059197748
 0.0251086903624 -0.00673522108031 -0.23131251773 0.258016365843
100360000000 -0.506760362482 0.0157206264085 0.0266157152189 -0.00316384234372
 0.027854716029 -0.00633728342057 -0.234461698891 0.261548784223
100408000000 -0.504515117496 0.0109503167218 0.0289143759165 -0.00296821986393
 0.0303163258956 -0.00640606787423 -0.238530008646 0.26395053785
100456000000 -0.501797258662 0.00366778377643 0.0299822450733 -0.000802000607104
 0.0316959844963 -0.00427348340611 -0.244651130048 0.265223891571
100504000000 -0.499134391274 -0.00176686385584 0.0322545836367 0.0004350356015
 0.0342275703172 -0.00329149539805 -0.245335998978 0.265867197944
100552000000 -0.496903164565 -0.00539243287294 0.0330485613708 0.00185020736046
 0.035275257261 -0.00190114327139 -0.253617921816 0.267125353671
100600000000 -0.48920952105 -0.0111100310815 0.0318094682429 0.00475734092568
 0.0343507453147 0.00131259046794 -0.265057112958 0.266406410977
100648000000 -0.48978174062 -0.0146437087553 0.0347753169032 0.00587354542346
 0.0376576261347 0.00212683838609 -0.267834900753 0.270337913875
100696000000 -0.495349828695 -0.0214086053412 0.0382785118893 0.00903183095731
 0.0416631286394 0.00506845219619 -0.278335668864 0.269150852771
100744000000 -0.481101583469 -0.026316738029 0.0346679895652 0.0110893286371
 0.0381738419768 0.00752074734013 -0.279324782393 0.267875165724
100792000000 -0.476934031787 -0.0306434426858 0.0350254989261 0.0135223298358
 0.0389019101751 0.00999190322005 -0.285011481225 0.268644998288
100840000000 -0.475085781282 -0.0347868750782 0.0357772335294 0.0159573279668
 0.0399813174397 0.012429075005 -0.291014753168 0.268529105318
100888000000 -0.471019688486 -0.0407123217265 0.0358279720969 0.0188311213569
 0.0403700532272 0.0153605464213 -0.295432145392 0.266043351511
100936000000 -0.465213026392 -0.0459310582705 0.0355524455644 0.0204140188344
 0.0402328793165 0.0169825098084 -0.296873384414 0.261355252248
100984000000 -0.458467942532 -0.0495005747669 0.0334316942984 0.0223427434389
 0.0382501185301 0.0191916387281 -0.297303745875 0.256116010299
101032000000 -0.451724263885 -0.0543689978829 0.0305225032122 0.0261594708868
 0.0356807537509 0.0235734470141 -0.309674568008 0.251961950336
101080000000 -0.446242084538 -0.0602812112168 0.0281354558011 0.028972159056
 0.0334849914205 0.0267593230345 -0.31704761964 0.243935232245
101128000000 -0.440490833182 -0.0637132949842 0.0254824662995 0.0314213158231
 0.030994670711 0.0296292701268 -0.32423283141 0.23597850695
101176000000 -0.432276885847 -0.0698445928615 0.0224833523615 0.0336932012551
 0.0281208107384 0.0323553829823 -0.332120289541 0.227959112781
101224000000 -0.426721087792 -0.0742793537087 0.019747255003 0.0354630871988
 0.0254888238868 0.0345020944174 -0.3382752324 0.220472798081
101272000000 -0.42073973114 -0.0785630354552 0.0160716164938 0.0377911049964
 0.0220591942628 0.0373461861716 -0.347249443289 0.214278243314
101320000000 -0.416195674169 -0.0819217526796 0.0135676520363 0.0384068569376
 0.0193877944706 0.0383271186445 -0.353779044372 0.206736697192
101368000000 -0.41051061737 -0.0885290194967 0.0111280589566 0.0403078928557
 0.0170744200222 0.0405178056671 -0.35949906104 0.197879277879
101416000000 -0.398276853213 -0.0938087359956 0.00668896356424 0.0420515072141
 0.0127885464782 0.0428521640101 -0.364406100728 0.191209501501
101464000000 -0.3943189218 -0.0964224981962 -0.00371266468961 -0.0421634191916
 -0.00971421379049 -0.043331410848 -0.371288140445 0.183892435925
101512000000 -0.388306013215 -0.0956408109289 -0.000861764462563 -0.0412622363697
 -0.00664280235056 -0.042797730604 -0.375944482901 0.178422968547
101560000000 -0.377530800374 -0.0955619082429 0.00494663416153 -0.0404266800285
 -0.000567027954385 -0.0427543188705 -0.384260337884 0.169630636059
101608000000 -0.363686559053 -0.101840296166 0.00992660145349 -0.0416077405958
 0.00428415927724 -0.0446146403077 -0.389753433204 0.161395227346
101656000000 -0.344842453092 -0.114597062431 0.00506865086013 0.0409444389349
 0.011368169484 0.0412079517939 -0.336733549369 0.123230786415
101704000000 -0.325688401803 -0.120590116968 0.0213747949764 -0.0470867181803
 0.0146694397483 -0.0517773789893 -0.398260962128 0.149744902057
101752000000 -0.316716367624 -0.128629392475 0.0254400326254 -0.0475187413574
 0.0186767126112 -0.0527170735847 -0.406710709558 0.142845155109
101800000000 -0.325350755737 -0.129782855357 0.0248539829622 -0.0463362008678
 0.0184793385363 -0.0513610472628 -0.414896771991 0.138268909399
101848000000 -0.320218304657 -0.117759408222 0.0278643360832 -0.0419478089563
 0.022312184869 -0.0475534830513 -0.421319366673 0.134357481137
101896000000 -0.303564940871 -0.113295402478 0.0337558898899 -0.0399769345602
 0.0285019536836 -0.0466925447961 -0.427491930834 0.130622567439
101944000000 -0.2830341953 -0.12058310332 0.0400183877553 -0.0410055415352
 0.0343176434298 -0.0488319691305 -0.432489387952 0.125429452359
101992000000 -0.291715961785 -0.119491084226 0.038919113414 -0.0397806708251
 0.0336962403446 -0.0473039346243 -0.442673782665 0.122967801965
102040000000 -0.285282432294 -0.104318465875 0.0391715630423 -0.0338660785523
 0.0348787409039 -0.0417005240717 -0.439624149159 0.115000286206
102088000000 -0.26952025572 -0.0901609885913 0.0415263671812 -0.0268426453251
 0.038549172235 -0.0352243659846 -0.438021824919 0.100636748547
102136000000 -0.244264573403 -0.0793600274659 0.0479610740219 -0.0225198145156
 0.0458139508098 -0.0326225647007 -0.4448118338 0.0906863789027
102184000000 -0.224933089326 -0.0797672064512 0.0520527422069 -0.0212320322945
 0.0499456284768 -0.0324896019815 -0.451758043283 0.0847779504084
102232000000 -0.220313743745 -0.0773557748218 0.0528886964857 -0.019092668466
 0.051266899709 -0.0305334593538 -0.457099113259 0.0775054205522
102280000000 -0.222102680463 -0.0720724576096 0.0519085080031 -0.0163072998344
 0.0510349366747 -0.027431947233 -0.461498055271 0.0698006348002
102328000000 -0.223490289515 -0.0667499423792 0.0511633079466 -0.0128737700877
 0.0511659231361 -0.0236679197421 -0.468364384601 0.0591805846142
102376000000 -0.229333099569 -0.0577283018825 0.0502939484226 -0.00981000584326
 0.0512481468367 -0.0201750041763 -0.475105645056 0.0544283792847
102424000000 -0.231839261357 -0.0391782547017 0.051385826253 -0.0044898891454
 0.0541158138573 -0.0147829925654 -0.482854063476 0.0485551283576
102472000000 -0.228739775655 -0.0217483963407 0.0509893601455 0.00065871056708
 0.0553472883764 -0.00924937004578 -0.481657737582 0.0317170049955
102520000000 -0.230013563024 -0.00632349842174 0.0502585747868 0.0045523346335
 0.0558143808371 -0.00470306426549 -0.480772652094 0.0185250703061
102568000000 -0.228825057155 0.00854642944558 0.0513788529323 0.00700299189659
 0.0580692821158 -0.00202954849164 -0.4829084462 0.0104525639689
102616000000 -0.222512526517 0.0151359909593 0.0491333419793 0.00812805271462
 0.0560726164531 -0.000404238724139 -0.47603474813 -0.00402572558125
102664000000 -0.21697386601 0.0241014642536 0.0476147536175 0.0104678450163
 0.0551411325334 0.00258230697883 -0.472710826934 -0.0218685519432
102712000000 -0.230049425612 0.0287308512397 0.0458381801592 0.0151094303115
 0.0537161462425 0.00866352159131 -0.472981696506 -0.0384668750472
102760000000 -0.240729672566 0.0301891319111 0.0436529004237 0.0209311941315
 0.0519059735153 0.0160029792724 -0.473706063729 -0.0590195395452
102808000000 -0.246668820848 0.0323786180841 0.0407811622225 0.0241425990308
 0.0489536957257 0.0202456693497 -0.468416775955 -0.0743218015399
102856000000 -0.243805354211 0.0389953202718 0.0386715666224 0.0268709521283
 0.0470008800101 0.0238339684325 -0.462265019027 -0.0953322931543
102904000000 -0.261668577747 0.0462834959407 0.0362571029875 0.0345284140553
 0.0447509472949 0.0331275600814 -0.456644954603 -0.118415565408
102952000000 -0.268923383137 0.0534285803754 0.0347155602291 0.0391927979002
 0.0432497973137 0.0387021298673 -0.451447871666 -0.135330040147
103000000000 -0.277223967657 0.0593265628459 0.0323050466637 0.0439218534196
 0.040652633027 0.0443505221234 -0.441338774875 -0.153671674657
103048000000 -0.285244687457 0.0680878717529 0.0323169617159 0.0490616615952
 0.0407258987153 0.0501574924153 -0.43836792359 -0.170897549249
103096000000 -0.293274123893 0.075350088376 0.0305853277812 0.0552944403139
 0.0388837731748 0.0572081342053 -0.432068956272 -0.192236984066
103144000000 -0.296831472698 0.0796072510726 0.0274092964979 0.0606240020865
 0.0354246910391 0.0632928514203 -0.422945502248 -0.21468136134
103192000000 -0.301787350465 0.0805240292109 0.0215322088267 0.0640145528674
 0.0289273364028 0.0672486015863 -0.406352583555 -0.234006723962
103240000000 -0.299302753837 0.0835326670368 0.0174062728977 0.06425852722
 0.0241769920779 0.0677458632663 -0.388188937331 -0.248947670094
103288000000 -0.29917808307 0.0817672909717 0.0119443496668 0.0639630217452
 0.0180803211304 0.067618489512 -0.370895939238 -0.261459895247
103336000000 -0.301169398788 0.0796442189879 -0.00622754770157 -0.0643765441782
 -0.0117714735051 -0.0681657229062 -0.354377868165 -0.273481402033
103384000000 -0.304235027918 0.0792426705775 -0.000646956243494 -0.0650643735903
 -0.00563148455397 -0.0689892456045 -0.336387690009 -0.286155289919
103432000000 -0.30597472052 0.0763092045719 0.00441445815428 -0.0653459586657
 -0.000116974434064 -0.0693008705307 -0.32130399424 -0.297293543739
103480000000 -0.304148052382 0.0753325169045 0.00945240029677 -0.064969593558
 0.00543958415317 -0.0689805880794 -0.304399757491 -0.310304932254
103528000000 -0.308836417566 0.0696257808378 0.0167563566969 -0.0636111080613
 0.0132811067069 -0.0675878603085 -0.283116595517 -0.320733334348
103576000000 -0.306829081127 0.0651130751006 0.021123734453 -0.060440463724
 0.0180106312537 -0.0642405805504 -0.265901309007 -0.32506545358
103624000000 -0.304330757387 0.0609033446171 0.0249640006623 -0.0567078350647
 0.0222166322682 -0.0602934740344 -0.247834150475 -0.330255452656
103672000000 -0.300020850293 0.0547228807764 0.0287181805041 -0.0522745450312
 0.0263368216703 -0.0556734572125 -0.229499719335 -0.334139881501
103720000000 -0.296079800855 0.0480978355268 0.0312351377169 -0.0484641029509
 0.0290689281532 -0.0516822993341 -0.216036503445 -0.337047411247
103768000000 -0.2932978966 0.0425271066121 0.034294348071 -0.0442521990265
 0.0323690531315 -0.0472436348882 -0.199732691616 -0.339435220051
103816000000 -0.290937587062 0.0359609648713 0.0371572943003 -0.0393171363894
 0.0354621973035 -0.0420986496878 -0.183226427347 -0.339877544493
103864000000 -0.286916437403 0.0292747467183 0.0404898443451 -0.0343815692418
 0.0390545052253 -0.0370085776505 -0.165380181219 -0.343087967611
103912000000 -0.284523734467 0.0261285987352 0.0417516263538 -0.0301687629389
 0.040456989367 -0.0324329129173 -0.147296960628 -0.338640498879
103960000000 -0.281986954515 0.0231370561638 0.0428392523092 -0.026544331818
 0.0416394019578 -0.0285508577234 -0.13318440769 -0.335784903934
104008000000 -0.278980013723 0.0198063929975 0.0440718392519 -0.0223610743922
 0.042912839462 -0.0240571912114 -0.116555277183 -0.331601902214
104056000000 -0.27490892014 0.017333097705 0.0448234215645 -0.0193113884464
 0.0436777677832 -0.0207445055304 -0.105851004909 -0.329174449897
104104000000 -0.266491575801 0.0181076068218 0.0447479766016 -0.0148922813948
 0.0438560263525 -0.0159894778326 -0.0863453383397 -0.328947502793
104152000000 -0.266684856892 0.0131158570238 0.0457688914797 -0.0138249847345
 0.0446178089943 -0.0147947830986 -0.0862831128647 -0.323303898528
104200000000 -0.259437914843 0.0149332765984 0.0449392542177 -0.011011359632
 0.0438270209461 -0.0116629578206 -0.0746075174387 -0.319178915746
104248000000 -0.250198930582 0.017722328126 0.0421951803188 -0.00920239701401
 0.0410735399074 -0.00952533413959 -0.0684526417578 -0.309116523315
104296000000 -0.240704461347 0.0170751121327 0.039029217601 -0.00539733693758
 0.0377855209106 -0.00541565498453 -0.0570078933392 -0.293051962405
104344000000 -0.23755543529 0.0143380138588 0.0377910359731 -0.00200143799128
 0.0362814916713 -0.00164808205343 -0.0435034022927 -0.280372538418
104392000000 -0.238961213415 0.0128336964648 0.0382217419779 0.00112968952481
 0.036356100092 0.00199284270452 -0.0272178801455 -0.271712984244
104440000000 -0.246144367365 0.0165629937645 0.038824447711 0.00178473713506
 0.0365838091749 0.0032908800704 -0.0162663647605 -0.264604088963
104488000000 -0.245111758481 0.0222431776568 0.0392653159672 0.00312027986748
 0.0369133842038 0.00524150551214 -0.00496295694611 -0.264439198021
104536000000 -0.248985950056 0.0334963527044 0.0398240386317 0.00315140049129
 0.0373351552041 0.00610434452925 0.00590210265936 -0.262048474601
104584000000 -0.243330325881 0.0400852109965 0.0385960717649 0.00419071344469
 0.0360637642495 0.00765061995691 0.014581627655 -0.257891141219
104632000000 -0.24246941907 0.0420915902971 0.0369349393091 0.00596281452643
 0.0339760666994 0.00987155622982 0.0237906578095 -0.245221817589
104680000000 -0.248930646262 0.0539960386873 0.0356553411699 0.00534672065296
 0.0323663302545 0.0099713659381 0.0328022275255 -0.231055573539
104728000000 -0.239647104016 0.0613192129404 0.0316340537045 0.00809065709071
 0.0279275686674 0.0130433725661 0.0490598776288 -0.214393920961
104776000000 -0.231700320646 0.0771758524994 0.0289629277276 0.00854977144707
 0.0251351234661 0.0138274759987 0.0607529153897 -0.205079524936
104824000000 -0.234583149951 0.0911891169227 0.0284931964644 0.0088254710552
 0.0245352255471 0.0146245613241 0.0734494452901 -0.200140037363
104872000000 -0.238001630422 0.101649280124 0.0276260146026 0.0105187871705
 0.0233636300167 0.0168911053728 0.0931115640856 -0.191216223991
104920000000 -0.242028459094 0.113775722899 0.0267391253809 0.0113082950119
 0.0223457481101 0.0180927297258 0.10887538084 -0.182274467856
104968000000 -0.242795017792 0.116763812174 0.0262275048883 0.0125436876652
 0.0214710631143 0.0195005946947 0.117202239201 -0.176653994505
105016000000 -0.244508998159 0.125203225078 0.0250316924596 0.0138806910744
 0.020012556513 0.0210094280817 0.13190604565 -0.168481142898
105064000000 -0.247881323203 0.135358998076 0.0235158183398 0.0147157400777
 0.0184055544003 0.0219590768682 0.148036645767 -0.157438475349
105112000000 -0.247652275198 0.14477761223 0.0216691122346 0.0159250352965
 0.0163606861264 0.0230341820706 0.163432988404 -0.149019486002
105160000000 -0.248665792642 0.150241777011 0.0196233966052 0.0173548649853
 0.0139512371167 0.0243472368709 0.177519793527 -0.136583460494
105208000000 -0.249787067722 0.155827062611 0.0185252593632 0.0182866863747
 0.0126465163466 0.0251284451092 0.188562834262 -0.132062561711
105256000000 -0.252216832009 0.161419943921 0.0171835218666 0.0190390833319
 0.0111614472629 0.0257066342651 0.200477579326 -0.124808170036
105304000000 -0.254519508168 0.166054028221 0.0158440496159 0.0197448107378
 0.00964937169809 0.0262108063569 0.211425890171 -0.119141301809
105352000000 -0.257913209161 0.171563721325 0.0147713968835 0.0201819826537
 0.00855142085078 0.0264530246399 0.222394237568 -0.114337797093
105400000000 -0.260478066409 0.177637474216 0.0137136235917 0.020393936336
 0.00738212137402 0.026394934387 0.228173209728 -0.111119651758
105448000000 -0.262334989723 0.178390904347 0.0135620043224 0.0207773414221
 0.00695927627109 0.0267628910472 0.22970376274 -0.110970797508
105496000000 -0.264153951296 0.182478887009 0.012150000747 0.0204499466471
 0.00550983405993 0.0262050127436 0.231749298549 -0.100428277268
105544000000 -0.268693664842 0.185977034156 0.010537366228 0.0195406206414
 0.00385768731549 0.0250804910575 0.227996887258 -0.0859405609699
105592000000 -0.27004621347 0.18565835518 0.00926513975436 0.0198415656546
 0.00228506698676 0.0254811287993 0.230052032185 -0.0690810718816
105640000000 -0.272128159882 0.188295740088 0.00788802876209 0.0187205103399
 0.00077859581083 0.0242070811937 0.221051075821 -0.054607435557
105688000000 -0.274886109479 0.190491167984 0.00596303690375 0.0177102462057
 -0.00106289913258 0.0230275894014 0.219165407612 -0.0346396280673
105736000000 -0.279412687885 0.192142029135 0.0048694332617 0.0174695663236
 -0.00217759381063 0.0229214820632 0.220637047385 -0.0192799882135
105784000000 -0.281900327689 0.194623458322 0.00409913029332 0.0181819327575
 -0.00328486325669 0.0237756449715 0.225423575759 -0.00988057834439
105832000000 -0.28477278103 0.195358038931 0.00458829683199 0.0166892213466
 -0.00277217555867 0.0225353501966 0.211942917253 -0.00780407007397
105880000000 -0.289955061985 0.195544603709 0.0046737517445 0.0154244704436
 -0.0027083213211 0.0218813640767 0.200302206331 0.00218288219581
105928000000 -0.292674340652 0.194017211704 0.00404921619648 0.0147328974963
 -0.00356131974208 0.022099379281 0.189942843875 0.0179666370746
105976000000 -0.295296622536 0.189338536115 -0.00240623182384 -0.0141914503098
 0.00538345925659 -0.0226115801228 0.180940798605 0.03888086925
106024000000 -0.297566902919 0.184348452804 -0.000505931012538 -0.0137476555294
 0.00704533535065 -0.0235924798336 0.172337170846 0.0605555945381
106072000000 -0.302230963533 0.180738075687 0.000846984317656 -0.0127455677421
 0.00753521826234 -0.0241857391331 0.161186265501 0.0759153451854
106120000000 -0.311441482974 0.180967750899 0.00270863341315 -0.0122845901956
 0.00746372843791 -0.0242280471149 0.154502559857 0.0941785923884
106168000000 -0.316171950134 0.180121076799 0.00454245935709 -0.0121268859112
 0.00781297016686 -0.0240406744586 0.147687851208 0.109703708544
106216000000 -0.324437312797 0.179050349492 0.00632061245267 -0.012098596978
 0.00810052106805 -0.0233804401392 0.139958355859 0.125304851876
106264000000 -0.331480465301 0.18234542435 0.00774322549782 -0.011562875108
 0.00851483212448 -0.0219431510902 0.131646374725 0.138340362653
106312000000 -0.338561311002 0.180818740693 0.0102366233043 -0.0115159899901
 0.0107075463771 -0.020529798519 0.121768473839 0.159558566568
106360000000 -0.341219133083 0.179658236489 0.0127375987348 -0.0114534215599
 0.0135526944255 -0.0196495880546 0.116170911613 0.178060419291
106408000000 -0.34204740247 0.163321158017 0.0155832234902 -0.0111338420586
 0.0167661095766 -0.0190918303551 0.105854026064 0.191141007828
106456000000 -0.360045131195 0.160084534933 0.0170303181021 -0.0108249170777
 0.0177122172054 -0.0183503892526 0.0934416438804 0.205164198681
106504000000 -0.362776220451 0.172169408742 0.0180848339237 -0.00978199626539
 0.0188475469391 -0.0163290118863 0.0881306411348 0.216651234114
106552000000 -0.363121010855 0.156222159953 0.0206989191951 -0.00922325603859
 0.0219289737944 -0.0159841769606 0.0821785668838 0.224620031153
106600000000 -0.375842527417 0.158336197327 0.0218875318239 -0.00816377040026
 0.0228942131972 -0.0143094790647 0.0725846890443 0.235064459991
106648000000 -0.385597972102 0.165767689255 0.0227845335004 -0.00696235055619
 0.0237068244304 -0.0124751914727 0.0641670833801 0.245404630324
106696000000 -0.378701844854 0.15206838285 0.0263842965712 -0.00480372190394
 0.0284954370041 -0.00998833270895 0.060333553046 0.259659428293
106744000000 -0.390993534674 0.150618720857 0.0272076308744 -0.00416916220585
 0.0290249664794 -0.00921440777766 0.0541187330143 0.263007947389
106792000000 -0.396373203681 0.160729573839 0.0274095207643 -0.0021568889231
 0.0291134535372 -0.0064641028665 0.0463595144061 0.271810486981
106840000000 -0.399649327557 0.151262069603 0.0292494815161 -0.000539561610266
 0.0312919538035 -0.00466448565464 0.0411331214403 0.277239363721
106888000000 -0.409155761465 0.150751461735 0.0302253218364 0.000766223401011
 0.0323743745827 -0.00312255334939 0.0377286445918 0.283900273278
106936000000 -0.41187680392 0.137400835263 0.0325043346581 0.002788501224
 0.0353647941837 -0.000974221316745 0.0357642913655 0.28975046811
106984000000 -0.410277898337 0.129549009432 0.0339323437877 0.00505917950568
 0.0373862942368 0.00165945317317 0.0331322407724 0.295063717547
107032000000 -0.411322553354 0.136262801308 0.0340627371538 0.00683329873588
 0.0376537405187 0.00399906506366 0.0340936957616 0.300795076575
107080000000 -0.41348142085 0.13513714947 0.0343664977682 0.00844415688323
 0.0382409164028 0.00588329374115 0.0344693389375 0.303280364571
107128000000 -0.4156326632 0.131590925077 0.0349531842709 0.0102852846556
 0.0392678601736 0.0080113508929 0.0344680507969 0.307013096955
107176000000 -0.411116745257 0.128151844906 0.0352771368266 0.0127266710466
 0.0401632611032 0.0109752822341 0.0347501556074 0.309618230617
107224000000 -0.407912770206 0.130732906105 0.0350335454697 0.0154492801076
 0.0402621017243 0.0144231560256 0.0341181326761 0.314474500191
107272000000 -0.408166155704 0.133743330687 0.0348979723276 0.0177579596123
 0.0403813342236 0.017265768902 0.0348482675756 0.320413487143
107320000000 -0.407823886652 0.138516253146 0.0348060410214 0.0202650052068
 0.0405581632765 0.0203810637268 0.0378488608041 0.327177304902
107368000000 -0.404169916898 0.141736966358 0.0346117222941 0.023359269332
 0.0405695929685 0.024321022558 0.0374815958095 0.333508250077
107416000000 -0.395640026007 0.137094080858 0.034612943884 0.0262082233541
 0.0410958862792 0.0280004489511 0.0328833756478 0.336930153952
107464000000 -0.387630569344 0.13627819743 0.0341405812765 0.0289198035468
 0.0408076325865 0.0316722143928 0.0284155253394 0.339651948184
107512000000 -0.394498267941 0.130835197075 0.0333343727069 0.0300885397611
 0.0400128436379 0.0327233266536 0.0224088124072 0.340592694659
107560000000 -0.394680350906 0.137051271168 0.0307326891344 0.0328714554224
 0.0366705167259 0.0364092133067 0.00713946320735 0.345741382996
107608000000 -0.386918763676 0.129604427248 0.0306071728106 0.036213129253
 0.0372943505643 0.0410404120322 0.00264561451778 0.356136082052
107656000000 -0.379370181006 0.124922621789 0.0297967333706 0.0380973188228
 0.0369710735871 0.0435899075355 -0.00299950268393 0.356990882649
107704000000 -0.376478381371 0.12376180663 0.0286674837285 0.0391858156575
 0.0359428423123 0.0449234942719 -0.00973639214151 0.353661354293
107752000000 -0.377826256562 0.124489616112 0.0271302354524 0.0398430350199
 0.0341663595313 0.0455094639618 -0.0195948603665 0.349513008975
107800000000 -0.378240376315 0.134567059338 0.0249651090263 0.040950094257
 0.0309447631049 0.0470104954549 -0.0307259301021 0.348479778689
107848000000 -0.386305046022 0.154592371097 0.0229705711634 0.0426491188174
 0.0275874803486 0.048751565826 -0.0383760077002 0.349429123638
107896000000 -0.391989585848 0.160523237211 0.0211671146656 0.0440677330871
 0.0251339906089 0.0501567211213 -0.0487192716879 0.34977714686
107944000000 -0.389971334436 0.177200419045 0.0177835483223 0.0470174959666
 0.0203204336306 0.0536866846664 -0.0662209938844 0.355813904259
107992000000 -0.38532315483 0.171705979511 0.014661177017 0.0488897362318
 0.0167524266359 0.0562533593733 -0.0860566385629 0.363806393683
108040000000 -0.391981449975 0.170648465317 0.011970785322 0.0511397302639
 0.0137303334996 0.0586344708126 -0.0982801556657 0.371845530491
108088000000 -0.39974937246 0.175019004288 0.00834448466411 0.0524880079124
 0.00941810104086 0.0598572804311 -0.114260416751 0.375101111881
108136000000 -0.397938198349 0.180216077875 -0.00636988713093 -0.0546540742101
 -0.00677567864321 -0.0624306621627 -0.126092417763 0.379078504815
108184000000 -0.402041025177 0.183236816088 -0.00312971621088 -0.0555188462459
 -0.00287953837214 -0.0631658827562 -0.141223702906 0.379557774112
108232000000 -0.407960482048 0.184428843508 0.00113430276529 -0.0566328241101
 0.00207823341894 -0.0642383981946 -0.159477989262 0.384412961414
108280000000 -0.418854180351 0.181998592742 0.00631560274326 -0.0576958900533
 0.00781150928523 -0.0651326453578 -0.177537162696 0.391430493569
108328000000 -0.424389531055 0.182220637127 0.0112084761962 -0.0596317360541
 0.0133436089958 -0.067198432818 -0.194673070703 0.399863883368
108376000000 -0.433795455066 0.179960041545 0.0175564123438 -0.0618741986346
 0.020487046431 -0.0695863886163 -0.215309705239 0.411098440774
108424000000 -0.445002144467 0.172273230451 0.0221898382117 -0.0638127887806
 0.0252269830134 -0.0717680536474 -0.229875502141 0.423802966301
108472000000 -0.464159383955 0.171211994979 0.0263425607349 -0.0653759212403
 0.0294176382991 -0.0731662458522 -0.236562893934 0.43558061144
108520000000 -0.476509766387 0.180467836543 0.0311615870749 -0.0675629962281
 0.0348255260601 -0.075161223487 -0.24245551118 0.439139246148
108568000000 -0.484201963432 0.186486452069 0.035073164398 -0.0688181838036
 0.0391571863576 -0.0762878128091 -0.25080254759 0.438242912109
108616000000 -0.492948766815 0.193949807797 0.0410257165462 -0.0709389295894
 0.0457996035021 -0.0782885752026 -0.262443838067 0.440865162298
108664000000 -0.495180309673 0.191285380755 0.0448088644021 -0.0737111339303
 0.0499836424466 -0.0815479155449 -0.273364134513 0.447378793146
108712000000 -0.500312647799 0.177479379103 0.0475381400657 -0.0738493607577
 0.0524317597723 -0.0820708631553 -0.283607438573 0.451648798996
108760000000 -0.518187458785 0.165981770759 0.0535625514343 -0.071311009418
 0.0584509504042 -0.0791654662449 -0.297833820593 0.454355582215
108808000000 -0.532347903175 0.158449086337 0.0589539403234 -0.0690351699845
 0.063860967724 -0.0766008084665 -0.309165553967 0.45486274758
108856000000 -0.546545618209 0.150727518597 0.0641977262306 -0.066643955441
 0.069162639235 -0.0739393266189 -0.318763703806 0.452937425005
108904000000 -0.557931013193 0.14283214534 0.0679773253723 -0.065078501043
 0.0728939904413 -0.0723384018081 -0.325342117097 0.449946927853
108952000000 -0.566911500862 0.138331668487 0.0729064706734 -0.0651124874784
 0.0779253310146 -0.0725268223467 -0.330935297696 0.449308949047
109000000000 -0.585000726006 0.136985668725 0.0814370613172 -0.0648913050183
 0.0867410349031 -0.0722538353778 -0.334681832298 0.449159444075
109048000000 -0.603898750828 0.146971041138 0.0924605166844 -0.068770204673
 0.098263687634 -0.0761827427674 -0.336238486608 0.444645080669
109096000000 -0.620751172419 0.158383838946 0.104060768111 -0.0717385072807
 0.11052023344 -0.0789279737344 -0.345011668254 0.438472773552
109144000000 -0.636338772799 0.157240182874 0.115128501341 -0.0689654498416
 0.12212665732 -0.0759866303503 -0.362288164379 0.432125783173
109192000000 -0.641380957211 0.150352112026 0.12318202476 -0.0657720042991
 0.130813337138 -0.0724858967243 -0.380145366114 0.428338144209
109240000000 -0.636376843845 0.140962734685 0.12620603966 -0.0653660443922
 0.133825319549 -0.0729640176779 -0.389392695798 0.426239924988
109288000000 -0.632073894934 0.128278567628 0.125959193834 -0.0639484418885
 0.133096050434 -0.0725596890144 -0.390623618673 0.418105014503
109336000000 -0.632770226417 0.114752251258 0.128893440239 -0.060808848318
 0.136167004032 -0.069078725065 -0.399488517228 0.415935382123
109384000000 -0.638716458926 0.0981856898429 0.132960264873 -0.0529099434367
 0.140275394665 -0.0609491726897 -0.410197494863 0.406868620219
109432000000 -0.639177041145 0.0768787768884 0.133402806446 -0.0431808827731
 0.140642022856 -0.0509154621714 -0.419921210947 0.394938326407
109480000000 -0.637381695872 0.060101338748 0.132478665603 -0.0349489266448
 0.13970389073 -0.0424878436278 -0.430171772331 0.382473602486
109528000000 -0.636580090251 0.0458928764152 0.134060411357 -0.026029897687
 0.141578554245 -0.0332134998369 -0.443071971701 0.369475479105
109576000000 -0.646101199003 0.0353175057258 0.139021256631 -0.0154298008456
 0.146913907075 -0.0222412910582 -0.452262447658 0.35777885207
109624000000 -0.636511493466 0.0183223405323 0.134182978133 -0.00494455534178
 0.14203096906 -0.0112795910734 -0.468821261759 0.341522096124
109672000000 -0.634898646489 -0.00184064695084 0.133289008795 0.00804392777386
 0.141429878023 0.0021362021554 -0.48155803616 0.332691640633
109720000000 -0.634316946302 -0.0178630660016 0.131617999382 0.0190077144757
 0.139975576456 0.0135697636134 -0.490943946279 0.320738394709
109768000000 -0.631001758214 -0.0301180197114 0.128511870888 0.0276553171583
 0.137021155506 0.0225689276637 -0.498417753073 0.308780867185
109816000000 -0.62581939913 -0.0388859327987 0.125975005064 0.0350935634502
 0.134771106614 0.0302688434776 -0.508642860144 0.297015393321
109864000000 -0.622817665576 -0.0506687969965 0.123578946113 0.0444147792259
 0.13264096521 0.0400115673739 -0.517736972395 0.285938408797
109912000000 -0.615049585127 -0.0585616612984 0.119648185781 0.0537403755577
 0.129026307178 0.0499996320834 -0.533917510196 0.27239049234
109960000000 -0.610996387987 -0.0720278160826 0.11315523383 0.0647203678026
 0.122729502909 0.0616270278987 -0.543904251641 0.258596054299
110000000000 -0.400089900037 0.0114964525121 0.0478282557541 0.0290418707441
 0.051628938529 0.0276866811348 -0.775359562692 0.0484466430692
110008000000 -0.400128733795 0.0113330696735 0.0475809178626 0.0297531346377
 0.0514201615805 0.0284068515881 -0.771619964046 0.0509697928319
110040816327 -0.39958992817 0.00880103184884 0.0460472904379 0.0316418415962
 0.0500184072029 0.0302691066538 -0.757131475945 0.0596452773076
110056000000 -0.399465274754 0.00722495114566 0.0455759727894 0.0320813785745
 0.0496063913926 0.0306728941327 -0.749510607726 0.0620848416308
110081632653 -0.400222210874 0.00494403909522 0.0445262659849 0.0334608655259
 0.048619658714 0.0321101501494 -0.741760071731 0.0623759316894
110104000000 -0.401418875917 -0.000106357519957 0.0416454501788 0.0357256858595
 0.0457208576918 0.0346525075726 -0.756494468167 0.0532866831185
110122448980 -0.402148610054 -0.00504726881598 0.0389827121512 0.0369518986324
 0.0430381649383 0.0360808994643 -0.772873790741 0.0450739011861
110152000000 -0.406429218143 -0.0106226849203 0.0353403310238 0.0384441444982
 0.0393802042944 0.0378137304012 -0.789881074106 0.0389520984803
110163265306 -0.409265726085 -0.0133062817756 0.0340468868332 0.0393878345154
 0.0380824199788 0.0388698346026 -0.791918142709 0.0361637010566
110200000000 -0.418969490503 -0.0225039595726 0.0332836874478 0.0397459910198
 0.0373309263012 0.0392449270964 -0.765511178585 0.00551868163771
110204081633 -0.419970242389 -0.0231244393173 0.033193777916 0.0400271767951
 0.0372796298321 0.0395443917847 -0.764840856302 0.00428573307719
110244897959 -0.429196933222 -0.0292385470795 0.0318585415233 0.0476278546167
 0.0363054071473 0.0476490852807 -0.791258360921 0.0315744435976
110248000000 -0.429691011116 -0.0296727607876 0.0318425316503 0.0477633001758
 0.0363246728828 0.0478027957549 -0.791061716363 0.0321120904633
110285714286 -0.432238978097 -0.0346755720214 0.034286567782 0.0486468599029
 0.0389176639712 0.0487101942529 -0.764381097379 0.0348408347915
110296000000 -0.433451757494 -0.0362840469751 0.0333544282967 0.0485613357053
 0.0379645873048 0.0486597946415 -0.769620163685 0.0299403430322
110326530612 -0.437514411484 -0.0422336389492 0.0298995318827 0.0478777801067
 0.0344108404316 0.048181182377 -0.796545764662 0.00693461809301
110344000000 -0.437747352354 -0.0465169655348 0.0288078784567 0.0490004744024
 0.0333579061307 0.0493977039793 -0.799820747688 0.0132106499287
110367346939 -0.438102109833 -0.0528591634727 0.0277945007198 0.0511935710323
 0.032446691957 0.051780937437 -0.803234892694 0.0233232346377
110392000000 -0.440825916919 -0.0595892275639 0.0253139639799 0.049958295735
 0.0298438691547 0.0505958946289 -0.814936611933 -0.000677465536686
110408163265 -0.442767801368 -0.0641938268082 0.0157696079196 0.0161946715459
 0.0177014854153 0.0161224433512 -0.820142240804 -0.0145200449068
110440000000 -0.445318527244 -0.0735798825438 -0.00629806682683 -0.0720735559244
 -0.0111794278556 -0.0741096558658 -0.808790986096 0.0138301264097
110448979592 -0.445843496981 -0.076333543143 -0.00569152142842 -0.0718038195881
 -0.0105231359542 -0.0739082908104 -0.807098487775 0.0174963014454
110488000000 -0.447443498171 -0.0895236965597 0.000410906143373 -0.0722002178245
 -0.00438373920754 -0.0744898760757 -0.807592865139 0.00762557254294
110489795918 -0.447557180887 -0.0900412403076 0.000594451218606 -0.0722140043746
 -0.00419927747443 -0.0745114750208 -0.80759999533 0.00738004754419
110530612245 -0.450601782691 -0.100044309293 0.00383879241184 -0.0715767288038
 -0.000950383119959 -0.0739712969313 -0.804112015263 0.00718235122774
110536000000 -0.450908058125 -0.101682231601 0.00337470108081 -0.0709144611746
 -0.00141601832729 -0.0732853659851 -0.806349027301 0.00622885156127
110571428571 -0.452463781001 -0.114522648226 -0.010794244371 -0.0629668005945
 -0.015548770654 -0.0648703845153 -0.849337720222 -0.00346274039158
110584000000 -0.453480315578 -0.118557089671 -0.00978515179402 -0.0638856102496
 -0.0145768726776 -0.0658585441466 -0.847225296441 -0.00388432594318
110612244898 -0.455726014601 -0.12770446312 -0.00715338722614 -0.0675481967708
 -0.0119891760558 -0.069698232704 -0.834670902522 -0.00206475662433
110632000000 -0.456331430606 -0.13529964713 -0.00513978891166 -0.0701202655487
 -0.0100148348505 -0.072398724124 -0.822967042881 -0.00149329095917
110653061224 -0.456245804168 -0.143287497289 -0.00294079790003 -0.0723652534564
 -0.00785451000259 -0.0748058519201 -0.812711222159 -0.00201847352416
110680000000 -0.454641435904 -0.152206385467 -0.000124391006148 -0.0736168536086
 -0.00502515385168 -0.0761837378069 -0.809223363485 -0.00484456356144
110693877551 -0.453755516732 -0.156049299205 0.0011381655863 -0.0740637861381
 -0.00373645848614 -0.0766676589418 -0.807298326721 -0.00671516015666
110728000000 -0.451736046406 -0.163416711543 0.00408660770038 -0.0756189783889
 -0.000739440311736 -0.0784130975908 -0.796235116321 -0.0117109265464
110734693878 -0.451251087879 -0.165176464949 0.00478218957169 -0.0757077723136
 -4.19143819489e-05 -0.0785289939381 -0.795624294232 -0.0125519524713
110775510204 -0.447616113883 -0.18057239979 0.0116367970923 -0.0753483812608
 0.00691113530605 -0.0784150996299 -0.810171520174 0.00372955742497
110776000000 -0.447569113104 -0.180739097716 0.0116888715704 -0.075347152691
 0.00696378666394 -0.0784155197059 -0.810170474983 0.00366427846766
110816326531 -0.4420212527 -0.193641654774 0.0155150316593 -0.075817258097
 0.010832668016 -0.0790576663251 -0.80680580726 -0.00330453482534
110824000000 -0.441378639404 -0.196162085679 0.0157521994987 -0.0752371550505
 0.0110873358105 -0.0784816023094 -0.809418274915 -0.00292033622216
110857142857 -0.439399834203 -0.206657403949 0.0158266607551 -0.0700842445649
 0.0112497136883 -0.0732402265442 -0.83588384483 0.00723293774719
110872000000 -0.438670287782 -0.21085985227 0.0163409390267 -0.0727401486443
 0.0117493854697 -0.0759572751196 -0.822013253112 -0.0127235712486
110897959184 -0.436080214874 -0.218677265662 0.0191611252593 -0.0782820635977
 0.0145597530024 -0.0817471240441 -0.789869884521 -0.0584664327391
110920000000 -0.432412445908 -0.226644815189 0.0211952668414 -0.0759573786957
 0.0166484705323 -0.0795115957926 -0.808081500231 -0.052773955831
110938775510 -0.429277938154 -0.233064307171 0.0227405762711 -0.0744847971738
 0.0181944321796 -0.0780899458566 -0.822448807216 -0.0481367493839
110968000000 -0.423944632236 -0.238975099232 0.0277241129069 -0.0765635480634
 0.0232292523611 -0.0804217091511 -0.784897532702 -0.0677838165401
110979591837 -0.421421170712 -0.240637514999 0.0285659999691 -0.076796961916
 0.0241176862244 -0.0807146189538 -0.775802833134 -0.0736574711985
111016000000 -0.411559099912 -0.250110388077 0.028108671016 -0.0735107025492
 0.0237449140541 -0.0773532520901 -0.815643066255 -0.0737906736994
111020408163 -0.410254153915 -0.251131168592 0.0281715225896 -0.0732417822733
 0.0238222170513 -0.077100906841 -0.816963243982 -0.0737845469581
111061224490 -0.396998038514 -0.260954402029 0.0332737336344 -0.0714236089472
 0.0290207899347 -0.0754533691368 -0.798421258909 -0.0752343661211
111064000000 -0.396142306905 -0.261707875433 0.0334234341197 -0.0712287409656
 0.029174242769 -0.0752737195172 -0.798797295463 -0.0749727930609
111102040816 -0.384310259411 -0.273239461511 0.0349201647023 -0.0661990771252
 0.0307912159049 -0.0702998072408 -0.829752752045 -0.0558678561777
111112000000 -0.381305824937 -0.276054651064 0.0363938796449 -0.0657274153799
 0.0323212402353 -0.0699089578542 -0.824603509295 -0.0621787053785
111142857143 -0.372217151984 -0.284511350025 0.042603229959 -0.0651734421873
 0.0387181379449 -0.0696883735205 -0.795742491042 -0.0969639698464
111160000000 -0.36662080988 -0.287992455316 0.0440042144313 -0.0642276097891
 0.0401795378464 -0.0688120290663 -0.796524200766 -0.103832933606
111183673469 -0.359073137753 -0.290752629142 0.0450943889947 -0.0631765576206
 0.0413420074905 -0.0678228733002 -0.800977283758 -0.110518704568
111208000000 -0.352160505826 -0.291588799457 0.0453660239074 -0.0621706139599
 0.0416487218822 -0.0668446673686 -0.814192727954 -0.112697914063
111224489796 -0.346478683575 -0.292172736813 0.045533263174 -0.0611287871507
 0.0418399786589 -0.0658290044875 -0.81993277222 -0.114197998711
111256000000 -0.332313460201 -0.296027079855 0.047784986465 -0.0581405808093
 0.0442426297982 -0.0629707543308 -0.803755660037 -0.127277564875
111265306122 -0.328460254204 -0.297132661864 0.0485246559703 -0.0570458226422
 0.0450478930401 -0.0619245646947 -0.799562369826 -0.130134488633
111304000000 -0.314817502992 -0.300419436508 0.051548285936 -0.0515266611902
 0.0483865556351 -0.0565769409114 -0.791289188381 -0.132762417322
111306122449 -0.314074619352 -0.300548901559 0.0516982437384 -0.0512440792137
 0.0485503602511 -0.0563030781426 -0.791047414046 -0.132877591458
111346938776 -0.29932240158 -0.302341060321 0.0546296932263 -0.0460375740052
 0.0518265404146 -0.0512495160258 -0.786979333963 -0.134213907783
111352000000 -0.297698850643 -0.302404575899 0.0550258016846 -0.0453841860338
 0.0522653885391 -0.0506222249483 -0.786289889942 -0.134993936493
111387755102 -0.286718104605 -0.301402545402 0.0581589697819 -0.0402130305718
 0.0556982559246 -0.0457066125891 -0.78029131196 -0.141484822433
111400000000 -0.28235094767 -0.301491812994 0.0589357707716 -0.0387224317419
 0.0565637040148 -0.0442851665994 -0.781294425571 -0.14367399348
111428571429 -0.272017567406 -0.301104367791 0.0598607020065 -0.0360378361332
 0.0576262448944 -0.0416924690509 -0.786605715853 -0.147852081834
111448000000 -0.266501388467 -0.299725146913 0.0600856269186 -0.0334360196515
 0.0580172474547 -0.0390602159209 -0.776265684703 -0.137017041651
111469387755 -0.260884284137 -0.298301781291 0.0604331595604 -0.0307364295837
 0.0585350854813 -0.0363356577697 -0.763955782126 -0.126124697956
111496000000 -0.252370645317 -0.298380375223 0.0615116000489 -0.0293793501706
 0.0596650148512 -0.035180619406 -0.778684442248 -0.149069721709
111510204082 -0.247659993325 -0.298484924498 0.0621826313023 -0.0282574293428
 0.060392145959 -0.0341672436765 -0.787091564944 -0.163490416276
111544000000 -0.237926472145 -0.29596851871 0.0548683637265 -0.0240546345633
 0.0527269667919 -0.0290924218823 -0.793659088175 -0.190248774401
111551020408 -0.235763215094 -0.295762338955 0.0543688530024 -0.023286102976
 0.0522206355322 -0.028269845721 -0.793511126098 -0.192941597529
111591836735 -0.219199861753 -0.296796744845 0.0564828924492 -0.0199966349316
 0.0545170986724 -0.025312190551 -0.779148444611 -0.187518116013
111592000000 -0.219172161945 -0.296794627646 0.0564877095476 -0.0199807706497
 0.054522881777 -0.0252971461746 -0.779137670469 -0.187558026341
111632653061 -0.212167681631 -0.291883200869 0.0575516881411 -0.0154451394052
 0.0558774508661 -0.0208718515442 -0.809476093018 -0.202848094896
111640000000 -0.210774709739 -0.292190889451 0.05773376807 -0.0147902459886
 0.0560957238388 -0.0202557023818 -0.808698769773 -0.206139490798
111673469388 -0.203710446816 -0.294370208184 0.0585812397224 -0.0122481071443
 0.0570125728467 -0.017928519608 -0.800084092996 -0.220958691412
111688000000 -0.202221654411 -0.294243304684 0.0590730004681 -0.0112329538328
 0.0575343474813 -0.0170541825292 -0.785266328169 -0.223565394864
111714285714 -0.199333301217 -0.292224611767 0.0602882079381 -0.00900669267416
 0.058844026968 -0.0150813931684 -0.754270204129 -0.226284155535
111736000000 -0.1936188518 -0.291228817971 0.0610652308855 -0.00623827067469
 0.0598702779363 -0.0124789311764 -0.754058205519 -0.223666899986
111755102041 -0.185990712047 -0.291141391372 0.0613195144322 -0.00338478454495
 0.0604177544731 -0.00980323046116 -0.756898181771 -0.222769456292
111784000000 -0.171353167726 -0.291003452123 0.0611742169334 0.00107175729235
 0.0604731614818 -0.00552946062836 -0.76602664908 -0.239673307452
111795918367 -0.166695782637 -0.290735347343 0.0610306474586 0.00270844809961
 0.0603693718446 -0.00394789459289 -0.76947250283 -0.245887561675
111832000000 -0.156375345883 -0.2903775046 0.0600750572459 0.00750808535734
 0.0598121366883 0.000687211337703 -0.776450889408 -0.256255009846
111836734694 -0.15510491592 -0.290193557086 0.0599331927342 0.00815833270171
 0.0597219556958 0.00131587751901 -0.77596565214 -0.257708192684
111877551020 -0.146911503171 -0.285554372047 0.0591281720178 0.0126109722597
 0.0592781621257 0.00528864728791 -0.708237022202 -0.277777535359
111880000000 -0.14623320105 -0.285640724728 0.0590205190824 0.0129446760344
 0.0591992848501 0.00561326977509 -0.708278086188 -0.278181026591
111918367347 -0.135185678613 -0.287221292624 0.0570040964283 0.0186510527005
 0.0576908096822 0.0112524267356 -0.749611881386 -0.275577983222
111928000000 -0.132627077577 -0.28721236351 0.0566895072058 0.0195977698043
 0.0574745645167 0.012116501432 -0.737313287656 -0.27800083889
111959183673 -0.125002522319 -0.286123082184 0.0562056334877 0.0218767846602
 0.0572743451492 0.0139893631727 -0.668090688333 -0.28716477888
111976000000 -0.121254538506 -0.285769800181 0.0554455450344 0.0235176119843
 0.0566810771717 0.0155735512523 -0.674674688605 -0.288995938013
112000000000 -0.116568720844 -0.284348591111 0.0540617054358 0.0255797881814
 0.0555159835953 0.017587153194 -0.68699017744 -0.290931471872
112024000000 -0.111916643864 -0.281258228956 0.0525147840809 0.027040250527
 0.0541350171405 0.0189419280973 -0.676984718694 -0.305588600993
112040816327 -0.108024990737 -0.278978362178 0.0513877486869 0.0281376397994
 0.0531503427446 0.0199357737324 -0.671021734697 -0.317865156681
112072000000 -0.101280092032 -0.274972155171 0.0490967805199 0.0303318121614
 0.0511713780597 0.0219747790491 -0.665469513753 -0.331720818651
112081632653 -0.0989115083289 -0.274249388518 0.048337289065 0.0309505736785
 0.050498812898 0.0225706297758 -0.663849253369 -0.333403304618
112120000000 -0.0865091421307 -0.272529971324 0.0455523062947 0.0342434949916
 0.0482606740007 0.0259198414667 -0.671007609075 -0.276219423568
112122448980 -0.0857853862538 -0.272398859272 0.045315345163 0.0344182602245
 0.0480525422308 0.026096045513 -0.671587983575 -0.275742671616
112163265306 -0.0752664596564 -0.264830435781 0.0401124194996 0.0368782027747
 0.0433012522856 0.0285255905624 -0.683107981497 -0.311611205832
112168000000 -0.0738575890903 -0.264602698973 0.0396026397587 0.0371730859175
 0.042857757278 0.0288273590443 -0.680850455987 -0.310642108158
112204081633 -0.0629823150479 -0.263729814563 0.0365854811781 0.0391516293432
 0.0404977786924 0.0308274299379 -0.639730229633 -0.279123071004
112216000000 -0.0596634960954 -0.262232726987 0.0355464648989 0.039628949241
 0.0396602711944 0.0313165883903 -0.627903663036 -0.276634621843
112244897959 -0.0523101031165 -0.258281028788 0.0325657628041 0.0405505862199
 0.0371631720342 0.032287848174 -0.604727741146 -0.272959986145
112264000000 -0.0479740687954 -0.258890093094 0.0304824972884 0.0410425134447
 0.0352115347758 0.0327508493546 -0.612294238015 -0.28520570977
112285714286 -0.0438832029662 -0.261552754264 0.0290730675101 0.0414292775957
 0.0338189422638 0.0329890992079 -0.623544835653 -0.301299828039
112312000000 -0.0391584457492 -0.261608310139 0.0281572662016 0.0414998980087
 0.0330801473002 0.0329161810476 -0.596092012847 -0.300353808594
112326530612 -0.0366410024427 -0.258135929812 0.026404563052 0.0403784005557
 0.0314617434252 0.0320071230352 -0.582557483079 -0.29926810561
112360000000 -0.0316109667205 -0.245897730141 0.0201856476969 0.0365905012258
 0.0255928392788 0.0290030826063 -0.57407348003 -0.313951831553
112367346939 -0.0302462288637 -0.244299754851 0.0193301884258 0.0366123137225
 0.0248639542666 0.0290321523165 -0.573254028361 -0.315981580949
112408000000 -0.0212257622196 -0.236213811692 0.0159351607992 0.0388472008107
 0.0221607012911 0.031866335152 -0.58114679992 -0.249610451277
112408163265 -0.021183536711 -0.236200600696 0.0159193082562 0.0388472912501
 0.0221474062999 0.0318666506188 -0.581111233373 -0.249606841757
112448979592 -0.00929468558487 -0.234152777096 0.0121467175798 0.0388259113163
 0.0189800804216 0.0318767677363 -0.573252710225 -0.247082991449
112456000000 -0.00730906634234 -0.233903059742 0.0112289721242 0.0388436507528
 0.0181000256214 0.0319108113239 -0.570687772982 -0.244689591373
112489795918 0.000397308105871 -0.22904510681 -0.000949743673234 -0.0233195927547
 -0.00403101034446 -0.020312337536 -0.549934022619 -0.225245100215
112504000000 0.00375420993299 -0.225770487943 -0.00368812703698 -0.0398593134137
 -0.0094287522985 -0.0341923144211 -0.547819618768 -0.220343915699
112530612245 0.0112846235468 -0.218980000523 -0.00143605652873 -0.0388695349157
 -0.0073807598925 -0.0333105824703 -0.54501041215 -0.21426491448
112552000000 0.0160198739646 -0.215857337946 0.000803659925895 -0.0384699829937
 -0.00532986875289 -0.0332894712731 -0.554291617201 -0.239665996371
112571428571 0.0189798031691 -0.215903044884 0.00184055738206 -0.0383130965181
 -0.0043060639338 -0.0333902436015 -0.561241191964 -0.2605298114
112600000000 0.0232368592628 -0.217495697019 0.00353331757752 -0.0365578358181
 -0.00250977553779 -0.0313571945841 -0.534409083777 -0.225732056159
112612244898 0.0254569267763 -0.217852060385 0.00423691235307 -0.0360692286245
 -0.00180779048035 -0.0307779435029 -0.526505922988 -0.216059460808
112648000000 0.0323024862902 -0.217098668599 0.00591521150485 -0.0356414574626
 -0.00025957685513 -0.0304796454427 -0.540119047037 -0.229647547361
112653061224 0.0331421821865 -0.216975549717 0.00616695841632 -0.0355182297069
 -2.67785830338e-05 -0.0303699154148 -0.540146111875 -0.229737779684
112693877551 0.0386636729725 -0.214940198654 0.00835789830666 -0.0329996750036
 0.00218912733205 -0.027893595997 -0.527819525313 -0.220644712267
112696000000 0.0386836258815 -0.214819035106 0.0084189590035 -0.0328566760793
 0.00227265534401 -0.0277591465686 -0.52703095524 -0.220431687914
112734693878 0.0382309892392 -0.21153052629 0.00928540285134 -0.0296984652926
 0.00360681086967 -0.0248417145714 -0.507119526784 -0.229919678414
112744000000 0.038104991247 -0.209930643026 0.00930112377196 -0.0287258232681
 0.00363995799121 -0.0239079818188 -0.506678256809 -0.22275642553
112775510204 0.0398176590288 -0.200283889612 0.00973470394497 -0.0248726659588
 0.0038771909187 -0.0203300888667 -0.508909625089 -0.179650931179
112792000000 0.0425243553669 -0.195430674269 0.0105710035743 -0.0232211024876
 0.00471559312288 -0.0190635449733 -0.513261685664 -0.185983971994
112816326531 0.0474271728685 -0.188560791782 0.0117960500454 -0.0211374351384
 0.00592611129496 -0.0176217486494 -0.522643350216 -0.198917799089
112840000000 0.0505552620915 -0.18038808739 0.00977814913309 -0.0199688811028
 0.00247692751155 -0.0168818252029 -0.531857924271 -0.179992958997
112857142857 0.0525782604732 -0.17568623526 0.00828759972148 -0.0193942650445
 1.24186309837e-06 -0.0165580441817 -0.534386798937 -0.168080626697
112888000000 0.0578341562353 -0.169468388434 0.00862588345118 -0.0179556455263
 1.17659875489e-05 -0.0156540354317 -0.518830836047 -0.18024165846
112897959184 0.0596331291364 -0.167476240875 0.00881699829073 -0.0174758431995
 0.000160773264483 -0.0153489099052 -0.513865495977 -0.181381218374
112936000000 0.0662298105271 -0.160231726123 0.0101220458035 -0.0156967857338
 0.00150058420907 -0.0142271217454 -0.501711959355 -0.162590056896
112938775510 0.0667003970977 -0.159751779542 0.0101784625601 -0.0155401039596
 0.00155234302004 -0.0140973294771 -0.501354591781 -0.161996460037
112979591837 0.0744382912923 -0.154679894072 0.0106639110024 -0.012962550819
 0.00191592537882 -0.0116297392807 -0.520829102384 -0.165269813747
112984000000 0.0751141950746 -0.153837607915 0.0107081606517 -0.0127609066221
 0.00196388028044 -0.0114485744666 -0.522138446394 -0.165518710182
113020408163 0.0801847209767 -0.147510267004 0.0111162560167 -0.0115381677597
 0.00239521955667 -0.0103652067712 -0.529673218496 -0.166794320797
113032000000 0.081855318466 -0.14588045141 0.0112121395249 -0.0111428345034
 0.00255488229846 -0.0100163415764 -0.530424603823 -0.165290638892
113061224490 0.0864753703165 -0.141821200454 0.0114903047051 -0.0100464137867
 0.00313591798353 -0.00903735905994 -0.529953480614 -0.157858828953
113080000000 0.0887450019389 -0.138491361285 0.0117945801995 -0.00914694329061
 0.00365713588447 -0.00820040946384 -0.527752208771 -0.145881620681
113102040816 0.0902676782566 -0.134484921137 0.0120224320496 -0.00809031604248
 0.00423670383727 -0.00721699351195 -0.524897332203 -0.133557546597
113128000000 0.0918486724206 -0.129947048266 0.0121655166665 -0.00753563826101
 0.00486224033464 -0.00712259952762 -0.50209588988 -0.137700478325
113142857143 0.0930733536866 -0.126723159527 0.0121016402631 -0.00725080013642
 0.00500466562829 -0.00716460408069 -0.491980155221 -0.142895638037
113176000000 0.0974287424086 -0.11726383892 0.0113817174607 -0.00621814518046
 0.00481396928867 -0.00675794576046 -0.493727238609 -0.16994787001
113183673469 0.0982256222377 -0.114757575107 0.0112038057357 -0.00584482542383
 0.00478094388377 -0.00655057637529 -0.493525000703 -0.171642926187
113224000000 0.100087965535 -0.10113481399 0.0105816668219 -0.00327645315814
 0.00550817820181 -0.00520630380747 -0.483751595815 -0.156519035241
113224489796 0.100131756984 -0.100949221951 0.0105735801925 -0.00324469510985
 0.00551423755084 -0.00519176012928 -0.483661852247 -0.156350370109
113265306122 0.105410588786 -0.0835637948052 0.00986693088035 -0.000315589749718
 0.00556863597542 -0.00370060783282 -0.476738395714 -0.143002767377
113272000000 0.106593177325 -0.081025943625 0.00968491368711 4.91611625086e-05
 0.00542593993901 -0.0035862021655 -0.477603249939 -0.143574622157
113306122449 0.114443395084 -0.067507231082 0.00873328583414 0.00193837914176
 0.00437368860006 -0.00301492658142 -0.495094346571 -0.153505023748
113320000000 0.117065124988 -0.0622825848101 0.00846047110509 0.00290325445353
 0.00420647054458 -0.00253499794483 -0.488153169125 -0.143256378277
113346938776 0.122117992913 -0.0544267077549 0.00817211041529 0.00487148559816
 0.00414790448111 -0.00153817452825 -0.46628963683 -0.115101736313
113368000000 0.125557789328 -0.0498106671329 0.00785513181019 0.00563698860791
 0.0035617721802 -0.00163648021079 -0.456771487439 -0.117162434965
113387755102 0.128805189233 -0.0462606271637 0.00743475695045 0.00621222660569
 0.00233135643031 -0.00178487614095 -0.45153501709 -0.122769078323
113416000000 0.133962939895 -0.0409425797396 0.00627691410123 0.00635998010019
 0.000403699414925 -0.00250353617351 -0.477562647225 -0.144483153565
113428571429 0.135461494216 -0.0373316096326 0.00483772765437 0.00369310427046
 0.0010112299138 -0.00283008818708 -0.488555912757 -0.149276346861
113464000000 0.138619101958 -0.0237659802959 6.29920058305e-05 -0.00927509737269
 0.00596294108631 -0.00326241005359 -0.497976208299 -0.142611893814
113469387755 0.138926410329 -0.0216673914664 8.47438070524e-05 -0.00951497955721
 0.00632219043619 -0.00328554061942 -0.497727244225 -0.141475286547
113510204082 0.138426841257 -0.00602858663337 -0.000787221935006 -0.0106833189563
 0.0071580099344 -0.00119582950093 -0.480786530481 -0.132857531369
113512000000 0.138402873862 -0.00519087034708 -0.000684925480172 -0.0107372037639
 0.00726237882876 -0.00123532347074 -0.480340041186 -0.132916071736
113551020408 0.137503518899 0.0143180080917 0.00178691635979 -0.0125385940884
 0.00992827035741 -0.00300731894093 -0.472807771684 -0.159584337188
113560000000 0.137429338228 0.0185553802614 0.00245473398927 -0.0129487680994
 0.0105131614927 -0.00349115001827 -0.467067599217 -0.156657320721
113591836735 0.138099850795 0.0319548093877 0.00520051518325 -0.0145254974425
 0.0124583042472 -0.00565412889765 -0.437052738182 -0.137709401111
113608000000 0.138996539315 0.0383011019894 0.00630135878105 -0.0153135858839
 0.0133673245278 -0.00658309612561 -0.438257078858 -0.145706143022
113632653061 0.139951590723 0.0482825827684 0.00791817765163 -0.0163632047259
 0.0147809908577 -0.00768772465239 -0.445900617297 -0.165244396309
113656000000 0.139374294931 0.0578650862168 0.00944834079916 -0.0171846229127
 0.0160859032581 -0.00851567110573 -0.458968273016 -0.173776225857
113673469388 0.139206845867 0.0648572969322 0.0106320827134 -0.0175106835735
 0.0170641022977 -0.00874641226381 -0.46482439541 -0.175954629536
113704000000 0.13978212662 0.0771071375691 0.0133919860209 -0.0170632950708
 0.0194277217772 -0.00833107741289 -0.442972930897 -0.161499626934
113714285714 0.139023743046 0.0812509521711 0.0144179202036 -0.0170139641704
 0.0202866474299 -0.008292564763 -0.437999979021 -0.159125410945
113752000000 0.132565211587 0.0962974616023 0.018066576499 -0.017557136697
 0.0232498538459 -0.00903106097288 -0.443634094477 -0.191949054589
113755102041 0.132262178899 0.097540635394 0.0182482863458 -0.0175579530183
 0.0234065398265 -0.00902975876764 -0.443655625441 -0.192449450144
113795918367 0.130552068303 0.114356200642 0.0200420280731 -0.014395957364
 0.0249687025977 -0.00552556275098 -0.422462185877 -0.13308714603
113800000000 0.130306789151 0.116058370425 0.0203034384145 -0.0141471289064
 0.0252119021753 -0.00526131525868 -0.41955649111 -0.133947878297
113836734694 0.127506812977 0.131531268964 0.0240929613789 -0.0122164707976
 0.0287566296233 -0.00329120043515 -0.390796922489 -0.173565901162
113848000000 0.126431035672 0.136262692039 0.024449484265 -0.0115311135208
 0.0290517759918 -0.00254713037607 -0.389958029329 -0.168449034633
113877551020 0.123083914971 0.149573115985 0.0253459309315 -0.00983585582111
 0.0298072428281 -0.000634262298493 -0.388171753427 -0.147998341889
113896000000 0.120630713615 0.158517589155 0.0265807152997 -0.00912446189948
 0.030861096374 0.000144997565489 -0.394113599443 -0.158428431326
113918367347 0.116679524635 0.168844633777 0.0281655237148 -0.008078537128
 0.0321747909697 0.00122847943888 -0.401438600406 -0.172327186033
113944000000 0.111201115804 0.1797078797 0.0271401709177 -0.00596330703675
 0.030966008462 0.00365308199082 -0.396993378575 -0.115570938678
113959183673 0.108234507647 0.186126332113 0.0253914772465 -0.0049765036772
 0.0291542153296 0.00489701752966 -0.394300680858 -0.0889771397386
113992000000 0.102033194104 0.199049298442 0.0154573828524 -0.0146702662054
 0.018194264077 -0.00275756187485 -0.387133197032 -0.107466110635
114000000000 0.100256692582 0.201672337672 0.0146401183545 -0.0157894900288
 0.0171210008576 -0.00359954080821 -0.386495555514 -0.108969217494
114040000000 0.0905281351848 0.213004082375 0.0161241319655 -0.0144907653549
 0.0174897642776 -0.00189332465449 -0.389057202524 -0.0986282060931
114040816327 0.090258696151 0.213260451843 0.0161491565188 -0.0144746253146
 0.0174932668078 -0.00186774154614 -0.389045817902 -0.0985261222066
114081632653 0.0762945990419 0.227945255365 0.0173244125407 -0.0141601954491
 0.0177691963453 -0.000983992513639 -0.383334706918 -0.115330329127
114088000000 0.0744882615336 0.230248440303 0.0176149633973 -0.0140068985485
 0.017923373115 -0.00078128307664 -0.382175740882 -0.113114366954
114122448980 0.0666563872397 0.243301407278 0.020429057319 -0.0131653318043
 0.0201133399697 0.000328320252922 -0.373930599327 -0.0873144094026
114136000000 0.0630639094083 0.248193775537 0.0211388635748 -0.013248268561
 0.0205955799101 0.000370719076013 -0.3685716177 -0.0888558621932
114163265306 0.0560810631577 0.257470693775 0.0222603916534 -0.0136707320754
 0.0212734551528 0.000233429787077 -0.359362037034 -0.0977049100023
114184000000 0.0504944596955 0.265363471642 0.0228302503693 -0.0132771253124
 0.0215839933817 0.00081452616035 -0.360541167222 -0.100265698355
114204081633 0.0441636381088 0.273432016265 0.0234576486255 -0.0125791611255
 0.0218575073535 0.00166402984474 -0.361844509724 -0.100149562884
114232000000 0.0360115807042 0.284675102858 0.027872506474 -0.0103480477765
 0.025281230309 0.00365010157614 -0.342874699464 -0.0572263299195
114244897959 0.0328636848695 0.28935726245 0.0290237212818 -0.00937018923017
 0.0261021501721 0.00455789067683 -0.337103220461 -0.0432784265215
114280000000 0.0243535726339 0.299756608164 0.0286475676688 -0.0076669860737
 0.0251809622575 0.00652681659069 -0.361518564362 -0.0570090406683
114285714286 0.0226853016527 0.301463062984 0.0285979056242 -0.00739265721779
 0.0250406554094 0.0068396222161 -0.363820966763 -0.0573368626206
114326530612 0.0087580796924 0.314453616677 0.0292248268721 -0.00516694179334
 0.024880045679 0.00918565790957 -0.369205592366 -0.0449325450212
114328000000 0.00829044420719 0.314914021877 0.0292583252445 -0.00513073048898
 0.0248763951733 0.00922847570512 -0.369179141017 -0.0448721571907
114367346939 -0.00388899615575 0.326951884434 0.0304229299381 -0.00462582190784
 0.0246941504409 0.0100036640298 -0.355310680789 -0.0714457657064
114376000000 -0.00687462998094 0.329267048498 0.0302136773039 -0.00382984457559
 0.0243073161011 0.0107554054199 -0.358801830225 -0.0637811811803
114408163265 -0.0198608074283 0.338109623069 0.0292277807775 0.0012718046278
 0.0228069308601 0.0154549305596 -0.390742292871 -0.00955243174564
114424000000 -0.0255724505147 0.343064659467 0.0288625740293 0.00134579337571
 0.0219753840454 0.0156926617033 -0.399596599984 -0.0163851390733
114448979592 -0.0338197126032 0.35072252985 0.0282384216057 0.0012353029901
 0.0205931021244 0.0158575705792 -0.408178715358 -0.0307813465969
114472000000 -0.0427686313407 0.356461389013 0.0285900282958 0.00251497969423
 0.020052212569 0.0169864619246 -0.398280030602 -0.0224708804278
114489795918 -0.0501644855161 0.360265662476 0.0290746490321 0.00388308900235
 0.0196481137742 0.0181550855932 -0.387711212525 -0.0164716763722
114520000000 -0.0613329276852 0.366846152787 0.0292545561602 0.00529644220748
 0.0182645082111 0.0193817550739 -0.378049086508 -0.0158064472888
114530612245 -0.0652090274419 0.36956514992 0.0291273073736 0.00560203783788
 0.0176685287603 0.0196396868242 -0.37758188331 -0.0150773407931
114568000000 -0.0810512536301 0.379871858035 0.026060931374 0.00636547736692
 0.0135664409156 0.0200759550921 -0.41698443983 -0.00168525893292
114571428571 -0.0825368248777 0.380582850859 0.0257387964751 0.00644203515842
 0.0131685342912 0.0201086325737 -0.420314071434 -0.000122437804176
114612244898 -0.100159254546 0.387450880055 0.02151199668 0.00762550770041
 0.00829537512864 0.0202473314287 -0.450831434193 0.0270716885737
114616000000 -0.101863828409 0.388152127413 0.0206699975936 0.00761648431443
 0.00750962725579 0.0201170154593 -0.450331642666 0.0263714489247
114653061224 -0.119569545308 0.395852775301 0.00622591079964 0.00693739408356
 -0.00465395807185 0.0168610410254 -0.421146388763 -0.0161272682246
114664000000 -0.124641503763 0.397477790656 0.00666888607411 0.00664774756875
 -0.00484648256484 0.0160591345779 -0.423811072464 -0.00929475111445
114693877551 -0.138202391911 0.400906870572 0.00895698887871 0.00551958215861
 -0.00423251948988 0.0137490281247 -0.434113678033 0.0233917133306
114712000000 -0.148181991118 0.402615262763 0.00896136608732 0.00422707551474
 -0.00437448829171 0.0116036078777 -0.423461417118 0.0288898035016
114734693878 -0.161105770927 0.405253883035 0.00911387489292 0.00306364045091
 -0.004180260107 0.00929413755033 -0.408111146139 0.0347664594125
114760000000 -0.172569511876 0.408548454975 0.0117484887531 0.00376493508082
 -0.00259098367928 0.00880725628365 -0.436115692369 0.0489230369481
114775510204 -0.179299445625 0.4099877232 0.013189354828 0.00420815049937
 -0.00156252556067 0.00852542831369 -0.449881926022 0.0545473575379
114808000000 -0.194460972223 0.412118310717 0.0140647390824 0.00374704877549
 -0.000187878458991 0.00650687693445 -0.442236433008 0.0561281351316
114816326531 -0.198645243115 0.412730957188 0.0142580816351 0.00360043846108
 8.73632651863e-05 0.00596236727035 -0.439742102123 0.056237001433
114856000000 -0.220999037176 0.416254235984 0.0145703577441 0.00335835960727
 0.00147746946433 0.0037515792928 -0.429497185254 0.028175456694
114857142857 -0.221560519517 0.416339461489 0.0145695355853 0.00338015612482
 0.00150490232359 0.0037408979123 -0.429586366202 0.0275180057431
114897959184 -0.239372044012 0.419010649155 0.0144996252294 0.00539408718857
 0.00179119286156 0.00386004706199 -0.467778704513 0.0095172832865
114904000000 -0.242309517794 0.419010790332 0.01472300314 0.00556893591198
 0.00210578409365 0.00394028408078 -0.467580644724 0.0117774217934
114938775510 -0.261256925985 0.417796442428 0.0179255211239 0.00664259450692
 0.00585514469306 0.00483386760282 -0.457213808019 0.0436389877387
114952000000 -0.268037958198 0.417549276074 0.0178725127236 0.00684711657448
 0.00622377729841 0.00465148303615 -0.45581809931 0.0355402367011
114979591837 -0.280928970894 0.417305905195 0.0174695663806 0.00723316764101
 0.00675966018637 0.00402044673744 -0.454926378959 0.0102409548724
115000000000 -0.289264929416 0.41729226705 0.0176228808419 0.00931504170802
 0.00713298340031 0.00576017193034 -0.469054872961 0.0251067642536
115020408163 -0.0243005160934 0.138952380895 -7.69955932118e-05 -0.0101064292983
 0.00397688903082 -0.0103058827266 -0.979822728551 -0.0337614104142
115061224490 -0.0378353753584 0.13633890608 0.00500156823501 -0.0120569148692
 0.0101937959811 -0.0109597988727 -0.903676598661 -0.041767129836
115102040816 -0.0493479623431 0.132759999232 0.00568239982586 -0.0071829191212
 0.00919923164793 -0.00591229195227 -0.955638635007 0.00465332378442
115142857143 -0.0550133404078 0.126730324202 0.00385812617989 -0.00598652595588
 0.00671794494332 -0.00563876816401 -1.00080368138 -0.0139621699786
115183673469 -0.0654232952356 0.122533622381 0.00643102156279 -0.00620087742031
 0.0099355995962 -0.00532412808053 -0.980900072853 -0.0382560454729
115224489796 -0.0688901722347 0.115272601918 0.00835097688722 -0.00123063532391
 0.010805927654 0.0011199103327 -0.951804564358 0.0148626059813
115265306122 -0.0762830872142 0.10855391022 0.00987408393688 -0.00540281754333
 0.0141908907483 -0.0039371253834 -0.977750447782 -0.0938226061803
115306122449 -0.08319967188 0.102347145316 0.00985093287618 -0.000648197432946
 0.0130216792977 0.00184798034018 -0.940276998964 -0.0419980487755
115346938776 -0.0864511879889 0.102043639824 -0.00842398675939 0.00203866051735
 -0.0117558115764 0.000567096032939 -0.998006850807 -0.0568885890329
115387755102 -0.0863540508767 0.0922602716226 -0.00964244141622 -0.00190618172265
 -0.012733845868 -0.00484332514769 -0.924120690928 -0.058555087963
115428571429 -0.0889165504424 0.0884719025676 -0.00686928332812 -0.0019820018537
 -0.00924100311109 -0.0041799379851 -0.972065880605 -0.0297790208166
115469387755 -0.0924773707641 0.0829527632952 -0.00817188899231 -0.000622500357531
 -0.0116980562568 -0.00228201912105 -1.01938045595 -0.0855376313183
115510204082 -0.0950292994233 0.0764818499988 -0.00619910028679 -0.00294097128046
 -0.00879969908818 -0.00512700567746 -0.98320149882 -0.053240978428
115551020408 -0.0967508170762 0.0747131170895 -0.00563974719907 -0.00260854861359
 -0.00829392257062 -0.00434679883209 -1.01262039612 -0.050228695864
115591836735 -0.095091607819 0.074885167319 -0.00334206880297 -0.00717142346058
 -0.00497488258528 -0.0109591146002 -0.883716464873 -0.025034837886
115632653061 -0.0978626960865 0.0716781253323 -0.00391642147488 -0.00439821173704
 -0.00617488516237 -0.00658581570735 -0.996648437384 -0.0496312883062
115673469388 -0.0989014273475 0.0658595639353 -0.00289038283056 -0.0084625420505
 -0.0052100044554 -0.012697974297 -0.870974572145 -0.110983009293
115714285714 -0.0975616338956 0.0607194424453 -0.00110375231615 -0.00609737193126
 -0.0025426319962 -0.00913052962842 -0.948600556092 -0.0291860208346
115755102041 -0.102262040276 0.0546914416137 -0.00186647564822 -0.00787428419826
 -0.00429683834118 -0.0115617780986 -0.941798609402 -0.118759736807
115795918367 -0.104499570898 0.0520397226504 -0.00178847272636 -0.00776341631016
 -0.00441506913606 -0.0112489449925 -0.979107693814 -0.127318135989
115836734694 -0.104008681147 0.0458445087731 -7.2676762811e-05 -0.00647321237595
 -0.00175224086357 -0.00960168827894 -0.970473752208 -0.0664913296984
115877551020 -0.104870733169 0.0431561013342 0.00210593185096 -0.00638894545805
 0.00128835326569 -0.0100211320478 -0.924715066556 -0.0432521422942
115918367347 -0.107161854143 0.0394424919214 -0.00186223692819 -0.00776144221437
 -0.00513335795937 -0.0107481722424 -1.09062252641 -0.113945062358
115959183673 -0.102427044484 0.0359416677409 0.00267803051924 -0.00556996507634
 0.00202302833729 -0.00896781949475 -0.956816876627 -0.0465054760871
116000000000 -0.105079171311 0.0303240670327 0.00419381971507 -0.00681946419086
 0.00360857738147 -0.0112861012858 -0.919529991616 -0.104851183053
116040816327 -0.0996080939962 0.0283753418679 0.00208988461441 -0.00230657381172
 0.00212590751124 -0.0040587711048 -1.00562198133 0.0138801171643
116081632653 -0.0963704381417 0.0243196537027 0.00733720508564 -0.00300249444387
 0.00930480187695 -0.00702722842553 -0.861579274141 0.0263278938599
116122448980 -0.0929656038596 0.023380766308 0.00651076852767 -0.00448568720296
 0.00749765061677 -0.00876776762428 -0.911586059338 -0.0661300363511
116163265306 -0.0901238799722 0.0177531645939 0.0060758253845 -0.00342584818944
 0.00723822095283 -0.007078445863 -0.945119380386 -0.039553020282
116204081633 -0.0869955228815 0.0139925233531 0.00871698628946 -0.000653528994955
 0.0118711579493 -0.00417063275644 -0.865518422533 0.0283197033458
116244897959 -0.0828786164629 0.0125460030974 0.0114113671609 -0.00318341078902
 0.0145952024818 -0.00860337407609 -0.815868363257 -0.143012302075
116285714286 -0.080520177968 0.0107310547938 0.00782800876155 -0.00493440376171
 0.00895024278553 -0.00956999407634 -1.00070956939 -0.106114985795
116326530612 -0.0783294746326 0.0120786594251 0.00819349458984 -0.00359107225506
 0.00985231599309 -0.00770545988841 -0.985501899998 -0.0859577325791
116367346939 -0.0777467145443 0.00474858046328 0.00842189920284 -0.0029845973922
 0.0103134788293 -0.00679586234791 -0.988219118181 -0.0712417942443
116408163265 -0.0787203366574 0.00377718020062 0.0111373964791 -3.61700977986e-05
 0.0148286549592 -0.00365685661116 -0.899575922918 -0.0674525491204
116448979592 -0.0787827840859 0.00186863471024 0.0120184366879 0.000453072831504
 0.0160262417576 -0.00321766983526 -0.895260417084 -0.0867563745071
116489795918 -0.0763909126057 -0.00103838228164 0.00932359757955 -0.000767457866639
 0.0120281653821 -0.00394312134165 -0.980674213272 -0.0570262667868
116530612245 -0.0814871435372 0.00112026659241 0.0121291933203 0.00142361412559
 0.0163132716937 -0.00183865200912 -0.928779398475 -0.0958025324449
116571428571 -0.0753824355305 0.00285171251196 0.00994818269709 0.00436150530072
 0.0142812934209 0.00270973636221 -0.918024806619 -0.0250707745042
116612244898 -0.075410191202 -0.00193325283262 -0.0139097027322 -0.00291787091945
 -0.0188716774419 0.000285152819729 -0.942566884545 -0.138541266954
116653061224 -0.0712558091763 -0.000662082340489 -0.0114568646281 -0.00473422365539
 -0.0161898123963 -0.00277851941263 -0.931453088582 -0.0784134869389
116693877551 -0.0682901195682 0.00336129439475 -0.0125463943016 -0.00545691471852
 -0.0177374118923 -0.0034346944203 -0.936616379165 -0.116198803958
116734693878 -0.0667800936132 0.00270699022997 0.00972186977535 0.00992378607967
 0.0153238789997 0.0100133158803 -0.859530664179 -0.0400842862152
116775510204 -0.063323066847 0.00145878936969 0.00702801165438 0.00993489901545
 0.0118100230414 0.0107963231747 -0.900195171049 -0.00133457250334
116816326531 -0.0620233405946 -0.000440710487342 -0.00920972841979 -0.0106555521773
 -0.0147277559859 -0.011098088096 -0.885063546868 -0.0660661889299
116857142857 -0.0631858830833 -0.00182597940298 -0.00773321808074 -0.0102178367664
 -0.0126336746577 -0.0109513529799 -0.916198511506 -0.0491653510573
116897959184 -0.0680424712681 0.00331468596804 -0.00574690252304 -0.012465230931
 -0.0105993541839 -0.0143820694981 -0.874881782166 -0.0161582552787
116938775510 -0.068344902629 0.000102107531332 -0.00290485261985 -0.012111033855
 -0.00677708952506 -0.0147540216886 -0.897388674959 0.0286459836392
116979591837 -0.0675048540741 0.0102661985035 -0.00480527817208 -0.0107054802655
 -0.00877993470463 -0.0125206599611 -0.932773292613 -0.0328109691416
117020408163 -0.068986039047 0.00919180424695 -0.00187304832456 -0.00941460599558
 -0.00464497915844 -0.0115874607543 -0.954880974256 0.00957300778392
117061224490 -0.0717067279156 0.0131316824383 -0.00338821013619 -0.0088570261532
 -0.0063928883884 -0.0105327289701 -0.980688224999 -0.0203954051047
117102040816 -0.0750597806193 0.0232499519709 -0.000370625518373 -0.0101502887425
 -0.00273427649856 -0.0128915357501 -0.950662914334 0.00153453990328
117142857143 -0.0711642750524 0.0282402426652 0.00148181940071 -0.00858007561739
 8.26750224189e-05 -0.0112595173855 -0.970259123658 0.0193974224297
117183673469 -0.0752800216906 0.0329548185011 0.0035145115815 -0.00864214112118
 0.00273360353544 -0.0116647289573 -0.963861465053 0.0284902239588
117224489796 -0.0774366805559 0.0314383362961 0.00468302326934 -0.0140258692491
 0.00321120163587 -0.0186239030076 -0.888787796115 -0.0272019906777
117265306122 -0.0849509783586 0.0310302633202 0.00336358803187 -0.00917446549035
 0.00250253053575 -0.0121787966422 -0.973875392713 0.0048439719234
117306122449 -0.0851712639818 0.0313211568327 0.00858027248232 -0.00782651881259
 0.00928274848657 -0.0113872635348 -0.95052330389 0.0519559945277
117346938776 -0.100839553855 0.0340563841782 0.00531728257947 -0.0118140710069
 0.00447426750854 -0.0156433805064 -0.962459188113 -0.0273548241809
117387755102 -0.107623878937 0.0375597028414 0.00911261532538 -0.0119148128155
 0.00913866284571 -0.0162976561808 -0.931808350853 -0.0212724869824
117428571429 -0.108185722472 0.0443094339798 0.0112061079416 -0.00727562988756
 0.0124594098504 -0.0108226269216 -0.946964132728 0.0245489967549
117469387755 -0.109687565407 0.0443654188315 0.0136887429008 -0.0111667573041
 0.0147349463384 -0.0158168510607 -0.92279325818 -0.0338555835715
117510204082 -0.119448360002 0.0399779488679 0.016468496663 -0.00775496235509
 0.018545350606 -0.0120232301181 -0.91206457041 -0.00286110342566
117551020408 -0.120444873421 0.0357131274896 0.0155460911931 -0.00587879768714
 0.0175795366721 -0.00950614539331 -0.944881051318 -0.00158767690454
117591836735 -0.126766838285 0.0328157392678 0.0160439818633 -0.00338252366264
 0.0184063450662 -0.00652659611842 -0.95173117955 0.0100351811631
117632653061 -0.134648607355 0.0279386255999 0.0193146171524 -0.00049511776371
 0.0225091965598 -0.0035664291388 -0.934183114885 0.0115087386676
117673469388 -0.13540511594 0.024757425406 0.0183224317915 0.00102149115762
 0.0214351380492 -0.00158631285367 -0.95592786826 0.0126932954713
117714285714 -0.14500952118 0.016842384283 0.0178337650558 -0.00191586252252
 0.0203050258664 -0.00488757133894 -0.982824931081 -0.0114628704643
117755102041 -0.149288890879 0.0151659546946 0.021694990829 -0.000687077950756
 0.0247915923683 -0.00403394591318 -0.977236173342 -0.0339090102839
117795918367 -0.15365831238 0.00711006532613 -0.0153383429061 0.0016170340229
 -0.0172484012158 0.00413021253019 -1.013057167 -0.00271269216498
117836734694 -0.155020310764 0.0051005381478 -0.0128830846311 -0.00347810479485
 -0.0151145000248 -0.00203400472623 -1.00629697995 0.0143003238632
117877551020 -0.156772946168 -0.000368178251203 -0.0192406533404 -0.00472889170935
 -0.022372070647 -0.00251652786386 -0.997951484603 -0.0108462590443
117918367347 -0.160637451713 -0.00369016328047 0.0183189152505 0.0156235719402
 0.0228098340712 0.0148308885118 -0.958067471492 0.00811050492639
117959183673 -0.161574799919 -0.00964214234056 -0.0230674335621 -0.0137624216271
 -0.0277459632612 -0.0119313918882 -0.980834229746 -0.0355730139052
118000000000 -0.16254348838 -0.0143395154511 -0.0226169359262 -0.0168801695623
 -0.0275978255504 -0.0153507624943 -0.978044829978 -0.039738700928
118040816327 -0.163784367254 -0.0266617433821 -0.0172657617823 -0.0149809351324
 -0.0213155973392 -0.0139274282346 -0.997908781438 -0.0152507862942
118081632653 -0.1668832149 -0.0311496872919 -0.0166735885426 -0.0081176556856
 -0.0195548151873 -0.0063846718901 -1.03202317304 -0.00167974299921
118122448980 -0.16699989501 -0.0365508573346 -0.0120111048557 -0.0211492399686
 -0.0163704672739 -0.0213049247157 -0.981947430458 -0.0152351152686
118163265306 -0.164300945425 -0.0427474119514 -0.00723797069904 -0.0208415034616
 -0.0111023936982 -0.0215963221506 -0.986220337849 -0.00402838227364
118204081633 -0.159577538443 -0.0520659910073 -0.0114243223266 -0.0181059554712
 -0.0152547933324 -0.017849956904 -1.01741249392 -0.0160553430348
118244897959 -0.160491742609 -0.0555908630151 -0.00408804092271 -0.0190091285156
 -0.00749328873392 -0.0199262312381 -0.995880932822 -0.000499849701318
118285714286 -0.157475685734 -0.0614104819971 -0.0154189481872 -0.0114377799225
 -0.0185289147494 -0.00980906416443 -1.05508847529 0.0061546031004
118326530612 -0.154122600211 -0.066587912659 -0.00376104651366 -0.0183945395062
 -0.00714003841528 -0.0191528084716 -1.00869992267 -0.00759015760058
118367346939 -0.145149466242 -0.0692350739372 -0.00805482420987 -0.0181990345673
 -0.011765877219 -0.0181361641113 -1.03695347325 -0.015753009706
118408163265 -0.140174404868 -0.0769250730605 -0.00174320562569 -0.0243129587532
 -0.00615396388589 -0.0256948326009 -1.005348671 -0.0467149746492
118448979592 -0.132680536213 -0.0801220335466 -0.00464386944795 -0.0224436537949
 -0.00903398783784 -0.0230918629709 -1.03944013027 -0.0406077479524
118489795918 -0.12631207649 -0.0841165237981 0.00297346816994 -0.0228342386814
 -0.00109823206832 -0.0248194519645 -1.00014391572 -0.0459192041892
118530612245 -0.11524265065 -0.0867598273204 0.00459265223775 -0.0118657149963
 0.0025745082864 -0.0134322677076 -1.01033103775 0.00850723154345
118571428571 -0.110703256499 -0.0909841712331 0.00700436416198 -0.0228243058238
 0.00287645205907 -0.025438790761 -1.00461584575 -0.068721934246
118612244898 -0.0999097586886 -0.095548511999 0.00182365044537 -0.0112784676214
 -0.000393638685722 -0.0122089291301 -1.02918580093 0.00836964691521
118653061224 -0.0945771828564 -0.0929309930642 0.0110358810641 -0.0122019695685
 0.0089418276567 -0.0150982475316 -0.984563915231 -0.0143232702757
118693877551 -0.0869741765392 -0.0975624641672 0.00733487990667 -0.0167078624021
 0.00396969486422 -0.0190107520546 -1.03545181964 -0.048068753792
118734693878 -0.0815677209305 -0.0945061432109 0.0155044179748 -0.00901630253276
 0.01398357531 -0.0128723482171 -0.948191299392 -0.0296765496923
118775510204 -0.071613196717 -0.0967225095212 0.0139040891955 -0.00812318998473
 0.0123848386127 -0.0116620876375 -0.970169504013 -0.0419709245949
118816326531 -0.0631916602024 -0.092802555759 0.00903225541635 -0.0140358837617
 0.00577081143713 -0.0166382118388 -1.07863394515 -0.0614763907091
118857142857 -0.0554228648443 -0.0962790298824 0.00925422413556 -0.00762399852208
 0.00745939197331 -0.010189592978 -1.03323439151 -0.0356573949737
118897959184 -0.0472481815971 -0.0971274765688 0.00980049487031 -0.00840423713312
 0.00766970061818 -0.011198968864 -1.06488860819 -0.0515011997394
118938775510 -0.0397441556428 -0.101196481852 0.012576934421 -0.00168290494065
 0.0122669517338 -0.00523610615635 -0.972876963493 -0.0588446799162
118979591837 -0.0387569773424 -0.0987542985413 0.0126339989474 -0.00430446997908
 0.0114889739501 -0.00805186587118 -1.03966797952 -0.092251716019
119020408163 -0.035715809244 -0.0984819543013 0.0107617855362 -0.00347228251612
 0.00979168092566 -0.00680224550912 -1.05326386078 -0.0631355254256
119061224490 -0.0292014284552 -0.095663745337 0.014390710187 0.000958391271271
 0.0147796204925 -0.00354855194955 -0.983679920577 -0.13630551981
119102040816 -0.023505347571 -0.0921636574427 -0.0110677235319 0.00307071803608
 -0.0101463784004 0.00669762490338 -1.08902155227 -0.0577312881088
119142857143 -0.0147354032936 -0.0979825193774 0.00538304968371 0.00929767361824
 0.00851064859273 0.00753188228713 -0.921684455803 0.0642644692595
119183673469 -0.00843775252286 -0.0965194715487 -0.0139476693005 -0.00123722834222
 -0.0143606041539 0.00353924839979 -1.07312592359 -0.123424492296
119224489796 -0.00489954364542 -0.10605787422 0.0109249945433 0.00696586360431
 0.0132990586849 0.00311373359112 -0.956807509924 -0.0929559817415
119265306122 -0.00144600109297 -0.103752365486 -0.0126867467362 -0.0016140020696
 -0.0130833943227 0.0029255001653 -1.08692446251 -0.0754614401904
119306122449 0.00219735380469 -0.103664109902 -0.0118570376659 -0.00604262259813
 -0.0137796107533 -0.00161106357676 -1.0254408967 -0.104586362239
119346938776 0.0161221722563 -0.102247532913 -0.00983622720866 -0.000995102089807
 -0.00991633269292 0.00268613964726 -1.07777570964 -0.0131502710744
119387755102 0.0247804634795 -0.099010031798 -0.0122821835966 -0.0116269308303
 -0.016247769285 -0.00648490370358 -0.974109225226 -0.176391653813
119428571429 0.0415749232875 -0.105364571858 -0.00768897043642 -0.00760737704089
 -0.0103494342743 -0.00420901334229 -1.00357252504 -0.0537644592618
119469387755 0.039744451704 -0.110515501965 -0.00867671721586 -0.00965533640894
 -0.0121801268136 -0.00555476068538 -0.996140331318 -0.0987501843941
119510204082 0.0521902277182 -0.110306045358 -0.0091051859916 -0.00663078599013
 -0.0113351978292 -0.00237946703303 -1.0539969261 -0.0649533607054
119551020408 0.0548332419524 -0.108061012216 0.000336380080692 0.00879995803906
 0.00418404299545 0.0080348651858 -0.953868995878 0.0206598803531
119591836735 0.0658163918986 -0.103760365109 -0.00381352782868 -0.00829275887055
 -0.00739704226361 -0.00584252882075 -0.988297109523 -0.0411829319839
119632653061 0.071984008986 -0.0970680410542 -0.00330851690812 -0.0085193464667
 -0.00734829018081 -0.00611464548897 -0.984666409188 -0.0527833387309
119673469388 0.0825791319014 -0.0888759320768 -0.00246271630156 -0.00504392312556
 -0.00507591819581 -0.00322763577846 -1.01614062324 -0.00960795888182
119714285714 0.0872111772169 -0.0866372011495 -0.00239337245986 -0.00851465406328
 -0.00752582002499 -0.00634476311562 -0.983006774572 -0.0888510185334
119755102041 0.0928126410815 -0.0843861152594 -0.00277869321266 -0.00702946036812
 -0.00757307292187 -0.00466008101108 -1.02135078197 -0.0857720302161
119795918367 0.0941550850691 -0.0738597167113 -0.00106457918409 -0.00616736881589
 -0.00604207393703 -0.0052705614757 -0.987210644687 -0.0699414073643
119836734694 0.10060321752 -0.0662417968808 -0.000932071541336 -0.00476604153136
 -0.00543197768465 -0.00444566704507 -0.9989267961 -0.0533096586309
119877551020 0.106860979646 -0.0555851847108 0.000290372312986 -0.004458346908
 -0.00404525234856 -0.00624988905224 -0.93670776246 -0.0314417214182
119918367347 0.112979162085 -0.048234932136 -0.00120891329564 -0.00425446820392
 -0.00578472980584 -0.00581316756782 -0.957074376736 -0.0796256563373
119959183673 0.118886312222 -0.0403945262924 -0.00204332139106 -0.00332947007624
 -0.00583489545367 -0.00458050919262 -0.998042063314 -0.0629326734253
120000000000 0.124846831126 -0.0319149021592 -0.0043091176893 -0.00435281518723
 -0.00936556749386 -0.00588668108074 -1.01988947344 -0.179262807195
120040816327 0.126722184782 -0.025455251369 -0.00436863955478 -0.00240814248426
 -0.00796707357573 -0.00285626824061 -1.06745090852 -0.0785368564791
120081632653 0.127102617874 -0.014374208467 -0.00383210411171 -0.00216754710009
 -0.00642399253951 -0.002667742073 -1.05711449164 -0.0380922328983
120122448980 0.129133610268 -0.000638107055003 -0.00326037693775 -0.00375039156501
 -0.00538335579376 -0.00500880396252 -1.0070040644 -0.0565761784209
120163265306 0.125538456664 0.00801586527784 -0.00283172800658 -0.00581922654582
 -0.0047423973926 -0.00775041852073 -0.962496624795 -0.0890387513281
120204081633 0.125780352632 0.0264008056567 -0.00165186575736 -0.0051554675422
 -0.00288948911963 -0.00675851034878 -0.96067089558 -0.0314684285401
120244897959 0.124709673951 0.0395438787337 -0.00333828670988 -0.0063491827443
 -0.0051277267444 -0.00789035593591 -1.00341645084 -0.0970639176896
120285714286 0.121772334699 0.0523647010524 -0.00293480723934 -0.00527506718781
 -0.00440802503768 -0.00637703790672 -1.01731688145 -0.0547171973078
120326530612 0.12087877723 0.0648943641735 0.000458813388303 -0.0051575404515
 -0.000121260694588 -0.00652799570642 -0.957645677616 0.00536425662472
120367346939 0.109618265811 0.0745894004367 0.0001771459769 -0.00569267286694
 -0.000608901241322 -0.00697031583016 -0.95947592744 -0.0393219787322
120408163265 0.107077826716 0.0859886915821 -0.000489369855185 -0.00503240807745
 -0.00133638237308 -0.00591992114929 -1.01319168475 -0.0401253780374
120448979592 0.101658404259 0.0942983462796 -0.000407595759746 -0.00528784383671
 -0.00134098702469 -0.00613468693246 -1.01568234238 -0.0511559563457
120489795918 0.0959476529559 0.102911314579 0.000491193831089 -0.00562268033847
 -0.000378962591869 -0.00656523561512 -1.00223232978 -0.0585025118857
120530612245 0.0822836398309 0.109355459375 -9.39039576454e-05 -0.00612231010311
 -0.00121521399477 -0.00696459994364 -1.02254958728 -0.0827737981242
120571428571 0.07360118312 0.118175999094 0.00291100624004 -0.00676916171986
 0.00202802851285 -0.00809419432339 -0.935489320824 -0.117783299667
120612244898 0.0624392760325 0.125078733618 0.00287782479796 -0.00419811125768
 0.00236980624568 -0.00514489384098 -0.955930015727 -0.0301071076734
120653061224 0.0499455244757 0.132692744448 0.00247961308423 -0.00555590081696
 0.0016317854744 -0.00643164826609 -1.00666793465 -0.0974759240503
120693877551 0.036765277934 0.144577060563 0.00433683543916 -0.00331038343058
 0.00395715172529 -0.00430353869515 -0.937665154538 -0.0399065239779
120734693878 0.0289953241902 0.14401174638 0.00460570261196 -0.00457744999938
 0.00391587738293 -0.00560081364495 -0.970771632981 -0.114754994253
120775510204 0.0169937257128 0.153003483374 0.00226032005614 -0.00217896783178
 0.00189060537659 -0.00264620387482 -1.0108343439 -0.00402884263406
120816326531 0.0084211041338 0.164494910415 0.00316155904096 -0.00463395497067
 0.00229482907186 -0.00523176297633 -1.03885607654 -0.0745442552419
120857142857 0.000780777857294 0.172003613353 0.00412187972058 -0.00282243160676
 0.003520462068 -0.00355285603863 -0.968590673462 -0.0379450433639
120897959184 -0.00919402899281 0.170309583415 0.00439180226437 -0.00338269268171
 0.00367214408986 -0.00402166009551 -1.00778174397 -0.0711310747494
120938775510 -0.0189999781081 0.168841005807 0.00483719232715 -0.00377376777437
 0.00400571607546 -0.00440544429185 -1.01542758364 -0.0920262934567
120979591837 -0.0304040277996 0.16363542818 0.0052590473139 -0.00318609881513
 0.00443884000406 -0.00387995791003 -0.984058096409 -0.0981720270416
121020408163 -0.0402671338094 0.15054211555 0.00451485435158 -0.00249034002418
 0.00384135334662 -0.00304538112238 -1.02999023559 -0.0690587603454
121061224490 -0.0524815016965 0.134204658227 0.00522763491483 -0.000712767868109
 0.00470211014413 -0.00146500702572 -0.991122205972 -0.0775392876682
121102040816 -0.0710811514001 0.119736231131 0.00508327712777 0.000948753449125
 0.00473712700107 0.000111939612322 -0.964085106974 -0.0514243665664
121142857143 -0.0922283682186 0.112684549594 0.00610926165422 -0.000378365000579
 0.00536612547165 -0.00118443685103 -1.0286940387 -0.0958622521777
121183673469 -0.10767609324 0.11619052268 0.00766593727148 0.00122629448993
 0.00685448503994 0.000115812316303 -0.997029754933 -0.140855610799
121224489796 -0.114301006602 0.119646257037 0.00854564958274 0.00307633424648
 0.00773020720483 0.0017051795606 -0.956019118214 -0.161642927555
121265306122 -0.12167885156 0.125354826813 -0.00855939809868 -0.000595257890284
 -0.00727481656257 0.000423323550505 -1.04164633583 -0.139563983662
121306122449 -0.124600266976 0.118235809283 -0.00881467658101 -0.00215365275041
 -0.00747082028187 -0.000916531122787 -1.00386666201 -0.164425945259
121346938776 -0.119183290638 0.105041295526 -0.00785886756109 -0.00122493084625
 -0.00647152039342 -0.00039832605393 -1.07418789096 -0.109370889375
121387755102 -0.122205023541 0.0914901587042 -0.00542370516963 -0.00515072777712
 -0.00462873429008 -0.00386012895287 -0.953199069765 -0.0927464232911
121428571429 -0.119235639521 0.0842898343964 -0.00732872545105 -0.00545579323108
 -0.00593781249053 -0.00402809964945 -1.01220102645 -0.189921383692
121469387755 -0.116728200561 0.066928540907 -0.00532751929564 -0.00469358425019
 -0.00417118626575 -0.00356876665139 -1.02850659366 -0.106810238311
121510204082 -0.11536279961 0.0592473801131 -0.00493354684028 -0.00565331258206
 -0.00373411931501 -0.00434488492972 -1.0257763996 -0.119506685484
121551020408 -0.113990846245 0.0413566765712 -0.00296597425787 -0.00675083745879
 -0.00206505417658 -0.00515035205732 -0.968794315173 -0.110239359778
121591836735 -0.112619058984 0.0326212356413 -0.00320053175549 -0.00572705309358
 -0.00204385212234 -0.00436804949284 -1.02625513194 -0.0975482041498
121632653061 -0.105596558263 0.0248304856957 -0.00108904297646 -0.00585979184876
 -0.000261741142843 -0.0042606229345 -0.974872255391 -0.0837496605245
121673469388 -0.104057580017 0.0158608900051 -0.000506751712316 -0.00557085534505
 0.000380670774578 -0.00390144683927 -0.978172938015 -0.0864830353265
121714285714 -0.098725036285 0.0054890408783 0.000586279060538 -0.00538068488898
 0.00141502436362 -0.00351522030509 -0.958481227234 -0.0917581102166
121755102041 -0.0961287587523 0.00613689494408 -0.000244513706524 -0.00530478647372
 0.0011724098994 -0.00321526097535 -1.00917960543 -0.133702898773
121795918367 -0.0953124661787 0.00253937262833 0.00129761405352 -0.00472008331901
 0.00234981307248 -0.00256884409445 -0.971001922339 -0.107365791761
121836734694 -0.0910071941333 -0.00160214752341 0.00134936485279 -0.00386535343175
 0.0025421040816 -0.00182360765395 -0.992114367763 -0.0884100189446
121877551020 -0.0864162234764 -0.00674328375013 0.000780761439171 -0.00387011229403
 0.00269726927316 -0.000883005535957 -1.01755090456 -0.147132810161
121918367347 -0.0851769838039 -0.00541093141287 0.00172078026838 -0.00338837327435
 0.00329651158064 1.82998147668e-05 -0.972243522751 -0.149515779413
121959183673 -0.077023136952 -0.0118464388838 0.000806706228346 -0.00218415457996
 0.0021793472888 0.00156804870884 -0.998489595362 -0.0999068210211
122000000000 -0.0711444417254 -0.0182371568046 0.000518668514796 -0.00156483564596
 0.00011949213694 0.004249332043 -0.956804700756 -0.107280692896
122040816327 -0.0638887167717 -0.0192302215993 0.000520846681388 -0.00110731138742
 0.000907577942392 0.00547157277612 -0.985500510129 -0.102563837301
122081632653 -0.0532335586713 -0.0231085394101 -0.000564131540579 -0.00226984142962
 -0.00376293352863 -0.000256237079166 -0.916243259921 -0.129051244786
122122448980 -0.0434757639905 -0.0244274443356 -0.000701020147742 -0.00190501528057
 -0.00387673250899 -0.000581186135707 -0.946844415863 -0.122232494457
122163265306 -0.0334519899879 -0.0229322058995 -0.0008894559119 -0.00184218520218
 -0.00313856345915 -0.00111815947442 -0.974379972701 -0.100211669628
122204081633 -0.0241593980963 -0.0232830070933 -0.000713762268105 -0.00268006922042
 -0.00249897200032 -0.00274565243911 -0.884075483392 -0.109467766118
122244897959 -0.0146992572503 -0.0244231219314 -0.00130835047573 -0.00207459342222
 -0.00299616767045 -0.00204080582219 -0.980365919947 -0.144305365531
122285714286 -0.00547123986978 -0.0225038194124 -0.00128814811197 -0.00160394653246
 -0.00247856144539 -0.00173158199451 -1.00008885574 -0.101594031434
122326530612 0.00140765876522 -0.0174171458017 -0.000837381787864 -0.00180304992774
 -0.00154423840692 -0.00208091485109 -0.952338525079 -0.0559058351649
122367346939 0.00854515421317 -0.00938858420801 -0.00186736514949 -0.00228284301835
 -0.00272088720318 -0.00240765312859 -0.978279213756 -0.171318792931
122408163265 0.0139213744921 -0.00185744950425 -0.00147353561342 -0.00209927346554
 -0.00208726200768 -0.00222912811979 -0.969808115669 -0.0977553502571
122448979592 0.0218487664584 0.0005457772328 -0.00174711117467 -0.00242587125927
 -0.0021988234268 -0.00261528515089 -0.963016322936 -0.127760873167
122489795918 0.0246375652719 0.00598269441074 -0.00110994634857 -0.00233014932046
 -0.00138735524213 -0.00255596568996 -0.954319440649 -0.0605888823011
122530612245 0.0268851095634 0.0115990474809 -0.00126796365129 -0.00347215014706
 -0.00157645263558 -0.00380771394757 -0.900710042083 -0.115833357309
122571428571 0.0290813254917 0.0253893310782 -0.00135841230161 -0.00353065633972
 -0.00165186420195 -0.00374650447555 -0.948261561897 -0.103397997901
122612244898 0.0310254729869 0.0354890140367 -0.00129581977921 -0.00407819076631
 -0.00154205085453 -0.00430439271582 -0.945285659138 -0.11742281438
122653061224 0.0322135082194 0.0473589877417 -0.00133431773502 -0.00462684917706
 -0.00150801583517 -0.00494790884882 -0.969544619535 -0.122571411743
122693877551 0.0313882281106 0.0593500822116 -0.00124103520487 -0.00425691269246
 -0.00147849760329 -0.00442532727639 -1.0016754974 -0.0918823777978
122734693878 0.0305538623736 0.0691771617926 0.000452539395269 -0.00602643186382
 0.000369969175174 -0.00637216826543 -0.903579124977 -0.123919966795
122775510204 0.0252892374798 0.0789244697672 0.000872362742107 -0.00547987643033
 0.000893094654321 -0.00579141450738 -0.945515352742 -0.0790617882908
122816326531 0.0231037400904 0.0935842563354 -0.00105784747737 -0.00647126147953
 -0.0011647404832 -0.00680346141992 -1.05659321644 -0.115811824604
122857142857 0.0185495512268 0.102574111274 0.00339815495504 -0.0067661197909
 0.00347812342775 -0.00716046240439 -0.885490413175 -0.100449227146
122897959184 0.00811339811974 0.115718604814 0.0035449356877 -0.00734969196076
 0.00370155133398 -0.00770047627774 -0.951838674998 -0.125547254202
122938775510 0.00876930040309 0.127563189417 0.00523751116196 -0.00845668311351
 0.00546732756732 -0.00876109996653 -0.914734083579 -0.165179945051
122979591837 0.00759976283935 0.140202153423 0.00683349441921 -0.00774047846092
 0.00712072355778 -0.00793284446329 -0.891388244893 -0.139085889132
123020408163 0.00290001077849 0.150913885736 0.00858430496245 -0.00746977049431
 0.00891442608776 -0.00755123226533 -0.873451473657 -0.162623796865
123061224490 -0.00249730545742 0.157860273044 0.00894313396339 -0.00615377405166
 0.00929947813267 -0.00610741641703 -0.919503365937 -0.118703051708
123102040816 -0.00943199342456 0.163480720191 0.0114459971673 -0.00585340628867
 0.0119043562052 -0.00570146965825 -0.878372827267 -0.145113265669
123142857143 -0.0138638343946 0.174488236008 0.0114721387558 -0.00642345754772
 0.011995770937 -0.00621438162529 -0.953181646761 -0.157458702476
123183673469 -0.0240352498705 0.184925907174 0.015349897554 -0.000178079437619
 0.0157686417591 0.000416523264167 -0.804086898895 -0.0742686922377
123224489796 -0.0321349312749 0.190605502348 0.016419351197 -0.00145181501429
 0.0169285104266 -0.000713148025885 -0.866501859161 -0.154384424738
123265306122 -0.043328946533 0.193772299173 0.0178072822525 0.00264784397295
 0.0182002337974 0.0036801490582 -0.796445265683 -0.121290815474
123306122449 -0.0580118918121 0.206201814441 0.0132701061138 0.00419795172699
 0.0135044895015 0.00510301875152 -0.901333447278 -0.0330947382763
123346938776 -0.072396681093 0.216560011009 -0.0166767496648 -0.00461544515009
 -0.0170987841326 -0.00576934103915 -0.895688957819 -0.107856992232
123387755102 -0.0890291856727 0.218252505483 -0.0165296115144 -0.00850914404969
 -0.0168194192708 -0.00987388522823 -0.85714912565 -0.081947324943
123428571429 -0.102955105204 0.223202204585 0.0111829220993 0.0110399418823
 0.0111449202153 0.0122942693146 -0.901859364136 0.00095580564887
123469387755 -0.118864958306 0.227048088684 -0.0162738628792 -0.0135045654312
 -0.0165156790135 -0.015255854768 -0.838921923033 -0.0816378952291
123510204082 -0.132717609864 0.224314007837 0.00486390185443 0.0161993000446
 0.00429931695143 0.0175859434847 -0.916664908714 0.081464436145
123551020408 -0.150363720469 0.223870087872 -0.0130630382537 -0.019548947352
 -0.0130262369752 -0.0217216339379 -0.820366470743 -0.0773702280386
123591836735 -0.166937027315 0.220746888663 -0.00905345287422 -0.0174226852371
 -0.00897975828011 -0.0192943056316 -0.889246832121 -0.0342047229994
123632653061 -0.187933443338 0.218199086698 -0.0100045879744 -0.0169684726615
 -0.010209978098 -0.0188701605661 -0.942733999798 -0.0803088196821
123673469388 -0.203051376254 0.212520957623 -0.00121990872192 -0.0210043126602
 -0.00069555520513 -0.0229864791139 -0.880295832762 0.00125294843755
123714285714 -0.211237411936 0.203668424108 -0.00731082449931 -0.0221318159747
 -0.007513746783 -0.0244270902493 -0.933850869157 -0.110479934803
123755102041 -0.21884425427 0.191836322569 -0.00397895755813 -0.0307261230895
 -0.00394051062697 -0.0338272016217 -0.829566835881 -0.1810310926
123795918367 -0.233059695423 0.180095626947 0.00018651760921 -0.0236283691433
 0.000376897586672 -0.0259874412373 -0.91174596347 -0.0749900124652
123836734694 -0.240209156221 0.166621776086 0.00672121702152 -0.0266746734297
 0.00736599248856 -0.0293262685884 -0.837988096875 -0.0559632851273
123877551020 -0.247975717511 0.150557791449 0.00895017004161 -0.0243150124686
 0.00958320243146 -0.0267910381312 -0.867653665945 -0.0532077964938
123918367347 -0.258990587277 0.133518912113 0.010197195121 -0.000496554719389
 0.0111799183907 -0.000737074500843 -1.02529107573 0.0469076459711
123959183673 -0.265205855223 0.11844963972 0.0173506206093 -0.018602316191
 0.018477437963 -0.0208644650324 -0.867877327839 0.00210567007318
124000000000 -0.273824242081 0.101901455318 0.018158093749 -0.0219074242759
 0.0190210167856 -0.0245802178976 -0.859213133059 -0.0642528110728
124040816327 -0.277366483972 0.0795088776303 0.0171362735193 -0.0144796440181
 0.0179926372821 -0.0164962125201 -0.925911359265 -0.012484284613
124081632653 -0.282084482992 0.0561850674053 0.0140226901408 -0.0164896587465
 0.0143393106129 -0.0185485112736 -0.974538970612 -0.052092450986
124122448980 -0.282226680143 0.0403391990353 0.021462397122 -0.0060193274304
 0.0227925183613 -0.00769392391112 -0.930369072824 0.0127996779256
124163265306 -0.283246775529 0.0226934562526 0.0293831136434 -0.00164083669947
 0.0314053880474 -0.00361847826725 -0.861053907234 0.0499680446046
124204081633 -0.283338004242 0.00582252072916 0.031865756942 -0.00694738287247
 0.0335280852457 -0.00962601282275 -0.841758313748 -0.0567003210048
124244897959 -0.27960770158 -0.0157170878154 0.0254216654918 -0.00439789768981
 0.0266748685952 -0.00652413504171 -0.937363788935 -0.0508263775522
124285714286 -0.277547987954 -0.0346897929054 0.0245299403709 0.0109591336758
 0.0267212796122 0.00972069289737 -0.906177142862 0.053310446555
124326530612 -0.272002347535 -0.0507200306201 0.0222758415872 0.0058656621691
 0.0238295636023 0.00445502227163 -0.947378370081 -0.0134243998574
124367346939 -0.269456409899 -0.0701992901742 0.0150235203129 0.00924168227067
 0.0164198387343 0.00844450331843 -0.977606534543 0.0181035894587
124408163265 -0.256535989954 -0.0889550282908 -0.0290041539117 -0.012740219784
 -0.0311970601152 -0.010799386904 -0.914582187841 -0.0657694732477
124448979592 -0.24951006399 -0.104157910169 -0.0173685326783 -0.0163527309612
 -0.0193960032642 -0.0153722740216 -0.951408232277 0.00916723942948
124489795918 -0.23910655379 -0.121344625708 0.0109489236194 0.0245900122211
 0.013461557232 0.0243170235394 -0.939556146168 0.0496330383258
124530612245 -0.232583777629 -0.135752530053 -0.0122693907235 -0.0279944392184
 -0.0150851223539 -0.0275495378093 -0.913871885839 0.0328364566419
124571428571 -0.214465916014 -0.151019132909 -0.0196854203219 -0.0285150325066
 -0.0226620357368 -0.0272590912621 -0.913721489893 -0.0560541507203
124612244898 -0.206841248482 -0.168764542247 -0.0155482444069 -0.0264329659591
 -0.0182573019053 -0.0253728914031 -0.949463616006 -0.0427901660523
124653061224 -0.190919813827 -0.175574686459 -0.0118570651144 -0.0364222519207
 -0.0155683165261 -0.0357030935534 -0.891443634604 -0.058942469968
124693877551 -0.180828726296 -0.182938260868 -0.00958594405194 -0.0276934892632
 -0.012462943781 -0.0269835280987 -0.967533581205 -0.0435008870875
124734693878 -0.161688924429 -0.194491975579 0.000219461910874 -0.0249606155242
 -0.00236769406495 -0.025084416056 -0.967989216832 -0.00391652661667
124775510204 -0.147609164634 -0.200318105721 0.00669017469951 -0.0255211895918
 0.00395353646258 -0.0261920738578 -0.959813193655 0.00768558283081
124816326531 -0.130199443365 -0.208800565232 0.00422945219892 -0.0366737905561
 0.000110834611525 -0.0368930829269 -0.927935203299 -0.0554912530127
124857142857 -0.123951138394 -0.210212367929 0.0204419995906 -0.0311105089356
 0.0165837745928 -0.0331512476927 -0.90605635986 0.0306554738159
124897959184 -0.110580803398 -0.210778198482 0.0067466642807 -0.03832811539
 0.00197364802499 -0.038588622954 -0.959366501633 -0.0795547156517
124938775510 -0.0945987219578 -0.211792944345 0.0127785442839 -0.0144439656683
 0.0107284186057 -0.0157411301159 -0.995427592373 0.0163370890576
124979591837 -0.0802603768289 -0.218427544446 0.0100984491799 -0.0050400878111
 0.00919111665571 -0.0061818741728 -1.01421722577 0.0232379658039
125020408163 -0.0647148843591 -0.215658663171 0.0194496730964 -0.0238647480243
 0.0157098330698 -0.0255990335724 -0.971283428815 -0.0277992593249
125061224490 -0.0456819706978 -0.208632686071 0.0366261910877 -0.0242015488882
 0.0318760298612 -0.0281913596269 -0.883417808635 -0.0424379687308
125102040816 -0.0335099975546 -0.210681957675 0.0163016440029 -0.0192140350428
 0.0128518145833 -0.0205840848239 -1.003987735 -0.0196504765174
125142857143 -0.0259115998325 -0.213439309548 0.0384873286274 -0.00945248121998
 0.0351257012073 -0.0143779407955 -0.920027467592 0.0206463882859
125183673469 -0.0228049313294 -0.208280971204 0.0262979407039 -0.015865149351
 0.0226388699817 -0.0188276447147 -0.979946670375 -0.0202492431753
125224489796 -0.0141229852419 -0.195360106278 0.0142612213615 -0.0266062067775
 0.00944837759053 -0.0274353880744 -1.04351545048 -0.0328188778404
125265306122 -0.00808739098901 -0.186307486582 0.0299291116549 -0.0126403380775
 0.0263371045755 -0.0169709906349 -0.971090382472 -0.0296052146087
125306122449 -0.00128379265084 -0.174289513336 0.0365431338204 -0.00499097658608
 0.0337025025142 -0.0113396634184 -0.930140952423 -0.0272511448728
125346938776 0.00200301977391 -0.161790753504 0.033914420569 -0.00570427198764
 0.0308221845497 -0.0118979118318 -0.959862745696 -0.0536000705744
125387755102 0.01157815472 -0.152068748169 0.0148969786621 0.00126519802079
 0.0141969337415 -0.00183030522691 -1.00710135511 0.00895009007925
125428571429 0.0177328015211 -0.142195425642 0.0350851952964 0.00324695796045
 0.0334056259178 -0.00442639669298 -0.942638125401 -0.061701846665
125469387755 0.0255116181381 -0.13424855981 0.0156198062377 0.0113265149212
 0.017101498799 0.00705736742009 -0.986744240967 0.0222098538199
125510204082 0.0246077622279 -0.12539723475 -0.0159858738739 -0.00066814304645
 -0.0150997179866 0.00319946861108 -1.01551154509 -0.00736621133295
125551020408 0.023994469189 -0.113429288987 -0.0296524244748 -0.00654411435861
 -0.0295218740321 0.00129597074316 -0.977378472064 -0.0777067000534
125591836735 0.0244207768892 -0.101817616097 0.0260148677769 0.0130435908117
 0.0281176087097 0.0055653984042 -0.948626670447 -0.0629820128844
125632653061 0.0206990496147 -0.0934825760993 0.0162080195702 0.0162788643779
 0.0199097967364 0.011232814551 -0.952548473251 -0.00210962450195
125673469388 0.0188387840348 -0.0790638341006 -0.0199361346163 -0.00595098110813
 -0.0209661278243 -0.000270551967601 -1.01592461916 -0.0466406842585
125714285714 0.0222297774338 -0.0669785871185 -0.0185720627306 -0.0170869972738
 -0.0231433634452 -0.0114945038153 -0.940810257579 -0.0590356251027
125755102041 0.0258407583044 -0.0591883993392 -0.0208558492062 -0.0119182637964
 -0.0243466814074 -0.00577920709773 -0.996187275258 -0.0854032673817
125795918367 0.0265911657331 -0.0541905787408 -0.015828106802 -0.0156999148326
 -0.0207127212344 -0.0112057973748 -0.961147089748 -0.0662461249525
125836734694 0.0275782618451 -0.0474069309354 -0.0116425377407 -0.0023528556244
 -0.0126151698783 0.00111482131423 -1.03995892122 -0.00757211186384
125877551020 0.0310126253636 -0.0409139942244 -0.00514238728199 -0.0139963056813
 -0.00957686164611 -0.0129140775361 -0.96950052883 0.00150290593664
125918367347 0.0351205233414 -0.0387347690741 -0.0082387757269 -0.00870114887785
 -0.0112880432087 -0.00651162700342 -1.00982275914 -0.0180393636647
125959183673 0.0315973778631 -0.0355731143038 -0.00883550698775 -0.0169909415543
 -0.014600983188 -0.0151085354211 -0.948460169207 -0.0580474523047
126000000000 0.0266707581114 -0.0258688046788 -0.0126585390877 -0.0209827315908
 -0.0198984522097 -0.0184602974596 -0.931098816849 -0.147835233382
126040816327 0.0205255178904 -0.0234214907784 -0.00559976523175 -0.0184558012706
 -0.0114540529633 -0.0181677314216 -0.921500394449 -0.0564936411933
126081632653 0.0164342920366 -0.0180116173542 -0.0117736907037 -0.0158732222009
 -0.0172255826207 -0.0138039772757 -1.00504395785 -0.112068913234
126122448980 0.00722024992457 -0.0118417840372 -0.0118207326151 -0.0132699729938
 -0.0165137337073 -0.0111946023022 -1.03429691297 -0.0880759233576
126163265306 0.00364473224331 -0.00444326880379 -0.00842839607511 -0.00949708590163
 -0.011698634188 -0.00807311862671 -1.03275671217 -0.0366258410884
126204081633 -0.000187016395933 0.000259307095898 0.00140517718604 -0.0206279289991
 -0.00385418930529 -0.0228456935109 -0.87521405879 -0.0226466078122
126244897959 -0.00220694072581 -0.000853782467247 -0.0103870841372 -0.0145240155265
 -0.0151119946229 -0.0131849668698 -1.03978409579 -0.0864988664341
126285714286 -0.00462233097866 0.00164269105324 -0.0122436408387 -0.0194608556663
 -0.0183098089019 -0.0180615987875 -1.05253447385 -0.144149457195
126326530612 -0.00958080182196 0.00340552278804 -0.011672081701 -0.0158259707147
 -0.0166462538634 -0.0142713748585 -1.06836618297 -0.0871416094932
126367346939 -0.0133137814684 0.000765679721559 -0.000139239322569 -0.0167206406867
 -0.00428157163319 -0.0180876969904 -0.967365307647 -0.0439812002434
126408163265 -0.017950473132 -0.000978259428066 0.0021146437532 -0.0225435717958
 -0.00326479001612 -0.0248707295028 -0.91992296667 -0.0840020868425
126448979592 -0.0220721469417 -0.000726220799018 0.0035836486269 -0.0224096998544
 -0.00163403554459 -0.0250535221482 -0.920835267459 -0.078213377894
126489795918 -0.0221506416079 -0.00304000658148 0.00559234311312 -0.0265280054533
 -0.000551322850077 -0.0299886443096 -0.886096474089 -0.124591223178
126530612245 -0.025625981768 -0.0040659923875 0.000162950406867 -0.0219976536013
 -0.00537729874657 -0.0237367909735 -0.993343269041 -0.100228558871
126571428571 -0.0269101433461 -0.0068553037381 0.0137784035137 -0.0212775665711
 0.00938121913381 -0.0264154093893 -0.862425196256 -0.0335493776319
126612244898 -0.0301040154371 -0.0118346684427 0.00850680625037 -0.0185138815328
 0.00432011603156 -0.0220733674091 -0.948039612408 -0.0558099396222
126653061224 -0.0335179441813 -0.0110972594611 0.0113050453685 -0.0192631276884
 0.00706166593988 -0.0235464480428 -0.928999159032 -0.0678351981666
126693877551 -0.0296873894377 -0.0129961432668 0.0076090299968 -0.0240565092806
 0.00178485304375 -0.0276110477376 -1.00054541031 -0.132031387372
126734693878 -0.0326025279377 -0.0161192236706 0.0174898959143 -0.0100233112847
 0.0159196200729 -0.0152733913922 -0.923594872554 0.0159238076682
126775510204 -0.0318027279064 -0.0218950522526 0.0201686748907 -0.00875749942304
 0.0189763458282 -0.014610770295 -0.906043095738 0.0209424547916
126816326531 -0.0315632554215 -0.0261027993587 0.0124619388388 -0.0123589330869
 0.00976462126417 -0.0163381741082 -0.980358510533 -0.0403266757851
126857142857 -0.028803758452 -0.0250989930462 0.0203191870366 -0.0123170190883
 0.0179241725569 -0.0184098316579 -0.913437730319 -0.0543183341075
126897959184 -0.0286539232439 -0.0271613279511 0.0184192252392 -0.0115016982086
 0.016067042532 -0.0170174968576 -0.946424218036 -0.0535120415859
126938775510 -0.022757820885 -0.0298811758538 0.0220022747458 -0.00508755330304
 0.0214626475078 -0.0113780756645 -0.916376599523 -0.00924641102693
126979591837 -0.0167519068189 -0.0336184671999 0.0205268025703 0.00545013873002
 0.0227893517517 -0.000118283105887 -0.946434910869 0.0761148916641
127020408163 -0.01375803696 -0.0399459230499 0.00676630997924 -0.0085464073334
 0.00452720363906 -0.010730629371 -1.02968711068 -0.0110221029782
127061224490 -0.010401906854 -0.0450953231507 0.0123439001635 -0.00559486350321
 0.0110183402401 -0.00931119695725 -1.00374781679 -0.0238318938888
127102040816 -0.00855855411975 -0.0509719930728 0.017822535415 -0.00617471577027
 0.0163318748158 -0.0115058713624 -0.983927241192 -0.061396770463
127142857143 -0.00638136393143 -0.0523902082884 0.0151674646206 0.00180435766959
 0.0159351805941 -0.00266306340143 -0.967591738888 -0.0028604670327
127183673469 -0.00574107113325 -0.0527039512441 0.0180139720454 0.00225625640141
 0.018898933553 -0.00318515896406 -0.942875736752 -0.0249967981301
127224489796 0.000378932768491 -0.0551087524147 0.0156184173547 0.00370066556646
 0.0168322412514 -0.001129019624 -0.953545158873 -0.0148039077241
127265306122 0.00344830661418 -0.0567729309402 0.0121973276114 0.00889390694707
 0.0149595828045 0.0050113974756 -0.954719533664 0.0264125276775
127306122449 0.0100555729654 -0.0625736018393 0.0131093958527 0.00287836955072
 0.0138676650025 -0.00135048577704 -0.984655745147 -0.0283099935452
127346938776 0.0118199926387 -0.0633626740736 0.0160896013562 0.00626834766332
 0.0178135566528 0.000909311322552 -0.951064797407 -0.0567203952114
127387755102 0.0145700509599 -0.0678190984906 0.0120629600602 0.0109840345967
 0.015362854679 0.00668466724585 -0.930678223846 -0.00729221921065
127428571429 0.0181158876307 -0.0692199233516 0.0133202103498 0.0105401046352
 0.0163713050711 0.0056623876117 -0.934994780967 -0.0482477373496
127469387755 0.0262112065082 -0.0744810804687 -0.0108589235478 -0.00516378848187
 -0.012128608795 -0.0011931203505 -1.00402388799 -0.0394127909105
127510204082 0.0293996117562 -0.080629607833 -0.0120656660635 -0.00869753189705
 -0.0144441138905 -0.00394868563178 -0.985546374453 -0.0702694981112
127551020408 0.0341094216728 -0.0837936921863 -0.010634381667 -0.00898452857279
 -0.0131400208431 -0.00453043998191 -0.993459098403 -0.0675285315117
127591836735 0.0397275865001 -0.0869684881778 -0.00602356463744 -0.0107710943256
 -0.00951360758084 -0.00766113472685 -0.969769766037 -0.0366316901494
127632653061 0.0490956509943 -0.0914974378874 -0.00527199541628 -0.00984326870549
 -0.00854860721017 -0.00689538206996 -0.986796055268 -0.0397982164787
127673469388 0.057519934938 -0.0960220743786 -0.00113621032459 -0.00729312623303
 -0.00394029270732 -0.00604797116636 -0.996564349501 -0.00389348284646
127714285714 0.0600798990767 -0.0982459783837 -0.00176454152316 -0.0075734568994
 -0.00475106951762 -0.00592280524807 -0.999812745707 -0.0177264624491
127755102041 0.0705011926289 -0.0980319422788 0.00101873418542 -0.00579421548102
 -0.00169214681394 -0.00547759562 -1.00085081071 0.0035065453217
127795918367 0.0784634549415 -0.0949067884053 0.00114219922599 -0.00736713981788
 -0.00246292645108 -0.00681611657519 -0.991589434552 -0.012622558439
127836734694 0.0912438211702 -0.096598831628 -0.00296057426265 -0.0077104090827
 -0.00630506017145 -0.00505056352341 -1.04414330784 -0.0338706324127
127877551020 0.0951458113614 -0.0968079871781 -0.00132019594903 -0.00891790731138
 -0.00583340169226 -0.00675227829607 -1.03662617655 -0.0537041253146
127918367347 0.107572990621 -0.0931983342492 -0.00107390997338 -0.00823164149751
 -0.00562992862066 -0.00620982844669 -1.03372695074 -0.0512738610362
127959183673 0.112273138679 -0.0890000245727 0.00141615364537 -0.00789076227499
 -0.00379716410478 -0.0074297574213 -1.01521913852 -0.0573989942412
128000000000 0.11969011212 -0.085238478206 0.0031365773984 -0.00747389097705
 -0.00262536490229 -0.00841032136301 -0.995356412222 -0.0678781734341
128040816327 0.130053842425 -0.0828804993193 0.00298022072824 -0.00791245576493
 -0.00362360901797 -0.00905833486554 -1.00499845421 -0.0956414377335
128081632653 0.138429662645 -0.0766118408351 0.000182107147375 -0.00559289791411
 -0.00472848866174 -0.00517415488988 -1.05627996763 -0.035454853828
128122448980 0.140159995857 -0.0675831767032 0.00178650531031 -0.00542081777861
 -0.00343521583032 -0.00690776732792 -1.0310530841 -0.058541539226
128163265306 0.143497006659 -0.0637359468414 0.00292983991287 -0.00487207729497
 -0.00182836999707 -0.00819267295158 -1.00011875813 -0.0690021678045
128204081633 0.147458641529 -0.053404306055 -0.000612341872406 -0.00574968696754
 -0.00677223540154 -0.00642721282289 -1.09625799822 -0.0513306756552
128244897959 0.151493860661 -0.0453059587475 0.00143799247951 -0.00467776653291
 -0.00263160035395 -0.00789547660787 -1.01980942119 -0.0671288406341
128285714286 0.156598738587 -0.0403309863964 0.00113777364087 -0.00389739190332
 -0.0017181827442 -0.00691981014499 -1.0201653406 -0.0449004285217
128326530612 0.154559441532 -0.0314134174465 0.000695262496421 -0.00305583938999
 -0.00113971441693 -0.00537821969817 -1.01855130611 -0.0204125504676
128367346939 0.155471755101 -0.0198261659463 0.00120915669872 -0.00550094031284
 -0.00124606235341 -0.00955325868499 -1.00957018633 -0.0766844612204
128408163265 0.155564716967 -0.00702586336888 0.00131197123017 -0.0077247938911
 -0.00153957157432 -0.012892383817 -1.01828186864 -0.144514620858
128448979592 0.157272740065 -0.000987409196972 0.00179775069396 -0.00753473427467
 -9.61375241543e-05 -0.0123786889389 -0.993204756421 -0.124310973208
128489795918 0.161346071216 0.00740205483856 0.00154950893797 -0.00613015592296
 0.00036775846758 -0.00976742361631 -1.005679154 -0.0709887010016
128530612245 0.164789936307 0.0144893691305 0.003760264052 -0.00771393959335
 0.00335222678503 -0.0122974690811 -0.948769679086 -0.111317522477
128571428571 0.165999808222 0.0218392154945 0.00111262167475 -0.00904683805274
 -0.000551444884304 -0.013126437715 -1.05436503259 -0.126719910715
128612244898 0.165726129717 0.0237569708883 0.000484602414738 -0.0104539490889
 -0.00145230635788 -0.0146627606154 -1.11194354683 -0.127658967857
128653061224 0.163663721557 0.0354673173186 0.0019297016887 -0.00771320265768
 0.00124415506009 -0.0108863587453 -1.04964527642 -0.0747253115965
128693877551 0.161257924572 0.040438718784 0.00370492033474 -0.00567006556928
 0.00408520933255 -0.00820518502723 -1.01013406132 -0.0463270614295
128734693878 0.159600220544 0.052028894209 0.00290988925901 -0.00764440974368
 0.00275919637882 -0.0105430591791 -1.04266233795 -0.0572333392655
128775510204 0.161483542776 0.060431559874 0.00805766439827 -0.00736842922731
 0.00955602770446 -0.0106765777119 -0.969229956213 -0.091354449842
128816326531 0.164150593892 0.0681240314465 0.00711824506218 -0.00518786786216
 0.00856550545804 -0.00755756295079 -0.980885754595 -0.0468599825876
128857142857 0.162219337333 0.0778665467362 0.00412963572305 -0.0116841003905
 0.00393165408335 -0.0154116664391 -1.1067869459 -0.0919032763686
128897959184 0.160773030679 0.0812865981787 0.00690365292354 -0.0072753993678
 0.00794779724789 -0.00994800012418 -1.02430393068 -0.0846916638908
128938775510 0.155267051951 0.0899345311196 0.00513015572913 -0.0066341672913
 0.00574311991206 -0.00881432813429 -1.04456867555 -0.0530011008495
128979591837 0.149551171765 0.097851363788 0.00819271402003 -0.00670540448557
 0.00950059612284 -0.00907353443954 -1.03073907618 -0.0899354872284
129020408163 0.146171347671 0.108387875938 0.00923793230846 -0.00432214071759
 0.0109492502574 -0.00617929275129 -0.997152277216 -0.0763150509307
129061224490 0.148729799457 0.112445870214 0.00728267015716 -0.00792268787775
 0.00820420586233 -0.0103551413051 -1.08720175842 -0.0597174693352
129102040816 0.143466545404 0.112679477681 0.00986247678369 -0.00455238147512
 0.0116051114784 -0.00642171127807 -1.03064528849 -0.0877079118445
129142857143 0.139270036228 0.117947654265 0.0098170118173 -0.00623202364731
 0.0113331181919 -0.00837313127559 -1.06831932238 -0.0887853086222
129183673469 0.133620168009 0.123209427866 0.0136947370598 -0.00540209391498
 0.0160372451602 -0.00757964696291 -1.07944077426 -0.152642272596
129224489796 0.127188705924 0.132611280817 0.0147517243437 3.21341478003e-05
 0.0176370994446 -0.00104055138633 -0.987671458026 -0.166435985962
129265306122 0.128317818626 0.144202479414 0.0101304695695 -0.00110859379127
 0.0119976003436 -0.00203354098948 -1.03510591216 -0.0761537915924
129306122449 0.127773442989 0.151618869048 0.0157200300942 -0.000915244948912
 0.0186262713553 -0.00214004725568 -1.07594989155 -0.175253658008
129346938776 0.123567008893 0.15715059608 -0.0104877546911 -0.000246897842948
 -0.0124516611564 0.000371460570126 -1.04884925053 -0.0776685667481
129387755102 0.122463927796 0.160926163915 -0.0132041235771 -0.0059616200694
 -0.0159949362576 -0.0063064586193 -0.99823491367 -0.173740148538
129428571429 0.119916029353 0.16551928421 -0.0109755688247 -0.0079371362453
 -0.0134205699781 -0.00878254161389 -0.956180754683 -0.144318018629
129469387755 0.118157378579 0.171183768121 -0.00778148428599 -0.00921854004878
 -0.00973842673619 -0.0105115582477 -0.941017749178 -0.101672112511
129510204082 0.11283697292 0.178803662859 -0.00556172910669 -0.00712771362763
 -0.00700559080218 -0.00816512142506 -0.992517759317 -0.061544783947
129551020408 0.104909970239 0.186293140289 -0.00411055069021 -0.0122786041645
 -0.00560547670869 -0.0144010484446 -0.922741091787 -0.119566171141
129591836735 0.101533142234 0.19415068089 -0.00589251463736 -0.00970649549348
 -0.00759539776928 -0.0112360501329 -1.03274244759 -0.107910911712
129632653061 0.0989177946569 0.199905662472 -0.00167942467241 -0.012122225891
 -0.00277904214395 -0.0143527197202 -0.964786476107 -0.110220487915
129673469388 0.0899059685718 0.208619102243 -0.00319156297863 -0.0141022972853
 -0.00481976548202 -0.0166764582202 -1.04491879492 -0.164015772147
129714285714 0.0855592431653 0.215981735713 0.00366333341147 -0.0153916027977
 0.00316826347994 -0.0187835988217 -0.927210212218 -0.173537356051
129755102041 0.0781002963545 0.216552701488 0.00316128272703 -0.0163933978157
 0.00231469207995 -0.0200286517156 -1.00431042458 -0.209604551905
129795918367 0.0699513386621 0.222423301691 0.00670895645948 -0.0145931507318
 0.00658006003035 -0.01840674877 -0.980347671096 -0.202155122524
129836734694 0.0598151685595 0.230311709259 0.011115385926 -0.0150345717468
 0.0116401082516 -0.0195775062046 -0.946700008741 -0.268597701008
129877551020 0.0535054516212 0.239908156691 0.00971144210825 -0.0109777535929
 0.0101588022189 -0.0146706714014 -0.987164619605 -0.155301301179
129918367347 0.0432273545613 0.246511881576 0.0136683319507 -0.00667756174747
 0.015358362367 -0.0104540486067 -0.918033637331 -0.152641205676
129959183673 0.0282693207627 0.247443669848 0.0140491298817 -0.0056589190004
 0.0156618867064 -0.0094115168033 -0.935639806156 -0.157271274085
130000000000 0.0153670483873 0.257328007413 0.0163281185163 -0.00458519703371
 0.0181824767716 -0.00904355316791 -0.974380994328 -0.226073324246
130040816327 0.00286355154499 0.26425705759 0.011166093797 0.0011440534868
 0.0132072162697 -0.00142070164839 -0.952815799288 -0.0755757019079
130081632653 -0.0105510905476 0.269887324474 0.0142609722347 0.0017079468149
 0.0166400447045 -0.00180613602372 -0.948054575881 -0.155740730119
130122448980 -0.0235654323039 0.274798639159 0.0140770982285 0.0041642814383
 0.0168133855551 0.000542402322369 -0.944245118247 -0.178873060078
130163265306 -0.0334069212239 0.281027239237 0.0104639392485 0.00920991667824
 0.0140419660368 0.00664020756449 -0.868051653973 -0.108561483228
130204081633 -0.0455946358025 0.282830348949 -0.010785725986 -0.00733076551714
 -0.0134944827673 -0.0041428324157 -0.970785877779 -0.14929292339
130244897959 -0.0584846330181 0.284490917702 -0.00639845482974 -0.0140786666348
 -0.0108542658524 -0.0118838637954 -0.807052866854 -0.107718268242
130285714286 -0.0710970401487 0.284121562265 -0.00705144055133 -0.0108341293688
 -0.0100734125216 -0.00831798531767 -0.9427159664 -0.109685297336
130326530612 -0.0883518902823 0.279964268978 -0.00108667415589 -0.0137791433125
 -0.00505043193254 -0.0121938810629 -0.867238262142 -0.062190247855
130367346939 -0.103875043908 0.277360537865 -0.0054013749986 -0.010761618712
 -0.00772715734149 -0.00804568242417 -1.00761409505 -0.104702594945
130408163265 -0.119967226671 0.272895920975 -0.00290373946922 -0.0140309525862
 -0.00595077842199 -0.0112757939844 -0.972989593418 -0.138319424493
130448979592 -0.131240409044 0.270865012757 0.00350667255173 -0.0123900339109
 0.000103905272581 -0.0110833813452 -0.909386049183 -0.053909370351
130489795918 -0.140485940837 0.261610047693 0.00485267813365 -0.0151937102029
 0.000847359023352 -0.0132470317325 -0.873352494153 -0.128620181172
130530612245 -0.153456780157 0.253251090959 0.00666935502486 -0.0112272325852
 0.00327353870181 -0.0100706669909 -0.904758427086 -0.0570749356505
130571428571 -0.164513006741 0.241551302004 0.0072303765958 -0.00887503241228
 0.00420916282563 -0.0079277946654 -0.929337933236 -0.0460716012806
130612244898 -0.17572340893 0.2354515513 0.00941854905406 -0.00729693589571
 0.00616862864537 -0.00671535124976 -0.906643692381 -0.0352543244171
130653061224 -0.183543995127 0.219982570924 0.0100779641161 -0.00771764610831
 0.00662876012215 -0.00677581449077 -0.899891350347 -0.0846194988577
130693877551 -0.189223326151 0.211829585396 0.0121203170256 -0.00445429192389
 0.00837161559131 -0.00417314757384 -0.855015914971 -0.0572456618713
130734693878 -0.196851632814 0.19866318922 0.00949304150451 -0.00759102694309
 0.00619642277467 -0.0059326288967 -0.978894046661 -0.156682191076
130775510204 -0.19813588656 0.18533966664 0.0084320555764 -0.00362304616031
 0.00550249527644 -0.00277388200701 -0.967214308297 -0.100929491297
130816326531 -0.204497655125 0.179186838532 0.00901858618923 -0.00266152986661
 0.00584113343296 -0.00213842117727 -0.944483942062 -0.115522432324
130857142857 -0.204695167002 0.167227926659 0.00955467718395 0.000668509917055
 0.00601178243085 9.59358108494e-05 -0.863813607375 -0.0958546415857
130897959184 -0.206357910321 0.152491153243 0.00668590798563 -0.00141167345914
 0.00392099663941 -0.00109656923243 -0.999906272511 -0.0982152107551
130938775510 -0.207898154392 0.143568308518 0.00715847571594 0.000970877953861
 0.00395770227857 0.000179368836137 -0.937858981764 -0.115076566974
130979591837 -0.210133324613 0.131484059653 0.00747416809862 0.00215784170662
 0.00395657623268 0.000504463024842 -0.905633135976 -0.158873608213
131020408163 -0.207624446513 0.120553400531 -0.00687834899471 -0.00137837447736
 -0.00370402450365 -2.58395436956e-05 -0.969702714685 -0.149421347672
131061224490 -0.208435429314 0.109772460336 -0.00678907763379 -0.00182764033991
 -0.00373889005351 3.17372515545e-05 -0.978746714544 -0.163634766938
131102040816 -0.204476382891 0.101832175702 -0.00532895570836 -0.00353865091699
 -0.00339487153689 -0.00108366354688 -0.9188836752 -0.0959422407188
131142857143 -0.204768593903 0.0874382520393 -0.00494184199071 -0.00534001161373
 -0.00365398913073 -0.00205577212126 -0.85567953421 -0.0776880522161
131183673469 -0.205865330256 0.0761347289848 -0.00509005613013 -0.00455395763737
 -0.00398503910882 -0.00147518074756 -0.924085993077 -0.110749726596
131224489796 -0.199952641026 0.0659545291559 -0.00561691020779 -0.00590307947292
 -0.00491072979772 -0.00229268037148 -0.902507702334 -0.158574738999
131265306122 -0.198560015326 0.0505638498992 -0.0072626928095 -0.00522335691221
 -0.00613965524659 -0.00173108018614 -1.01968540985 -0.207017150756
131306122449 -0.193913045473 0.0410632101915 -0.00240674982992 -0.00576501464772
 -0.00311826085854 -0.00357861713759 -0.942862116608 -0.0535989524104
131346938776 -0.188437718262 0.0330965005816 -0.00256712283965 -0.00854650464289
 -0.00388971384142 -0.00594574106798 -0.889662789808 -0.125610671748
131387755102 -0.184183845951 0.0226677830047 -0.00307650440755 -0.00861358298487
 -0.00419113170673 -0.0062266857718 -0.960794202981 -0.158386174089
131428571429 -0.17817005218 0.0155574585047 -0.000482297183884 -0.00944125616308
 -0.00212409543535 -0.0075759282226 -0.902983018719 -0.136157038245
131469387755 -0.17116353716 0.00886057104481 -0.00110165951231 -0.0107269072152
 -0.00270335354875 -0.00867198590693 -0.954834211816 -0.207916544278
131510204082 -0.156304497655 0.00165155756226 0.00253063800111 -0.0108409902612
 0.000484022776629 -0.00947363427278 -0.858587344186 -0.178733798401
131551020408 -0.150698915956 -0.00739448141267 0.000410678070233 -0.00649709233601
 -0.000555592092364 -0.00560311200888 -1.00862084265 -0.0698064290727
131591836735 -0.143269450883 -0.0155208549781 0.00497854163794 -0.00792428648124
 0.00327013085213 -0.00754794970853 -0.900946770663 -0.1036810066
131632653061 -0.129662791547 -0.0193578136413 0.00663533081448 -0.00804846896485
 0.00484638822938 -0.00798091005963 -0.894782005655 -0.155038323267
131673469388 -0.124486616297 -0.024599242241 0.00754162660074 -0.00516335693697
 0.00612453772744 -0.00558290975837 -0.887913116481 -0.0896413047194
131714285714 -0.119148387856 -0.0297204826804 0.00898957936963 -0.00533256205564
 0.00746203107105 -0.00594759832659 -0.858326713854 -0.130121833271
131755102041 -0.104272497392 -0.0350928261029 0.00885688542157 -0.00342262053175
 0.00768496582085 -0.00424893195605 -0.898112525614 -0.112507774156
131795918367 -0.0967167475401 -0.0351831480929 0.0105989648533 -0.00255977306475
 0.00945594099644 -0.00376207604061 -0.841955400967 -0.170686436891
131836734694 -0.089318615487 -0.0283707171927 0.00781593662918 0.00129352033155
 0.00749201933431 0.00011609323017 -0.886721414211 -0.033252532879
131877551020 -0.078603164783 -0.028395852937 0.0082667406594 0.000916576287761
 0.00791618914973 -0.000379413190272 -0.902999074987 -0.103952259443
131918367347 -0.0715057173237 -0.0320062064085 0.0089710306648 -7.24747891558e-05
 0.00840536639318 -0.00149997000336 -0.918684550468 -0.164550744354
131959183673 -0.063953142397 -0.0313477888645 0.00556188578736 0.0049792926989
 0.00609547288365 0.00371964773836 -0.858719193138 0.0335917439274
132000000000 -0.0568198701491 -0.0323839588275 0.00432989924543 0.00455748950002
 0.00491747514401 0.00348308189126 -0.889704737778 -0.00998379831728
132040816327 -0.0481264877044 -0.0265463940004 0.00451692526547 0.00492528652412
 0.00522958862219 0.00373512790399 -0.833595042347 -0.03063561429
132081632653 -0.0435889113525 -0.0299456240403 -0.00326793417063 -0.00504261006611
 -0.00414453221472 -0.00408240617899 -0.877095142271 -0.119836481491
132122448980 -0.0394919445249 -0.0244777785373 -0.00200426174842 -0.003438477126
 -0.00269890056006 -0.00283676558747 -0.893315930846 -0.0127143037464
132163265306 -0.0399517807918 -0.0174563397608 -0.0010195125931 -0.00350190316335
 -0.00182701456788 -0.00316996764841 -0.892840871479 -0.10676212329
132204081633 -0.0351792240363 -0.0160992135724 0.000256150123709 -0.0027364821212
 -0.000442714768052 -0.00273527923927 -0.936624814138 0.00101435622964
132244897959 -0.0393338039909 -0.00297293779353 0.00195941030372 -0.00360346585981
 0.00102589729148 -0.00414113733572 -0.909940053855 -0.0603486384408
132285714286 -0.0407327830884 0.0079766614158 0.00487441523963 -0.00192405028739
 0.00452155308457 -0.00321005093289 -0.892501508929 0.0575186414993
132326530612 -0.0371875074394 0.015816870842 0.00649120571519 -0.00240920889173
 0.00615596204355 -0.0040701828182 -0.84577039782 0.0307278168103
132367346939 -0.0317886295107 0.0124066167912 0.00758486862643 -0.00244580984692
 0.00730471100239 -0.00431862321407 -0.840291966525 -0.018836544461
132408163265 -0.0355727757026 0.0158900753037 0.000753619824772 -0.00284279851465
 0.000134322441574 -0.00315896798956 -1.03390503724 -0.00890784389515
132448979592 -0.0396454718007 0.023542827444 0.00684544259124 -0.000864116446719
 0.00708424670445 -0.00242563303411 -0.926072647598 0.00629499079283
132489795918 -0.0346376703641 0.0249891019702 0.00876449703614 -0.00273195550558
 0.00877726399401 -0.00483912070542 -0.891458735769 -0.0533600104451
132530612245 -0.0333036412847 0.0276165805646 0.00925535841553 6.97306835924e-05
 0.0098148575021 -0.00187853710466 -0.893547199501 -0.0292770761222
132571428571 -0.0373236430527 0.0238410776584 0.0096187672578 -0.000240668857335
 0.0100781059522 -0.00213268310961 -0.898919617412 -0.0258921968045
132612244898 -0.0364915540582 0.0268332960034 0.00764877109131 0.00101846997203
 0.00827624174512 -0.000334518859696 -0.949554046052 0.00711049783871
132653061224 -0.0386917731698 0.028537542501 0.00738162586022 -0.000784134129394
 0.00767524806443 -0.00214094579413 -0.974260991689 -0.0279125123377
132693877551 -0.0492691430188 0.0379770516677 0.00915781349919 -0.00057054852882
 0.00961547001821 -0.00200781842168 -0.967500569823 -0.0529838920532
132734693878 -0.0566679563242 0.0312700056004 0.012806785198 0.00256816829215
 0.0138060454415 0.000796968201006 -0.888673638129 -0.0796134770478
132775510204 -0.0546589534344 0.0323485021667 0.0107616930591 0.00183440183046
 0.011569345928 0.00031608824707 -0.94442377405 -0.0667637965666
132816326531 -0.0601666660251 0.0411527344707 0.0125849387481 0.00329665519929
 0.0136725964492 0.00166324075113 -0.908749203913 -0.0938023257497
132857142857 -0.0670610346638 0.0441006788092 0.00895625350047 0.00488114104886
 0.0100080144361 0.00393515996914 -0.941549855293 -0.0218057503036
132897959184 -0.0758244656615 0.050063992438 0.0115402343733 0.00527809176626
 0.0126547200547 0.00413361913066 -0.927011603912 -0.063188413746
132938775510 -0.0908264412055 0.052846065327 -0.00723522910558 -0.00443285990551
 -0.00796239232773 -0.00381502622445 -0.981269646778 -0.0202479690899
132979591837 -0.0947574395809 0.0566194510353 -0.0108006986716 -0.00642067835629
 -0.0118078628081 -0.0054834319846 -0.948263060458 -0.0681143073631
133020408163 -0.0975059821025 0.0589914938758 -0.0128370417088 -0.010256555294
 -0.0142720018107 -0.00923417954237 -0.892804573074 -0.104343979686
133061224490 -0.100234401096 0.0602043832432 -0.0092379399402 -0.00868609212133
 -0.0103294509854 -0.00799733077947 -0.950905332867 -0.052701071856
133102040816 -0.107615842671 0.0581991763077 0.00490539287518 0.010762578879
 0.00603081420709 0.010552490429 -0.948582865432 0.00975453819005
133142857143 -0.112733480691 0.0545263267343 -0.00521100740727 -0.0151164633572
 -0.00672736021428 -0.0149192502789 -0.891437010194 0.0148489943895
133183673469 -0.123598989247 0.0556470260249 -0.0086008858851 -0.0169303669845
 -0.0102979754402 -0.0163657820467 -0.869720821802 -0.0749945878748
133224489796 -0.129885714865 0.0467335315991 -0.00583091053299 -0.017991780608
 -0.00755700586556 -0.017609184838 -0.875671283589 -0.0507160259042
133265306122 -0.136392653666 0.039628909319 -0.00205390618252 -0.0188963584807
 -0.00382285700094 -0.0188129544565 -0.878211375667 -0.0183778851758
133306122449 -0.147678658747 0.0354498719641 -0.000289184662596 -0.0168139377854
 -0.00186606354003 -0.0168167368032 -0.921628760316 -0.022090201497
133346938776 -0.159024485308 0.0226292861896 0.000610253831957 -0.0153074416704
 -0.000839206746641 -0.0153394627658 -0.948742334924 -0.0263964540345
133387755102 -0.165631367416 0.0182028536006 0.00627468926676 -0.0188056248753
 0.00441299011049 -0.0193382382713 -0.894671303644 -0.0109792708268
133428571429 -0.171843181916 0.00717030270827 0.0109206151844 -0.018674647489
 0.00901238869435 -0.0195988202187 -0.877564379318 0.015774650862
133469387755 -0.177540629749 -0.00384901993426 0.0152782792615 -0.0179654720303
 0.0133400806644 -0.0192995168789 -0.865559022449 0.024040805509
133510204082 -0.185901911113 -0.0209906756309 0.0115986052629 -0.0178389784677
 0.00967256615665 -0.0187259878687 -0.91803580816 -0.0366613058152
133551020408 -0.19093226889 -0.0321126979867 0.0160022296042 -0.00713911511013
 0.0150111751704 -0.00860524851978 -0.966110821202 0.0404761587929
133591836735 -0.195429138423 -0.0420536689468 0.020346831734 -0.0155435387427
 0.018344649506 -0.0172583864061 -0.892219491981 -0.0190090362867
133632653061 -0.19498933353 -0.0544054541563 0.0251276694244 -0.0121288045331
 0.0232553112036 -0.0143674982204 -0.880056535922 0.00888069632742
133673469388 -0.194824810305 -0.0743736962113 0.0264514434611 -0.013720286234
 0.0242455081296 -0.0159909348258 -0.881068809874 -0.0385310505459
133714285714 -0.193765312193 -0.091468782969 0.0281596201381 -0.00668474581012
 0.0264792446702 -0.00933201456217 -0.893382384363 0.00570035689643
133755102041 -0.190189647225 -0.107900282895 0.019326569958 -0.0152736033518
 0.0169871232181 -0.0166560041756 -0.99415738437 -0.0717391078171
133795918367 -0.188108427529 -0.125568096754 0.029565020985 -0.00141372746632
 0.0280811614386 -0.00437135574597 -0.910444459237 -0.0148552040291
133836734694 -0.183174979394 -0.146590818161 0.0203355999317 -0.00407919913217
 0.0188916262337 -0.00593782812371 -0.983429732775 -0.0264015503399
133877551020 -0.177653638259 -0.162650897897 0.0286607030525 0.0114653095631
 0.028215816547 0.00793639738356 -0.921825724938 0.0328703651423
133918367347 -0.171112803974 -0.18005306893 0.0360432331535 0.00635474878983
 0.0344719639968 0.0023444152874 -0.888677161338 -0.0405688092827
133959183673 -0.164250308646 -0.193322988535 0.0295967558212 0.013332451468
 0.0290189008341 0.0094806858093 -0.917602611725 -0.00605729226543
134000000000 -0.155209319084 -0.206455756358 0.0212778348894 0.00886689609954
 0.0206556690392 0.00610071559175 -0.975338220174 -0.0130120785938
134040816327 -0.142283226804 -0.219971107572 0.0275648089012 0.017923776029
 0.02723840906 0.0137843086845 -0.926681169388 -0.0133761570128
134081632653 -0.123981304044 -0.228900981043 -0.0273835455818 -0.0209383074742
 -0.0272094696577 -0.0164683100566 -0.925110374098 -0.0225787014755
134122448980 -0.106639373925 -0.248326922619 -0.0258257995717 -0.0317645633923
 -0.0266697906874 -0.026350199096 -0.883573919755 0.00589797690529
134163265306 -0.0882715659037 -0.262784329287 -0.0219873275628 -0.0310954248835
 -0.0229575604887 -0.0259436730908 -0.907418228732 -0.0128229156562
134204081633 -0.0737883461224 -0.278639714873 -0.0177811682826 -0.025654150223
 -0.0184207308134 -0.0212895392597 -0.952109709588 -0.026487531552
134244897959 -0.0542203035115 -0.291244398523 -0.0154026068355 -0.0296544996114
 -0.0164185404781 -0.024866277685 -0.941383638715 -0.031291100512
134285714286 -0.0343277053406 -0.303128892718 -0.00545434443688 -0.0338950963234
 -0.00782699379327 -0.0292484839653 -0.92941320279 0.00447529358415
134326530612 -0.00978289397109 -0.308141055246 -0.00788897685367 -0.0343217046411
 -0.00982657801087 -0.0291256057513 -0.931795822866 -0.028812971882
134367346939 0.0140725717606 -0.31757923818 0.00214840036199 -0.0392612909209
 -0.00141968833089 -0.0339388702946 -0.904535895306 0.00201042897598
134408163265 0.037415581554 -0.326472023067 -0.0029392833431 -0.0265683092842
 -0.00459919159683 -0.0224245978149 -0.979214412731 -0.026591035815
134448979592 0.0585692735865 -0.330914876185 0.0081233381415 -0.03313877694
 0.00441546405088 -0.0285110129523 -0.935149303839 -0.000946463041875
134489795918 0.087616268059 -0.329878881021 0.0196474290982 -0.0249762032742
 0.0146004277292 -0.0220522040585 -0.961607295023 0.0474600238905
134530612245 0.10471793962 -0.33086861736 0.0225668771413 -0.0204637787726
 0.0172022030725 -0.0181436674511 -0.972493903818 0.0478687878751
134571428571 0.133446836493 -0.33061942751 0.0156362244991 -0.0261887953702
 0.01111953791 -0.0219078997335 -0.953686478057 -0.00729752303282
134612244898 0.152123443461 -0.318625880791 0.0228229360064 -0.0207015983602
 0.0170488017057 -0.0174646646128 -0.952553976521 0.0193711662248
134653061224 0.183516273198 -0.309215026112 0.0209036854869 -0.0265846382088
 0.0151882912836 -0.0213838716548 -0.938714962595 -0.0260226153524
134693877551 0.205824440964 -0.307297902465 0.0209362917106 -0.0220997179267
 0.0153139048154 -0.0173411546516 -0.956948829462 -0.0256772015602
134734693878 0.228052162397 -0.294588901627 0.0204564670923 -0.0162393383274
 0.0149161169197 -0.0123062054465 -0.972991307348 -0.0136311533205
134775510204 0.244323713764 -0.267987839209 0.0193600074485 -0.0197852871109
 0.0138292174762 -0.0141067696425 -0.98084033753 -0.0421067238993
134816326531 0.2693686456 -0.244582073116 0.0193758714729 -0.00127335121325
 0.0132865236336 -0.000486627412265 -0.990967358706 0.0134076624879
134857142857 0.287631025069 -0.21912706266 0.0246010563471 -0.0103407888023
 0.0165346493952 -0.00565853551991 -0.967808006042 -0.0353566296765
134897959184 0.30783625973 -0.200088017218 0.025763904573 -0.00179562829978
 0.0161317826503 0.000918193466163 -0.95880423234 -0.0122501910994
134938775510 0.325149486821 -0.178520369484 0.018146747693 0.00531896896027
 0.0100841629005 0.00532240652922 -0.986417991951 0.0115385002411
134979591837 0.334488904666 -0.154849749047 0.0231877438345 0.00329588848711
 0.0123562377868 0.00578427413021 -0.959743484022 -0.0102395549217
135020408163 0.346528045187 -0.132326633419 -0.0218004957819 -0.000104629316211
 -0.011397315989 -0.0052975734249 -0.977171648832 -0.0425107135004
135061224490 0.357878218118 -0.11198703678 -0.0169375104446 -0.00436995163533
 -0.00712815731127 -0.00775506481567 -0.980973688807 -0.0213995002437
135102040816 0.361918993798 -0.0917842147635 -0.013560106934 -0.00670277098959
 -0.00413087987482 -0.00904308290327 -0.983584190084 -0.0138739454713
135142857143 0.362601825764 -0.0708267048897 -0.011226643054 -0.00299929067989
 -0.00418234424114 -0.00754154728266 -1.00633353999 -0.025070706236
135183673469 0.363812894751 -0.0481303129593 -0.0110951552061 -0.00743761010524
 -0.000901869764663 -0.0115777383437 -0.978185116674 -0.0351634395423
135224489796 0.35478905628 -0.0279517472122 -0.00421908615635 -0.0040448745696
 0.000863297909911 -0.00599976232183 -1.00966472682 -0.00872345259974
135265306122 0.352639414642 -0.00120660619067 -0.00328521731931 -0.00971666218446
 0.00735533488231 -0.0108495671662 -0.956554764188 -0.0161698916703
135306122449 0.347855930206 0.0235026643592 -0.00208280058903 -0.0107733842914
 0.00987444458339 -0.0132978567529 -0.939384245022 -0.0567035130453
135346938776 0.347479163128 0.040798086668 -0.00140923254908 -0.00850743210474
 0.00761905427716 -0.0124371546314 -0.991191611847 -0.0640436392075
135387755102 0.340886021604 0.0619223768346 0.00280590700922 -0.00544213887713
 0.00985348529545 -0.0056873992769 -0.984428868632 -0.0165886588459
135428571429 0.337739903085 0.0764986639564 0.005128296135 -0.00672685080061
 0.0142992607693 -0.00733361231999 -0.962580919364 -0.0405930354166
135469387755 0.327555936409 0.0920988501048 0.003633079672 -0.00396509881556
 0.00899746936814 -0.00496666353191 -1.00620706988 -0.023805092195
135510204082 0.31870149852 0.107300545879 0.00882487013153 -0.00535225197269
 0.0184077901879 -0.00635827673209 -0.967243376451 -0.0840238781863
135551020408 0.305488319222 0.11617498327 0.00683759380942 -0.00166444614261
 0.0128711955319 -0.00131047490843 -0.990685523577 -0.0289547466677
135591836735 0.298753474013 0.127731642218 0.0102609098398 -0.00173559181374
 0.018475410254 -0.00146772707389 -0.976789093928 -0.0708216527078
135632653061 0.289535927419 0.137186400913 0.0125049078132 -6.41355994639e-05
 0.0214785495759 0.000845324406496 -0.959964560436 -0.0876602060047
135673469388 0.281368921725 0.144072706879 -0.00716799148996 -1.21807357606e-05
 -0.0119873199087 -0.000186838942221 -1.01066779096 -0.0311726967203
135714285714 0.268963763047 0.151310327405 0.00862940540677 0.00348802297344
 0.0141573601264 0.0053715606788 -0.98497939713 -0.0378465910616
135755102041 0.260836573689 0.163040865111 0.0071940657244 0.00489844754401
 0.0117563127683 0.00721345999444 -0.987450711467 -0.0261169938511
135795918367 0.246476177816 0.164124917212 -0.0113047913729 -0.00403609825749
 -0.0178254678019 -0.00498486139035 -1.0170016326 -0.0732699207834
135836734694 0.234497585441 0.174910690623 -0.00994508867941 -0.0109469257803
 -0.0163920050976 -0.0151764490745 -0.947493380463 -0.0809658311159
135877551020 0.221090341312 0.181324089791 -0.00671581511526 -0.0100765520312
 -0.0113939815489 -0.0138916536729 -0.971786168261 -0.0458431589166
135918367347 0.210064663655 0.189022524161 -0.00309779395336 -0.0124231792104
 -0.00650462709772 -0.0174810260104 -0.956174583918 -0.0210925587824
135959183673 0.198189584263 0.190411039949 -0.00520154564127 -0.0145081303367
 -0.010078746797 -0.0196503694887 -0.953594468927 -0.062346426057
136000000000 0.184461447459 0.193972960711 -0.00786768591143 -0.0108116508015
 -0.0131274244338 -0.0135089409506 -1.01989448663 -0.0621884955727
136040816327 0.172427157463 0.191536116093 -0.000744524677122 -0.0142625873951
 -0.00400937719106 -0.0193994642887 -0.96536279291 -0.039964501481
136081632653 0.162620302409 0.191951802641 -0.00491592115924 -0.0151898855457
 -0.00999380246904 -0.0194875818929 -1.00319044715 -0.0788819725546
136122448980 0.155547988462 0.190508060992 0.00150374984498 -0.0171783294515
 -0.00189757601598 -0.0234018996499 -0.947694927419 -0.0625411894662
136163265306 0.150118108311 0.191636792032 0.00320233675861 -0.0161882665544
 0.000490273993052 -0.0222624827318 -0.95002070706 -0.0531636411699
136204081633 0.148856753571 0.189549704534 0.00323178327437 -0.014111042012
 0.000926892407405 -0.0193435196168 -0.96996777648 -0.0470975482669
136244897959 0.142402689949 0.186300876439 0.00875001856345 -0.00972253303841
 0.00911131362805 -0.0147549766209 -0.964688844688 0.00580797704241
136285714286 0.132445419217 0.175297041835 0.00674851547994 -0.0159453954502
 0.00479558827422 -0.0222366564712 -0.951677774354 -0.0785136403411
136326530612 0.123479095852 0.166109777503 0.00528516234847 -0.0116565717533
 0.00377531606458 -0.0162515376696 -0.990168433577 -0.0512756395309
136367346939 0.118914256318 0.167372371476 0.00519701062234 -0.0111753585021
 0.00367586674523 -0.0154838046176 -1.00466751983 -0.0538341861878
136408163265 0.114246159917 0.158679521102 0.00773616848288 -0.00905105833166
 0.00732627761926 -0.0133419647208 -0.99194300806 -0.0445745478692
136448979592 0.107997751756 0.158781671382 0.0109281271345 -0.0112046782968
 0.0106663348292 -0.0166810767568 -0.979008115428 -0.077397719292
136489795918 0.103807702384 0.161936199253 0.00994753140176 -0.00661618340824
 0.0105740496289 -0.0106534475737 -0.984765785999 -0.0370574216594
136530612245 0.10889953453 0.16250755762 0.00960997144813 -0.0110157168834
 0.00907254095003 -0.015929223557 -1.01674318519 -0.0797724471099
136571428571 0.111044272454 0.161959600529 0.00736946668965 -0.00833577102713
 0.00699959395483 -0.012021692928 -1.02537063097 -0.0483314339515
136612244898 0.116238311716 0.160142269033 0.0146525397739 -0.00673973896875
 0.0163413329349 -0.0117825191024 -0.96940624261 -0.0927984435544
136653061224 0.125098032805 0.15830193283 0.0136506411064 -0.00432952245854
 0.0157079696252 -0.00854431495152 -0.976064886628 -0.0758612680687
136693877551 0.127157845442 0.15072398233 0.0115380477919 -0.0011490362557
 0.013844093801 -0.0040919361852 -0.983168590658 -0.0455961023957
136734693878 0.12422790292 0.149312004621 0.0109596536395 -0.00452013951337
 0.0123334407115 -0.00796699298512 -1.02329697811 -0.0592251719605
136775510204 0.125700171065 0.149658919878 0.0157419533783 -0.000139557092475
 0.0190969623117 -0.00352120659709 -0.963449646921 -0.0876589305653
136816326531 0.125092208297 0.151056484542 0.0138253749077 0.00236670624929
 0.0172663996549 5.44346067347e-05 -0.964508274204 -0.0614665027683
136857142857 0.130403082797 0.155257897135 0.0129539176436 0.00275945568567
 0.0162683060132 0.00083797407213 -0.973500181621 -0.0574386141671
136897959184 0.130270671336 0.155397761451 0.013851974086 -0.00125298863379
 0.0165471491511 -0.00406839635115 -1.02181231053 -0.0793256127611
136938775510 0.13106089377 0.156939482707 0.0140371887416 0.0033935060671
 0.0175574623882 0.00167143121581 -0.979815601362 -0.0765621082772
136979591837 0.130782210542 0.162095468369 0.012094132542 0.00767672817892
 0.0158029795102 0.00729742141752 -0.950002184369 -0.0434526033666
137020408163 0.12904447641 0.160787013194 0.0144808396997 0.00581492873785
 0.0181843885374 0.00476899020068 -0.980044543425 -0.0785340169128
137061224490 0.131615008515 0.165980983972 0.0101546404286 0.00555595879792
 0.012880203503 0.00521646912318 -0.992865479711 -0.0386714601974
137102040816 0.129482413687 0.167888313218 -0.0158651817582 -0.0054180307093
 -0.0195788248732 -0.00444921396001 -0.999554052174 -0.0917824549337
137142857143 0.133379703178 0.177603963213 0.0141557651303 0.0131417071933
 0.0183855022243 0.013924235418 -0.925791455864 -0.0731765171262
137183673469 0.139936144009 0.181662243828 -0.0135637474412 -0.00952850530039
 -0.017143906416 -0.00976712435719 -0.982082579061 -0.0725010550654
137224489796 0.144279419731 0.18774237983 -0.0104534505861 -0.0100614975567
 -0.0133875001439 -0.0108360619497 -0.981824598304 -0.0486389032337
137265306122 0.148058496374 0.188301170242 -0.0126803834205 -0.0132817749569
 -0.0161919034404 -0.0144787321294 -0.965258896035 -0.0752341897356
137306122449 0.148129176443 0.190917020774 -0.013264609875 -0.0140927453272
 -0.0168073139374 -0.0154532086812 -0.97065991583 -0.0849350628754
137346938776 0.149085007845 0.188318057658 -0.0125711382451 -0.0170007064282
 -0.0161696559496 -0.0189387574169 -0.963823289209 -0.091704750134
137387755102 0.148449294276 0.196475933853 -0.00987218056527 -0.0155407124129
 -0.0127743681102 -0.0174773343066 -0.98114194164 -0.0676979496792
137428571429 0.147872673831 0.204295967286 -0.00904866402356 -0.0175244467768
 -0.0118233850081 -0.0199473510903 -0.974644784823 -0.0708248157194
137469387755 0.152121663263 0.211095124834 -0.0132132103957 -0.01757344806
 -0.0167216726452 -0.0197937770073 -1.01010530756 -0.0907706931892
137510204082 0.147453413293 0.216593549968 -0.00314131454074 -0.0146047371805
 -0.00463195283546 -0.0169172216884 -0.989857752198 -0.0291871242198
137551020408 0.146018078176 0.225435382387 -0.000292805922891 -0.0185034894819
 -0.00149800265019 -0.0215865049251 -0.971649451521 -0.0301835078371
137591836735 0.143910892681 0.236881213426 -0.00224570732317 -0.018908595255
 -0.00373960372628 -0.0218842610698 -0.987757331779 -0.0471702879481
137632653061 0.139903962955 0.257261953782 -0.0050425287913 -0.0228968315156
 -0.00707865040108 -0.0262977042558 -0.998113181429 -0.0764608007374
137673469388 0.142382159096 0.272255621037 -0.00341242052329 -0.0231624303595
 -0.00511229345121 -0.0266516918309 -1.00512582521 -0.0744197231298
137714285714 0.142860970376 0.286237358835 0.00265985517046 -0.0245650720966
 0.00189290430718 -0.0285313535881 -0.987807030528 -0.0704940000866
137755102041 0.14475271692 0.295875211569 0.00322978337592 -0.0193339487758
 0.00280567448675 -0.0224375206511 -1.00326207137 -0.0427154136311
137795918367 0.138911570139 0.304980075236 0.00298033245788 -0.0235352963028
 0.00236511738045 -0.0271447770674 -1.00959202941 -0.0596874345066
137836734694 0.133695360668 0.311847173511 0.00730609218122 -0.0240350889896
 0.00734992513245 -0.0278062256602 -1.00095809015 -0.0617684810243
137877551020 0.126866355937 0.32265107877 0.0119796098467 -0.0248878859181
 0.0126857742401 -0.02886545265 -0.994083270783 -0.0680857945186
137918367347 0.114389999867 0.336530631361 0.0103241852859 -0.0196613718311
 0.0110472435009 -0.0227661319949 -1.00840457479 -0.0469263077929
137959183673 0.103798565251 0.344846846048 0.010802758405 -0.0245905077884
 0.0114540482719 -0.0283566262759 -1.02610035995 -0.0646916536976
138000000000 0.0916956686467 0.359735426341 0.0182900422428 -0.0205978138289
 0.0201979367415 -0.0240218427991 -0.999184303677 -0.0674466496508
138040816327 0.0771635577539 0.36964942678 0.0205146518152 -0.0197342442773
 0.0227952911031 -0.0230731488934 -1.00201161431 -0.0722160023433
138081632653 0.067599554813 0.378619865493 0.0146510523776 -0.0171990231021
 0.0162213495275 -0.0200048626316 -1.02404292922 -0.048391096562
138122448980 0.0592311719372 0.392190595734 0.0221967728836 -0.017946926454
 0.0248505108606 -0.021082910977 -1.01731383649 -0.0721071324285
138163265306 0.0470235732547 0.396538548374 0.0294898690273 -0.0178639951138
 0.0332233922722 -0.0212137537589 -1.01170045803 -0.103424781016
138204081633 0.037941121117 0.40399740905 0.024147855943 -0.0136617710099
 0.0272379040995 -0.0163385460574 -1.0268386706 -0.0707353739638
138244897959 0.0214426670143 0.402132351317 0.0303537667482 -0.00842619520979
 0.0345080256251 -0.0105056642493 -1.00583012381 -0.0922664112891
138285714286 0.0102846288861 0.409783881883 0.0291653745945 -0.00832165628778
 0.033207035652 -0.0103640109468 -1.02565832055 -0.0880814555796
138326530612 -0.00908017374053 0.407950166635 0.0369829902306 -0.00576893692022
 0.0423915669011 -0.00780981431394 -1.03529355621 -0.130972257474
138367346939 -0.0209184972401 0.409892924946 0.0352597366786 0.000678469913591
 0.0407296215018 -0.000410471822115 -1.01852103724 -0.120763676854
138408163265 -0.035732666398 0.407167269867 0.0281989859707 0.00590672960737
 0.0328745488834 0.00577949492328 -1.00730635367 -0.0856221872662
138448979592 -0.0468234414178 0.407483026311 -0.0317351432358 -0.00450229690184
 -0.0369934648598 -0.00391692264304 -1.04179241271 -0.102827394644
138489795918 -0.0569449449349 0.404773739575 -0.0304886721235 -0.0138823995831
 -0.0360839017422 -0.0147845170439 -1.00876320789 -0.116768476391
138530612245 -0.0728243474198 0.40247848541 -0.036817139648 -0.0193980325773
 -0.0439317697215 -0.0208241965611 -1.02438636892 -0.176310838385
138571428571 -0.0810675710252 0.401428035224 -0.0367678910801 -0.0196056100719
 -0.0442844686942 -0.0208511942862 -1.06455629461 -0.168619435604
138612244898 -0.0909254127759 0.399007249311 -0.0258860399857 -0.0154932586589
 -0.0315361641779 -0.0165451481399 -1.04875299011 -0.092454472114
138653061224 -0.10442798039 0.393899039235 -0.029657438752 -0.0224274877131
 -0.0367937550243 -0.0243516853231 -1.06782787206 -0.136241898309
138693877551 -0.110023639781 0.3903614746 -0.0210514740696 -0.0328014919622
 -0.0279031568883 -0.0371353552657 -1.00879127202 -0.165800057725
138734693878 -0.126008660362 0.385502976495 -0.0160603541843 -0.0290299106126
 -0.02210515016 -0.0329519604358 -1.02375632908 -0.125150407934
138775510204 -0.133679600025 0.380490566479 -0.0136246930525 -0.0329131519727
 -0.020272814596 -0.0376851980831 -1.03711663031 -0.14515859163
138816326531 -0.145801206199 0.371213518015 -0.0121992448248 -0.0385991278305
 -0.0200616492669 -0.044499769171 -1.06527549176 -0.180730885289
138857142857 -0.1601342812 0.363424730317 0.00124785875336 -0.0379693991577
 -0.00476493478082 -0.0455983773824 -1.00644189929 -0.169825056137
138897959184 -0.1741545057 0.360934304081 0.00940702447784 -0.0419706696009
 0.00322984750628 -0.0517334747263 -1.00330395022 -0.214204153821
138938775510 -0.180935342399 0.353118561999 0.0202952737409 -0.0409324910164
 0.0155397972287 -0.0526518498711 -0.94854571838 -0.229668435731
138979591837 -0.190711518346 0.348451727461 0.0311351722686 -0.0403158452917
 0.0273116928103 -0.054270420247 -0.911170078575 -0.264353316256
139020408163 -0.20601881287 0.337727381856 0.0312008934319 -0.0401919950304
 0.0257284955009 -0.054361406442 -1.0110961548 -0.265946148244
139061224490 -0.218432330271 0.329907690286 0.0425994414324 -0.0273240214928
 0.0408295793662 -0.0432294802598 -0.916732204438 -0.263417109519
139102040816 -0.232223774702 0.322970940306 0.0452521676578 -0.0150877056219
 0.0454585890274 -0.0312187752708 -0.906461315246 -0.238698405277
139142857143 -0.249949496494 0.30737868338 0.0486543691737 -0.00768654516653
 0.0499336480323 -0.0250452679731 -0.906050813273 -0.267579249768
139183673469 -0.267312285104 0.301838816735 0.0493840352687 0.00337299772196
 0.0521312803924 -0.0143643991772 -0.91440086561 -0.271036351535
139224489796 -0.282452889445 0.286696193585 0.0520219446085 0.0271632287157
 0.0609488272213 0.00766348101125 -0.760508401518 -0.331946591268
139265306122 -0.299478609167 0.281337762633 -0.0469931377966 -0.0278003433597
 -0.0539176316439 -0.00934311213862 -0.897265173636 -0.279207371033
139306122449 -0.309430579787 0.273603297211 -0.0371753606612 -0.0383290641849
 -0.0463073202213 -0.0219913721731 -0.860616923174 -0.219533327486
139346938776 -0.313872058007 0.258265564768 -0.0255271512149 -0.0577849427792
 -0.0407000233113 -0.0422482710559 -0.675003457294 -0.230232197995
139387755102 -0.315323861208 0.23924999679 -0.022126552223 -0.0534406743532
 -0.035333581107 -0.0386591947737 -0.787565895479 -0.248534107086
139428571429 -0.324160906886 0.223536433531 -0.0100323186229 -0.0527545565464
 -0.0235759290643 -0.0406198706231 -0.795901062768 -0.193171901687
139469387755 -0.331114626929 0.208488715011 0.0103819976062 -0.0482178755113
 -0.00432650669389 -0.0412605427766 -0.767655124888 -0.0618734477243
139510204082 -0.329582772128 0.193356663195 0.0133216511906 -0.0472089653492
 -0.000962053039993 -0.0402434964854 -0.775884162136 -0.109071887416
139551020408 -0.328346531001 0.176988955406 0.0198042505632 -0.0448942155356
 0.00548876486086 -0.0391135141913 -0.774599822473 -0.11398633268
139591836735 -0.324897149199 0.165475298003 0.0245627204574 -0.0363658138767
 0.0118502632532 -0.0326593246586 -0.82571903805 -0.0796511757356
139632653061 -0.322277995914 0.150026362441 0.0333524483497 -0.0396633794435
 0.0186059116831 -0.0361232754046 -0.743681076159 -0.131500556079
139673469388 -0.320433141127 0.135132459361 0.0334398034301 -0.0353428103147
 0.0199264497506 -0.0321198047114 -0.789894755104 -0.145207801759
139714285714 -0.31970399741 0.122125185054 0.035581846634 -0.0229327357652
 0.0237982543459 -0.0222430987362 -0.81705723713 -0.0664986913977
139755102041 -0.316829905808 0.116989803333 0.0368926804311 -0.017141789316
 0.0257737642432 -0.0173607840568 -0.821055284234 -0.0540355200889
139795918367 -0.315783446502 0.105118821256 0.0406975734773 -0.0144572839741
 0.0291561493623 -0.0151594897282 -0.78179131468 -0.067832919944
139836734694 -0.312710899824 0.0983271427802 0.0336390747603 -0.00462027177009
 0.0248607478043 -0.00636541187235 -0.863222753963 -0.0147406467504
139877551020 -0.303097643532 0.0915216577293 0.0372782221179 -0.0040486174611
 0.0279161759846 -0.00576065791555 -0.824594049755 -0.0478941885104
139918367347 -0.297901093514 0.0825472444609 0.0336714022693 -0.0016653334017
 0.0255081834334 -0.00323274306345 -0.858664558525 -0.0570411011609
139959183673 -0.289650156404 0.0792628334832 0.0315618884529 0.00348364034715
 0.0243361830471 0.00125420498305 -0.867256564224 -0.0386876618674
140000000000 -0.28912039744 0.0654682480481 0.0307859297696 0.010102756171
 0.0241341942709 0.00673916892262 -0.852030529321 -0.000695627648739
140040816327 -0.286006744985 0.0655764145525 0.0271373539668 0.0106584563
 0.0213634044689 0.00776857602916 -0.879314388529 -0.0268101690772
140081632653 -0.283317572455 0.0635364202986 0.0253998984229 0.0103752359866
 0.0200401432685 0.0078358297308 -0.893565114973 -0.0445337371405
140122448980 -0.282099806672 0.0586029938741 0.0215820444737 0.0147293716291
 0.0171684693129 0.0115443050991 -0.89741506098 -0.0067475946123
140163265306 -0.272704450774 0.0629768468643 0.0233814161554 0.0136694212185
 0.0186514798231 0.0110615295794 -0.89060672317 -0.0596489562094
140204081633 -0.269769267872 0.06012657095 0.0193224574917 0.0182661066085
 0.0153809240825 0.0149922373565 -0.882143806996 -0.0221172837996
140244897959 -0.269317452984 0.0521290689991 -0.0221378931774 -0.0202639758743
 -0.0176751788895 -0.0168839542926 -0.842609783147 -0.0647981734554
140285714286 -0.261831657434 0.0468497134705 -0.0168623923619 -0.0218711935023
 -0.013338019121 -0.0183487503628 -0.860808584937 -0.031493297142
140326530612 -0.265946428479 0.043519299968 -0.0131410408682 -0.0222914147207
 -0.0102052197023 -0.0188663333902 -0.875258769812 -0.0253076991373
140367346939 -0.272260241276 0.0409082881648 -0.00826744888563 -0.0201474104527
 -0.00620147616644 -0.0171239024116 -0.915575449672 -0.00990247502318
140408163265 -0.272175115259 0.0373968928987 -0.00932547605571 -0.0248896256054
 -0.0068632325756 -0.0213239616335 -0.857845383856 -0.0268261154971
140448979592 -0.273164475182 0.0347260724774 -0.00970001114356 -0.0188310007517
 -0.00732190557272 -0.0164412132146 -0.933602468361 -0.0688467580126
140489795918 -0.275297503778 0.0250103744427 -0.00516178904513 -0.0171869310881
 -0.00354316356079 -0.0149630297822 -0.950465704949 -0.0383200322241
140530612245 -0.278951870807 0.018335014969 -0.00284170471573 -0.0221910074052
 -0.00129381032649 -0.0193078106752 -0.90618005015 -0.0344161500283
140571428571 -0.27984750564 0.0107268031743 -0.00502196851762 -0.019346429482
 -0.00327908327892 -0.017149132433 -0.948097783706 -0.0682072927229
140612244898 -0.282896450402 0.00749980364498 0.00205471350812 -0.0204900289729
 0.00298997685608 -0.0179092801192 -0.925249482124 -0.0255420655697
140653061224 -0.284751349859 -0.00532639359301 0.00159859970474 -0.0201486861423
 0.00253908460093 -0.017762507899 -0.932157335576 -0.0407945777857
140693877551 -0.28287120506 -0.0143660538183 0.00291781732128 -0.0209593019614
 0.00375853359632 -0.018511709652 -0.925929427638 -0.0475257036721
140734693878 -0.280866096384 -0.0133356722382 0.00703375160122 -0.0225194775624
 0.00755787495001 -0.0197639030502 -0.898231889581 -0.0416494463144
140775510204 -0.276700111709 -0.0238691178679 0.0106558874037 -0.0208242839536
 0.010746217509 -0.0181408177867 -0.899746255982 -0.017568262091
140816326531 -0.273392974035 -0.0309539964402 0.015813430336 -0.0197503806591
 0.0154334539591 -0.016978527695 -0.883877536321 0.0115166361744
140857142857 -0.265411670972 -0.0341249602183 0.0110270572465 -0.0134508719093
 0.0108137520633 -0.0116222364429 -0.95604083428 -0.0162558617429
140897959184 -0.251280776161 -0.0475710487104 0.0132114584456 -0.0190309065196
 0.0131813368354 -0.0166394271497 -0.919045225541 -0.0613869611233
140938775510 -0.242591594034 -0.0690007293848 0.0200247076268 -0.0181712622585
 0.019378603553 -0.0155223916121 -0.875699597086 -0.0337650100638
140979591837 -0.244672703898 -0.0850025318422 0.0173775335236 -0.015843505346
 0.0167665315715 -0.0136313759494 -0.921350884183 -0.0416690608999
141020408163 -0.243007755372 -0.0989792203869 0.0208781831397 -0.0193695480335
 0.0201077133896 -0.0167664535015 -0.886975691096 -0.0711679128424
141061224490 -0.233986588983 -0.100844143834 0.0235549438884 -0.0104854608738
 0.0220633380018 -0.00854531326073 -0.90239778319 0.00636971420804
141102040816 -0.220636672605 -0.112401904846 0.0212488720922 -0.0113224982248
 0.0198814383327 -0.00946009899162 -0.910370391014 -0.0245901498266
141142857143 -0.216167672432 -0.118097460048 0.0209928668306 -0.0117913753574
 0.0195540352512 -0.00986031272916 -0.908266097346 -0.0499202324573
141183673469 -0.212849165123 -0.125246160841 0.0218597367784 -0.00990160402732
 0.0201303249086 -0.00807379683222 -0.901183144596 -0.0531725054958
141224489796 -0.200715009849 -0.125674852237 0.0232133559862 -0.00919689188681
 0.021205572367 -0.0073611753337 -0.89043428352 -0.068965535252
141265306122 -0.185134043211 -0.134381509842 0.0212708043677 -0.00146028971525
 0.0190443521281 -0.00046143538688 -0.917537078619 -0.0117026639453
141306122449 -0.178752509407 -0.144318486141 0.0245146661863 -0.000658114829051
 0.0217850197334 0.000433770674179 -0.886473883938 -0.0256379376488
141346938776 -0.17187101952 -0.153412636658 0.0216537615625 -0.00236029384046
 0.0192791286307 -0.00123611058667 -0.921254059892 -0.0506964612749
141387755102 -0.161573256599 -0.173516613588 0.0254035850308 -0.00152693246261
 0.0223863010279 -0.000323690962758 -0.886439590761 -0.0796264587645
141428571429 -0.156901851067 -0.171637890408 -0.0114706887862 0.00607915136847
 -0.0102481992195 0.00487147106357 -1.01067900554 -0.0522325307367
141469387755 -0.150626968612 -0.172309935724 0.0204959183585 -0.0044327428919
 0.0179537426106 -0.00309481847566 -0.964676260042 -0.0963283226336
141510204082 -0.137177019396 -0.174396428736 0.0231785123401 0.00378114159235
 0.0198628906885 0.00404295496191 -0.894421079875 -0.0621418552143
141551020408 -0.124138686685 -0.176561689584 0.0191598438772 0.00316599098548
 0.0162845393495 0.00329514293191 -0.936236061904 -0.0643061920958
141591836735 -0.121134251895 -0.180034871875 0.0175593811806 0.00672272147184
 0.014773047352 0.00620666454146 -0.927437383283 -0.0351210749233
141632653061 -0.112588073986 -0.183088681019 0.0174725884423 0.0065118425981
 0.0145837171971 0.00590561461212 -0.930339068565 -0.0541336028798
141673469388 -0.100532607681 -0.17579657419 0.0181634414706 0.0110430068267
 0.0150218163426 0.00958530146245 -0.887900102958 -0.0356355870332
141714285714 -0.0794720886292 -0.176559044067 0.0153352491918 0.0115674658477
 0.012586981232 0.00981907084191 -0.907614411293 -0.0239544184365
141755102041 -0.0684973451884 -0.173874803804 -0.0163306251934 -0.00878763136187
 -0.0133677673319 -0.00735820706098 -0.926414374286 -0.0715889683127
141795918367 -0.0463206243263 -0.179995093367 0.0154971091877 0.0139596385391
 0.0126147931451 0.0114095448519 -0.877501763214 -0.0428005198737
141836734694 -0.0345808433455 -0.174757323484 0.0115815526039 0.0115039537821
 0.00943625898859 0.00923668215477 -0.929936724384 -0.0374076784015
141877551020 -0.0234213026553 -0.174882674465 -0.0104936480475 -0.0128006978099
 -0.00858215748498 -0.010103840331 -0.923452679319 -0.0362706809194
141918367347 -0.0162967699608 -0.173136828081 -0.00926170560424 -0.0123330661025
 -0.00764127098431 -0.00963295708857 -0.932989738305 -0.0357587191388
141959183673 -0.00222219975874 -0.170760191895 -0.010204697318 -0.0135503494061
 -0.00847352540548 -0.0104284775057 -0.915944536045 -0.0561150321685
142000000000 0.00344939222705 -0.163840585196 -0.00880426913218 -0.0141553623873
 -0.00747673461847 -0.010794659395 -0.915542368624 -0.0543726124114
142040816327 0.0116102700873 -0.15852235279 -0.00853128202211 -0.0132128981611
 -0.00731260797246 -0.00995523391585 -0.930976221118 -0.0643168249665
142081632653 0.0221158117839 -0.156994676488 -0.00572112457581 -0.0125059964566
 -0.00519480888847 -0.00943330984043 -0.945901307384 -0.0441366546937
142122448980 0.0242824765656 -0.151826065214 -0.00480839425208 -0.0173019287032
 -0.00496049717862 -0.0131327522063 -0.886819039714 -0.0433957774365
142163265306 0.025343872524 -0.152304132641 -0.00206912698751 -0.0141998766989
 -0.00272284897801 -0.0108895421503 -0.931304235577 -0.022956353588
142204081633 0.0211214253392 -0.141237248778 2.70758355689e-05 -0.0167510109497
 -0.0014801718153 -0.0130878372873 -0.896637591375 -0.00702410709742
142244897959 0.0255609923731 -0.133328348814 -0.00123041368967 -0.0141840358419
 -0.00240348569356 -0.0109424400174 -0.93397516865 -0.0368009094597
142285714286 0.0268800971473 -0.13065258394 -0.00318323816907 -0.0134750012528
 -0.00401328483376 -0.0101711742451 -0.954332831775 -0.0657035210983
142326530612 0.0244033171172 -0.129796659263 0.000836388471279 -0.0170215119094
 -0.00147625294584 -0.0134122349958 -0.902771119675 -0.0416605636441
142367346939 0.0287183324381 -0.120024509393 0.00805393762906 -0.0166674624826
 0.00401718588 -0.0141539364595 -0.907850398619 0.0496438618243
142408163265 0.0268910124467 -0.117954534282 0.00621727571499 -0.0176390097602
 0.00224802519116 -0.0147417518862 -0.893771051749 0.00875776547725
142448979592 0.0293156433808 -0.121627169679 0.00449533120546 -0.0176276193134
 0.000750957989766 -0.0145343536445 -0.902819607436 -0.0281860792975
142489795918 0.0233724402072 -0.124177398689 0.00415977460078 -0.0170512064981
 0.000528270538188 -0.014121967278 -0.914002794405 -0.0305124774641
142530612245 0.017913680389 -0.118943905036 0.0079898475917 -0.0117434265846
 0.00438263257022 -0.0106277350542 -0.960333330641 0.0125047952604
142571428571 0.0159115815663 -0.115404042749 0.00850937670519 -0.0171043083192
 0.00383872939483 -0.0150600256514 -0.895257329469 -0.00505573856032
142612244898 0.0216506768151 -0.117137519065 0.00827627494766 -0.0165210049664
 0.00370188081132 -0.0146482759359 -0.899740191116 -0.0205998408697
142653061224 0.0222025439994 -0.123053382925 0.00594407889569 -0.01334757892
 0.00233696921067 -0.0117499465425 -0.946884315372 -0.040347873292
142693877551 0.0223533358022 -0.121510915044 0.0118000983991 -0.00648233111564
 0.0082655291714 -0.00738128609644 -0.979457737432 0.0238901953225
142734693878 0.0280696686794 -0.125831219193 0.00698239109896 -0.0164611612791
 0.00249231522466 -0.014566654497 -0.938069363792 -0.0814781562079
142775510204 0.0308165838148 -0.127577578085 0.0121584387422 -0.0101687763149
 0.00779189645148 -0.0105872723821 -0.945675660421 -0.00963284550518
142816326531 0.0392588879447 -0.125631749878 0.0149633502242 -0.0106051939745
 0.00985922846637 -0.0116099684251 -0.929605637277 -0.00446851622066
142857142857 0.0407951223882 -0.134223534202 0.0139590716543 -0.0182817344148
 0.00732030405166 -0.0176307127162 -0.905150112717 -0.0842533009934
142897959184 0.0449767277982 -0.133793053111 0.0163822720399 -0.00400637747979
 0.0122212976 -0.00677021961116 -0.9712063697 0.0232414843525
142938775510 0.0448128999459 -0.131978072694 0.0213204603 -0.012407064155
 0.0141584876239 -0.0146736428521 -0.883962851566 -0.0129635709331
142979591837 0.0538987157904 -0.134413011583 0.021760402919 -0.0106145426368
 0.0147353178487 -0.0133663210208 -0.895911806738 -0.0102296535647
143020408163 0.0636810322354 -0.142497467592 0.0193194548512 -0.00983007964235
 0.012807525584 -0.0122026525078 -0.924461259969 -0.0333955649073
143061224490 0.0669399196171 -0.146943963117 0.0223350844461 -0.00710773960696
 0.0155382553688 -0.0108591672234 -0.912255909918 -0.0181667324906
143102040816 0.0710263445776 -0.147124896637 0.0192894625774 -0.00318392009396
 0.0139033174428 -0.00719644523094 -0.947888509911 -0.0118729035944
143142857143 0.0784486289566 -0.147185802304 0.0197519813575 -0.00118785883992
 0.0145000469245 -0.00587388271154 -0.948997023963 -0.00820315805388
143183673469 0.0912870268572 -0.147485602419 0.0246454129208 -0.00255950469806
 0.01744701781 -0.00825438465874 -0.91095845191 -0.0299312332862
143224489796 0.0982390341789 -0.152102257029 0.0254597633281 0.00550973178255
 0.0197864412028 -0.00283155692607 -0.915197412491 0.0248519771738
143265306122 0.109292815803 -0.152713493208 0.0248291019165 8.37709074284e-05
 0.0173373566792 -0.00672618248001 -0.919876279393 -0.0445852370032
143306122449 0.110479370557 -0.157658415576 0.019890710001 0.0132631044072
 0.0172864711015 0.00351636154964 -0.956695400014 0.0381446160204
143346938776 0.116378109561 -0.148509201142 0.0271403041368 -0.00227250367413
 0.0176746342896 -0.00955377344935 -0.929110221199 -0.097201883342
143387755102 0.12654187901 -0.146058468544 0.0231856583434 0.00950790557478
 0.0181420705894 -0.00115271525711 -0.912584368149 -0.019419806643
143428571429 0.138189068888 -0.145071246487 0.0150334165788 0.00944129840892
 0.0124647629399 0.000820861664704 -0.962875889908 -0.01681555059
143469387755 0.14820977243 -0.148047392401 0.0175609622987 0.00979637840352
 0.0136188898761 -0.00046985060359 -0.948979415509 -0.0382596502731
143510204082 0.159155936792 -0.144279194541 0.010006179844 0.0196155508224
 0.0124753493767 0.00676525831605 -0.954216234296 0.0286786007214
143551020408 0.17130089563 -0.14277721572 0.0103289712533 0.0136036322765
 0.0100941416516 0.00255853902637 -0.967965983024 -0.0189453103414
143591836735 0.180555101602 -0.143320363793 0.00994703871223 0.0165663384179
 0.0108366663278 0.00295890769964 -0.952198255362 -0.0229231599386
143632653061 0.188019915935 -0.143509975681 0.0109969938737 0.0139612078971
 0.0098473262221 0.000602479387616 -0.970513934655 -0.0504943498185
143673469388 0.198628103396 -0.136179669912 0.00594645983417 0.0181534010232
 0.00987864284994 0.00246402749412 -0.953163103743 -0.0393072438978
143714285714 0.2080889314 -0.13194788413 0.00725134316422 0.0196324644241
 0.0107151585416 -0.000561105975206 -0.955171139876 -0.085272373938
143755102041 0.219740997015 -0.121291325783 -0.00212827667196 0.0195950460334
 0.0107346192071 0.0010914567197 -0.923701974117 -0.0555815737026
143795918367 0.237914463069 -0.11831773406 -0.00712164335681 0.0141351484353
 0.00985934337563 0.0013198507718 -0.932470116608 -0.0349841835648
143836734694 0.253938314341 -0.118921605239 -0.01119582169 0.00707345084609
 0.00982800168971 0.00345786335592 -0.933638371459 0.0057732645257
143877551020 0.265250119522 -0.119933815301 -0.00947704621727 0.00338039454328
 0.0102650419033 0.0034056144754 -0.935988123627 -0.00072391340412
143918367347 0.273320117201 -0.116704809706 -0.00622602254716 -0.000596919369226
 0.00865740542188 0.00410799094643 -0.966423864562 0.00301990743527
143959183673 0.285213641505 -0.110119880755 -0.00633013221103 -0.00079710143719
 0.0147600262799 0.00140081898666 -0.895865566674 -0.0442080162701
144000000000 0.292738149965 -0.107956521398 -0.00298657780379 -0.00170603558476
 0.0102400119831 0.00112335450608 -0.96764910929 -0.0388167611427
144040816327 0.218635653607 0.144552169556 0.00427275358052 -0.0174355596149
 0.00226820476856 -0.0267667457596 -0.907295154694 -0.0833670938542
144081632653 0.21358480541 0.144180889293 0.0095962806658 -0.0126493253921
 0.010778240061 -0.0205643459418 -0.928034773308 -0.0161790200391
144122448980 0.201357298783 0.146862706695 0.00871881290775 -0.012426108088
 0.00923459516148 -0.0196614911207 -0.943100876391 -0.036737702981
144163265306 0.191027714838 0.148659184749 0.00844295486368 -0.0148808180996
 0.00791220363593 -0.0226863999973 -0.941858517426 -0.0716859480336
144204081633 0.174939551377 0.152629566022 0.004544941796 -0.00618312515286
 0.00455302505003 -0.00955594706461 -0.999695255388 -0.0347802830578
144244897959 0.173731787867 0.154872330298 0.0040308925199 -0.0089340916
 0.00300103724458 -0.0129760547126 -1.00410359484 -0.0490095980827
144285714286 0.167316888128 0.147330194356 0.0164387219986 -0.00482012834098
 0.0202601261619 -0.0107817860059 -0.947468162968 -0.00435397767408
144326530612 0.157205671802 0.14431315571 0.0171750658955 -0.00838962611243
 0.0198508537139 -0.0155906026964 -0.934996675991 -0.044393953908
144367346939 0.15495098366 0.141403357594 0.0193619141725 -0.00656867483581
 0.022996730863 -0.0140190222885 -0.921808662902 -0.0404141788868
144408163265 0.145644324556 0.141317694417 0.0132856227612 -0.00756364719562
 0.0146247964702 -0.0135407692496 -0.978370788528 -0.0589886470408
144448979592 0.139803682622 0.129752410614 0.0142118921295 -0.00591150959793
 0.0160060414506 -0.0117471577366 -0.979260070808 -0.0570279706845
144489795918 0.131008320381 0.124410754801 0.013247163584 -0.00357016321673
 0.0153339300487 -0.00859255029064 -0.985486567283 -0.0484496962144
144530612245 0.12856814627 0.11972306611 0.0231023106842 -0.000345973379384
 0.0284565283712 -0.00789316084087 -0.920287911417 -0.0605497519895
144571428571 0.12416637118 0.114165318289 0.0166658163181 -0.00357849443141
 0.019395058588 -0.00991729928526 -0.980339758374 -0.0682234103672
144612244898 0.127355603969 0.112168650105 0.015262723876 0.0056778463416
 0.0207783242814 0.00180739744047 -0.965157774094 -0.0247023253258
144653061224 0.13086741465 0.108798499224 0.0200849054613 0.00460118374212
 0.026408150783 -0.00134150571234 -0.941615672092 -0.0548630456523
144693877551 0.137523907158 0.0978009412342 0.00123203796791 0.00434495136813
 0.00306723145128 0.00493134495318 -1.01186239092 -0.0253953340707
144734693878 0.138124049424 0.0966068684516 0.018236333909 0.00871847386623
 0.0257944749932 0.00421567674491 -0.941247771229 -0.0450096368222
144775510204 0.141977066592 0.0857975744428 0.0142979554507 0.0040649551924
 0.0194644284823 -0.000303938545153 -0.98238338826 -0.0572915390442
144816326531 0.14982776696 0.0856640853869 0.015552500147 0.0102907316485
 0.02360788598 0.00706313725579 -0.949092509524 -0.050265499602
144857142857 0.161113338776 0.0822344141692 0.0134266037795 0.00826017567736
 0.0203475425708 0.00539369176183 -0.971348356467 -0.0542076766494
144897959184 0.168437757085 0.0795428449475 0.0123750317205 0.00725572003654
 0.0187546662006 0.00466847191434 -0.980355575631 -0.0552659178211
144938775510 0.177962710618 0.0811031057081 0.0147897999671 0.00954359465543
 0.022967581228 0.00697685098889 -0.963569896347 -0.0723081287909
144979591837 0.193114792949 0.0839791454778 0.0129267549642 0.00912619356908
 0.020542680744 0.00744666173938 -0.974508834255 -0.068786146064
145020408163 0.199075298522 0.0891334891181 0.0134182381204 0.00918241769557
 0.0211665079129 0.00771590658198 -0.973498315474 -0.0749611915366
145061224490 0.217459220416 0.0972826866422 0.0114635669476 0.0114525257391
 0.0192501687778 0.0119688409453 -0.96297416267 -0.0672464269167
145102040816 0.237081445073 0.110116584747 0.00355910809923 0.0135805667572
 0.00869798842113 0.0177026316146 -0.966252903065 -0.0149418766261
145142857143 0.26126213929 0.119181137281 0.00863899149387 0.0112766553823
 0.014743733521 0.0135321414167 -0.970149572051 -0.0584473808176
145183673469 0.275876762495 0.121397689563 -0.0101901468402 -0.00687562070761
 -0.0156805585783 -0.00732624696261 -1.00112660228 -0.0659919594401
145224489796 0.289594459356 0.126708237837 -0.00804849475491 -0.00782126221901
 -0.0127002973346 -0.0092777770842 -0.994827956243 -0.0568384068499
145265306122 0.297886650781 0.135826747903 -0.00683588390477 -0.012265062946
 -0.0115282023107 -0.0157301062648 -0.97064764216 -0.0576425971167
145306122449 0.307746131554 0.153005784505 -0.00879182365657 -0.0128989697617
 -0.0138340554143 -0.0163374312256 -0.971022520795 -0.074102273386
145346938776 0.317586041747 0.164213558458 -0.0105196936009 -0.00902553810678
 -0.0152726873369 -0.0109021833675 -1.00630784825 -0.0748767332545
145387755102 0.325219176655 0.178374886507 -0.0113337031599 -0.00742846388381
 -0.0159075314948 -0.00869663416464 -1.02331644413 -0.0700084585893
145428571429 0.333811056409 0.197622278587 -0.00847585237026 -0.0134162050508
 -0.0123944703209 -0.0169258218436 -0.982906357838 -0.0812794679409
145469387755 0.343115645377 0.215201811294 -0.0157469482521 -0.0143840602588
 -0.0216198225159 -0.0175557051069 -1.03523527676 -0.125410701618
145510204082 0.345876724088 0.22889014995 -0.0110558331105 -0.0194748651637
 -0.0155442441833 -0.0244953981751 -0.987876296137 -0.133559827166
145551020408 0.350798890969 0.240116688068 -0.00853628437452 -0.0144975081619
 -0.011704930566 -0.0181602165839 -1.00065651629 -0.0882549655089
145591836735 0.347435579317 0.268626548769 -0.00882383257273 -0.00992258166011
 -0.0116139445086 -0.0122313357265 -1.02043253384 -0.0635575737511
145632653061 0.34386116857 0.284736657177 -0.00976028290851 -0.0145354618206
 -0.0127678026847 -0.0179602226584 -1.01406558096 -0.0867140598176
145673469388 0.346458072496 0.305741311465 -0.00469478112222 -0.0198162045232
 -0.00636419973736 -0.024601317157 -0.981845718266 -0.0940145799492
145714285714 0.336127519443 0.324052397444 -0.000773686177544 -0.021967495761
 -0.00136327683109 -0.0272267676073 -0.962434444233 -0.0885317557086
145755102041 0.333570060419 0.336522606106 0.00885353741478 -0.0203742215701
 0.0107324577272 -0.0252859185146 -0.937768960268 -0.0293221272079
145795918367 0.315118844709 0.357146858749 -0.00371131801415 -0.0291177286038
 -0.00480697507697 -0.0357806890744 -0.975302282018 -0.147540997747
145836734694 0.305222424189 0.37885785593 0.00387970014495 -0.020334557619
 0.00468507114112 -0.0249031826409 -0.962730696177 -0.0680468563201
145877551020 0.297891748387 0.408786558382 -0.00557856933867 -0.0179890166418
 -0.00673413696515 -0.0218936663979 -1.01897487409 -0.075482615026
145918367347 0.290971169989 0.424100959925 0.000848163251551 -0.0199027998028
 0.00119007515673 -0.0240684873892 -0.997036359168 -0.0758118758507
145959183673 0.281987929173 0.441161303161 0.00435876198161 -0.0250658416785
 0.00560823124399 -0.0301325039757 -0.982553420705 -0.0929135086228
146000000000 0.282785810611 0.456333749086 0.00372844439445 -0.0183415965782
 0.0048345659137 -0.021943790905 -0.997213157127 -0.0635782356828
146040816327 0.267427166698 0.470277814987 -0.000556779494503 -0.0281501339054
 2.17049363201e-05 -0.0337116939793 -1.02213874957 -0.0986343414375
146081632653 0.259156752507 0.481679921093 -0.0145160467713 -0.0306760994967
 -0.016403862538 -0.0370291532794 -1.09033586506 -0.0679654020075
146122448980 0.242495895316 0.487957418562 0.00319063340257 -0.0220435784209
 0.00457498534871 -0.0261590963575 -1.01195621628 -0.0743842019779
146163265306 0.222453436208 0.498313841356 0.00460235948863 -0.0184837045086
 0.00610145919868 -0.0218297527343 -1.01254114007 -0.0623081818993
146204081633 0.209149878823 0.513846268231 0.0193004305712 -0.0307204965072
 0.0239646768855 -0.035631737568 -0.979596204511 -0.118992246968
146244897959 0.193642228357 0.523576498268 0.0249297727135 -0.0145341717667
 0.0299527493117 -0.0161760370429 -0.959794159798 -0.0531444236548
146285714286 0.180896834106 0.528138858549 0.0274374750842 -0.017703738903
 0.0329831944232 -0.0198350088065 -0.954386394659 -0.0754901813502
146326530612 0.159408706086 0.533304405747 0.0305111965369 -0.0216927129535
 0.0366047382679 -0.0243166582126 -0.956238018305 -0.102250207821
146367346939 0.13430506279 0.540516332207 0.0290771306476 -0.021975294115
 0.0347737744804 -0.0246327095887 -0.977540913964 -0.104167408437
146408163265 0.11055928029 0.545221006919 0.0396943990926 -0.0152601818844
 0.0468340762654 -0.0165037068499 -0.939753616925 -0.106600834942
146448979592 0.0903186214325 0.549622124967 0.0408654126568 -0.0272817079244
 0.0483626352881 -0.0305271324845 -0.992066720716 -0.151479075587
146489795918 0.0700663568327 0.553988430339 0.0339340069303 -0.0143724210667
 0.0397557342758 -0.0157946767159 -0.985768056713 -0.0937416923056
146530612245 0.0507730367397 0.55812706718 0.0408158822924 -0.0107588099222
 0.0475228120587 -0.0115689935285 -0.974550797996 -0.107937009053
146571428571 0.0313173036586 0.55734280748 0.0288012949634 -0.0099669802264
 0.0335300257506 -0.0109418624085 -1.00068694554 -0.0757494001896
146612244898 0.00704420994859 0.562318328052 0.0442283501762 -0.00337139461393
 0.0512793708233 -0.00319391160044 -0.973611900476 -0.114779164767
146653061224 -0.00876324468353 0.564672735785 0.0438569462007 0.00231573979874
 0.0508530137122 0.0031571275412 -0.975244658181 -0.115358362915
146693877551 -0.0243991604915 0.559714051112 0.0497191414516 0.00729895548081
 0.0578103493481 0.00877452105557 -0.969858119268 -0.141269582455
146734693878 -0.0452587176455 0.548543355572 0.049369408771 0.00933669607467
 0.0574101698015 0.0109784931001 -0.978980567372 -0.145099101681
146775510204 -0.0573990227763 0.551737946661 0.0464291641398 0.012729829604
 0.0541679555402 0.0146137133668 -0.991500157907 -0.137849903444
146816326531 -0.0811774743338 0.537794609394 -0.0294600237897 -0.00130576449646
 -0.0344039169003 -0.00119224804439 -1.02491086991 -0.0699214260342
146857142857 -0.0956286962426 0.53172867406 -0.0396468737633 -0.023995272752
 -0.0468121085264 -0.0272879832792 -0.986588927274 -0.126479429311
146897959184 -0.114099231036 0.524226360527 -0.0417382472074 -0.0311514861531
 -0.0495667455711 -0.0353015434741 -0.985422024312 -0.14613572564
146938775510 -0.131067468081 0.513993638457 -0.0396645137326 -0.0343737205335
 -0.0475579854211 -0.0387316773608 -0.998767834814 -0.14400598078
146979591837 -0.148214126394 0.508089867906 -0.0440233429624 -0.0355086542142
 -0.0528396065606 -0.0396048207724 -1.02672007591 -0.15120255235
147020408163 -0.161202482064 0.492368914747 -0.0352489591764 -0.0459616498316
 -0.043368889123 -0.0520650410945 -0.9917640357 -0.164015552816
147061224490 -0.176643226325 0.49048594514 -0.0317455766852 -0.0440593117814
 -0.0396988971964 -0.0498157017421 -1.01351651975 -0.148808262253
147102040816 -0.190044189029 0.482241382806 -0.0324762004421 -0.0383736426516
 -0.0407204604091 -0.042903312864 -1.0456836918 -0.120952790707
147142857143 -0.20001137844 0.480005952842 -0.0321027523399 -0.0471635484039
 -0.0414328777128 -0.0530853236486 -1.05963916654 -0.145509504432
147183673469 -0.20389291865 0.46806699882 -0.00811748576198 -0.0482448606459
 -0.0139531623325 -0.0562673428696 -0.991527642313 -0.12959033428
147224489796 -0.206754994921 0.458264616014 -0.0061409243746 -0.0496087419861
 -0.0124989181085 -0.0580634492865 -1.00634086497 -0.131905163276
147265306122 -0.217381274839 0.450588197692 -0.0175834765825 -0.0654395143693
 -0.0288644205294 -0.0754519053573 -1.09332217878 -0.178175187505
147306122449 -0.229635877875 0.44166781945 -0.0150634907854 -0.0529949514785
 -0.0251677451656 -0.0607301782166 -1.08154463177 -0.116069289287
147346938776 -0.240918618779 0.435564454218 0.00482092413033 -0.0678280524586
 -0.00483136407169 -0.0809950304979 -1.0610811429 -0.193627740043
147387755102 -0.250220526805 0.434754520267 0.0182238429099 -0.0736587680617
 0.00843203043231 -0.0901712228291 -1.0628488702 -0.231202315323
147428571429 -0.259534465312 0.42504423142 0.020467067673 -0.0693438439281
 0.0102338036674 -0.0856063920044 -1.08297186839 -0.201880404877
147469387755 -0.266748697122 0.422424613926 0.0513223714458 -0.0680324437509
 0.044613962428 -0.0908776518505 -1.01860535448 -0.292838258149
147510204082 -0.283367929539 0.413668430827 0.0422068759735 -0.0510915501692
 0.0356271932327 -0.0695132364773 -1.03807740619 -0.185445233434
147551020408 -0.295506180219 0.407302390732 0.0499155841934 -0.0545758659386
 0.0412682339594 -0.0756286671581 -1.07923202582 -0.196594327125
147591836735 -0.315187188331 0.403818537892 0.0816410484368 -0.0352557109132
 0.0798540296559 -0.0633998715108 -0.990373091743 -0.280771915633
147632653061 -0.335534882291 0.399196480583 0.108117790738 -0.018438438456
 0.110110961632 -0.0544726379631 -0.967151422072 -0.374674244999
147673469388 -0.358610464225 0.386673288297 -0.11500790486 0.0106390079543
 -0.11627764191 0.0496682969168 -1.02719815899 -0.380501388619
147714285714 -0.384735986584 0.369191047088 -0.112364375564 -0.0428158589611
 -0.127194507258 -0.00401913668784 -0.859544008451 -0.375759094302
147755102041 -0.412980029443 0.345037497984 -0.0919849144573 -0.080758603473
 -0.115976681418 -0.0454035807066 -0.775637578093 -0.323145883132
147795918367 -0.433919634561 0.31199633813 -0.0855629697215 -0.111747785966
 -0.115986076751 -0.0729778518064 -0.776163094436 -0.415232281852
147836734694 -0.435857887511 0.283600375936 -0.0248115170614 -0.127591344247
 -0.0634599280788 -0.103599643337 -0.641542582149 -0.208159272817
147877551020 -0.433334185701 0.242002587397 -0.00676686983797 -0.1317980503
 -0.0463974131777 -0.108911575159 -0.679221846942 -0.271105519379
147918367347 -0.423484717726 0.209762861434 0.0258512727889 -0.125865974811
 -0.0149665564753 -0.109449897955 -0.659629192585 -0.246055433359
147959183673 -0.4043635334 0.178141040981 0.0444295316058 -0.0994242559609
 0.00927416612178 -0.0894493023892 -0.73999945213 -0.18232349159
148000000000 -0.379718964929 0.152469305207 0.0691757796789 -0.0683588416393
 0.037676243141 -0.0674550975947 -0.737753327218 -0.0879149108903
148040816327 -0.364216245801 0.141661122802 0.0544264384141 -0.067542359337
 0.0279071125081 -0.0611254510914 -0.846056852139 -0.201527277051
148081632653 -0.3451850921 0.125802647284 0.0680323243179 -0.0306867030039
 0.0455122696735 -0.0337102129793 -0.81451100089 -0.0674316388956
148122448980 -0.329125247282 0.114584150748 0.0693814257875 -0.0296034766099
 0.0471413269806 -0.0314679184401 -0.806736803541 -0.128620452781
148163265306 -0.317728946917 0.102945113485 0.0757094029391 -0.0113517801502
 0.054711903594 -0.0171150744872 -0.758394467159 -0.0779826018913
148204081633 -0.310439833802 0.0960399283119 0.0737058203575 0.00265602600648
 0.0550004880606 -0.00504928463575 -0.754737159939 -0.0507530929505
148244897959 -0.300725874638 0.0842949067911 0.0621341144472 0.0162000585883
 0.0477415411696 0.00703676526809 -0.812597355685 -0.00517168517444
148285714286 -0.291564966365 0.0815195227035 0.063157583817 0.0130349909753
 0.0483417589444 0.00591732473487 -0.80009772758 -0.101613844169
148326530612 -0.279721676323 0.0757401967967 0.0589283317786 0.0229825347701
 0.0457738729667 0.0143781545218 -0.78831447997 -0.0796383893599
148367346939 -0.263873926091 0.0739560086829 0.0404696888105 0.0373682060559
 0.032480165584 0.0266416885868 -0.849701828589 0.0253948878615
148408163265 -0.248704752482 0.0719126881873 0.0401249593147 0.0287518340334
 0.0318068119227 0.0207264273722 -0.863903975736 -0.0615685882934
148448979592 -0.232682344883 0.0680093501834 0.0379344345162 0.0367970868678
 0.0303542789974 0.0275010377075 -0.832565355092 -0.0556381137035
148489795918 -0.219400943516 0.0617021849573 0.0354138626269 0.0395749624287
 0.028542400484 0.0300696116158 -0.824590336503 -0.0677402750276
148530612245 -0.203637815228 0.0508702499693 0.0156357430509 0.0392560425497
 0.0131292308204 0.0304822210983 -0.895574593291 -0.000448958029102
148571428571 -0.188004753572 0.0470775339593 -0.0171412701114 -0.0434208536187
 -0.0143774813284 -0.0339859247994 -0.857552437493 -0.0200560068842
148612244898 -0.177632053316 0.0429589271595 -0.013724658611 -0.0443410661158
 -0.0117974811224 -0.0349533249866 -0.853658873975 -0.0243049238143
148653061224 -0.172146843768 0.0408269050503 -0.00538095015949 -0.0393225789458
 -0.00504828237398 -0.0313863652319 -0.894828853114 -0.0151610304459
148693877551 -0.152986718757 0.0509336453443 -0.00158792495855 -0.0483931372624
 -0.00230642233337 -0.0391165388352 -0.832646013867 0.00259432737221
148734693878 -0.143106202023 0.0551156485711 -0.00225456622578 -0.0458178248304
 -0.00299218171102 -0.0373769935108 -0.840591765385 -0.035134453837
148775510204 -0.130700739241 0.0577547918894 -0.00198366010945 -0.0375666412289
 -0.00256355291661 -0.0309584753668 -0.895708595056 -0.0597284318585
148816326531 -0.118405525238 0.0624019154273 0.00877216568848 -0.0440224889831
 0.00619366520801 -0.0369940602046 -0.84634505407 -0.0104409398057
148857142857 -0.113169019069 0.0620047598415 0.0104919044239 -0.0335698663873
 0.00798461030289 -0.0286812673643 -0.908047307324 -0.0174097875925
148897959184 -0.104823974479 0.0718421685297 0.00746526756525 -0.034451414617
 0.00556340205956 -0.0298068477435 -0.902665081799 -0.0527324236391
148938775510 -0.0995776702537 0.0774731238261 0.0207686028565 -0.0271387496783
 0.0175485746309 -0.0241725690668 -0.926560821263 0.0115818092395
148979591837 -0.0964323689927 0.0784462725059 0.00972192306934 -0.0252653949833
 0.00812570549461 -0.0225645827624 -0.94235128559 -0.0500531447973
149020408163 -0.0943537251494 0.086861829406 0.019496455717 -0.0369766029517
 0.0170902510336 -0.0335252271762 -0.854332660002 -0.0478964763359
149061224490 -0.0940169003172 0.0943020164497 0.0176785252509 -0.0288322976641
 0.0160687077094 -0.0263763301068 -0.906927508366 -0.0525929234461
149102040816 -0.093652289622 0.103787977615 0.0203866274217 -0.0260100473088
 0.0188975882651 -0.0239281927621 -0.909977375771 -0.0442452509398
149142857143 -0.0980320492555 0.11659705442 0.0201114517449 -0.0278754677815
 0.0190441370769 -0.0257198168546 -0.906357411532 -0.071249196412
149183673469 -0.0957948083227 0.119876179072 0.0229008596423 -0.0186068385899
 0.0218947254595 -0.0169597591581 -0.928853296952 -0.0398674676823
149224489796 -0.100177321172 0.121599884942 0.022052391459 -0.016366020599
 0.0213321641715 -0.0147674492344 -0.937948619913 -0.0474250290431
149265306122 -0.106104403457 0.124652724215 0.0257335570335 -0.0167029550897
 0.025043601087 -0.014888922072 -0.922500888148 -0.0513352440346
149306122449 -0.105175598557 0.132313124062 0.0278641764334 -0.0177378708004
 0.027351745665 -0.0155394124872 -0.913304561073 -0.0719925177233
149346938776 -0.11528807753 0.133135112265 0.0301689888389 -0.00662220024485
 0.0290740097248 -0.00460241147131 -0.920881101429 -0.0285215082911
149387755102 -0.122820882764 0.135360614456 0.0286261877986 -0.00591196697368
 0.0275813998887 -0.00382688660902 -0.926595439078 -0.0432380641319
149428571429 -0.134366448772 0.138666983548 0.0232117101348 -0.0100393339729
 0.0227210791778 -0.00791449509865 -0.954767697942 -0.0755089654033
149469387755 -0.137998199831 0.134341088575 0.0323108017651 -0.00484269500915
 0.0309326522584 -0.00226098414826 -0.907331996784 -0.068731730092
149510204082 -0.147074118009 0.134551212304 0.0333538538167 -0.00481986234723
 0.0318358166399 -0.00215087467736 -0.90551866088 -0.0861516179867
149551020408 -0.155008619673 0.136759272593 0.0347619193686 0.00691208462493
 0.0321055910646 0.00910873264397 -0.881613502037 -0.0374710090662
149591836735 -0.156722122174 0.139614913945 0.0392306554323 0.00215846730755
 0.0366268304771 0.00490654595039 -0.866684947701 -0.103991742322
149632653061 -0.161621869612 0.135451841763 0.0405323830535 0.00108168920675
 0.0378833787738 0.00399951141291 -0.880437901085 -0.140213454161
149673469388 -0.16892915898 0.124696922687 0.0273675536633 0.00456421760276
 0.0252634430148 0.00620700552661 -0.938414326735 -0.0804106297575
149714285714 -0.172211262813 0.118478039503 0.0332191955083 0.0127346923854
 0.0302073949991 0.0141111389888 -0.886876574706 -0.0794774703544
149755102041 -0.179415882085 0.111425500875 0.0222766666082 0.0177148513882
 0.0196461212612 0.0178578089887 -0.926155435404 -0.035314998547
149795918367 -0.187593049431 0.105681688028 0.0333475663931 0.0192153057809
 0.0300651802762 0.0197063060596 -0.870838490731 -0.0890414982886
149836734694 -0.192534776488 0.102026972615 0.0226810098633 0.023207461231
 0.0200079290099 0.0227325416953 -0.905265502327 -0.0386479921815
149877551020 -0.197413545952 0.0919523606669 0.0178353736579 0.03418382829
 0.0150756610535 0.0325914393645 -0.884705454731 0.0171398435758
149918367347 -0.202103691076 0.0839188260404 0.0226039882916 0.0329868075533
 0.0197679971988 0.0315084025182 -0.859428992988 -0.0360438260076
149959183673 -0.201255777543 0.071273287875 -0.0255954389183 -0.0356822867487
 -0.0227304930943 -0.0338267944499 -0.830619560536 -0.0707677199854
150000000000 -0.205741798333 0.0635366524068 -0.0154330112473 -0.02928392039
 -0.0136062512574 -0.0273605863063 -0.906892741872 -0.052337469575
150040816327 -0.213290071844 0.0464362276321 -0.0225002600772 -0.0387871110566
 -0.0200913298438 -0.0361555163474 -0.837617751873 -0.104323134905
150081632653 -0.209183907323 0.0356034002602 -0.00977386364639 -0.0205601499734
 -0.00876991762714 -0.0190638634242 -0.958953068447 -0.0574356184274
150122448980 -0.206131126962 0.0241924293186 0.000455308542255 -0.033832415725
 0.000600242164612 -0.0310726349108 -0.917014662758 -0.00451066770803
150163265306 -0.203717170939 0.00678469378175 -0.00538091168543 -0.0441878171921
 -0.00485098773813 -0.0405944599541 -0.83628299858 -0.0392564223256
150204081633 -0.207482717792 -0.00478875946973 0.0129703080087 -0.0318738115128
 0.0117637329826 -0.0291684860348 -0.940550320821 0.0230969091512
150244897959 -0.205529009823 -0.0196032513199 -0.00577504098816 -0.0454361732838
 -0.00566638456452 -0.0413490066281 -0.843337956115 -0.107274133435
150285714286 -0.201857712827 -0.0362925568896 0.00293220274685 -0.02850841651
 0.00223494838562 -0.0258526566894 -0.935840634501 -0.0536572365139
150326530612 -0.200744959138 -0.0517687193117 0.0111798243765 -0.0335039999048
 0.00945842865949 -0.0304506027306 -0.902182635656 -0.0331072266316
150367346939 -0.195150746069 -0.0641547499051 0.00540447515143 -0.0287497523548
 0.00419383881504 -0.0260212084839 -0.934510509859 -0.0650403594743
150408163265 -0.191742822969 -0.0748893033622 0.00818260959454 -0.0428450633117
 0.00606878272865 -0.0385880383549 -0.869468265704 -0.12106750354
150448979592 -0.175930561454 -0.0874354989249 0.032832065355 -0.0272946260726
 0.0282528933633 -0.0254456547332 -0.890818787811 0.0457195582437
150489795918 -0.162842644287 -0.104701798886 0.0224492996272 -0.0295763843833
 0.0187189905632 -0.0270514481521 -0.889753048585 -0.0413516949328
150530612245 -0.154204613522 -0.120123426567 0.0364074904984 -0.0217010593617
 0.0310592268528 -0.0206407607697 -0.888893298594 0.0405820399039
150571428571 -0.143786115894 -0.137563791494 0.028111484884 -0.0304203131278
 0.0230408929191 -0.0279156478534 -0.862629111658 -0.0594980442844
150612244898 -0.134481138348 -0.157045075607 0.0365704607022 -0.0198280376301
 0.0305699791129 -0.0190511239423 -0.872390925231 0.00490518267274
150653061224 -0.126170640253 -0.162753848457 0.0233054614738 -0.0146693222811
 0.0191426173525 -0.0138831559732 -0.938061223003 -0.0425667558379
150693877551 -0.116811985982 -0.169825882895 0.0333665136267 -0.01448471529
 0.0274097165491 -0.014292370324 -0.892255723433 -0.0264102294147
150734693878 -0.0963055696398 -0.174208934124 0.0372807721832 -0.0177395778412
 0.030077014364 -0.0174155099568 -0.852690752188 -0.0558901804897
150775510204 -0.0792552989676 -0.184321138862 0.0362315159882 -0.0105855804754
 0.0292823407927 -0.0114214080965 -0.873509538867 -0.0343640097317
150816326531 -0.0675984978085 -0.191098540893 0.0313863739849 -0.0104839691781
 0.0248947428833 -0.0110465820147 -0.901614433634 -0.0617813472399
150857142857 -0.0480537289817 -0.198082556304 0.0401218494373 0.000855313818755
 0.0324498171092 -0.00268677388814 -0.857962472979 0.00420339144338
150897959184 -0.0354452814152 -0.202948463546 0.0185606920051 0.0121529141314
 0.0158213736145 0.00800200775739 -0.981432615989 -0.00626365422611
150938775510 -0.0130905564928 -0.207283085534 0.0425970454653 -0.00049226654855
 0.033256310371 -0.00446629167849 -0.822618394186 -0.0743096809913
150979591837 0.00343073528324 -0.207963758449 0.037883065694 0.012033023781
 0.0303454273941 0.00543187324558 -0.849005710747 0.00659490144364
151020408163 0.0148222117891 -0.21339746339 0.0283889430888 0.0156314258014
 0.0231109684991 0.00881190133953 -0.908966076129 0.00698793085402
151061224490 0.0362743497886 -0.21115548736 0.0213126767002 0.00649326735794
 0.0165047417852 0.00242890943943 -0.9465776614 -0.0509861256189
151102040816 0.0464677641089 -0.207853883977 0.0171722997349 0.000674143739647
 0.0125497569903 -0.00156610607977 -0.972817707711 -0.0671902458134
151142857143 0.0633130361466 -0.2073897552 0.00125393245512 0.00997790475989
 0.00215067578676 0.0069248832426 -0.997514327556 -0.0382725383935
151183673469 0.0780845605297 -0.205123331179 0.0235986670428 0.0203019026763
 0.0190042579252 0.0108720245139 -0.89609975531 -0.0223595078033
151224489796 0.0982549623064 -0.208136578025 0.000505622387674 0.0194627616482
 0.0031006262116 0.0129025552385 -1.0010830411 -0.00931938309471
151265306122 0.118205506154 -0.205347765773 0.00675441553778 0.0254342699304
 0.00821334156893 0.015278202229 -0.960208522377 0.0204632187403
151306122449 0.134854262612 -0.196436245922 0.0191151110228 0.0349334039931
 0.0174968322379 0.0183952208416 -0.825777589893 0.045107205256
151346938776 0.14743177678 -0.194721904456 -0.0186387122364 -0.0169059222459
 -0.013869256557 -0.00666129934929 -0.92494378802 -0.0768243324661
151387755102 0.161208474992 -0.189313595405 0.012440477699 0.0274996638016
 0.0118602666892 0.0127320034327 -0.886029482788 -0.0239090493014
151428571429 0.173879491927 -0.187057217857 0.00969696179997 0.0237814451253
 0.00953040067095 0.010095294467 -0.915105536084 -0.0383087471121
151469387755 0.196885382479 -0.179796136591 -0.0142682531611 -0.0303580233689
 -0.0125414702951 -0.0106408631222 -0.86002921252 -0.0815103135668
151510204082 0.213827709071 -0.170437109199 0.00554572969615 0.0363197225217
 0.00973110602199 0.0125460285071 -0.832501810055 -0.0302012946383
151551020408 0.228537450203 -0.167101343281 -0.0147841649589 -0.0120245829289
 -0.00689709543335 -0.00033810847112 -0.997261659444 -0.0861869586919
151591836735 0.24318860242 -0.151667401688 0.00501365108573 -0.0302750739188
 -0.00553748195121 -0.00660657918627 -0.903012535513 -0.0473126567868
151632653061 0.256102620251 -0.145614348887 -0.016913893071 0.0243548568939
 0.00425625172835 0.00411493610279 -0.924688539397 -0.0404963973098
151673469388 0.270405659152 -0.130533261704 -0.0288277611735 0.0199952164673
 0.00779319295626 0.00152204215114 -0.869984899944 -0.0949510044664
151714285714 0.284481142696 -0.119675879282 -0.0235938622966 0.00512186684241
 0.0105540927288 -0.000281236123528 -0.857362271002 -0.111444487389
151755102041 0.307825131346 -0.0977317407818 -0.00835408691559 -0.00925869174941
 0.00813840431185 0.00660092480392 -0.95225794484 0.0336530629144
151795918367 0.313182290054 -0.0851675686031 -0.00620162983741 -0.00611404313747
 0.0114975232844 0.00519294347038 -0.899287226451 -0.00392321652712
151836734694 0.320971893418 -0.07127782133 -0.00100062295212 -0.00547701726894
 0.0114827365089 0.00989064292676 -0.922696180313 0.0434301747857
151877551020 0.338824539042 -0.0554719715211 0.00153173869417 -0.00280750352878
 0.0110199705613 0.009910577514 -0.9286201499 0.0158304763064
151918367347 0.346456647751 -0.0395345392235 -0.00027674588806 0.00313597401123
 -0.0130491602553 0.00691305809121 -1.01809304704 -0.118487695097
151959183673 0.358284886715 -0.0230672213985 -0.00409337691058 0.00419770743074
 -0.0204486032924 0.00497103498126 -0.999751888006 -0.173023627165
152000000000 0.367887355051 -0.00478913110873 0.00394951031825 0.00152214190758
 0.00891819905323 0.00809880984949 -0.956047644557 -0.0423990947761
152040816327 0.37501917084 0.011271912413 -0.00643698978429 0.00514711713124
 -0.0183877939173 0.00794893550867 -1.04747939268 -0.113857716026
152081632653 0.382588471954 0.0307155409971 -0.00961233155589 -0.00330867220472
 -0.0186922856094 -0.0110536101565 -0.919776919961 -0.102338182631
152122448980 0.390759096102 0.0501177785296 -0.00794031339718 -0.011828890214
 -0.0115927629681 -0.0253100780314 -0.879118326624 0.0046609353709
152163265306 0.400009147749 0.0698908338689 -0.00406356248152 -0.00698466780833
 -0.00575544055514 -0.0135434499253 -0.962001608672 -0.0420314134984
152204081633 0.40365049139 0.0832264250655 -0.00588218052044 -0.00902851377095
 -0.00854900171329 -0.0164548366869 -0.946742326396 -0.0515737757289
152244897959 0.40740049706 0.10751216771 -0.00927356397243 -0.0139043789456
 -0.0134356919717 -0.0237820325701 -0.905919357694 -0.0714792603517
152285714286 0.417157893439 0.126080255172 -0.00356644540954 -0.0167202717015
 -0.00393998247346 -0.0264630102747 -0.926475095683 -0.0257311325243
152326530612 0.421145616093 0.142605033632 -0.00369441828874 -0.0222607469852
 -0.00390263240671 -0.0339597896932 -0.893487048979 -0.0169429980194
152367346939 0.424876311303 0.160636133241 -0.0148676645565 0.0141139789923
 -0.0226122589378 0.0199623803436 -1.02331200445 0.00653409288026
152408163265 0.426792174283 0.179949508363 0.000742273995276 -0.0116496490625
 0.00151465895688 -0.0166795435492 -0.97284971577 -0.0452190318755
152448979592 0.42148547778 0.196940350095 0.00693916402647 -0.0222794995022
 0.0102786394499 -0.0311031773242 -0.938678893646 -0.0102767391577
152489795918 0.417778196086 0.218580715221 0.000881908907249 -0.0202619166836
 0.00145260316844 -0.0278756833011 -0.94550999242 -0.0558937537407
152530612245 0.414089085999 0.241630031022 0.0183361634541 -0.0231794679103
 0.0247303226252 -0.0313581407141 -0.947926755106 0.0178109628161
152571428571 0.409089561581 0.25493133576 0.0122613490091 -0.015207795248
 0.0161322635274 -0.0203920448417 -0.967806954372 -0.0295633881898
152612244898 0.405144487888 0.274932648608 0.00350656012725 -0.023988116281
 0.00412492411565 -0.0315380508821 -0.947234552782 -0.0744532544726
152653061224 0.395839620833 0.286495879439 0.00295179069882 -0.0164202641312
 0.00336859931168 -0.0213365997791 -0.973102548861 -0.0657280759301
152693877551 0.383901655213 0.307660276703 0.0184901448199 -0.0153305504867
 0.0231016003328 -0.0202332132474 -0.956258220171 -0.0347727260609
152734693878 0.373442550833 0.322109011754 0.00877586542439 -0.00880038535513
 0.0107204711803 -0.0114780745383 -0.97961192261 -0.0537553771513
152775510204 0.361530172315 0.333953838599 0.00979228618722 -0.0189499204232
 0.0113588343237 -0.0241236378142 -0.970779195366 -0.0734978301301
152816326531 0.354679278037 0.343034262763 0.0134840660961 -0.003429905783
 0.0165207199953 -0.00490508622407 -0.98064091505 -0.048306377018
152857142857 0.344591101997 0.354200100717 0.0214132773787 -0.0106704546093
 0.0257241784035 -0.0142092079673 -0.959027765348 -0.0566181328982
152897959184 0.333876093122 0.368419219486 0.019472975018 -0.0077793889025
 0.023292642185 -0.0105251232805 -0.966853079296 -0.0579270196341
152938775510 0.317376960565 0.36548591041 0.0280829663631 0.00148123197583
 0.0340486587913 0.000228351280158 -0.953765187994 -0.0393855035451
152979591837 0.295750788322 0.375880217584 0.0222062114715 0.0075574076831
 0.0271051610652 0.00781411399333 -0.969303574506 -0.0382748267594
153020408163 0.278483317298 0.387687808395 0.031344217766 -0.00305570133699
 0.0371992072713 -0.00548098102913 -0.945066054834 -0.074376810108
153061224490 0.272447394322 0.391277233722 0.0220649687441 -0.000682443122386
 0.026102475382 -0.00213123261204 -0.967996058079 -0.0677824448016
153102040816 0.254404400605 0.395093741732 0.018538533564 0.00395275107805
 0.022091117703 0.00355784474709 -0.972371364612 -0.0621183542768
153142857143 0.239788447362 0.408620459871 0.0264256299565 0.0041660789932
 0.0312516576235 0.00334176635784 -0.963315116057 -0.0762415648023
153183673469 0.226102067346 0.404139282646 0.0259380428423 -0.00436242647616
 0.030095534135 -0.00657670302855 -0.985897473899 -0.0883147429965
153224489796 0.213990770606 0.407620002954 0.0291159224649 0.00391278415803
 0.0341829621612 0.00290123046249 -0.972363293989 -0.094976787097
153265306122 0.204588601451 0.409718045227 0.0191971028384 0.00981476278996
 0.022879425961 0.0103267275044 -0.970313775173 -0.0731505995179
153306122449 0.186640035409 0.408424509094 0.0160190489405 0.0194951499839
 0.0196874324791 0.0217731610876 -0.955186978222 -0.0645333590795
153346938776 0.179017996062 0.416185974692 0.023773204829 0.0213309354374
 0.0287305614795 0.0234565776647 -0.947206723962 -0.0913072887107
153387755102 0.164683419213 0.420322682253 0.0237200438957 0.0227870019682
 0.0286923147415 0.0251674813298 -0.950631889224 -0.097487906469
153428571429 0.156737011402 0.423432425552 0.0136887664167 0.0230882491995
 0.0170428171428 0.0260335540187 -0.954408610879 -0.0742527929423
153469387755 0.146757011401 0.42651191312 -0.025388886581 -0.00635934539797
 -0.0297032559 -0.00605169495823 -1.00392941861 -0.0852280427097
153510204082 0.140875945855 0.427724168497 -0.0242235032154 -0.0226142813244
 -0.0292049035196 -0.0249611722972 -0.976422230218 -0.11029382709
153551020408 0.138559462929 0.421738679959 -0.0230342006125 -0.0289494291061
 -0.0281328729543 -0.0323037032033 -0.963178961218 -0.118834931101
153591836735 0.132231408416 0.426369672778 -0.0272251324213 -0.018686839127
 -0.0324749124952 -0.0203006917519 -1.00430815948 -0.105092368157
153632653061 0.130256999857 0.42816983566 -0.0207700785469 -0.023933443263
 -0.0252189308108 -0.0266617303222 -0.982460778055 -0.103982302557
153673469388 0.127833952627 0.424688628892 -0.019259058004 -0.0405785735679
 -0.0242465097269 -0.0461066136532 -0.94638306431 -0.141342173134
153714285714 0.117896235345 0.427796012507 -0.0044774166756 -0.0382249413796
 -0.00691599327824 -0.0441473322007 -0.928482972571 -0.0993321113825
153755102041 0.112976004674 0.432979202246 -0.022971971221 -0.0327830986563
 -0.0280119676518 -0.0370896795006 -0.991898299581 -0.134878913875
153795918367 0.11087703283 0.441090831343 -0.0105152185503 -0.0379935254778
 -0.0136752070141 -0.0437149960076 -0.949586667087 -0.129587692922
153836734694 0.108489436158 0.442058256856 -0.00623009966522 -0.0349616207453
 -0.00847765064675 -0.0404016125727 -0.948506188403 -0.115592362542
153877551020 0.0992646866347 0.449130881125 -0.0157157254522 -0.0352372391724
 -0.0193893259781 -0.0405615494735 -0.98676661668 -0.138340163658
153918367347 0.0968321001653 0.458545751122 -0.00747567898577 -0.0391120487736
 -0.00962505209339 -0.0455299706467 -0.959715641992 -0.146447062798
153959183673 0.0963698955094 0.463265607338 -0.000903255254774 -0.038943566516
 -0.00170854372515 -0.0455628557203 -0.941630294692 -0.139038467747
154000000000 0.0942223748353 0.470848264681 0.0107444734185 -0.0338118857533
 0.0122689670868 -0.0397020102311 -0.915408829053 -0.0980893661495
154040816327 0.083493451341 0.479735932545 -0.00105770921184 -0.0392205757972
 -0.00139279271083 -0.0459734557357 -0.95559863445 -0.151258015952
154081632653 0.0750670270316 0.484903142524 -0.0214179362772 -0.0332470379566
 -0.0251865215641 -0.0389402482057 -1.05091288693 -0.119290353394
154122448980 0.0648961731306 0.496905459391 0.00979297016746 -0.0475642907055
 0.0116994244074 -0.0558257349803 -0.916790900493 -0.196518778393
154163265306 0.0615299456041 0.497371205991 0.0115668399626 -0.0374782945563
 0.0140031371227 -0.0440112334034 -0.929499975302 -0.150670469894
154204081633 0.050099475789 0.49783769882 0.0210479333394 -0.0234040520671
 0.0252652969665 -0.0272490530376 -0.915372001977 -0.0832498140643
154244897959 0.0443656703925 0.514454416527 0.00200736044569 -0.0204144270007
 0.00295550413431 -0.0240780770552 -0.982862148954 -0.0954590173441
154285714286 0.0436878489311 0.52080734118 0.0170784435226 -0.0376607623961
 0.0217344841568 -0.0438002915248 -0.927608330363 -0.185701800762
154326530612 0.0263382302389 0.523074362533 0.0279252958402 -0.0263007696772
 0.0341549096084 -0.0296315957648 -0.870517040993 -0.122378707282
154367346939 0.0221126855482 0.530011581842 0.0108557892647 -0.0365739692347
 0.0148857047981 -0.0421802706301 -0.994597830754 -0.188282945154
154408163265 0.0153888685194 0.527328612445 0.0241870722503 -0.0276189427544
 0.0301246319219 -0.0305962056929 -0.907332859636 -0.169690736555
154448979592 0.00191221532517 0.525384534968 0.0302805534707 -0.0123863548197
 0.0362914878549 -0.0122131113326 -0.873459549133 -0.0793182289127
154489795918 -0.00340882167042 0.533718442027 0.0242142553086 -0.0198461730298
 0.0298894082023 -0.0211179013251 -0.91274854037 -0.142767862623
154530612245 -0.0122589717913 0.533658080419 0.00392526151903 -0.0201525507431
 0.00644826514711 -0.0229861409247 -1.00913654514 -0.0988957960834
154571428571 -0.0242479208448 0.524079798624 0.0249279268765 -0.013993955932
 0.0302126775499 -0.0136054204059 -0.916456538488 -0.135574942333
154612244898 -0.0309308418311 0.50929311951 0.0327884764567 -0.0108079880707
 0.0390955135968 -0.00903019714332 -0.859329932764 -0.150767855556
154653061224 -0.0476250229372 0.504881680833 0.0300246629296 -0.00948953331494
 0.0356954440257 -0.00747987584076 -0.887317400407 -0.15335869318
154693877551 -0.0650773309912 0.503838500617 0.0279852426647 -0.00754081866589
 0.0331344689378 -0.00523216880629 -0.904820485988 -0.149633651648
154734693878 -0.0775570352779 0.492457402431 0.0253383184177 -0.00763649582824
 0.0300499762352 -0.00540637446667 -0.932039278096 -0.150797212304
154775510204 -0.0902588714845 0.489663619773 0.0259386012308 -0.000308422432439
 0.0298783188457 0.00329609522312 -0.901508992393 -0.124255626756
154816326531 -0.102642080584 0.487792217248 0.0267634243782 0.00464033510791
 0.0298791749586 0.00924429549652 -0.882291800651 -0.113128412999
154857142857 -0.122653277696 0.48730519725 0.0317680174988 0.0053673534639
 0.0355530246224 0.0109933881748 -0.851394664553 -0.158485536593
154897959184 -0.122263525365 0.478621420922 0.0130958505921 0.00854186190582
 0.0135782682536 0.0117547978983 -0.941104649457 -0.0692233985671
154938775510 -0.133879079216 0.460808061767 0.0272863134093 0.00080069332537
 0.0308243397477 0.00532509313794 -0.939631848687 -0.176533008729
154979591837 -0.154218868367 0.45417936043 0.0242481837124 0.0032546194142
 0.0268602206111 0.00777674190519 -0.943396718861 -0.156721637579
155020408163 -0.157827074023 0.450864287171 0.0249992047957 0.0118445430608
 0.0261476221987 0.0177276747676 -0.885324621205 -0.15598065301
155061224490 -0.169875559291 0.448039865709 0.0167413830661 0.0121978338363
 0.0166264177833 0.0167854043695 -0.91349988256 -0.106512813437
155102040816 -0.173693880313 0.439842790466 0.0175739891945 0.0109051573493
 0.0175864091376 0.0157144531648 -0.922671678407 -0.119722165905
155142857143 -0.186047623212 0.428023132352 0.0191980149599 0.0100879163117
 0.0194238710589 0.0153618566334 -0.929742064192 -0.139246379142
155183673469 -0.192765523685 0.416998313684 0.0172037287739 0.014669592614
 0.0162001098521 0.020122613765 -0.904615976864 -0.134626268209
155224489796 -0.20856396574 0.417502795785 0.0144406847242 0.0167211444174
 0.0125911482993 0.02193167769 -0.895936300118 -0.12668272143
155265306122 -0.208634355501 0.400097870438 -0.0193752387213 -0.0112298056469
 -0.0192865515825 -0.0170060525122 -0.9591212945 -0.174498798043
155306122449 -0.221258596061 0.397485504325 -0.0139407562659 -0.0111019994437
 -0.0131322937306 -0.0158090825662 -0.950570525709 -0.141377850158
155346938776 -0.214102577118 0.387816978163 -0.00901026588359 -0.0162523658333
 -0.00625059779457 -0.0205848013233 -0.904752878065 -0.123296907544
155387755102 -0.217972384148 0.384079837517 -0.00989604842015 -0.0176164987444
 -0.00678156319654 -0.022541466205 -0.892893898334 -0.149253861003
155428571429 -0.223354736997 0.375743045441 -0.0105192373279 -0.0177313181194
 -0.00731765172567 -0.0230687036971 -0.902067566863 -0.180250682936
155469387755 -0.222603272014 0.369683039656 -0.00572359166413 -0.0176808589519
 -0.00170727725004 -0.0218844717914 -0.883921341928 -0.149831016706
155510204082 -0.221468869306 0.364374093617 -0.00421426772016 -0.0145351590252
 -0.000722486352092 -0.0180110494752 -0.910672944167 -0.1384242312
155551020408 -0.229120023744 0.361256799578 -0.00267689127003 -0.0148898648703
 0.00135109489328 -0.018115907854 -0.894726328015 -0.144028645164
155591836735 -0.231331981149 0.366073522837 -0.00278862229656 -0.0149206735038
 0.00139418991733 -0.0183398992164 -0.900352536163 -0.166893948755
155632653061 -0.220935011265 0.356123561393 -0.000751855534821 -0.0133014923774
 0.00340119050991 -0.0159938313917 -0.906843885682 -0.158577838694
155673469388 -0.223859393679 0.341277348026 -0.00139472368569 -0.0113782185224
 0.00225764049908 -0.0140490096486 -0.934891643816 -0.164767613768
155714285714 -0.22695958251 0.335742285981 9.39582073902e-05 -0.010391872665
 0.00392787715275 -0.012466397592 -0.926379364877 -0.167238471079
155755102041 -0.225807471057 0.324318671678 0.00177324133034 -0.00940502044623
 0.00578753231046 -0.0107937689812 -0.923032392816 -0.170242386643
155795918367 -0.230656936489 0.321110208951 0.00516803647175 -0.00670018421855
 0.00919894681221 -0.00622969427579 -0.886434273688 -0.144412155287
155836734694 -0.235037031596 0.316494354249 0.00574721664154 -0.00595450966503
 0.00984514140514 -0.00491811574331 -0.865349961508 -0.154809708252
155877551020 -0.235234836333 0.313759558748 0.00552977834224 -0.00377095196116
 0.00887712429417 -0.00214506988853 -0.894252756764 -0.149805372554
155918367347 -0.234649502146 0.306173098643 0.00725452528992 -0.0029655138281
 0.010965377364 4.04736091604e-05 -0.863659181502 -0.207344683852
155959183673 -0.234061887751 0.308637830477 0.00720461548727 -0.000455509972297
 0.00969717169146 0.00379010481951 -0.871036872241 -0.186088225208
156000000000 -0.233595343752 0.302176416482 0.00779198554168 0.000823987409776
 0.00975435462764 0.00636365918723 -0.856558435532 -0.191928828145
156040816327 -0.231716677595 0.30624283843 0.00803219197782 0.00133329230989
 0.00963661235609 0.0078838385121 -0.870033725167 -0.212429801501
156081632653 -0.23077926402 0.30315826192 0.00735668329262 0.00328567119037
 0.00673670593965 0.0107657321746 -0.843936750212 -0.177651216246
156122448980 -0.230493094999 0.297865414738 0.00583153258798 0.00432703516989
 0.00291040593696 0.0113595989943 -0.853197223237 -0.12913577675
156163265306 -0.228762357282 0.293494235065 -0.00687171977869 -0.00269896720893
 -0.00463203577414 -0.0110227293646 -0.910786793152 -0.191598013017
156204081633 -0.225983912877 0.296946893187 -0.00620293990273 -0.00403266271647
 -0.000499164778071 -0.0115656936977 -0.885005720402 -0.172754678705
156244897959 -0.229179566869 0.293762086318 0.00679418645938 0.00598065257046
 -0.00366905610157 0.0125673609729 -0.825082710407 -0.182497551739
156285714286 -0.233651345419 0.30161369406 -0.00733624292366 -0.00633239586053
 0.00487470012458 -0.0105899214567 -0.840907665592 -0.190338271361
156326530612 -0.225964351046 0.30997858586 -0.00951885929215 -0.00775101514503
 0.00606929439314 -0.0101516354916 -0.811308236107 -0.237632805368
156367346939 -0.225853926649 0.306006570206 -0.00782313740208 -0.00778683755542
 0.00515006611398 -0.00623775457129 -0.845324111011 -0.16153000029
156408163265 -0.22243558825 0.314025430952 0.00859838112936 0.0115861740035
 -0.00542531369879 0.00608115989538 -0.781544077768 -0.165309219515
156448979592 -0.224735834841 0.306611794066 -0.00968305192355 -0.010873533188
 0.00318207009345 -0.00539333354763 -0.826549905087 -0.181688824038
156489795918 -0.233572258847 0.306051273961 -0.0100592658023 -0.0103095066173
 0.00121117034418 -0.00532421632684 -0.878427663695 -0.188445121221
156530612245 -0.242395895583 0.306562108805 -0.00603875422464 -0.0127706295018
 0.0014872494516 -0.00465777534389 -0.857163022026 -0.116312136915
156571428571 -0.243627854314 0.311637458689 -0.00958743743199 -0.0154321489069
 -0.000149436533164 -0.00673878955701 -0.848130476119 -0.182687978255
156612244898 -0.246195278713 0.304942170782 -0.00757326735786 -0.0192813935536
 0.000455861307574 -0.00854361589505 -0.815571304859 -0.179708159692
156653061224 -0.25114137827 0.302900993006 -0.00491286990469 -0.0215008836787
 0.00116385784461 -0.0097744744142 -0.800813471931 -0.159208321101
156693877551 -0.267363623643 0.301585138157 -0.00251746652913 -0.0238798939159
 0.00240130801233 -0.0114516206815 -0.792924645096 -0.172312148808
156734693878 -0.273416017809 0.303513232174 -0.00172209635474 -0.0262378494344
 0.00252737595166 -0.0132852215264 -0.786064102116 -0.187239763682
156775510204 -0.283578884407 0.29918451776 0.00151086309513 -0.0200194833369
 0.00339905453521 -0.0104061852823 -0.868763071434 -0.134840916664
156816326531 -0.281986775306 0.284942546062 0.00335943960854 -0.0250371926597
 0.00504525358496 -0.0135174399805 -0.82715567603 -0.168584534494
156857142857 -0.294598445934 0.267833370535 0.00781711960101 -0.0254207643745
 0.00766375722921 -0.0138445158992 -0.806476195164 -0.151022824881
156897959184 -0.303142111298 0.26567269438 0.0112349219691 -0.0221112526986
 0.00953210091446 -0.0120380834053 -0.830146582233 -0.116659122641
156938775510 -0.31105083557 0.262833929565 0.0124423330961 -0.0271285685717
 0.011139449822 -0.0155658701318 -0.804377859631 -0.180682152201
156979591837 -0.311920555195 0.251891103688 0.0161544784051 -0.0218022860427
 0.0131191766288 -0.012186186558 -0.824720138047 -0.127172641854
157020408163 -0.3086952596 0.242558809811 0.0194430160184 -0.0245299999148
 0.0159096638865 -0.0140459165852 -0.797668334963 -0.15876602574
157061224490 -0.312515166179 0.234411136004 0.0216033946163 -0.0157411562092
 0.0166456979052 -0.00808679911689 -0.837545472054 -0.0947328270976
157102040816 -0.311795963474 0.225933134765 0.0210977157947 -0.0137748203033
 0.0164360759334 -0.00699386886102 -0.85710572369 -0.102730687665
157142857143 -0.315053675994 0.217253859499 0.0260772395204 -0.0140656367231
 0.0203986571467 -0.00678412790145 -0.821109044982 -0.110722348755
157183673469 -0.317557932491 0.20714499384 0.0228855458087 -0.0120559730021
 0.0181426835449 -0.00577266092253 -0.862880803204 -0.128133193174
157224489796 -0.320138452916 0.202385284703 0.0276247486016 -0.00746597368726
 0.0213544130421 -0.00196792152629 -0.83571747434 -0.107173743899
157265306122 -0.31527213158 0.193633065863 0.0275404110714 -0.00599648783969
 0.0214631685304 -0.00102052980267 -0.845583612391 -0.116465648099
157306122449 -0.317754944308 0.183405177102 0.0322560117627 -0.00181266381841
 0.0247058880017 0.00271299035059 -0.807231680225 -0.113229894245
157346938776 -0.320361617425 0.171310388357 0.0271368477884 0.000531148841051
 0.0209061947063 0.00384304581666 -0.855650036544 -0.107271212629
157387755102 -0.315788548132 0.170898100884 0.0308399194876 0.0036223961298
 0.0235941962283 0.0066982936674 -0.822768840317 -0.11498940945
157428571429 -0.314547745621 0.161429554463 0.0305065205899 0.00103358830204
 0.0239937557781 0.00461011130035 -0.845781273314 -0.156036973929
157469387755 -0.317022831012 0.156979191011 0.0316873967763 0.00459248849413
 0.0248326126322 0.00748112196167 -0.829968330719 -0.158389508426
157510204082 -0.316091847723 0.137653343358 0.0293005253374 0.0114119871686
 0.0223982795922 0.0126649737741 -0.819746528862 -0.118745940256
157551020408 -0.32112291967 0.130376238778 0.0274081810758 0.00687722417392
 0.0215997454292 0.00868747271455 -0.867577001445 -0.15925073368
157591836735 -0.32003749082 0.126552263872 0.0258129673685 0.0185438411858
 0.0192572148264 0.018200980741 -0.814753169276 -0.0952611002037
157632653061 -0.32142780388 0.114966503958 0.0271647022983 0.0148840958753
 0.0210358741343 0.0153937502169 -0.835675239793 -0.146254756896
157673469388 -0.318483031156 0.108806663483 0.0228142509222 0.0232803046819
 0.0166776541416 0.0219539200526 -0.811210463242 -0.0904539763873
157714285714 -0.3237528931 0.1020759218 0.018341724658 0.0200293902196
 0.0133859529181 0.0187891250461 -0.857181375751 -0.103954846546
157755102041 -0.320671508277 0.0880323765147 0.0157310355757 0.0291943441204
 0.0103106478635 0.0262093630073 -0.810860055994 -0.0655735118398
157795918367 -0.321055790291 0.0863210491694 0.011756216898 0.0312276643292
 0.0068114197636 0.0275950646643 -0.818940359227 -0.0520114472261
157836734694 -0.325646811424 0.0769738699632 -0.0152630055721 -0.0260933643869
 -0.0103827407138 -0.02343801587 -0.847334081028 -0.124719025352
157877551020 -0.32797354298 0.0777512912584 -0.00950347009009 -0.0341930265046
 -0.00495016180254 -0.0296681903183 -0.804716202049 -0.0838616832761
157918367347 -0.325621780298 0.0736602030766 -0.0071415424975 -0.0325550473835
 -0.00326487703866 -0.028107615732 -0.827801398729 -0.0890121444034
157959183673 -0.322030533913 0.0687269379362 0.00190734755843 -0.0385624425307
 0.00461789689725 -0.0324032136558 -0.802376693864 -0.0268359532128
158000000000 -0.320551021756 0.0634919163306 -2.25947551506e-05 -0.0329826286582
 0.00226133571642 -0.0277927117809 -0.839355100138 -0.0868360346919
158040816327 -0.32114929829 0.0513406641871 0.00822903429104 -0.0347618892013
 0.00905418243926 -0.028817548619 -0.830955210522 -0.0506374698808
158081632653 -0.322096328332 0.0389933822345 0.0113639374514 -0.0337942631555
 0.0114480581057 -0.0279453387149 -0.834945821433 -0.0501314961768
158122448980 -0.329573346323 0.0260085912395 0.00363045705745 -0.0335786356208
 0.00459873699035 -0.0282467791105 -0.848838454065 -0.128336361285
158163265306 -0.338310013629 0.0211485704565 0.0136507203512 -0.036150081996
 0.0129541164959 -0.0300927456889 -0.813537567188 -0.0905072913197
158204081633 -0.342228254207 0.00646938330267 0.0207417285726 -0.0296621018494
 0.0185029427971 -0.0244186693485 -0.847649844252 -0.053588354359
158244897959 -0.343621905722 -0.000372762313399 0.0162264104246 -0.034012260413
 0.0145601595401 -0.0283733159989 -0.833976940712 -0.117005425941
158285714286 -0.335049411997 -0.007956630479 0.0180507393518 -0.0382380231431
 0.0160532103197 -0.0320164459002 -0.810073561233 -0.139129251383
158326530612 -0.330947029839 -0.0177763470599 0.0252574966777 -0.0268749763153
 0.0218065591545 -0.0224865981477 -0.847716803695 -0.07769019592
158367346939 -0.331506703689 -0.0322842570032 0.0315176965282 -0.0332272526842
 0.0270461980724 -0.0280717819306 -0.790475998765 -0.0893178971991
158408163265 -0.326290090442 -0.0501518256222 0.0238535303059 -0.0087242081474
 0.0203340396608 -0.0074317985364 -0.917499892594 -0.0639920342517
158448979592 -0.326539086275 -0.0617052420666 0.0339482792568 -0.0126690876099
 0.0289030221725 -0.0109670356566 -0.873790705044 -0.0417940784557
158489795918 -0.317164232393 -0.0745925613313 0.0343870945373 -0.0300310849494
 0.0290911062883 -0.0260816072668 -0.804422091666 -0.141652472169
158530612245 -0.308549023379 -0.0897912929258 0.0453909966916 -0.00905041477775
 0.0388015188183 -0.00852627469122 -0.821501537662 -0.00764556531419
158571428571 -0.300804571694 -0.105244150675 0.0383238779021 -0.0108329619193
 0.0327380134345 -0.0101698071558 -0.833902990567 -0.0703293721231
158612244898 -0.291580041176 -0.117851134598 0.0371142586796 -0.00577100727284
 0.0318720657526 -0.00601940823003 -0.847169695031 -0.0658238503083
158653061224 -0.28693998084 -0.136728472917 0.039557549187 -0.00212173679477
 0.0341093334002 -0.00312273260674 -0.836396332318 -0.0520479770791
158693877551 -0.275872299627 -0.146630193172 0.0348848034357 -0.00198780239748
 0.0301804674386 -0.00301246829094 -0.853842719037 -0.0820271872142
158734693878 -0.261549352813 -0.162038943346 0.034597724582 0.0119992048808
 0.0304935057492 0.00901783536909 -0.874821836602 -0.0207270179831
158775510204 -0.249636115852 -0.172030567374 0.0321665476504 -0.000292312598191
 0.0278622055601 -0.00172429322929 -0.862408091663 -0.107585755326
158816326531 -0.233878717497 -0.189618611748 0.0242243111544 0.00277497652296
 0.0210998711004 0.00116124778421 -0.896005101862 -0.0971401398253
158857142857 -0.215508591468 -0.20252610152 0.026658393791 0.0132775577501
 0.0237823303817 0.00992947973863 -0.875941370451 -0.0586750293606
158897959184 -0.196033796557 -0.219322556986 0.0315501146302 0.0241464364328
 0.0287075351562 0.0188098488319 -0.8275694354 -0.000310948156471
158938775510 -0.181165593773 -0.235241103005 0.0259980145294 0.00985076737546
 0.0229774969139 0.00667646754362 -0.869270045745 -0.109096049534
158979591837 -0.155518508455 -0.240724817906 0.0124577731151 0.021150404433
 0.0121947492523 0.0171329144967 -0.914824068796 -0.0437014652405
159020408163 -0.139053602101 -0.255206523277 0.0248357763023 0.0191900044616
 0.0226229817007 0.0142681133845 -0.832271614447 -0.0914713222158
159061224490 -0.119017357565 -0.267423247873 0.0235606831654 0.0238089869218
 0.021876073009 0.0179365310012 -0.809778481386 -0.0776208159364
159102040816 -0.0965687388422 -0.276860856213 -0.0203102903268 -0.022099593989
 -0.0189418345584 -0.0164950902918 -0.829802437695 -0.0984979174487
159142857143 -0.0683912804012 -0.290181543414 -0.0159384092649 -0.0231977317904
 -0.0153500373469 -0.0174963596981 -0.836528983215 -0.0878363103439
159183673469 -0.0395616639014 -0.295433529061 -0.0142384454971 -0.0222370352898
 -0.013805044352 -0.0164997599146 -0.843398127048 -0.0989653321928
159224489796 -0.00943081539231 -0.309280532489 -0.0106613215594 -0.0281537205105
 -0.0115499538422 -0.0211714519626 -0.804458141114 -0.0643140251642
159265306122 0.0150330344579 -0.31557678461 -0.00671587543682 0.0260399772528
 -0.00222371666326 0.0209567289719 -0.922341937227 0.0139416818927
159306122449 0.046911961254 -0.320810017752 0.0036880107507 -0.0298154092502
 -0.000786989121478 -0.022929596774 -0.839205682083 0.0144384496555
159346938776 0.0720197445104 -0.32017881076 0.00473018717245 -0.0260445680003
 0.000289057357304 -0.0195788723277 -0.857624378495 -0.0132525008923
159387755102 0.0991367184359 -0.322643431603 0.00638390007253 -0.0168414698342
 0.00245453776943 -0.0126309407835 -0.909559615412 -0.0544377261782
159428571429 0.131601099763 -0.323317608917 0.00557464362432 -0.0173959350008
 0.00165304605789 -0.0123685909218 -0.892691301433 -0.0684971932833
159469387755 0.161587994051 -0.317985730932 0.0125211935623 -0.0249327797652
 0.00502418684368 -0.017370231574 -0.827818825003 -0.00825962385716
159510204082 0.189087636385 -0.315457318803 0.0131820390843 -0.019025696916
 0.00565462716055 -0.0128014695805 -0.871650670807 -0.0297053101456
159551020408 0.217268002676 -0.298839183494 0.00685664373622 -0.0234240020432
 0.00122929006274 -0.0132939062465 -0.831526771224 -0.117145479239
159591836735 0.245139846556 -0.277539853913 0.0142577434145 -0.0165336427268
 0.00525388923606 -0.00896078188022 -0.872205532345 -0.057798434007
159632653061 0.266514170099 -0.266000833483 -0.00106300626252 -0.0242423054373
 -0.00169434440432 -0.00952152165277 -0.916613127937 -0.181581979792
159673469388 0.29461140834 -0.248181698209 0.0121433232926 -0.0166675400475
 0.00372990795701 -0.00497364725045 -0.894058456005 -0.0939954845487
159714285714 0.318206022241 -0.240899171569 -0.0108250052085 -0.021061940787
 -0.000336346270924 -0.00523545326911 -0.959695191284 -0.144555557791
159755102041 0.337979338976 -0.212842237293 -0.00541712071056 -0.0163028061166
 0.00344960389042 -0.00254663748869 -0.927003661184 -0.126460529653
159795918367 0.359490279691 -0.196117676187 0.00899988710125 -0.0115158357517
 0.00512828392051 0.00455125878652 -0.922725898236 -0.0602822896383
159836734694 0.37106797248 -0.173298888104 0.00208704864173 -0.0117884387563
 0.00954141978757 0.00237154669416 -0.887255655768 -0.112609844362
159877551020 0.385645776954 -0.139816952126 -0.00412910202674 0.0074772284969
 -0.0101455250692 -0.00420140609515 -0.894892781765 -0.107618596249
159918367347 0.395939999502 -0.109506067226 0.0092890188934 -0.00355342092528
 0.0117888671809 0.0122633909465 -0.867384638563 -0.0561584226774
159959183673 0.407447805119 -0.0809744708426 -0.00992811012345 0.00213377134554
 -0.0153284098028 -0.0119211809304 -0.853278658277 -0.103058232802
160000000000 0.423848043759 -0.0615803584667 -0.010786513829 -0.00132625082424
 -0.0150729604116 -0.0144797473922 -0.857630124994 -0.101660282577
160040816327 0.423456195067 -0.0382768290428 -0.0120816581225 -0.00448665734752
 -0.0160300242483 -0.0178357497416 -0.847966945937 -0.105356564163
160081632653 0.420265774274 -0.0143641820537 -0.0110919982886 -0.00414435554766
 -0.0156801179718 -0.0140239238078 -0.886875773198 -0.126126145689
160122448980 0.422924447482 0.00937453603201 -0.00949363126881 -0.0117758152655
 -0.00959649029471 -0.0237256126906 -0.869338995167 -0.0715003015009
160163265306 0.414284112519 0.0284068225833 -0.0113354015676 -0.0146831356482
 -0.0121805138863 -0.0276732089067 -0.845618689809 -0.0839408812502
160204081633 0.409699010237 0.0556414495219 -0.0117630907757 -0.0101784047461
 -0.0150663356798 -0.0191773572054 -0.894725585613 -0.130405791235
160244897959 0.40047099451 0.0788909547047 -0.013982787535 -0.0177774471819
 -0.0168502586005 -0.0299663509138 -0.847625878839 -0.144452124538
160285714286 0.385060914134 0.0978378205704 0.00386597843806 -0.0143197067939
 0.00835737704499 -0.0203687206454 -0.929581709941 -0.0665322657887
160326530612 0.374221919331 0.126442920584 -0.0012598223797 -0.0235553682093
 0.00148695287954 -0.0342091056531 -0.858211316206 -0.0730847912899
160367346939 0.365975906337 0.150098544244 -0.000611852938713 -0.0190682642685
 0.00114192405341 -0.0270717813247 -0.890994491565 -0.0939794245227
160408163265 0.361501182777 0.159913692001 -0.00350118552475 -0.0182189801128
 -0.00340536916839 -0.0256387432734 -0.900614881562 -0.118574031685
160448979592 0.350104039856 0.17328342695 -0.000709146468993 -0.0213648474036
 0.000313844039588 -0.0292636805889 -0.889953768001 -0.116319941602
160489795918 0.342516776678 0.182256946549 0.0113270853755 -0.0113765724797
 0.0158098707753 -0.0148334517999 -0.932290544175 -0.0780044708043
160530612245 0.329519774572 0.187152118714 0.0135388901266 -0.0193840845772
 0.0186397044031 -0.0253886398426 -0.900979532865 -0.0677325332696
160571428571 0.307877521882 0.201067687217 0.0185804853813 -0.0203529670481
 0.0247970798367 -0.0264468143923 -0.892973324411 -0.0587187855162
160612244898 0.299250260649 0.21720155367 0.0167843539482 -0.0270794419692
 0.0220322343008 -0.035100523901 -0.86121165348 -0.0933928744427
160653061224 0.282623153438 0.227149030039 0.0373130344087 -0.0140617513117
 0.0479779752404 -0.0181584166574 -0.908154054681 0.00518934571278
160693877551 0.272593352471 0.232804748944 0.0259976660333 -0.0220662062468
 0.0329660491028 -0.0283082589558 -0.868554749181 -0.0760807339951
160734693878 0.268228613004 0.246706551851 0.0251512261907 -0.0144587857963
 0.031586216652 -0.0186025222619 -0.896935141646 -0.076867311305
160775510204 0.260352717517 0.248386278404 0.0277715396826 -0.0256710628757
 0.0343133459642 -0.0327395763752 -0.854488946916 -0.114915538002
160816326531 0.238829775718 0.246763103859 0.0318040465515 0.00268576998236
 0.0396267238672 0.00245009758226 -0.931063757002 -0.0496351649582
160857142857 0.232911566968 0.250950309436 0.0308034226966 0.0010387313092
 0.0381107213742 0.000320681495688 -0.920066126088 -0.0608754183213
160897959184 0.218257410089 0.242975171971 0.03066683831 -0.0152019846774
 0.0371581812908 -0.0198267699122 -0.88363493245 -0.111658103268
160938775510 0.193422839404 0.255659605245 0.0421748843517 -0.00570002536232
 0.0513927905695 -0.00870373252323 -0.862787855437 -0.0686289155944
160979591837 0.189611166216 0.265326229263 0.0416084552454 -0.00276821254582
 0.0505399129315 -0.00524900926132 -0.869415794481 -0.0727671962745
161020408163 0.188955863147 0.277351276535 0.0224814170344 -0.0045546970445
 0.0270427159612 -0.00662174850788 -0.920503460383 -0.107422194675
161061224490 0.177740278185 0.276259670883 0.0378289665566 0.00591015835412
 0.0460036824692 0.00516657236542 -0.891461277424 -0.0831893274235
161102040816 0.180881164328 0.278141121235 0.0387547454574 0.00529071519014
 0.046925829618 0.00421633381856 -0.889292981835 -0.0970267385793
161142857143 0.172200692686 0.278845229869 0.0228034023641 0.00415592232104
 0.0275606574353 0.00365319937572 -0.92489974203 -0.10564512367
161183673469 0.158800751363 0.277693311207 0.0464945249282 0.013532403979
 0.0562683653514 0.013279143201 -0.872564632534 -0.101314233108
161224489796 0.146987994222 0.284966022262 0.0335012278643 0.0210823360204
 0.0410628630227 0.0229092806365 -0.903675066278 -0.0870137490635
161265306122 0.152359607193 0.292433998011 0.0442736126806 0.0133765012782
 0.0531510390442 0.0130775183702 -0.8874726809 -0.121348966801
161306122449 0.149166215539 0.303805219389 0.0456571145199 0.0243405821264
 0.0553497185061 0.025991288453 -0.875631865699 -0.112811182229
161346938776 0.154155017115 0.302843118676 0.0370854781104 0.0380601334594
 0.045921551731 0.042660586975 -0.881019090646 -0.0839498689273
161387755102 0.153963669713 0.295328461466 0.0294461802134 0.0289657035231
 0.0362814786533 0.032267410164 -0.90561181377 -0.102257785428
161428571429 0.148418441696 0.284193659825 -0.0128498756276 -0.00955946632849
 -0.0156126359726 -0.0104023098248 -0.936486576758 -0.110030602243
161469387755 0.147001972521 0.29250732175 -0.0262095968482 -0.0294675068263
 -0.0323496981296 -0.0327992595795 -0.912901223235 -0.108259176717
161510204082 0.12704868506 0.284141188431 -0.0232933514826 -0.0235527192762
 -0.0285499792109 -0.0260400154361 -0.923153583295 -0.114604871949
161551020408 0.124383086203 0.294354049803 -0.0435439623934 -0.0261634389729
 -0.0522483884616 -0.028011867114 -0.921666458547 -0.145545617374
161591836735 0.125561119774 0.310012030605 -0.0216411481211 -0.0390727787089
 -0.0273252743726 -0.0443060951171 -0.913356989171 -0.115907655414
161632653061 0.122474381186 0.311327586748 -0.01894012552 -0.0574883814587
 -0.0250927510295 -0.0656627447611 -0.892924643584 -0.111068224195
161673469388 0.124381490916 0.316414576175 -0.0259460841798 -0.05711489083
 -0.0330489343273 -0.0647458110388 -0.896175504897 -0.136555345584
161714285714 0.128368927322 0.310157015335 -0.0421907843794 -0.0226283655683
 -0.0499061157119 -0.024002933843 -0.954586471836 -0.136718801189
161755102041 0.122363116459 0.314527589907 -0.0247466256273 -0.0444007586042
 -0.0307039683922 -0.0501145276529 -0.930277723766 -0.141160669377
161795918367 0.114050099686 0.303727364164 -0.0298062966036 -0.0474703989485
 -0.0365652205326 -0.0534212009543 -0.940838613441 -0.148239713023
161836734694 0.106341747654 0.30980970806 -0.0244713514534 -0.0493004877592
 -0.0303034566572 -0.0558101759113 -0.943008927424 -0.146902585103
161877551020 0.109718063506 0.314136378369 0.011898082928 -0.0576854558659
 0.0114502780588 -0.0669974729767 -0.90511912396 -0.134435167357
161918367347 0.106096484284 0.314845615858 0.0177170072106 -0.0424591236207
 0.0188645947263 -0.049651604922 -0.917082663866 -0.124206712109
161959183673 0.0997187745332 0.308890123461 0.0256692791084 -0.0159553352379
 0.0290625992268 -0.0193090790882 -0.930598311203 -0.107280107977
162000000000 0.0895590054354 0.304032651807 0.0375235768485 -0.0437181556949
 0.0420067215589 -0.0516771506582 -0.893726981393 -0.1311756915
162040816327 0.0824411184587 0.320260649814 0.0086368570362 -0.0331686157169
 0.00912828962414 -0.0385740955052 -0.93853784434 -0.133638241205
162081632653 0.0834205042837 0.324633404541 0.0286468378184 0.00776869679719
 0.0333818313369 0.00840269865975 -0.938518627877 -0.0991004928288
162122448980 0.0704233571065 0.334429054865 0.0499157275757 -0.0411766545106
 0.0574628916063 -0.0488084494103 -0.880067193873 -0.170763542053
162163265306 0.0814122779469 0.348499049407 0.0441162614999 -0.0397132395544
 0.0509859639272 -0.0470667530457 -0.903388274583 -0.176282715762
162204081633 0.0949074284756 0.365827438868 0.0453473038809 -0.011194206959
 0.0530139241925 -0.0137143215827 -0.895483046622 -0.124350963012
162244897959 0.0963413619361 0.373183000035 0.0260138448609 -0.0327721410562
 0.0302728530861 -0.0388910478127 -0.945520924598 -0.151904954169
162285714286 0.0871086655258 0.387799826815 0.00736153526117 -0.0289426289083
 0.0084529019748 -0.0343418666682 -0.956494778898 -0.123523348013
162326530612 0.101915639574 0.392390212174 0.0593169663456 0.015077571849
 0.0707129747848 0.0175965662795 -0.85742417596 -0.0977808789503
162367346939 0.131488575465 0.383553744137 0.0350778483984 -0.0347302586056
 0.0419188881322 -0.0415669611508 -0.962090824211 -0.168882880517
162408163265 0.12787494306 0.375595018455 0.0382219875433 -0.00834457774283
 0.0461447264111 -0.00983429376883 -0.919695829623 -0.151691851443
162448979592 0.107065804253 0.378188348759 0.0496521646419 -0.0203978091121
 0.060760162197 -0.0241049753242 -0.940873905352 -0.193997801746
162489795918 0.0944076012169 0.396571516582 0.0647092365383 -0.0264533975564
 0.0803172283246 -0.0309024865459 -0.969818604728 -0.248768931278
162530612245 0.0936878097849 0.420618554343 0.0478852845495 -0.0248271026501
 0.0603060411945 -0.0293508833562 -0.977509713234 -0.188267519703
162571428571 0.0889015932245 0.439349941786 0.0686451471301 -0.0053424509348
 0.0864644285931 -0.00427280004883 -0.920938784451 -0.247506476061
162612244898 0.097251783606 0.412955909835 0.0710262927768 0.00723884588077
 0.0904790954525 0.0125836077172 -0.892867702404 -0.26255868926
162653061224 0.0855483124582 0.429632190205 0.0696258897788 0.00472633426394
 0.090032484931 0.0104518594692 -0.921337059654 -0.268847095551
162693877551 0.0763120651371 0.392576092281 -0.0523660784199 -0.00144386425534
 -0.0688870632706 -0.00663102007589 -0.943959793147 -0.216705216699
162734693878 0.0458312115182 0.389618124171 0.0302410103475 0.0217803683958
 0.0376098595486 0.0334385651754 -0.890546706118 -0.152786099081
162775510204 0.0112505560928 0.397881900831 -0.0588271039081 -0.0252649913435
 -0.0755488272556 -0.0458136024846 -0.877270462975 -0.295888059811
162816326531 0.000971908392038 0.445873465529 -0.0507260696019 -0.00402635175528
 -0.0692869572164 -0.018437156134 -0.981748783021 -0.233585735834
162857142857 0.0265147306293 0.459831463869 -0.0463678153235 -0.0120121872325
 -0.0605113988005 -0.0329977927424 -0.947896704938 -0.244839577375
162897959184 0.0404125973527 0.426952081801 -0.0217397625526 -0.0146876800623
 -0.0229153347491 -0.0294656690049 -0.911924774064 -0.158634646383
162938775510 0.0459521077007 0.435521931224 0.0478453552557 0.0396226284223
 0.0381771301318 0.0756286491629 -0.749481439169 -0.334168618694
162979591837 0.0208171680176 0.41070340599 -0.0494464333616 -0.0208840123918
 -0.0429766600117 -0.0517341927321 -0.897229168505 -0.323673190539
163020408163 0.0112479515532 0.392477234522 0.0446450029648 0.0370280186455
 0.0243039916275 0.0616167595418 -0.756383332054 -0.30363206592
163061224490 0.00366817757411 0.381723465446 0.0346729000071 0.0309399474985
 0.0173803648416 0.0453015485047 -0.818670029392 -0.219996066239
163102040816 -0.0197625202342 0.344916361385 0.0343224254519 0.0359123042511
 0.0161700876587 0.046259122073 -0.797760355702 -0.220155142661
163142857143 -0.0414561842467 0.330386634117 -0.0158350918057 -0.0150952006537
 -0.00891436974239 -0.018970725685 -0.914401972999 -0.146832790274
163183673469 -0.0681861232278 0.345456737746 0.0169201099694 0.0438393579578
 0.00172490934459 0.0447499313718 -0.802924843826 -0.130567239652
163224489796 -0.098645847452 0.339561269083 -0.0183481350904 -0.0427555561668
 -0.00551944061906 -0.0439005927472 -0.820506489729 -0.162699514388
163265306122 -0.100661131408 0.340420066049 -0.0233745587509 -0.035921484825
 -0.0131270916572 -0.0385388313797 -0.872752678658 -0.195716547964
163306122449 -0.118889096444 0.345498512102 -0.0116263116244 -0.0540404631328
 0.00144804967073 -0.0527916844077 -0.782825190454 -0.163515990916
163346938776 -0.132080462114 0.335691543451 -0.0153950434053 -0.0531438729877
 -0.00332841563504 -0.0529971396239 -0.814724254858 -0.210669187414
163387755102 -0.164909243372 0.328502394068 0.0169115821935 -0.0453327809388
 0.0249042595288 -0.0394538608137 -0.8444759729 -0.074034330299
163428571429 -0.167293847651 0.386729958898 0.0044122903339 -0.0450689102218
 0.0122458163743 -0.0421151285161 -0.855193422325 -0.150331155746
163469387755 -0.164346769887 0.398246247319 0.0147056326115 -0.0389843106921
 0.0205950445084 -0.0347636340206 -0.871512393879 -0.121847225587
163510204082 -0.181140255263 0.421277891516 -0.0150272123452 -0.0173894074356
 -0.011572060895 -0.0190640587856 -0.941332517045 -0.146254024581
163551020408 -0.163391994589 0.418097903277 -0.00457088540535 -0.0481945910667
 0.00310736338802 -0.0469011402874 -0.89781975284 -0.195544266248
163591836735 -0.110197136431 0.429723433472 0.00832827202392 -0.0592598484375
 0.0169272279154 -0.0556923238267 -0.85636335042 -0.201693069961
163632653061 -0.127226770627 0.415608512952 0.01234174932 -0.0302536778268
 0.0164214828035 -0.0272853559115 -0.904372566548 -0.144657940248
163673469388 -0.128039659318 0.419045029085 0.010424939109 -0.0332929062586
 0.0151016675421 -0.0306768968348 -0.907307521173 -0.156570348583
163714285714 -0.175722600856 0.403119101234 0.000233150884164 -0.0440996306324
 0.00709455102832 -0.0427482302896 -0.929026496968 -0.187957474253
163755102041 -0.190592565424 0.409368853701 0.0224357809941 -0.0306277161526
 0.0267716957503 -0.0263227874238 -0.894685071931 -0.154624570897
163795918367 -0.188056840281 0.438572551176 0.0275465608467 -0.0381667241496
 0.0332660069432 -0.0329324446193 -0.881942377862 -0.175903490599
163836734694 -0.180310603742 0.438001063726 0.0317832168446 -0.0425673889543
 0.0385247991613 -0.0362386650042 -0.869179859814 -0.196175149672
163877551020 -0.215035742342 0.410641613756 0.0278158300248 -0.0467489068881
 0.0358404274985 -0.0408267207889 -0.892754294835 -0.225047035135
163918367347 -0.211796369224 0.450579167274 0.0363113631635 -0.0388980974306
 0.0432706951496 -0.0313006313241 -0.870664776477 -0.212056087714
163959183673 -0.217476168635 0.445696779358 0.0356422346523 -0.0341195607062
 0.0424040220544 -0.0265509315975 -0.878633732267 -0.213125492987
164000000000 -0.248174539458 0.438046438557 0.0344398425933 -0.0209246613328
 0.0390388683113 -0.0134126812447 -0.876962169023 -0.184469330233
164040816327 -0.250994341287 0.450904644477 0.0348393404391 -0.0238380873721
 0.04070689753 -0.0160524628123 -0.887133742115 -0.210852880766
164081632653 -0.259048283155 0.458751540003 0.0407400610515 -0.0107077380603
 0.0441563691878 -0.0010689197105 -0.849606081146 -0.189170873638
164122448980 -0.271906761247 0.430591722462 0.0367374139514 -0.0141758983549
 0.0414370215755 -0.00527553794974 -0.881591508964 -0.215170623284
164163265306 -0.293184167622 0.417837817849 0.0353996353167 -0.00522559790469
 0.0383364829985 0.00398627791658 -0.870981631489 -0.199351603955
164204081633 -0.282559901868 0.41638121656 0.0405437371927 -0.00346595874959
 0.0436378441915 0.00771611764746 -0.854831166148 -0.226605466788
164244897959 -0.294983637316 0.395424675192 0.0317251118328 -0.00996154266779
 0.036633799046 -0.00126147329499 -0.918705069659 -0.220578668497
164285714286 -0.305601012432 0.379167295778 0.0417915532789 -0.00468754835895
 0.0462335875669 0.00798354724032 -0.890436218017 -0.278463552506
164326530612 -0.331906874085 0.366521398456 0.0336984782885 -0.00232406496484
 0.0372251981026 0.00867394270618 -0.909145041197 -0.239702788242
164367346939 -0.362928235783 0.359301961667 0.028147787903 0.0107058609898
 0.0269656375481 0.0217705473 -0.859422723432 -0.204973757606
164408163265 -0.355729349691 0.346107054276 0.02456186246 0.00657140551219
 0.0243191170413 0.0168960635801 -0.887133741527 -0.204543927588
164448979592 -0.356688507668 0.330207051526 -0.0285361424349 -0.00597979743029
 -0.0293355548355 -0.0189160226205 -0.904427422303 -0.246713408703
164489795918 -0.371333367855 0.314683955956 -0.0231651462732 -0.0115965171962
 -0.0204148753592 -0.0239403077353 -0.874405762841 -0.225793987286
164530612245 -0.376799262744 0.307136843706 -0.0200965387282 -0.0090055320734
 -0.0177299679 -0.0206979217381 -0.898871255834 -0.21696675578
164571428571 -0.365940023241 0.288991488936 -0.0244754135797 -0.0110778180669
 -0.0207018354634 -0.0266543540199 -0.898168752567 -0.266505985575
164612244898 -0.389573464247 0.275037435763 -0.0153332411133 -0.0126748758394
 -0.00845067008058 -0.0236009667362 -0.873270934134 -0.206646167994
164653061224 -0.389404648026 0.276134251959 -0.0144458875891 -0.0101697183605
 -0.00794890570875 -0.0211885455209 -0.895158771733 -0.209405960414
164693877551 -0.382151524398 0.265843890042 -0.0145916364499 -0.0161540806894
 -0.00208837494473 -0.0275047199824 -0.844397414751 -0.228554628072
164734693878 -0.37365840961 0.251051607714 -0.0131224295148 -0.0108616843479
 -0.00307750721717 -0.021223231368 -0.891465272243 -0.215254621366
164775510204 -0.388931061405 0.233374288874 -0.0159551882606 -0.0141566626472
 -0.00097016575036 -0.0249641979747 -0.864103519056 -0.257387002453
164816326531 -0.388538318138 0.231977204511 -0.0137454328412 -0.0126363047014
 0.000712608370674 -0.0201977446501 -0.875279406624 -0.232333579216
164857142857 -0.386793379096 0.223895291405 -0.0139434500507 -0.0165074225611
 0.00433136254005 -0.0208860098339 -0.834947403649 -0.24993626558
164897959184 -0.38273755116 0.20951019078 -0.0108047092712 -0.0175512523885
 0.00622108946542 -0.0171526789495 -0.816612472339 -0.21349265916
164938775510 -0.380652457694 0.202594923107 -0.00950360606097 -0.018593982044
 0.00699818317087 -0.0154275268471 -0.806937918642 -0.203412666877
164979591837 -0.379009567404 0.194022604898 -0.0103267991044 -0.0164795243754
 0.00439375211692 -0.0140000723395 -0.836925093229 -0.214401838241
165020408163 -0.388806049132 0.193478757101 -0.0109046013348 -0.0185793677748
 0.00408404259884 -0.0146268078276 -0.818768326226 -0.229379147321
165061224490 -0.385331696542 0.179529497619 -0.0119065628385 -0.0104251723286
 -0.0014307250129 -0.0108046282696 -0.89970757439 -0.212371073636
165102040816 -0.387005491608 0.161976108516 -0.011255509992 -0.0166714935005
 0.000872718669564 -0.0135188584497 -0.853147683801 -0.235612872355
165142857143 -0.385476201873 0.15757516019 -0.00707519307177 -0.0203497367916
 0.00375907611547 -0.0140772907381 -0.808724210327 -0.207263535994
165183673469 -0.391898950402 0.150893821312 -0.005590448252 -0.0195163134769
 0.00381340702107 -0.0130668697251 -0.822234825563 -0.204832044938
165224489796 -0.387889800571 0.14333440169 -0.00694083736603 -0.0253437277977
 0.00450700467843 -0.0172558569469 -0.770086405179 -0.251615131297
165265306122 -0.386677166945 0.133053222181 -0.00379292828435 -0.0177547157024
 0.00353419651322 -0.0119202750976 -0.843110600689 -0.197000350987
165306122449 -0.384404297843 0.117956768928 0.000963760385498 -0.0211640537364
 0.00730419170456 -0.0126166145067 -0.79950586252 -0.174862821131
165346938776 -0.388229324109 0.1106547978 0.00139447941947 -0.0239077980646
 0.00820833044077 -0.0143847387519 -0.769338604402 -0.197046373951
165387755102 -0.390486072483 0.0946098892907 1.34110238767e-05 -0.0235858585238
 0.00686852663878 -0.0146410304941 -0.785888398864 -0.238136240115
165428571429 -0.386432425251 0.0934726837356 0.000904112067627 -0.0236023500314
 0.00717939365591 -0.0146838293843 -0.784447204587 -0.24499542538
165469387755 -0.384739113206 0.0919059788271 0.00387931091787 -0.0218270737037
 0.00852631307833 -0.0128246158563 -0.788478551505 -0.21741893852
165510204082 -0.378219544089 0.0870129497519 0.00707339243388 -0.0221573115785
 0.0105820997158 -0.0121946506824 -0.767507744169 -0.206585219966
165551020408 -0.360693342598 0.0832175286124 0.00930867010142 -0.022350932227
 0.0118787134908 -0.0116314063896 -0.757438028895 -0.209107456146
165591836735 -0.350504075066 0.0673017542194 0.0121398656596 -0.0169161154817
 0.0120721218376 -0.00748277276629 -0.793617377584 -0.155101281666
165632653061 -0.341656031909 0.0455073423353 0.0127945703464 -0.0192629857653
 0.012979639138 -0.00899554925739 -0.766175626163 -0.178844839166
165673469388 -0.340466654853 0.0367209230664 0.0148086739446 -0.0188871456317
 0.0137540955698 -0.00826227258212 -0.756547878837 -0.183276808503
165714285714 -0.339938132251 0.0222554689995 0.0168765444585 -0.0177803764828
 0.014461383425 -0.00712416357824 -0.753598710467 -0.177861989453
165755102041 -0.340623579699 0.0194724488178 0.0169323242665 -0.0188500264316
 0.0142418468456 -0.00790218067597 -0.757751104632 -0.212125950765
165795918367 -0.345883359432 0.00657155925568 0.0170216422928 -0.0178115363046
 0.0138210110382 -0.00745785702516 -0.773197901614 -0.217903327745
165836734694 -0.343523169974 0.00645746725739 0.0150522100054 -0.0118763208022
 0.0112150082151 -0.00460304638636 -0.821855797263 -0.184391966468
165877551020 -0.338372091827 -0.00154266445544 0.0190670635076 -0.0139090116218
 0.0138378594941 -0.00557793001729 -0.786470172208 -0.206870640123
165918367347 -0.336010973139 -0.00472737937482 0.0161514485783 -0.0118447821906
 0.0114987044776 -0.00528943786797 -0.829738561398 -0.203638929814
165959183673 -0.328199571028 -0.00534264801771 0.0215023839921 -0.0111886742801
 0.0145863913989 -0.00485540014084 -0.796699685195 -0.205916059135
166000000000 -0.311266350942 -0.0102419462568 0.0264496011624 -0.0102089057241
 0.0176335427192 -0.00441464078322 -0.76313588076 -0.207287345713
166040816327 -0.296749693171 -0.0244169865493 0.0258815084708 -0.00238742807261
 0.0169049921444 -3.92927535907e-05 -0.790275626255 -0.149793940067
166081632653 -0.287014637591 -0.0367095209462 0.0276596383671 -0.00141267077636
 0.0183601617995 0.000275230648263 -0.782154960426 -0.157186006127
166122448980 -0.274255113069 -0.0540097367621 0.0298645192479 -0.00818992790351
 0.0205231812795 -0.00463328032948 -0.779408374425 -0.231620601592
166163265306 -0.276332611231 -0.0635881422492 0.0387013490164 -0.00305975316981
 0.0269840765365 -0.00135432638661 -0.69162218254 -0.228106070723
166204081633 -0.266773198441 -0.0646784237882 0.0343827688289 0.00280148190002
 0.0245635431055 0.00227880224903 -0.741111361591 -0.186623186914
166244897959 -0.258807258345 -0.0739488371355 0.0355045963029 0.00742024125486
 0.0260198434235 0.00534242221699 -0.73245210103 -0.173413067564
166285714286 -0.247268934628 -0.0842526915621 0.0385877599901 0.00454309562124
 0.0290487066624 0.00296417148194 -0.733833967849 -0.238447740143
166326530612 -0.237962690842 -0.0912227454478 0.0380174002783 0.0137303788763
 0.0294756699195 0.00989120994347 -0.706025288483 -0.184039069101
166367346939 -0.227075241824 -0.102686912441 0.039528521729 0.0136416599677
 0.0313170019174 0.00978444871239 -0.704868961153 -0.221123057187
166408163265 -0.218668367287 -0.107336066026 0.0309813351607 0.0173574334842
 0.0253133391407 0.012948963698 -0.756934014036 -0.174591353082
166448979592 -0.202391598068 -0.111977726588 0.0330049073984 0.0293867604439
 0.0279799475371 0.0226987187445 -0.685631410145 -0.115629846964
166489795918 -0.195224019788 -0.122947513756 0.0325986811719 0.0269723662937
 0.0283298367038 0.0208847903121 -0.699285080653 -0.179197722196
166530612245 -0.187473864385 -0.123941873959 0.023367640897 0.0281624830102
 0.0212749620702 0.0225575703471 -0.750538240021 -0.149223640302
166571428571 -0.17310658641 -0.126173754025 0.0204453116919 0.037901608016
 0.0199149240959 0.0314582337729 -0.696066334143 -0.101806011124
166612244898 -0.161684764481 -0.131836671778 -0.0227724071138 -0.0316958108962
 -0.0220137423983 -0.0262695447455 -0.718365927272 -0.191823122421
166653061224 -0.158344125926 -0.13538847289 -0.0179444024708 -0.0333271201306
 -0.018428916199 -0.0283521370708 -0.723387164653 -0.186904151638
166693877551 -0.143191782319 -0.133845114682 -0.0104320662804 -0.0359026198568
 -0.0123946389167 -0.0315048929625 -0.724546404842 -0.147456780666
166734693878 -0.135452029956 -0.136309268366 -0.00852311414434 -0.0340666248494
 -0.0109550865661 -0.0302505489799 -0.740127714157 -0.165239634786
166775510204 -0.122832742181 -0.133189251164 0.00370220093265 -0.0391713205823
 -0.000644861755944 -0.036529739957 -0.723973422862 -0.0764765010636
166816326531 -0.113519889076 -0.133995301354 -0.00253976180633 -0.0362054921144
 -0.00650827339369 -0.0334931962271 -0.724568248875 -0.17531995201
166857142857 -0.105340643731 -0.1311663799 0.0113229537427 -0.0344255514379
 0.00638998507859 -0.0338939277341 -0.751519024417 -0.0817427894162
166897959184 -0.09716596189 -0.135141213204 0.0107381476335 -0.0343783148763
 0.00563604272871 -0.0342145568444 -0.73418156376 -0.105209171845
166938775510 -0.0907072434528 -0.127606593291 0.00896963143546 -0.0328000156029
 0.00396697132457 -0.0329432666891 -0.734451400387 -0.146812082339
166979591837 -0.0789446996657 -0.123679948935 0.0117760574466 -0.0153248702435
 0.0091703291602 -0.0167862588563 -0.84411108295 -0.139363728422
167020408163 -0.0723205020324 -0.116824549004 0.0114321998416 -0.0196311111114
 0.00809810092358 -0.0212938496515 -0.814712127814 -0.148350353162
167061224490 -0.0628302179554 -0.111334392783 0.0137856477886 -0.0238372384877
 0.00967302573782 -0.0262892333719 -0.777782368696 -0.156088182335
167102040816 -0.0498703765158 -0.108820655564 0.0277762584089 -0.0152118307998
 0.0254043450933 -0.0205552564615 -0.819144235074 -0.0575036188986
167142857143 -0.0466115074707 -0.108637480745 0.0264831405265 -0.0121525268855
 0.024917872596 -0.0175899902934 -0.823644708463 -0.0776989136402
167183673469 -0.036105638182 -0.100662369403 0.0199381095036 -0.0177811988499
 0.0172554605834 -0.0225352711684 -0.786848983641 -0.143129624524
167224489796 -0.026529178907 -0.0945218480607 0.0222834890962 -0.00848500449832
 0.0218453104751 -0.013546494501 -0.830422112016 -0.116391207052
167265306122 -0.0226072201266 -0.0845169518702 0.0291798505568 -0.0129980110318
 0.0285459068648 -0.0200120891986 -0.780222838435 -0.0868952582535
167306122449 -0.008384489692 -0.0784684819971 0.0334247430725 -0.00681434574056
 0.0348078512579 -0.014569744397 -0.80908304273 -0.0485956759274
167346938776 -0.00516798737165 -0.0762010271534 0.0295337352295 -0.00508336627801
 0.0313055698515 -0.0120581506076 -0.819737769957 -0.0796685561084
167387755102 -0.0018033248316 -0.0644421806713 0.0290493794899 -0.0120409095358
 0.0296162172478 -0.0197673129331 -0.765446977493 -0.113973938718
167428571429 0.0053709670547 -0.0560815558825 0.0264833531166 -0.01384970689
 0.0267057052434 -0.0212179181227 -0.763759996328 -0.153742387008
167469387755 0.00642738412303 -0.0456089489458 0.0226487853112 0.00840742737294
 0.0273319005034 0.00473873852473 -0.877059391962 -0.111632205267
167510204082 0.00482177646437 -0.0399161032906 0.0309903066348 -0.00202142805063
 0.0347523059401 -0.0086459185606 -0.79171134246 -0.0982673498858
167551020408 0.010148318258 -0.0361292364539 0.0300404402255 0.0012684571827
 0.0345021134467 -0.0045913961418 -0.804104385227 -0.0987189046106
167591836735 0.0165504775084 -0.0317320555181 0.0152620158192 -0.0106588292038
 0.0153650989217 -0.015286770739 -0.833702686671 -0.193468331102
167632653061 0.0162339533505 -0.0281011142562 0.0235480013647 0.00826595621529
 0.0286986258943 0.00483202542548 -0.840685955916 -0.113625360035
167673469388 0.019888137226 -0.0194868417432 0.0151472287529 0.00298366258025
 0.0180457070805 0.0004619234082 -0.844720182555 -0.156423262343
167714285714 0.0260080196478 -0.0202598342496 0.0252839844108 0.00671814798067
 0.0304575297429 0.00287147335976 -0.809595195508 -0.124119371902
167755102041 0.0233849872173 -0.0227682050504 0.0233900217274 0.00709213109891
 0.0283682401013 0.00375983058516 -0.810047688463 -0.138217970085
167795918367 0.0290424561619 -0.0222384238021 0.0232338478309 0.00536870048556
 0.0278601414636 0.00185300494057 -0.80476003133 -0.158076484256
167836734694 0.0327292280912 -0.0241206473507 0.0230388448909 -0.00142785042178
 0.0264576134398 -0.00595340380106 -0.81180023616 -0.196580463128
167877551020 0.0301593330256 -0.0297549414498 0.0261832815563 0.0142263156037
 0.0330733401415 0.0116487291869 -0.782848247793 -0.12989216963
167918367347 0.0303135808801 -0.0317942911944 0.0274823392295 0.00587155686478
 0.0331072880564 0.00163998908812 -0.780304295861 -0.190165255483
167959183673 0.0259477872926 -0.0358642485856 0.0227409308202 0.0143453132987
 0.0292644774079 0.012337988623 -0.787550259821 -0.14901397244
168000000000 0.0265462279507 -0.0353647707562 -0.0212473532453 -0.00926435905704
 -0.0266102323163 -0.00666772679848 -0.801390580549 -0.184575412162
168040816327 0.0302802754127 -0.0314509239573 -0.0181410825252 -0.0122357712051
 -0.0237144268667 -0.0107569036133 -0.805953848999 -0.173220163481
168081632653 0.0388391769343 -0.0282400127082 0.018590263113 0.0230234662032
 0.0265368274741 0.0231981777908 -0.773862894912 -0.129300499862
168122448980 0.0432108703153 -0.0305472259575 0.0115594542564 0.0149387978314
 0.0167418860431 0.0150807103198 -0.817639095736 -0.161671127264
168163265306 0.0537299900618 -0.0278750690849 -0.0156551212892 -0.0120114714425
 -0.0210503214819 -0.0106756183949 -0.811602059003 -0.189492542151
168204081633 0.0654171971252 -0.0347541484659 -0.00342610206356 0.0170378467768
 -0.000157047732122 0.0208561045612 -0.85538910551 -0.141232419129
168244897959 0.070947319664 -0.0435081255179 -0.00501957080351 -0.0193508055577
 -0.0105099918449 -0.0216557467309 -0.810238655084 -0.150306765416
168285714286 0.0788137719554 -0.0508533667423 -0.00703043803554 -0.0191709282162
 -0.0130458347058 -0.0210258074214 -0.799082666326 -0.167356215203
168326530612 0.0840487371923 -0.0537131109258 -0.00703792775041 0.0175670749282
 -0.00384336081522 0.0227170577872 -0.842263446267 -0.132015419811
168367346939 0.0905286404528 -0.0552516921711 -0.00560923826862 -0.0214735651796
 -0.0125801452264 -0.0241246617007 -0.785174432917 -0.180043242593
168408163265 0.0988244633109 -0.0586407164595 -0.00356506386565 -0.015779222811
 -0.00881867790663 -0.0179728802536 -0.813400480971 -0.179196527155
168448979592 0.0993347825977 -0.0585239546853 -0.00343566233918 -0.0212117796972
 -0.0105631194541 -0.0246527927128 -0.783781457494 -0.18982616949
168489795918 0.107087588779 -0.0517590711229 0.00382614162245 -0.0192960887457
 -0.00142245213736 -0.0247934566668 -0.792187777061 -0.15741319477
168530612245 0.117391616979 -0.0538740669671 0.00934289484033 -0.01527919659
 0.00645296219426 -0.0219776136476 -0.812455380969 -0.139150660176
168571428571 0.126025821853 -0.0490534637269 -0.00677124440592 -0.0168422538397
 -0.0143240182512 -0.0187119454923 -0.828533851507 -0.224187650308
168612244898 0.132892330188 -0.051021224227 0.011341245052 -0.0181793120873
 0.0078974053934 -0.0271552192619 -0.77742713119 -0.138144461548
168653061224 0.141300272928 -0.0510112034612 0.00175454912603 -0.0171798445812
 -0.00402309729099 -0.0228268722907 -0.801465017272 -0.203592109853
168693877551 0.152941303932 -0.0421714581874 0.0145076087656 -0.0158555906204
 0.0131180155004 -0.0263602906115 -0.778035287386 -0.12775772755
168734693878 0.160771672481 -0.0408883721252 0.00273640368572 -0.016088795359
 -0.00238555421879 -0.0226824670372 -0.804931253468 -0.20396897637
168775510204 0.170742611408 -0.0349234099662 0.0160986580851 -0.0171878714443
 0.0157304184016 -0.0296918332133 -0.747252339614 -0.13605733818
168816326531 0.182524631939 -0.025840686724 0.00989872449957 -0.0085932266947
 0.0107914623967 -0.0156437518239 -0.813526493363 -0.16126440152
168857142857 0.18903489155 -0.0220603238373 0.00975279767228 -0.0141320439315
 0.00906844669635 -0.0233719357461 -0.788921014481 -0.178050545711
168897959184 0.197102458868 -0.0156427035523 0.012355268374 -0.0137102088301
 0.0134718451934 -0.023589363123 -0.783158432665 -0.166802992997
168938775510 0.205120914006 -0.00861984224431 0.00345773549164 -0.0169587262305
 0.000209795614211 -0.0255554031952 -0.812519627265 -0.213919708014
168979591837 0.213125808403 -0.000954480903258 0.0165012645778 -0.00771251745755
 0.0220922928814 -0.015448345765 -0.806947328692 -0.138930449516
169020408163 0.213325369327 0.0109324682269 0.0199561929972 -0.00938030598766
 0.0271100915641 -0.0181484795067 -0.78810208497 -0.128131340237
169061224490 0.220378460995 0.0273707168589 0.0183650656255 -0.0134040764629
 0.0242508861505 -0.0230138720809 -0.771779533729 -0.152760286297
169102040816 0.238423391779 0.0405995573795 0.0131629952835 -0.00444412315498
 0.0182896386878 -0.0085022260871 -0.818377946131 -0.158482590421
169142857143 0.244140662852 0.0414915802129 0.0139337838978 0.00704769442692
 0.0207026579342 0.00808479334221 -0.852936261713 -0.155984940505
169183673469 0.252366804162 0.0606325822651 0.0101694255453 -0.0105049304701
 0.0129149660589 -0.0158151939803 -0.809944693907 -0.184797146341
169224489796 0.257195610941 0.0627616883295 0.0179678110907 -0.0010145423705
 0.0245206315909 -0.00317178440677 -0.813581525948 -0.144433208874
169265306122 0.258676124559 0.0663880183839 0.0160351055806 0.00259600336877
 0.0219109326263 0.00215916829197 -0.823335570698 -0.148388514361
169306122449 0.253013851372 0.0809031806035 0.0255377927846 0.00306885703723
 0.0341673861962 0.00222860650382 -0.798188813527 -0.113956069155
169346938776 0.250388377072 0.0978496266388 0.00609682111781 -0.00997743798361
 0.00740063438802 -0.0134297386236 -0.827073822262 -0.18955427346
169387755102 0.239539334878 0.1014429927 0.0231887435563 0.0112125481562
 0.030516402397 0.0133361341014 -0.823695522542 -0.113152038112
169428571429 0.239993547213 0.120704775333 0.0175585005787 -0.0114395071035
 0.0219096388227 -0.0153465796834 -0.798687968157 -0.203372119149
169469387755 0.229755822373 0.146272603237 0.0267519476158 -0.00742807412483
 0.0333925085567 -0.0104002355893 -0.759865477354 -0.192686402935
169510204082 0.233601625289 0.169337914695 0.0211915344841 0.00390466747865
 0.0264544877493 0.00419033834126 -0.791599312225 -0.153738722358
169551020408 0.238811651486 0.178363731927 -0.0110499791529 0.0120774323889
 -0.013306888077 0.0150672526948 -0.825803632611 -0.200036194918
169591836735 0.228651658868 0.19215738428 0.0220602128835 -0.00162270265152
 0.0267863519744 -0.00232646101 -0.78145175798 -0.182737272127
169632653061 0.231611594877 0.210371447568 0.0164244922677 0.00541136754588
 0.0198223937518 0.0063546532472 -0.800530053279 -0.163350341268
169673469388 0.231021014529 0.215321436862 0.0192004005649 -0.00216495010205
 0.0229394866638 -0.00267494541773 -0.792226410196 -0.19115596677
169714285714 0.233370791533 0.233571800662 0.0201576808179 0.0091836543338
 0.0238787806966 0.0108169704237 -0.778336258046 -0.154961590443
169755102041 0.223246643978 0.240111090843 0.019647647253 0.00929457806049
 0.0230155996086 0.0109965071125 -0.774932322159 -0.156358765526
169795918367 0.220745888114 0.254416923471 0.0201851892744 0.00377292099289
 0.0234845014615 0.00461347898673 -0.773885971636 -0.191733295808
169836734694 0.21498367483 0.260789346298 0.0158056312839 0.00880211711403
 0.0181666443289 0.0104791722902 -0.778760552166 -0.170379926726
169877551020 0.208022472571 0.272843253957 0.00990979448803 0.0100524924762
 0.0111848529164 0.0118386833703 -0.796156216598 -0.160914298034
169918367347 0.207895511232 0.283459783244 -0.0157350247637 -0.00280172136022
 -0.0179761024666 -0.00371920939486 -0.792263979726 -0.207515271938
169959183673 0.200213511272 0.303085299577 -0.0165019183785 -0.00753401950449
 -0.0185597553225 -0.00924801765983 -0.765104416266 -0.209482626918
170000000000 0.202989985114 0.31730960465 0.00809265151654 0.0103388660026
 0.00872395439271 0.0121355954652 -0.780532584035 -0.165711895964
