!Keysight Technologies,N5247B,MY61256062,A.16.20.04
!Date: Wednesday, November 26, 2025 05:16:10
!Correction: S11(C  2-Port  ) 
!S21(C  2-Port  ) 
!S12(C  2-Port  ) 
!S22(C  2-Port  ) 
!S2P File: Measurements: S11, S21, S12, S22:
# Hz S  dB   R 50
110000000000 -10.803877 -110.78671 -57.468472 141.83118 -57.887997 109.60727 -0.63559896 -5.8652468
110040816326.53 -10.79157 -110.84837 -57.397106 141.3459 -57.722534 109.14242 -0.5095154 -6.6755128
110081632653.06 -10.785792 -111.07308 -57.344456 140.11917 -57.708916 108.92638 -0.39944169 -6.01896
110122448979.59 -10.802048 -111.21159 -57.107185 139.79424 -57.652485 110.53085 -0.31399268 -4.9466643
110163265306.12 -10.807219 -111.33971 -57.068005 138.74065 -57.432545 110.452 -0.24350807 -3.9469094
110204081632.65 -10.803747 -111.42047 -57.054386 136.88133 -57.396881 109.76142 -0.16816823 -2.9120753
110244897959.18 -10.801588 -111.48161 -56.957954 135.47484 -57.447433 109.7151 -0.09421204 -2.0069766
110285714285.71 -10.790723 -111.53073 -57.374363 133.85303 -57.706577 110.58443 -0.069321312 -1.1676477
110326530612.24 -10.784943 -111.53901 -57.572876 133.18141 -58.041939 111.28407 -0.077166259 -0.82646942
110367346938.78 -10.785053 -111.53194 -57.717751 133.84398 -57.951408 113.01073 -0.097447999 -0.577815
110408163265.31 -10.779394 -111.56433 -57.827164 133.33774 -57.77177 114.19422 -0.040580433 0.10442863
110448979591.84 -10.778233 -111.55972 -57.953632 133.03377 -57.781509 112.46685 0.019693848 0.14308287
110489795918.37 -10.777241 -111.57927 -58.254089 134.92361 -58.21352 114.07879 0.034518588 0.75728691
110530612244.9 -10.772332 -111.66164 -58.176739 136.98817 -57.918018 114.94302 0.033686958 1.5692403
110571428571.43 -10.775378 -111.71564 -57.859295 139.01974 -57.512978 115.16431 -0.0049374476 2.5177052
110612244897.96 -10.775823 -111.73235 -57.528778 138.08571 -57.419727 114.56736 0.010425217 3.5933805
110653061224.49 -10.782937 -111.76517 -57.214836 136.75734 -57.303589 113.00187 -0.019803584 3.722039
110693877551.02 -10.788897 -111.78317 -57.355003 133.80765 -57.47805 110.73284 -0.09140595 4.4737229
110734693877.55 -10.794435 -111.84109 -57.614342 132.78349 -57.830818 108.83297 -0.17477675 5.3689084
110775510204.08 -10.801915 -111.8451 -58.083813 134.11609 -58.242775 110.94711 -0.24348836 6.2110362
110816326530.61 -10.81007 -111.83059 -57.968384 135.66241 -58.442875 113.07643 -0.28177771 6.9762907
110857142857.14 -10.811363 -111.87177 -57.852032 136.57158 -58.528023 114.5762 -0.31367102 7.4491553
110897959183.67 -10.809146 -111.85039 -57.703854 137.62518 -58.365967 118.29425 -0.34388703 7.5357094
110938775510.2 -10.805345 -111.9119 -57.535213 137.19534 -57.83392 119.96384 -0.36992314 7.5726137
110979591836.73 -10.80439 -111.87863 -57.487473 136.76785 -57.776131 119.83921 -0.38530239 7.622941
111020408163.27 -10.802699 -111.87556 -57.276176 135.4841 -57.533298 120.75285 -0.37921268 7.4834924
111061224489.8 -10.804419 -111.86983 -57.192127 136.23198 -57.442184 119.96687 -0.35723364 7.2373333
111102040816.33 -10.800838 -111.87169 -57.305695 135.87608 -57.315468 119.78478 -0.32250908 6.9041724
111142857142.86 -10.794149 -111.9308 -57.248146 136.21904 -57.277584 119.06364 -0.28200585 6.6607451
111183673469.39 -10.790015 -111.99168 -57.26701 136.1162 -57.183056 118.76733 -0.22223951 6.5152636
111224489795.92 -10.789466 -112.04147 -57.222477 136.03406 -57.065517 119.38825 -0.15084073 6.2371435
111265306122.45 -10.784193 -112.09917 -57.139721 135.3735 -57.19331 118.84845 -0.08324156 6.103127
111306122448.98 -10.782559 -112.12524 -56.979305 136.70827 -57.07814 119.32211 -0.023250258 6.0937672
111346938775.51 -10.778528 -112.15424 -57.006638 136.41461 -57.014286 119.54366 0.029156161 6.2377219
111387755102.04 -10.772915 -112.13497 -56.8494 136.30635 -57.088318 119.23774 0.075668462 6.6072559
111428571428.57 -10.763612 -112.19057 -56.743889 135.66457 -56.985714 120.04383 0.10903984 7.195291
111469387755.1 -10.755897 -112.20432 -56.789635 135.16937 -56.728828 120.20554 0.12423544 8.0450115
111510204081.63 -10.746402 -112.1881 -56.732754 134.5372 -56.780628 119.8877 0.10578465 9.1992111
111551020408.16 -10.735435 -112.13412 -56.667747 134.6792 -56.89397 119.65068 0.10546885 10.655747
111591836734.69 -10.721727 -112.13652 -56.569702 135.26266 -56.865303 120.51429 0.18680179 11.202911
111632653061.22 -10.712544 -112.11893 -56.629395 135.70287 -56.889416 121.14727 0.23023257 11.246907
111673469387.76 -10.698797 -112.11095 -56.338566 135.73363 -56.669491 122.1616 0.23139113 11.475537
111714285714.29 -10.684002 -112.10989 -56.169758 134.66765 -56.634304 121.14133 0.21045083 11.718634
111755102040.82 -10.675829 -112.13931 -56.118385 134.53961 -56.435696 120.39035 0.18198469 11.906137
111795918367.35 -10.672333 -112.10857 -55.993145 132.86459 -56.199486 119.90222 0.13042542 12.12471
111836734693.88 -10.670725 -112.1622 -55.894016 132.33607 -56.144897 118.4952 0.079741858 12.371395
111877551020.41 -10.668046 -112.20828 -55.876934 131.19878 -55.971134 118.01289 0.039545055 12.573209
111918367346.94 -10.669864 -112.23978 -55.810379 128.89542 -55.999798 115.58907 -0.0027186186 12.569814
111959183673.47 -10.671414 -112.26614 -55.942703 128.81458 -56.252823 114.01199 -0.062220976 12.440896
112000000000 -10.672293 -112.25151 -56.079395 128.20923 -56.358292 113.24271 -0.12663879 12.1275
112040816326.53 -10.673982 -112.24919 -56.242153 128.30328 -56.444534 113.14005 -0.20479305 11.762785
112081632653.06 -10.671316 -112.31059 -56.009621 128.57108 -56.506451 113.17043 -0.28023228 11.425684
112122448979.59 -10.67129 -112.32712 -56.010597 127.78433 -56.668976 112.29868 -0.36399597 11.092012
112163265306.12 -10.671263 -112.32007 -56.031322 127.12473 -56.920223 112.24772 -0.44024074 10.740792
112204081632.65 -10.66697 -112.32072 -56.13324 126.1613 -56.867943 113.60203 -0.49965656 10.362613
112244897959.18 -10.661399 -112.28601 -56.11599 125.91335 -56.785057 111.9936 -0.56573349 10.121045
112285714285.71 -10.65606 -112.29018 -56.151829 124.80505 -57.095379 112.5051 -0.63830513 10.011582
112326530612.24 -10.652583 -112.34498 -56.361549 124.9295 -57.063251 113.23933 -0.71431136 9.812953
112367346938.78 -10.652992 -112.39371 -56.307621 125.80959 -57.004005 112.8465 -0.76923472 9.8024797
112408163265.31 -10.653853 -112.43756 -56.33606 125.65233 -57.086452 112.60522 -0.78718102 9.9491997
112448979591.84 -10.658991 -112.45761 -56.286217 125.51621 -57.074207 111.90436 -0.80173427 9.929615
112489795918.37 -10.66004 -112.47821 -56.177986 125.40749 -57.120499 111.73644 -0.84325975 9.7095671
112530612244.9 -10.66186 -112.53365 -56.258675 125.22073 -57.247284 111.86489 -0.89954817 9.4131308
112571428571.43 -10.664227 -112.57887 -56.29282 125.17158 -57.359894 111.65421 -0.9631536 9.2479801
112612244897.96 -10.669169 -112.60832 -56.117668 125.46865 -57.320019 111.31306 -1.0513148 9.2561474
112653061224.49 -10.672634 -112.61039 -56.20631 125.32258 -57.444206 111.06244 -1.1357162 9.5274248
112693877551.02 -10.670749 -112.62109 -56.187969 124.1377 -57.289967 110.43506 -1.1873401 9.9331388
112734693877.55 -10.665874 -112.63212 -56.152534 124.41965 -57.386013 111.06901 -1.2330035 10.165365
112775510204.08 -10.65513 -112.64946 -56.211166 123.72851 -57.391106 110.90961 -1.2823473 10.190324
112816326530.61 -10.646418 -112.62132 -56.220001 123.60963 -57.545967 110.04366 -1.3168813 10.159081
112857142857.14 -10.637051 -112.60799 -56.206326 123.57536 -57.405659 110.67885 -1.333922 10.143272
112897959183.67 -10.635269 -112.585 -56.37466 123.5158 -57.447365 110.84468 -1.3405216 10.297661
112938775510.2 -10.63251 -112.58554 -56.313477 124.11813 -57.487129 111.27441 -1.3597307 10.546103
112979591836.73 -10.631424 -112.59824 -56.194923 123.80871 -57.477154 110.83279 -1.3590871 10.688721
113020408163.27 -10.629387 -112.62058 -56.197987 123.48801 -57.479229 111.96898 -1.325996 11.029075
113061224489.8 -10.629484 -112.64323 -56.08181 123.1195 -57.145874 112.39611 -1.2721125 11.59632
113102040816.33 -10.632304 -112.70325 -56.175659 123.44586 -57.193283 112.89838 -1.2079062 12.352454
113142857142.86 -10.640808 -112.71333 -55.992283 123.29885 -57.069801 112.94962 -1.1379507 13.295594
113183673469.39 -10.639614 -112.74275 -55.98373 123.10966 -57.024372 112.62266 -1.0975069 14.145907
113224489795.92 -10.633641 -112.78204 -55.952293 122.07157 -57.1553 113.04595 -1.1188936 14.702804
113265306122.45 -10.624104 -112.80634 -55.993088 122.26021 -57.329338 113.39923 -1.2209865 15.026048
113306122448.98 -10.61986 -112.79774 -55.925858 121.42065 -57.389202 114.19349 -1.3676976 15.01018
113346938775.51 -10.608672 -112.80255 -55.991409 120.75944 -57.360756 114.30236 -1.5304655 14.513177
113387755102.04 -10.592662 -112.81085 -55.998207 121.00449 -57.585281 113.72531 -1.6795012 13.737017
113428571428.57 -10.577611 -112.83254 -55.986191 120.24752 -57.598824 113.16389 -1.7682399 13.569047
113469387755.1 -10.56567 -112.82356 -55.955891 121.17687 -57.412636 112.10997 -1.7397723 13.96482
113510204081.63 -10.557882 -112.82735 -55.894356 120.22565 -57.342731 110.56906 -1.6279259 14.456409
113551020408.16 -10.55018 -112.8558 -55.966312 119.96355 -57.538368 109.61005 -1.5180612 15.054473
113591836734.69 -10.539455 -112.89977 -56.0079 119.68864 -57.640308 111.46976 -1.3723251 15.854053
113632653061.22 -10.536201 -112.91083 -56.081074 120.67403 -57.64378 112.15058 -1.2100517 16.185331
113673469387.76 -10.534604 -112.93021 -55.906372 121.59607 -57.263779 112.89001 -1.0750095 16.28351
113714285714.29 -10.542944 -112.97627 -55.837753 121.79128 -56.940014 113.00001 -1.0071008 16.401648
113755102040.82 -10.546025 -113.017 -55.608143 121.17582 -56.774277 111.6813 -0.91539079 17.03294
113795918367.35 -10.554025 -113.04308 -55.608913 119.92105 -56.852711 111.94186 -0.89958513 17.149628
113836734693.88 -10.56352 -113.06282 -55.790642 120.38326 -56.885902 111.46179 -1.083341 15.752398
113877551020.41 -10.571557 -113.09756 -55.730534 120.19316 -57.047504 109.68164 -1.4447409 14.150932
113918367346.94 -10.572678 -113.12238 -55.673126 120.20188 -56.993984 108.44372 -1.6754899 13.030364
113959183673.47 -10.574148 -113.13091 -55.523952 120.02744 -57.123562 107.61972 -1.7012239 12.305931
114000000000 -10.565928 -113.10283 -55.435028 119.59563 -56.940765 107.10712 -1.6254148 11.804996
114040816326.53 -10.566903 -113.12128 -55.456566 118.89077 -56.941803 107.3911 -1.5461321 11.220976
114081632653.06 -10.567472 -113.18456 -55.45834 118.30583 -56.83997 107.13646 -1.4615909 10.705932
114122448979.59 -10.56584 -113.17949 -55.419933 117.8679 -56.736618 106.33245 -1.3770399 9.9703875
114163265306.12 -10.557987 -113.24717 -55.378052 118.19159 -56.555767 105.90171 -1.3445423 9.4254274
114204081632.65 -10.558885 -113.26077 -55.419369 117.57607 -56.640968 104.93372 -1.3122901 8.957943
114244897959.18 -10.560941 -113.311 -55.395916 117.64272 -56.622501 104.20476 -1.2628939 8.380353
114285714285.71 -10.568591 -113.3447 -55.30304 117.3431 -56.583725 103.33102 -1.2348665 7.8896933
114326530612.24 -10.578323 -113.39133 -55.341629 117.55903 -56.699505 102.562 -1.2574786 7.7780137
114367346938.78 -10.583006 -113.48289 -55.203728 117.32527 -56.74017 102.44173 -1.2720431 7.9280405
114408163265.31 -10.592727 -113.5485 -55.145313 116.8222 -56.783916 101.94073 -1.2983067 7.9976249
114448979591.84 -10.603998 -113.59392 -55.085754 116.4828 -56.726295 101.6348 -1.3314723 8.3428612
114489795918.37 -10.614959 -113.64629 -55.079018 114.70328 -56.845314 101.55844 -1.3997868 8.6663971
114530612244.9 -10.62079 -113.67592 -55.096344 115.47913 -56.938751 101.20673 -1.4922056 9.0037107
114571428571.43 -10.629713 -113.70106 -55.181713 115.06818 -57.127979 101.22549 -1.5973624 9.6731339
114612244897.96 -10.631031 -113.70877 -55.045338 114.99304 -57.17831 100.5827 -1.70028 10.393624
114653061224.49 -10.625692 -113.67784 -54.914894 113.7989 -57.420055 100.26439 -1.8359805 10.481264
114693877551.02 -10.611053 -113.63996 -54.928852 112.78404 -57.545509 100.13995 -2.0019462 10.826032
114734693877.55 -10.601152 -113.62521 -54.979809 111.93206 -57.618382 99.168106 -2.1688259 11.257802
114775510204.08 -10.5866 -113.61082 -55.145699 111.35982 -57.823223 98.625748 -2.3401027 11.372367
114816326530.61 -10.566984 -113.54742 -55.253906 110.69235 -58.107113 97.006996 -2.5781245 10.65435
114857142857.14 -10.552427 -113.48364 -55.501968 111.39615 -58.325169 95.870209 -2.8443606 9.4159155
114897959183.67 -10.544185 -113.46426 -55.457596 112.34063 -58.326939 94.867867 -2.9507346 8.786974
114938775510.2 -10.552735 -113.44025 -55.369907 112.68983 -58.269505 93.641373 -2.9856155 8.2761164
114979591836.73 -10.555605 -113.44061 -55.106205 111.87785 -58.168461 93.434692 -3.0045199 7.6460581
115020408163.27 -10.563985 -113.46814 -55.010201 109.73537 -58.168312 91.44223 -2.9637444 6.8663402
115061224489.8 -10.571839 -113.45905 -55.125908 108.2879 -58.051792 89.314743 -2.8401165 6.0278049
115102040816.33 -10.581329 -113.43074 -55.301796 105.97189 -58.018387 90.028252 -2.6604519 5.3165059
115142857142.86 -10.593649 -113.39813 -55.550995 107.04967 -57.826664 90.136673 -2.42314 4.6914983
115183673469.39 -10.605207 -113.30846 -55.60841 107.40643 -57.567017 89.975594 -2.1492069 4.2133913
115224489795.92 -10.603037 -113.26213 -55.582287 107.54777 -57.195183 89.009216 -1.8362662 3.7993362
115265306122.45 -10.593856 -113.19006 -55.596977 105.87226 -56.846577 87.000603 -1.5423403 3.6257138
115306122448.98 -10.571861 -113.10925 -55.71909 104.31457 -56.87748 86.204178 -1.2819664 3.738034
115346938775.51 -10.549459 -113.09752 -56.017002 104.61472 -56.857487 85.429321 -1.0335896 4.0463104
115387755102.04 -10.533584 -113.08737 -55.980976 105.3419 -56.740276 85.706291 -0.80951357 4.4835634
115428571428.57 -10.519853 -113.13891 -55.943707 106.45072 -56.585545 87.027237 -0.59531176 4.8811584
115469387755.1 -10.503076 -113.13138 -55.831459 105.82796 -56.367851 85.871788 -0.39244661 5.3229694
115510204081.63 -10.485472 -113.11131 -55.969688 105.77415 -56.263588 86.201859 -0.25312597 5.6935682
115551020408.16 -10.480557 -113.14974 -55.9118 106.69986 -56.295364 86.591156 -0.13655502 6.1114802
115591836734.69 -10.489258 -113.22659 -55.857563 106.85045 -56.221657 86.335503 -0.047461197 6.5103583
115632653061.22 -10.499221 -113.27967 -55.726303 106.63663 -55.962437 87.4468 0.029721806 6.8473577
115673469387.76 -10.508711 -113.38262 -55.49815 106.40016 -55.876549 86.725914 0.071395181 7.1427388
115714285714.29 -10.522213 -113.46597 -55.357185 106.00035 -55.714111 86.661964 0.10445309 7.4394832
115755102040.82 -10.539318 -113.55969 -55.345436 105.29025 -55.667526 86.524529 0.13157779 7.7470465
115795918367.35 -10.555252 -113.601 -55.282337 103.43156 -55.705437 86.223305 0.15629531 8.0184374
115836734693.88 -10.567231 -113.65472 -55.365307 102.82508 -55.658485 86.311417 0.18753321 8.3258305
115877551020.41 -10.572528 -113.68803 -55.437374 101.62685 -55.634964 86.563721 0.22388878 8.5906334
115918367346.94 -10.575051 -113.688 -55.649376 101.99231 -55.711224 86.917122 0.26307255 8.7713022
115959183673.47 -10.567578 -113.68443 -55.640667 101.37267 -55.708992 87.104004 0.30410573 8.9700909
116000000000 -10.554334 -113.64503 -55.664116 101.34344 -55.657742 86.7369 0.34746256 9.1946859
116040816326.53 -10.53399 -113.62518 -55.655998 101.5063 -55.634514 86.834915 0.38772774 9.4508467
116081632653.06 -10.512689 -113.6225 -55.695965 100.98288 -55.693905 86.929878 0.42818737 9.7430716
116122448979.59 -10.499118 -113.59164 -55.769188 100.44459 -55.701088 86.984665 0.46256813 10.032206
116163265306.12 -10.481617 -113.59525 -55.830288 100.90852 -55.770512 87.737778 0.49028462 10.363127
116204081632.65 -10.474174 -113.63364 -55.850403 101.43765 -55.841244 88.036674 0.51046205 10.76797
116244897959.18 -10.473787 -113.65737 -55.787029 101.66002 -55.771999 88.549034 0.51869971 11.2342
116285714285.71 -10.480396 -113.69036 -55.645943 101.68573 -55.751331 87.671837 0.51509762 11.766869
116326530612.24 -10.489728 -113.7422 -55.631485 101.13526 -55.813759 88.986633 0.49961886 12.365039
116367346938.78 -10.510971 -113.81358 -55.733212 102.14484 -55.818306 89.678246 0.47643989 13.093566
116408163265.31 -10.508058 -113.83075 -55.505672 101.73454 -55.513374 90.48674 0.44074047 13.855474
116448979591.84 -10.519876 -113.91012 -55.575161 101.25465 -55.458427 90.749168 0.39343393 14.824452
116489795918.37 -10.527418 -113.95187 -55.523464 101.11472 -55.428577 90.131195 0.34270519 15.944092
116530612244.9 -10.52527 -113.97256 -55.669807 101.58067 -55.491142 90.323761 0.29828134 16.654228
116571428571.43 -10.519598 -113.96335 -55.478649 102.76655 -55.615295 89.370537 0.28107029 16.45499
116612244897.96 -10.512258 -113.93237 -55.366501 102.79117 -55.518471 89.720322 0.25380123 16.281631
116653061224.49 -10.496855 -113.92106 -55.246269 103.18755 -55.517159 89.277977 0.20705707 16.307135
116693877551.02 -10.479543 -113.90131 -55.040936 102.21876 -55.363506 88.854431 0.1571677 16.405466
116734693877.55 -10.454857 -113.87498 -55.001045 101.69701 -55.324478 88.585907 0.11444377 16.478443
116775510204.08 -10.438709 -113.84162 -54.912106 100.93088 -55.223072 88.679062 0.077392876 16.472021
116816326530.61 -10.418777 -113.82996 -54.932758 100.58588 -55.240757 88.034348 0.045850702 16.408083
116857142857.14 -10.401599 -113.86566 -54.885487 99.764771 -55.243038 87.080811 0.02480853 16.321539
116897959183.67 -10.389608 -113.9139 -54.803509 99.636986 -55.155151 87.912231 0.014665497 16.209896
116938775510.2 -10.389765 -113.98234 -54.857887 98.487343 -55.227608 86.520844 0.010369438 16.066282
116979591836.73 -10.397696 -113.98042 -54.936466 97.065384 -55.252884 86.077736 0.0055660568 15.922899
117020408163.27 -10.405842 -114.03658 -55.0462 96.671974 -55.410686 86.00428 0.014483355 15.876951
117061224489.8 -10.398338 -114.12397 -55.130386 96.908646 -55.421806 86.179054 0.031797089 15.877644
117102040816.33 -10.421017 -114.17892 -55.104527 96.480446 -55.441406 86.233086 0.058717571 15.874742
117142857142.86 -10.432943 -114.19662 -55.279163 96.563889 -55.524609 86.073341 0.08785437 15.903988
117183673469.39 -10.430473 -114.21544 -55.387058 96.830307 -55.576633 86.024406 0.11426274 16.013151
117224489795.92 -10.431373 -114.22896 -55.272331 97.208 -55.521961 85.861336 0.1393199 16.157913
117265306122.45 -10.424806 -114.22256 -55.258286 96.910042 -55.520252 85.066933 0.16488878 16.308737
117306122448.98 -10.415696 -114.20735 -55.216137 96.75042 -55.644897 85.095596 0.1844351 16.520052
117346938775.51 -10.39533 -114.20905 -55.38982 95.810295 -55.771847 85.67527 0.20547129 16.828779
117387755102.04 -10.379036 -114.18297 -55.411686 96.631874 -55.709061 84.689796 0.22130804 17.173656
117428571428.57 -10.370894 -114.17554 -55.342117 97.191757 -55.737556 85.525879 0.23338062 17.529549
117469387755.1 -10.353987 -114.16132 -55.370171 97.025291 -55.852966 85.524719 0.23922944 17.888088
117510204081.63 -10.345774 -114.22363 -55.368107 96.444534 -55.868015 85.728256 0.23113638 18.301851
117551020408.16 -10.336711 -114.22389 -55.541206 96.779739 -55.95681 86.267166 0.22414839 18.815102
117591836734.69 -10.332499 -114.26799 -55.586666 97.592522 -56.06245 88.393555 0.21201704 19.440462
117632653061.22 -10.33804 -114.32987 -55.513687 97.661362 -55.818069 88.899384 0.20446777 20.123425
117673469387.76 -10.346913 -114.47601 -55.458782 98.507271 -55.854111 90.205177 0.19325341 20.880413
117714285714.29 -10.363205 -114.63025 -55.322647 98.771034 -55.671673 89.712296 0.19402088 21.46792
117755102040.82 -10.391653 -114.59578 -55.366096 98.31636 -55.66391 90.932335 0.19979288 21.792797
117795918367.35 -10.402041 -114.53115 -55.27903 98.87381 -55.524025 90.899727 0.20328569 21.839573
117836734693.88 -10.406272 -114.54064 -55.253345 98.702042 -55.477127 89.999718 0.20686801 21.629841
117877551020.41 -10.397978 -114.53848 -55.118881 99.091583 -55.423199 90.077454 0.19794574 21.242649
117918367346.94 -10.389143 -114.60153 -54.983704 98.390236 -55.352566 90.290802 0.20471868 20.895897
117959183673.47 -10.383451 -114.58733 -54.995842 97.632004 -55.177067 88.803505 0.20613292 20.575161
118000000000 -10.376437 -114.60578 -55.096901 97.533073 -55.134964 88.110275 0.20808564 20.268816
118040816326.53 -10.361075 -114.60779 -55.166302 97.697227 -55.1772 88.510101 0.20471177 20.048782
118081632653.06 -10.34746 -114.59576 -55.08466 97.583946 -55.059147 87.751923 0.19640858 19.934521
118122448979.59 -10.331295 -114.62343 -55.063156 97.928566 -54.941105 87.246506 0.19741791 19.78154
118163265306.12 -10.329737 -114.60378 -54.925972 97.309013 -54.804569 86.575806 0.19418624 19.71191
118204081632.65 -10.318275 -114.58156 -54.947746 96.536011 -54.753922 85.681984 0.187796 19.798008
118244897959.18 -10.317071 -114.62185 -54.857216 96.759026 -54.766655 84.657455 0.18310212 19.982185
118285714285.71 -10.314011 -114.70219 -54.831829 96.458107 -54.762726 84.174515 0.18536882 20.145952
118326530612.24 -10.316607 -114.71579 -54.810265 96.73439 -54.766937 83.812935 0.19277702 20.158752
118367346938.78 -10.324269 -114.74521 -54.724293 95.460518 -54.819698 83.612099 0.19195285 20.206461
118408163265.31 -10.332299 -114.77308 -54.621426 94.356232 -54.782497 83.608498 0.18831062 20.296389
118448979591.84 -10.33778 -114.78842 -54.742439 93.478012 -54.689537 82.372604 0.18399346 20.384108
118489795918.37 -10.338635 -114.86655 -54.855568 92.897278 -54.706245 82.069839 0.17963326 20.452639
118530612244.9 -10.339919 -114.94464 -54.872833 92.951981 -54.712715 82.147217 0.17002557 20.591412
118571428571.43 -10.341146 -114.94513 -54.803997 93.325653 -54.69622 82.640854 0.1584862 21.032307
118612244897.96 -10.336631 -114.96152 -54.694981 92.510841 -54.638878 83.293114 0.15299889 21.734098
118653061224.49 -10.328017 -114.99173 -54.681339 91.55027 -54.580448 83.276398 0.16118486 22.250414
118693877551.02 -10.308659 -115.01157 -54.74025 90.695351 -54.648426 82.149811 0.17812389 22.294601
118734693877.55 -10.298976 -115.00812 -54.684109 90.82122 -54.515892 81.299545 0.19297065 22.149242
118775510204.08 -10.286386 -114.99496 -54.684555 90.195732 -54.49789 80.319817 0.21028166 22.053621
118816326530.61 -10.273802 -115.02248 -54.754452 89.950348 -54.52541 80.494469 0.22377273 21.939589
118857142857.14 -10.265486 -115.03604 -54.665092 89.736328 -54.531784 79.76696 0.23722793 21.82609
118897959183.67 -10.261292 -115.04895 -54.579231 89.251923 -54.464386 79.414261 0.25589275 21.741688
118938775510.2 -10.259807 -115.09274 -54.508305 88.382111 -54.467979 79.376923 0.27074447 21.682863
118979591836.73 -10.260756 -115.07852 -54.467842 87.339142 -54.419392 78.228149 0.28603375 21.65415
119020408163.27 -10.265785 -115.05685 -54.571693 86.038742 -54.457146 77.607643 0.29962099 21.6495
119061224489.8 -10.270284 -115.06687 -54.526096 85.93943 -54.545918 77.078842 0.31306949 21.694448
119102040816.33 -10.2753 -115.06822 -54.555412 84.751442 -54.515762 77.089371 0.3303152 21.686628
119142857142.86 -10.279677 -115.05223 -54.562046 83.662186 -54.566475 76.119591 0.34014672 21.697086
119183673469.39 -10.283947 -115.06583 -54.705166 82.733749 -54.358738 76.058365 0.34846464 21.664278
119224489795.92 -10.273936 -115.11199 -54.834953 82.06134 -54.52182 73.11879 0.35330969 21.661167
119265306122.45 -10.267798 -115.09438 -54.951607 82.03759 -54.643925 73.570915 0.35780659 21.721706
119306122448.98 -10.266589 -115.07442 -54.951981 81.947365 -54.692951 73.88076 0.35866421 21.789236
119346938775.51 -10.259492 -115.07375 -54.992142 81.905495 -54.717644 72.698792 0.35351586 21.836859
119387755102.04 -10.250859 -115.06215 -54.981663 82.40303 -54.818008 73.248253 0.34617966 21.882118
119428571428.57 -10.240785 -115.15188 -54.851917 82.073128 -54.753819 72.603539 0.33820653 21.948273
119469387755.1 -10.231936 -115.17444 -54.731091 80.67128 -54.825977 71.802078 0.32685491 21.959972
119510204081.63 -10.22842 -115.19452 -54.773594 80.42276 -54.994675 70.640625 0.3164604 21.962082
119551020408.16 -10.222359 -115.17351 -54.725414 78.993805 -55.080585 71.105972 0.30751181 21.954124
119591836734.69 -10.221197 -115.20603 -54.791893 77.201134 -55.236088 71.053543 0.29960552 21.84803
119632653061.22 -10.225661 -115.2656 -55.196877 76.440811 -55.282352 71.623215 0.28521061 21.671141
119673469387.76 -10.229713 -115.29493 -55.220428 76.824593 -55.1348 71.548309 0.27219331 21.607853
119714285714.29 -10.234148 -115.32085 -55.361717 76.51899 -55.173584 70.929825 0.26933506 21.512182
119755102040.82 -10.239007 -115.3094 -55.524204 76.808807 -55.121292 70.260887 0.25947192 21.24048
119795918367.35 -10.241391 -115.26987 -55.622986 77.844345 -55.279415 70.211266 0.24918014 20.941298
119836734693.88 -10.24153 -115.30878 -55.667381 79.168549 -55.270164 70.673805 0.23886439 20.644339
119877551020.41 -10.242281 -115.30875 -55.521442 80.065254 -55.218338 70.630844 0.2298702 20.258873
119918367346.94 -10.236275 -115.28926 -55.487007 79.666374 -55.317524 69.705902 0.21666995 19.967958
119959183673.47 -10.229715 -115.26572 -55.406593 79.832718 -55.25074 69.964363 0.20735471 19.67638
120000000000 -10.220722 -115.26356 -55.444038 79.455055 -55.315735 68.697815 0.19172649 19.366148
120040816326.53 -10.209302 -115.285 -55.313961 80.58934 -55.239525 68.757607 0.20173609 19.079704
120081632653.06 -10.202183 -115.32629 -55.327255 80.296532 -55.360813 68.937103 0.21678175 18.836435
120122448979.59 -10.196403 -115.33035 -55.19524 80.270325 -55.408558 68.521439 0.23636214 18.611462
120163265306.12 -10.189953 -115.38093 -55.179035 80.26992 -55.361134 68.425682 0.26201403 18.455248
120204081632.65 -10.184909 -115.42451 -55.01683 80.292709 -55.310787 68.617859 0.29207787 18.51218
120244897959.18 -10.183426 -115.45357 -54.949619 79.85025 -55.287418 68.083145 0.33743444 18.342672
120285714285.71 -10.184069 -115.46331 -54.817913 78.722977 -55.223156 67.080856 0.37712777 17.914753
120326530612.24 -10.173762 -115.43759 -54.826225 77.118263 -55.319191 66.513817 0.40578216 17.601612
120367346938.78 -10.162782 -115.49535 -55.021545 76.055809 -55.17075 66.047707 0.43348089 17.391239
120408163265.31 -10.175688 -115.55511 -55.147976 75.775024 -55.302341 65.474998 0.46693012 17.263861
120448979591.84 -10.186996 -115.46908 -55.465794 74.843102 -55.248947 64.980759 0.50095594 17.03525
120489795918.37 -10.187033 -115.37122 -55.723503 76.026314 -55.193001 65.791779 0.52669203 16.794947
120530612244.9 -10.167473 -115.32018 -55.887753 77.757874 -55.171555 64.438164 0.55686498 16.624245
120571428571.43 -10.148204 -115.32795 -55.7738 79.803566 -55.171185 64.15583 0.58124858 16.451674
120612244897.96 -10.135656 -115.32015 -55.733013 80.477089 -55.108799 62.964203 0.60590267 16.244844
120653061224.49 -10.128407 -115.32579 -55.617908 81.640381 -55.142269 63.507809 0.62329495 15.956068
120693877551.02 -10.121138 -115.33492 -55.512081 82.31514 -55.078804 62.55135 0.62796003 15.621472
120734693877.55 -10.110984 -115.40941 -55.302876 82.990738 -55.096901 62.7491 0.61965787 15.209329
120775510204.08 -10.109723 -115.49496 -55.163525 83.004822 -54.959896 62.564198 0.61235702 14.967217
120816326530.61 -10.111848 -115.46664 -55.047558 83.094078 -54.903084 61.948841 0.60322523 14.597313
120857142857.14 -10.116867 -115.50311 -54.791252 82.747665 -54.764671 61.070381 0.58883196 14.170445
120897959183.67 -10.120993 -115.57926 -54.659264 81.288551 -54.826309 60.23914 0.57058865 13.75237
120938775510.2 -10.129131 -115.68354 -54.672455 80.475479 -54.880413 59.831993 0.5440256 13.292121
120979591836.73 -10.138615 -115.70869 -54.762478 79.960335 -54.803417 60.155643 0.51491046 12.974129
121020408163.27 -10.145883 -115.72044 -54.764149 80.05854 -54.804337 60.076958 0.4830676 12.742739
121061224489.8 -10.153665 -115.76485 -54.855331 79.799957 -54.758965 59.854244 0.44209114 12.456283
121102040816.33 -10.162549 -115.75745 -54.773842 79.984909 -54.676632 59.496304 0.43300202 12.197817
121142857142.86 -10.167163 -115.7327 -54.811539 79.63665 -54.660908 58.864292 0.40927911 11.979839
121183673469.39 -10.168802 -115.70107 -54.723309 79.774292 -54.652351 57.831623 0.38842702 11.806905
121224489795.92 -10.165881 -115.65328 -54.701241 79.234779 -54.629105 57.624687 0.36304271 11.792153
121265306122.45 -10.165473 -115.62244 -54.693638 78.71302 -54.750988 57.508419 0.358495 12.08626
121306122448.98 -10.158596 -115.5553 -54.876347 78.58371 -54.717442 57.655807 0.35395157 12.279629
121346938775.51 -10.15073 -115.57982 -54.911003 80.19355 -54.752712 57.821732 0.34776986 12.491097
121387755102.04 -10.13584 -115.59127 -54.69854 80.580215 -54.869972 57.824806 0.34298173 12.702342
121428571428.57 -10.124269 -115.62608 -54.581051 80.477837 -54.782013 58.017651 0.32879588 12.946808
121469387755.1 -10.119514 -115.68704 -54.490028 79.967636 -54.795486 57.719456 0.31521645 13.209257
121510204081.63 -10.123196 -115.77127 -54.473091 78.823051 -54.829067 57.522148 0.34400156 13.450779
121551020408.16 -10.117042 -115.83241 -54.406788 78.086601 -54.83239 57.496033 0.37063006 13.207576
121591836734.69 -10.116551 -115.90678 -54.506256 77.567841 -54.891777 57.497955 0.31323761 13.338609
121632653061.22 -10.11933 -115.96928 -54.567814 76.891121 -54.971863 57.872379 0.3021194 13.732666
121673469387.76 -10.127463 -116.01144 -54.518181 76.992203 -54.877373 59.04377 0.29733434 14.017266
121714285714.29 -10.130266 -116.03261 -54.625977 76.397995 -54.932426 58.301907 0.28771102 14.261474
121755102040.82 -10.129289 -116.05663 -54.559082 76.17746 -54.906841 59.408718 0.27758461 14.424241
121795918367.35 -10.130344 -116.0662 -54.645344 75.938698 -54.817768 59.820206 0.26930392 14.523729
121836734693.88 -10.129745 -116.01598 -54.659851 75.472305 -54.766594 59.263367 0.26003322 14.564033
121877551020.41 -10.125557 -115.98581 -54.795174 75.967239 -54.761593 58.595394 0.25595716 14.609761
121918367346.94 -10.118687 -115.94259 -54.799603 76.777199 -54.719204 58.777973 0.24974962 14.628852
121959183673.47 -10.111986 -115.95111 -54.773952 77.273315 -54.726833 58.774597 0.24854898 14.598989
122000000000 -10.099263 -115.95734 -54.586048 77.535431 -54.657833 59.106613 0.26437342 14.578124
122040816326.53 -10.086934 -116.01144 -54.527714 76.792908 -54.565289 58.531929 0.27544716 14.512815
122081632653.06 -10.080831 -116.05803 -54.499142 76.479721 -54.519482 58.999031 0.2749792 14.463248
122122448979.59 -10.083313 -116.11342 -54.43856 76.936607 -54.477047 58.411232 0.26838076 14.445002
122163265306.12 -10.090487 -116.18629 -54.335049 76.587936 -54.415077 58.396645 0.27153727 14.449352
122204081632.65 -10.093653 -116.26892 -54.242928 76.137444 -54.328934 57.630508 0.27911758 14.505733
122244897959.18 -10.101537 -116.32423 -54.201115 75.382347 -54.276142 57.670273 0.27743599 14.683626
122285714285.71 -10.107563 -116.39027 -54.075325 74.737511 -54.230564 57.567574 0.27509826 15.056773
122326530612.24 -10.115656 -116.44339 -54.160492 74.091049 -54.2089 56.873016 0.27561334 15.370627
122367346938.78 -10.119589 -116.49303 -54.016712 74.36631 -54.183857 56.291874 0.279053 15.671096
122408163265.31 -10.125761 -116.51407 -53.926907 73.01667 -54.278416 55.977871 0.27922586 15.858127
122448979591.84 -10.13101 -116.48089 -54.002506 71.725098 -54.294762 55.169338 0.2646535 16.032877
122489795918.37 -10.13179 -116.474 -54.064507 71.211502 -54.307377 55.731327 0.25577998 16.234573
122530612244.9 -10.134739 -116.40311 -54.112701 71.13945 -54.336025 55.734856 0.24870935 16.402092
122571428571.43 -10.130108 -116.39413 -53.990223 71.006058 -54.244499 55.418346 0.24548286 16.494181
122612244897.96 -10.125772 -116.38564 -54.006294 69.995941 -54.284821 54.887245 0.23802051 16.522778
122653061224.49 -10.125616 -116.41927 -53.957798 69.252167 -54.160137 54.012371 0.22614856 16.511854
122693877551.02 -10.123824 -116.45594 -53.959843 69.19548 -54.096912 53.198933 0.21621187 16.47846
122734693877.55 -10.127648 -116.4912 -53.898373 68.425285 -54.027771 52.558407 0.20996054 16.416981
122775510204.08 -10.139081 -116.54084 -53.912086 67.614326 -54.107895 51.962257 0.19595431 16.280624
122816326530.61 -10.149196 -116.6175 -53.891628 66.827408 -54.21534 51.490105 0.18912902 16.115009
122857142857.14 -10.156523 -116.7392 -53.921215 66.365639 -54.228558 50.913162 0.18603551 15.887107
122897959183.67 -10.163819 -116.80947 -53.856647 65.664162 -54.228844 50.881908 0.17423926 15.550441
122938775510.2 -10.170341 -116.92408 -53.79155 64.676979 -54.235241 50.925117 0.15235761 15.252034
122979591836.73 -10.204288 -116.93228 -53.889137 64.07106 -54.247711 50.542126 0.14014307 15.053194
123020408163.27 -10.2127 -116.79986 -53.838089 64.003441 -54.146137 50.35342 0.14742757 14.828003
123061224489.8 -10.198953 -116.7743 -53.774654 62.86478 -54.091534 49.74472 0.15279247 14.57566
123102040816.33 -10.194224 -116.79516 -53.79953 60.880058 -54.131989 48.515282 0.14802706 14.34211
123142857142.86 -10.192411 -116.75916 -54.008099 60.742027 -54.152565 48.079517 0.14373577 14.339185
123183673469.39 -10.180388 -116.70027 -54.122097 60.138294 -54.187271 47.716335 0.15090723 14.212691
123224489795.92 -10.167008 -116.6641 -54.12244 60.835518 -54.16251 47.236759 0.15454599 14.154453
123265306122.45 -10.151982 -116.64997 -54.150845 60.735519 -54.169296 46.777348 0.1483833 14.292888
123306122448.98 -10.141651 -116.58543 -54.131413 59.810463 -54.176884 46.133583 0.19738725 14.324716
123346938775.51 -10.131431 -116.56583 -54.21595 59.470737 -54.190147 45.23608 0.20843454 14.352545
123387755102.04 -10.119518 -116.59185 -54.188717 60.184315 -54.238148 45.331562 0.23640431 14.479417
123428571428.57 -10.112822 -116.57949 -54.160488 59.862881 -54.352867 44.354694 0.22015661 14.685629
123469387755.1 -10.110095 -116.63398 -54.13261 59.601822 -54.41304 44.814312 0.2456722 14.903393
123510204081.63 -10.111179 -116.66806 -54.110859 58.817703 -54.378239 44.758636 0.26092941 15.087401
123551020408.16 -10.113514 -116.73983 -54.066303 57.951466 -54.415264 44.059311 0.27396101 15.239496
123591836734.69 -10.112998 -116.78109 -54.043736 57.541851 -54.447651 44.05175 0.28584275 15.316636
123632653061.22 -10.119188 -116.86356 -53.941429 56.200314 -54.406082 43.867126 0.2806209 15.380193
123673469387.76 -10.124713 -116.88111 -54.009159 55.764809 -54.356686 42.73999 0.28237692 15.469523
123714285714.29 -10.124362 -116.88492 -54.073734 54.086205 -54.443832 42.075966 0.27040249 15.54437
123755102040.82 -10.123492 -116.88476 -54.260384 53.419823 -54.597092 41.766083 0.25324157 15.578216
123795918367.35 -10.120699 -116.88331 -54.491455 52.979046 -54.734108 42.012901 0.23528875 15.633569
123836734693.88 -10.113648 -116.89648 -54.531639 52.661224 -54.745003 41.325191 0.21667783 15.428103
123877551020.41 -10.107225 -116.85654 -54.71706 52.418297 -54.899685 42.518257 0.18967719 15.939456
123918367346.94 -10.092397 -116.74392 -54.926418 53.497253 -55.014492 42.647095 0.18894216 16.096968
123959183673.47 -10.069991 -116.69453 -54.962433 54.169048 -54.962936 42.482368 0.19924401 15.603528
124000000000 -10.056711 -116.72205 -54.893948 54.532009 -54.887272 42.062279 0.20918404 15.047254
124040816326.53 -10.042767 -116.73924 -54.831856 55.195438 -54.932507 41.593983 0.21237548 14.600868
124081632653.06 -10.038235 -116.78733 -54.788692 54.557755 -54.99757 41.084427 0.20545597 14.344695
124122448979.59 -10.043563 -116.85782 -54.795795 54.725822 -55.00975 40.878441 0.20510043 14.096858
124163265306.12 -10.043896 -116.92729 -54.856716 54.583992 -55.058289 40.766281 0.21146923 13.909676
124204081632.65 -10.050303 -117.00761 -54.832333 55.473415 -55.190247 40.534985 0.22506085 13.733379
124244897959.18 -10.059586 -117.03356 -54.748562 54.488895 -55.146069 40.655247 0.23710293 13.635113
124285714285.71 -10.077235 -117.097 -54.745605 53.427166 -55.249218 40.573612 0.24167763 13.589905
124326530612.24 -10.085355 -117.1347 -54.946732 53.523552 -55.385361 40.638268 0.2503894 13.619135
124367346938.78 -10.09068 -117.18232 -55.057335 53.840027 -55.339634 41.055439 0.26077291 13.694324
124408163265.31 -10.096643 -117.21054 -55.084538 54.720707 -55.396656 42.453293 0.27377874 13.821143
124448979591.84 -10.098906 -117.17277 -55.003948 55.502235 -55.351635 42.828213 0.28566778 13.976823
124489795918.37 -10.098508 -117.18166 -54.770947 55.581348 -55.253742 42.566154 0.29344943 14.101538
124530612244.9 -10.090226 -117.1517 -54.582584 53.83292 -55.147129 42.368031 0.30052835 14.336227
124571428571.43 -10.076829 -117.14224 -54.736191 52.189724 -55.239994 41.108299 0.30047423 14.597702
124612244897.96 -10.066028 -117.09457 -54.898006 51.908913 -55.291939 40.352917 0.30105829 14.763309
124653061224.49 -10.056056 -117.05293 -55.122204 52.359261 -55.381886 41.018375 0.30110997 14.997858
124693877551.02 -10.039264 -117.06832 -55.27673 52.808388 -55.38575 41.838863 0.31782189 15.18015
124734693877.55 -10.025352 -117.10175 -55.225201 53.645138 -55.290096 41.689899 0.31016284 15.367867
124775510204.08 -10.018875 -117.16895 -55.223248 54.3092 -55.296894 42.595081 0.30910224 15.54762
124816326530.61 -10.026395 -117.25201 -55.198536 54.929611 -55.237972 42.252838 0.3092787 15.697514
124857142857.14 -10.026323 -117.39439 -55.099415 55.202057 -55.293598 42.00399 0.3084971 15.744868
124897959183.67 -10.024273 -117.50309 -55.127377 54.743145 -55.258644 41.678139 0.31016237 15.770571
124938775510.2 -10.032558 -117.47864 -55.057446 55.15638 -55.20586 42.249756 0.3119407 15.803411
124979591836.73 -10.053721 -117.45847 -55.102848 55.238804 -55.243324 43.480274 0.31521356 15.833275
125020408163.27 -10.077533 -117.54316 -55.078461 54.915306 -55.330822 42.865421 0.32811618 15.808871
125061224489.8 -10.077244 -117.69511 -54.937607 54.992359 -55.227077 43.19841 0.33590609 15.757483
125102040816.33 -10.085681 -117.7253 -55.023678 55.230225 -55.060619 43.041382 0.34292337 15.667223
125142857142.86 -10.080627 -117.70651 -54.929047 55.536045 -55.086685 43.199905 0.35389671 15.58939
125183673469.39 -10.079 -117.73866 -54.855995 55.582302 -54.871464 44.147182 0.36070824 15.517789
125224489795.92 -10.063994 -117.74502 -54.766914 54.96769 -54.903618 42.543419 0.35974044 15.459655
125265306122.45 -10.043541 -117.80177 -54.686245 54.05302 -54.823402 41.968555 0.37474006 15.467616
125306122448.98 -10.028552 -117.76048 -54.62944 54.593754 -54.77993 41.55344 0.39926583 15.426006
125346938775.51 -10.005921 -117.72685 -54.556038 53.13615 -54.77182 41.598106 0.42195547 15.370971
125387755102.04 -9.9772758 -117.75065 -54.642029 51.834843 -54.701168 41.16647 0.4674485 15.354747
125428571428.57 -9.955493 -117.76945 -54.708141 51.872734 -54.584911 41.148361 0.50123596 15.438514
125469387755.1 -9.9476986 -117.7131 -54.685806 52.164017 -54.419281 40.85815 0.52873641 15.637921
125510204081.63 -9.9431181 -117.63833 -54.617081 51.832912 -54.489597 40.092442 0.54054779 15.853102
125551020408.16 -9.9392176 -117.623 -54.65218 51.715515 -54.490074 39.856823 0.54422158 16.124113
125591836734.69 -9.9336386 -117.71133 -54.543385 51.572258 -54.425648 39.237198 0.5500375 16.35289
125632653061.22 -9.9342213 -117.84533 -54.636364 51.327778 -54.449184 39.294983 0.55161726 16.563749
125673469387.76 -9.9444609 -117.95963 -54.593296 50.536457 -54.532818 38.654816 0.5594933 16.729521
125714285714.29 -9.9579048 -118.046 -54.546333 49.535114 -54.497898 37.984127 0.5648343 16.887857
125755102040.82 -9.9752798 -118.05521 -54.699974 48.886292 -54.395771 38.030102 0.57502991 17.072216
125795918367.35 -9.9872313 -118.05443 -54.826874 49.126114 -54.521976 37.37167 0.59707588 17.184847
125836734693.88 -9.9890423 -118.08404 -54.822353 49.274979 -54.56263 36.491653 0.62125963 17.143936
125877551020.41 -9.9870615 -118.16062 -54.847034 49.503246 -54.561119 36.959934 0.60998499 17.120947
125918367346.94 -9.9934397 -118.1403 -54.75111 50.022415 -54.61219 37.536495 0.58985806 17.351576
125959183673.47 -9.9857216 -118.10477 -54.728336 49.382786 -54.625816 37.690063 0.58019012 17.453636
126000000000 -9.9656324 -118.10285 -54.657089 48.582848 -54.481396 36.821747 0.56540835 17.495533
126040816326.53 -9.9487982 -118.07922 -54.623451 48.087322 -54.509544 36.091179 0.55904633 17.540386
126081632653.06 -9.9336805 -118.09426 -54.702507 47.815338 -54.528339 36.698906 0.56278908 17.404051
126122448979.59 -9.9145575 -118.10239 -54.682613 47.340824 -54.500538 36.057652 0.57076931 17.24065
126163265306.12 -9.906333 -118.10101 -54.761284 46.805714 -54.484753 36.91468 0.57881421 17.045761
126204081632.65 -9.900878 -118.14128 -54.773472 46.775745 -54.369183 36.279263 0.58981514 16.85191
126244897959.18 -9.903368 -118.19894 -54.751209 46.591839 -54.311436 34.946945 0.60209864 16.659611
126285714285.71 -9.9112616 -118.24661 -54.717308 46.477165 -54.389641 34.69138 0.60805774 16.445606
126326530612.24 -9.9168253 -118.31688 -54.73127 46.027538 -54.350216 34.120174 0.60986984 16.252337
126367346938.78 -9.9312181 -118.36079 -54.731911 45.021515 -54.40004 33.389034 0.60964668 15.917011
126408163265.31 -9.9480944 -118.39349 -54.688732 44.648899 -54.46645 33.238335 0.61616641 15.793228
126448979591.84 -9.9630976 -118.4298 -54.798035 44.221107 -54.432892 32.889473 0.60265255 15.889795
126489795918.37 -9.9797554 -118.46867 -54.791119 43.515079 -54.522713 33.752724 0.58023494 16.641336
126530612244.9 -9.9853325 -118.48056 -54.950905 43.208843 -54.599812 33.239132 0.61838287 16.520624
126571428571.43 -9.986166 -118.57923 -55.001835 43.672478 -54.571796 31.914986 0.64825356 15.902806
126612244897.96 -9.987443 -118.59902 -54.88282 43.854904 -54.615959 31.528669 0.66009742 15.619768
126653061224.49 -9.9822378 -118.61079 -54.865513 42.57011 -54.565739 30.750069 0.66558844 15.384953
126693877551.02 -9.9842205 -118.49924 -54.951275 41.620144 -54.537872 29.95483 0.66517138 15.230077
126734693877.55 -9.9712315 -118.49657 -55.044014 41.64019 -54.567638 29.667046 0.66777539 15.147504
126775510204.08 -9.9537392 -118.47733 -55.130623 41.784939 -54.611374 28.546431 0.67051935 15.077556
126816326530.61 -9.9371309 -118.40968 -55.100834 41.75927 -54.69421 27.833616 0.67257428 15.004239
126857142857.14 -9.9276676 -118.38966 -55.104301 41.744694 -54.809074 27.045265 0.67225409 14.956147
126897959183.67 -9.9058905 -118.39809 -55.087124 41.27459 -54.854862 27.16258 0.68006331 14.99253
126938775510.2 -9.8994846 -118.38854 -55.160126 40.948597 -54.908401 27.156538 0.68078041 15.008301
126979591836.73 -9.8892078 -118.41011 -55.210629 40.592514 -54.91832 27.043879 0.6779238 15.043763
127020408163.27 -9.8935871 -118.44411 -55.202106 41.022255 -54.875092 26.761343 0.6801191 15.042497
127061224489.8 -9.9045172 -118.48717 -55.216198 40.751446 -54.845821 26.094433 0.67363662 14.892722
127102040816.33 -9.915926 -118.52103 -55.247517 41.012245 -54.904278 25.36137 0.65802944 14.605583
127142857142.86 -9.9227924 -118.5278 -55.295891 40.6105 -54.922905 24.703293 0.63983917 14.32388
127183673469.39 -9.9305744 -118.58058 -55.466908 40.625267 -54.985973 24.691095 0.60886961 14.079541
127224489795.92 -9.9375162 -118.64404 -55.461205 41.456387 -55.091053 24.798862 0.57255983 13.794377
127265306122.45 -9.9425526 -118.63506 -55.391602 41.456329 -55.051056 24.84094 0.53299582 13.560884
127306122448.98 -9.947423 -118.61822 -55.35696 40.952877 -55.036381 23.939999 0.48456401 13.3873
127346938775.51 -9.9388437 -118.57683 -55.342911 41.295494 -55.038929 23.831745 0.44539168 13.23501
127387755102.04 -9.9245424 -118.53192 -55.36488 40.994415 -55.045712 23.115459 0.41585854 13.162029
127428571428.57 -9.9143677 -118.47176 -55.385548 41.19772 -55.077953 23.215471 0.39252591 13.139435
127469387755.1 -9.9004583 -118.4566 -55.292404 41.455368 -54.994221 22.877468 0.37325996 13.071548
127510204081.63 -9.8853941 -118.45661 -55.302959 41.123112 -55.031506 21.585995 0.35792577 13.054476
127551020408.16 -9.8511486 -118.48666 -55.290436 41.434795 -55.103771 21.213188 0.3481316 13.094999
127591836734.69 -9.8340092 -118.51543 -55.280128 41.712418 -55.236183 20.834511 0.33752161 13.197394
127632653061.22 -9.8188934 -118.54889 -55.096516 42.300259 -55.325665 21.447447 0.32643521 13.421057
127673469387.76 -9.8122139 -118.57845 -54.886978 41.859783 -55.303017 21.390036 0.32033199 13.638302
127714285714.29 -9.8098936 -118.59988 -54.855316 40.656223 -55.357563 21.69886 0.31463623 14.016574
127755102040.82 -9.8070202 -118.61003 -54.829948 39.525238 -55.29752 22.312853 0.32401368 14.457639
127795918367.35 -9.8114824 -118.65952 -54.836685 38.828041 -55.421799 21.617609 0.32485017 14.429227
127836734693.88 -9.8181763 -118.65964 -54.999699 37.280926 -55.417152 21.35025 0.3205426 14.465523
127877551020.41 -9.8233166 -118.66277 -55.142765 37.114891 -55.455269 21.357973 0.30716357 14.701036
127918367346.94 -9.8299417 -118.66856 -55.3167 37.845699 -55.465889 22.493214 0.29146841 15.060716
127959183673.47 -9.8285475 -118.74169 -55.353954 37.693325 -55.410156 21.760717 0.27649951 15.447618
128000000000 -9.8309479 -118.76552 -55.381222 38.260784 -55.467793 22.058693 0.27952391 15.837957
128040816326.53 -9.8347311 -118.80114 -55.377693 38.805496 -55.566811 21.990459 0.27919671 16.07382
128081632653.06 -9.8415079 -118.846 -55.344162 39.200695 -55.529999 22.657234 0.27732235 16.056669
128122448979.59 -9.8390455 -118.86124 -55.275726 39.083241 -55.543911 22.468557 0.2621344 15.982211
128163265306.12 -9.840374 -118.87742 -55.340103 39.947182 -55.519325 23.063362 0.24265544 16.000357
128204081632.65 -9.8410206 -118.90932 -55.240452 40.458111 -55.479836 23.351507 0.2233759 16.033098
128244897959.18 -9.8395519 -118.91567 -55.122898 40.646648 -55.448589 23.354994 0.21997944 16.040409
128285714285.71 -9.8367958 -118.91706 -54.99062 40.494572 -55.476131 23.423376 0.20225054 16.106256
128326530612.24 -9.8269186 -118.90981 -54.935699 40.441139 -55.371948 23.460224 0.18801068 16.223595
128367346938.78 -9.8337011 -118.91032 -54.9356 40.059311 -55.345772 23.507174 0.18025564 16.355282
128408163265.31 -9.8300524 -118.93415 -54.810062 39.432632 -55.299576 23.20281 0.17270066 16.451908
128448979591.84 -9.8354454 -118.91904 -54.858566 38.976589 -55.225922 23.742369 0.14957093 16.649895
128489795918.37 -9.8334703 -118.91111 -54.827621 38.805458 -55.171444 23.271046 0.14085583 16.895613
128530612244.9 -9.8377371 -118.87942 -54.79578 38.225132 -55.131836 22.827692 0.14389002 17.180809
128571428571.43 -9.8377972 -118.88351 -54.802109 38.509911 -55.178406 22.239861 0.15820716 17.483088
128612244897.96 -9.8393335 -118.87579 -54.777412 37.812267 -55.155766 22.048586 0.18111926 17.636951
128653061224.49 -9.8443775 -118.85661 -54.77663 37.421074 -55.180611 21.978695 0.18939666 17.918402
128693877551.02 -9.8452873 -118.82338 -54.752872 36.518093 -55.148079 21.598526 0.20243438 18.285782
128734693877.55 -9.83599 -118.75691 -54.725971 36.685829 -55.114479 21.552423 0.21861203 18.693764
128775510204.08 -9.8270435 -118.74907 -54.847252 36.22086 -55.153286 20.734234 0.2464285 18.970978
128816326530.61 -9.8164196 -118.69652 -54.78455 36.055809 -55.192204 20.412636 0.26031703 19.305679
128857142857.14 -9.8040323 -118.67623 -54.788857 35.73045 -55.283638 20.132788 0.26966447 19.668304
128897959183.67 -9.7923403 -118.74336 -54.810944 35.30344 -55.389122 20.002762 0.27101201 20.020004
128938775510.2 -9.7905455 -118.76794 -54.859726 35.086857 -55.446114 20.451532 0.26955742 20.338869
128979591836.73 -9.7895012 -118.72617 -54.855984 34.672703 -55.373299 20.955404 0.26679045 20.720215
129020408163.27 -9.7782688 -118.71389 -54.891537 34.497261 -55.293354 21.299911 0.25878277 21.039942
129061224489.8 -9.7674332 -118.6866 -54.878483 34.441399 -55.249382 20.683308 0.24948518 21.309515
129102040816.33 -9.7613115 -118.67661 -54.853512 34.412224 -55.205673 20.122536 0.23075642 21.455761
129142857142.86 -9.7575264 -118.68701 -54.811565 34.542747 -55.24535 19.198292 0.20678408 21.65951
129183673469.39 -9.750843 -118.66643 -54.841095 33.923462 -55.281616 19.003891 0.18278544 21.808323
129224489795.92 -9.7506886 -118.6731 -54.847363 33.759911 -55.362808 18.826597 0.15705985 22.026026
129265306122.45 -9.7478428 -118.69897 -54.760288 33.09972 -55.388889 18.572622 0.12934312 22.164352
129306122448.98 -9.7353926 -118.67746 -54.874115 32.412647 -55.442127 18.276669 0.1023101 22.248817
129346938775.51 -9.7327309 -118.70825 -55.031548 31.98291 -55.511532 18.242788 0.084988415 22.188803
129387755102.04 -9.737792 -118.72427 -55.044701 32.959579 -55.643307 18.570129 0.07240954 22.087822
129428571428.57 -9.738987 -118.71933 -55.02832 32.895023 -55.704445 18.821877 0.041921258 22.022604
129469387755.1 -9.7306738 -118.73713 -55.090347 33.02478 -55.712471 19.142649 0.017661242 22.032949
129510204081.63 -9.7248611 -118.74603 -55.106766 33.338718 -55.743446 20.276308 0.0061409851 22.126764
129551020408.16 -9.7151861 -118.76651 -54.892307 33.322166 -55.737873 20.918762 -0.0053329351 22.117723
129591836734.69 -9.7154827 -118.79221 -54.969055 32.836243 -55.624779 21.085457 -0.0051973872 22.059498
129632653061.22 -9.7098694 -118.80886 -54.955708 32.602421 -55.667862 21.000946 -0.026634295 22.27556
129673469387.76 -9.7024212 -118.84402 -54.991543 32.271164 -55.611034 21.232449 -0.019574232 22.275351
129714285714.29 -9.695509 -118.89208 -54.966553 32.063305 -55.562504 20.964392 0.00036445915 22.268717
129755102040.82 -9.6904917 -118.93264 -54.99683 31.743635 -55.540855 21.001144 0.023393709 22.254107
129795918367.35 -9.685523 -118.96187 -55.041374 31.175299 -55.571472 20.852266 0.060041789 22.250954
129836734693.88 -9.6905956 -118.9877 -55.184296 31.061323 -55.51852 20.964725 0.084990442 22.236618
129877551020.41 -9.6869431 -118.98824 -55.201157 31.629517 -55.462559 20.369963 0.1155666 22.269365
129918367346.94 -9.6828623 -118.96534 -55.275764 32.009716 -55.517578 20.329943 0.16095339 22.285231
129959183673.47 -9.675415 -118.96912 -55.27953 32.382488 -55.487141 20.751045 0.16202535 22.688187
130000000000 -9.6698456 -118.95743 -55.214844 32.932632 -55.491505 21.265781 0.19905511 22.724192
130040816326.53 -9.666749 -118.95985 -55.093616 33.183475 -55.448284 20.982559 0.22184083 22.886749
130081632653.06 -9.6570978 -118.94456 -55.01902 32.426735 -55.463055 21.043509 0.23444419 23.14686
130122448979.59 -9.6538544 -118.93944 -55.048664 32.270596 -55.396908 21.408346 0.25206584 23.376469
130163265306.12 -9.6428671 -118.93496 -55.109291 32.816647 -55.29248 21.51787 0.26565832 23.672932
130204081632.65 -9.6311855 -118.91395 -54.993198 32.991184 -55.221966 20.990736 0.28010935 23.923225
130244897959.18 -9.6259794 -118.8938 -54.895435 32.918331 -55.201023 21.538084 0.28032386 24.003216
130285714285.71 -9.6159296 -118.90159 -54.828026 32.195339 -55.054508 20.855385 0.28393003 24.144815
130326530612.24 -9.6095619 -118.94265 -54.695705 31.867504 -55.028568 20.175474 0.28509134 24.26903
130367346938.78 -9.6032476 -118.96921 -54.599499 30.464235 -55.012295 19.862604 0.27133739 24.362749
130408163265.31 -9.5935392 -119.01498 -54.706921 29.257238 -54.986069 19.139683 0.26328647 24.414257
130448979591.84 -9.5931978 -119.07587 -54.846058 29.391558 -55.022556 19.298748 0.2561568 24.438631
130489795918.37 -9.5891113 -119.12386 -54.845322 29.854586 -55.066891 18.79199 0.24996077 24.371346
130530612244.9 -9.5884933 -119.17873 -54.826214 29.920813 -55.140121 18.68261 0.23843953 24.300694
130571428571.43 -9.5860338 -119.22557 -54.768425 29.421782 -55.180771 19.204248 0.22386764 24.198616
130612244897.96 -9.5845642 -119.27477 -54.828072 29.48595 -55.234688 19.665218 0.21143027 24.055286
130653061224.49 -9.5813723 -119.29461 -54.779087 29.168894 -55.162216 20.260849 0.19627944 23.982065
130693877551.02 -9.5805492 -119.32664 -54.781818 29.212774 -55.087589 20.274862 0.1872223 23.810268
130734693877.55 -9.5764952 -119.342 -54.607197 29.478226 -55.026855 20.511152 0.17381102 23.690395
130775510204.08 -9.5701523 -119.37769 -54.52005 28.305386 -54.942245 20.038118 0.16256648 23.629232
130816326530.61 -9.5598383 -119.40522 -54.559155 26.917517 -54.899288 19.637445 0.17294493 23.409775
130857142857.14 -9.5509882 -119.43204 -54.717937 25.834133 -54.834145 19.134901 0.17822526 23.276176
130897959183.67 -9.5455036 -119.45986 -54.894447 25.624508 -54.909283 18.540325 0.18231335 23.180738
130938775510.2 -9.5351391 -119.50028 -55.002842 26.586395 -55.049206 18.644968 0.18355475 23.134565
130979591836.73 -9.5246811 -119.53522 -55.19381 27.567183 -55.043633 19.251461 0.17958458 23.207491
131020408163.27 -9.5222044 -119.61854 -55.081219 28.916248 -55.020668 19.651632 0.19279881 23.162237
131061224489.8 -9.5159855 -119.70411 -55.036606 29.08075 -54.881798 20.147629 0.20348381 23.203812
131102040816.33 -9.5168247 -119.81718 -54.934269 29.774437 -54.882572 20.422358 0.21142732 23.205807
131142857142.86 -9.5218487 -119.88848 -54.844864 29.267241 -54.749069 20.265406 0.22913408 22.926357
131183673469.39 -9.5234613 -119.98185 -54.834988 29.797873 -54.699173 19.83876 0.23837288 22.935453
131224489795.92 -9.5250168 -120.02629 -54.677063 30.240686 -54.626656 19.908216 0.24202676 23.056406
131265306122.45 -9.5321856 -120.09347 -54.402103 29.622965 -54.593769 19.36652 0.24871668 23.14884
131306122448.98 -9.5385513 -120.14697 -54.297249 28.671093 -54.557663 18.732124 0.25186604 23.145708
131346938775.51 -9.5460396 -120.20816 -54.342823 27.701559 -54.586994 18.648092 0.26147786 23.072208
131387755102.04 -9.5463867 -120.25716 -54.188992 27.112513 -54.578945 18.201599 0.27262899 22.941366
131428571428.57 -9.5495472 -120.27204 -54.284611 25.697439 -54.557972 18.844004 0.28317297 22.818548
131469387755.1 -9.5520191 -120.29265 -54.344269 25.569422 -54.422199 18.413897 0.28822753 22.679832
131510204081.63 -9.5532637 -120.31979 -54.362583 25.613266 -54.399586 18.57369 0.28978628 22.578667
131551020408.16 -9.5528622 -120.34908 -54.454903 26.004827 -54.379044 17.833845 0.29371849 22.448803
131591836734.69 -9.551959 -120.37689 -54.440567 25.945688 -54.298473 17.619097 0.3005839 22.246025
131632653061.22 -9.5479832 -120.42349 -54.477516 26.592936 -54.218063 17.023821 0.30066314 22.026203
131673469387.76 -9.5484667 -120.45055 -54.218407 27.455538 -54.296967 17.691435 0.30378133 21.86578
131714285714.29 -9.5496435 -120.49181 -54.124512 27.144695 -54.086884 16.975254 0.30440643 21.658522
131755102040.82 -9.549921 -120.52735 -54.008972 27.06735 -54.053238 16.404362 0.30604479 21.523821
131795918367.35 -9.5580997 -120.62096 -53.88158 26.311409 -53.864227 15.898973 0.31454811 21.425785
131836734693.88 -9.5590811 -120.62368 -53.842373 25.764929 -53.896824 14.626546 0.32882226 21.349764
131877551020.41 -9.5655718 -120.73459 -53.707527 25.112341 -53.829014 14.288764 0.34386671 21.196894
131918367346.94 -9.5796137 -120.67902 -53.554844 24.168348 -53.829994 13.649007 0.35529849 21.142075
131959183673.47 -9.5900097 -120.82423 -53.550217 22.862232 -53.731285 12.931592 0.36630347 21.125488
132000000000 -9.5920181 -120.93359 -53.67519 22.084318 -53.659382 12.957419 0.38284838 21.132345
132040816326.53 -9.597331 -120.8652 -53.687794 21.744007 -53.631748 11.513296 0.39755455 21.082615
132081632653.06 -9.6058426 -120.96064 -53.656219 21.37211 -53.652653 10.605251 0.41067258 21.077374
132122448979.59 -9.6100597 -120.98799 -53.627411 21.57386 -53.768238 9.9825592 0.4266015 20.99333
132163265306.12 -9.6136904 -120.98219 -53.496002 20.652866 -53.731575 9.1563673 0.43279538 20.790228
132204081632.65 -9.6122942 -121.05311 -53.659866 19.60351 -53.80209 8.9112396 0.44008648 20.63162
132244897959.18 -9.6128263 -121.00328 -53.553005 18.85836 -53.787071 8.4825554 0.44717485 20.398605
132285714285.71 -9.6120262 -120.99985 -53.70903 17.792448 -53.758301 7.5423174 0.45893359 20.065088
132326530612.24 -9.6047459 -120.98661 -53.858566 18.213923 -53.784515 6.8519173 0.45222321 19.625423
132367346938.78 -9.6056757 -120.88638 -53.82933 18.287811 -53.870674 7.2022715 0.42461362 19.324631
132408163265.31 -9.5918245 -120.89096 -53.700844 18.909454 -53.884613 7.4749746 0.40143147 19.129807
132448979591.84 -9.5952978 -120.94555 -53.585045 18.108547 -53.747864 7.3810072 0.38488105 18.965591
132489795918.37 -9.5969801 -121.04436 -53.6479 17.030401 -53.690975 6.8206091 0.33940563 18.596268
132530612244.9 -9.5971661 -120.99637 -53.721764 16.629929 -53.651253 5.8161855 0.311068 18.397718
132571428571.43 -9.6025286 -121.09312 -53.605396 17.203712 -53.691013 5.083756 0.29795021 18.037659
132612244897.96 -9.6080456 -121.17432 -53.516331 16.425241 -53.720547 5.0889235 0.27666759 17.609793
132653061224.49 -9.6306219 -121.19645 -53.469852 15.805174 -53.66943 4.7837362 0.25821155 17.21594
132693877551.02 -9.6359234 -121.25498 -53.407013 15.480879 -53.598358 4.5283318 0.23498322 17.034025
132734693877.55 -9.648736 -121.1114 -53.347225 14.258802 -53.495361 3.6744707 0.23908195 16.654703
132775510204.08 -9.663023 -121.29407 -53.419727 12.770937 -53.485542 3.1083479 0.23195362 16.023903
132816326530.61 -9.6665001 -121.2 -53.474163 11.244212 -53.493973 1.6873127 0.24064131 15.491954
132857142857.14 -9.6822891 -121.20948 -53.638184 10.914893 -53.486732 0.30959284 0.24347199 15.014735
132897959183.67 -9.6817808 -121.31339 -53.769436 10.612377 -53.707062 -0.931701 0.24122365 14.446376
132938775510.2 -9.6830359 -121.28252 -53.875034 10.202416 -53.779812 -0.99466735 0.23655973 13.991109
132979591836.73 -9.6737347 -121.20858 -53.825249 11.252695 -53.850674 -0.74526423 0.23266964 13.642562
133020408163.27 -9.6730328 -121.19026 -53.780506 10.274552 -53.722427 -1.2267168 0.22572687 13.4259
133061224489.8 -9.6607466 -121.15157 -53.86425 9.943923 -53.82547 -1.851294 0.2321946 13.322607
133102040816.33 -9.6464138 -121.10502 -53.862766 8.1061401 -53.837532 -2.9355001 0.2636714 13.358807
133142857142.86 -9.6340618 -121.10954 -54.102631 7.9774699 -53.93774 -3.6922376 0.27503023 13.221906
133183673469.39 -9.6197376 -121.05355 -54.220367 7.7830825 -54.091805 -3.7038059 0.28059322 13.236708
133224489795.92 -9.6074677 -121.0782 -54.235756 7.9655094 -54.19315 -4.3845243 0.29364783 13.179327
133265306122.45 -9.5959005 -121.10624 -54.410412 7.9664783 -54.320713 -4.6326337 0.30704489 13.110793
133306122448.98 -9.5868196 -121.1497 -54.539215 9.0390406 -54.374199 -5.0837684 0.32934541 13.045447
133346938775.51 -9.5835171 -121.16077 -54.440571 9.1591692 -54.454643 -5.0276875 0.34267986 13.252781
133387755102.04 -9.5827169 -121.26402 -54.50671 9.7084293 -54.584297 -4.8425217 0.34129694 13.465202
133428571428.57 -9.5870686 -121.23932 -54.475521 9.8026476 -54.672565 -4.5275264 0.3347185 13.633103
133469387755.1 -9.5932093 -121.25594 -54.511375 10.106942 -54.671497 -4.8978686 0.32581905 13.742904
133510204081.63 -9.6039753 -121.3484 -54.308357 9.7436199 -54.721096 -4.1769934 0.31743979 13.962923
133551020408.16 -9.6107531 -121.35927 -54.266273 8.5999651 -54.79171 -4.2073178 0.30571958 14.085448
133591836734.69 -9.6160421 -121.40052 -54.330776 7.7640305 -54.814392 -4.2433596 0.2859717 14.141552
133632653061.22 -9.6212168 -121.47405 -54.610886 6.2967567 -54.807617 -4.1483002 0.26361001 14.177781
133673469387.76 -9.6231852 -121.46854 -54.894604 6.7774401 -54.9035 -4.103075 0.23287033 14.211267
133714285714.29 -9.6196852 -121.45788 -54.895576 8.3207245 -54.929306 -3.4554873 0.2037313 14.345148
133755102040.82 -9.6191998 -121.41583 -54.948833 9.837101 -54.909779 -3.0287874 0.16859056 14.686109
133795918367.35 -9.6090603 -121.39568 -54.885456 9.8910694 -54.747795 -1.7690058 0.16668975 15.030774
133836734693.88 -9.6018028 -121.38577 -54.741905 10.70952 -54.688648 -2.9884043 0.16456778 14.359468
133877551020.41 -9.5901165 -121.35374 -54.655693 9.6168156 -54.652992 -4.2292533 0.12648581 13.375836
133918367346.94 -9.5737057 -121.42757 -54.725937 10.715852 -54.664711 -5.2879972 0.090503968 12.636915
133959183673.47 -9.5555096 -121.41548 -54.628651 10.267165 -54.730976 -5.5660572 0.058249172 12.024363
134000000000 -9.5487223 -121.44985 -54.491291 9.9448166 -54.783924 -5.4705319 0.031350963 11.471745
134040816326.53 -9.5455093 -121.52979 -54.478611 10.170221 -54.732338 -5.6503844 0.0069267354 11.019645
134081632653.06 -9.5401449 -121.59368 -54.242504 9.7308979 -54.65472 -5.9334316 -0.014024859 10.496815
134122448979.59 -9.5448341 -121.60468 -54.16151 9.048562 -54.704079 -6.2598362 -0.027034108 10.045572
134163265306.12 -9.5419521 -121.66702 -54.03817 7.1504946 -54.651154 -6.8906808 -0.031346343 9.6241207
134204081632.65 -9.5458088 -121.71586 -53.99424 5.8659129 -54.60471 -7.8556237 -0.022905702 9.3220797
134244897959.18 -9.5598907 -121.79713 -54.217896 3.2283106 -54.55019 -8.4109259 -0.020542689 9.1287041
134285714285.71 -9.5767069 -121.88462 -54.610912 1.9458994 -54.57975 -10.465713 -0.014020964 8.8430738
134326530612.24 -9.581027 -121.84223 -54.75729 3.0119464 -54.87289 -11.346828 0.00042916814 8.7946463
134367346938.78 -9.5831957 -121.80992 -54.750614 3.4807708 -55.028988 -11.334002 0.014745989 9.1105499
134408163265.31 -9.6086731 -121.71523 -54.903389 2.528708 -55.224396 -10.265593 0.018720707 9.3467169
134448979591.84 -9.6119967 -121.86076 -55.176208 2.9061677 -55.421391 -10.428359 0.021066081 9.3615084
134489795918.37 -9.6007023 -121.96458 -55.142532 5.4273925 -55.352715 -8.571806 0.019839182 9.4179707
134530612244.9 -9.5877514 -121.93057 -55.02766 4.584362 -55.333275 -8.4164581 0.027217502 9.6866894
134571428571.43 -9.5747318 -121.79208 -55.056068 4.2257185 -55.352947 -8.4153395 0.042468321 10.004578
134612244897.96 -9.5561771 -121.80313 -55.363621 5.2608151 -55.288433 -8.054163 0.045593016 10.354225
134653061224.49 -9.5334139 -121.80285 -55.447735 7.5736265 -55.220554 -7.472188 0.032169681 10.701557
134693877551.02 -9.5191345 -121.71135 -55.048222 9.0419741 -55.237267 -7.6312971 0.010598751 11.14855
134734693877.55 -9.5003967 -121.69801 -54.848095 9.3032331 -55.198711 -7.9009476 -0.0012225074 11.767035
134775510204.08 -9.4684525 -121.81403 -54.620853 8.5855951 -55.215706 -8.451437 -0.025334833 12.008054
134816326530.61 -9.4520054 -121.86795 -54.598202 6.9705601 -55.299335 -7.2556272 -0.042317573 12.280709
134857142857.14 -9.4447422 -121.90073 -54.468155 6.6613121 -55.420982 -7.4383125 -0.024041748 12.211452
134897959183.67 -9.4432793 -121.94034 -54.448021 5.9445238 -55.166534 -6.5436139 0.0029380987 12.29975
134938775510.2 -9.4466677 -122.01575 -54.468288 4.7945065 -55.110607 -5.7844787 0.0075097531 12.556338
134979591836.73 -9.4521389 -122.07333 -54.597031 4.3851972 -55.000847 -6.7210875 0.0030022522 12.928945
135020408163.27 -9.4645824 -122.10661 -54.674114 4.7560344 -55.005222 -6.4522147 0.0058137197 13.125429
135061224489.8 -9.4781351 -122.21434 -54.691097 3.938735 -54.942345 -5.8718934 0.0020998798 13.447664
135102040816.33 -9.4996262 -122.24621 -54.804153 4.2163167 -54.970093 -6.1116762 0.00091471378 13.6657
135142857142.86 -9.5108376 -122.28242 -54.868946 4.8702383 -54.920208 -5.6084952 0.021100599 13.755663
135183673469.39 -9.5287886 -122.31122 -54.795242 5.7230759 -54.824871 -5.6033039 0.03519395 13.916152
135224489795.92 -9.5203905 -122.39353 -54.573738 5.2455173 -54.855751 -5.8728962 0.03233207 14.050447
135265306122.45 -9.5279121 -122.40181 -54.650723 4.354548 -54.699028 -6.1949205 0.034757417 14.203963
135306122448.98 -9.5359602 -122.2813 -54.71278 4.9897561 -54.742878 -6.4880795 0.051954865 14.362006
135346938775.51 -9.5207319 -122.3614 -54.750465 4.7572951 -54.700996 -7.3586144 0.052409619 14.80101
135387755102.04 -9.502285 -122.35541 -54.714825 4.698 -54.692417 -7.505115 0.060402773 15.170123
135428571428.57 -9.4826984 -122.35593 -54.523693 5.6226406 -54.713364 -7.1800632 0.07877598 15.597982
135469387755.1 -9.4547262 -122.40279 -54.429127 4.1630721 -54.634357 -6.8914938 0.10759918 15.990223
135510204081.63 -9.4405155 -122.35487 -54.464245 4.7053466 -54.652649 -7.3888712 0.13017473 16.525927
135551020408.16 -9.4107399 -122.41532 -54.472794 3.5900402 -54.709942 -7.4948864 0.15149274 16.980402
135591836734.69 -9.3819075 -122.44708 -54.549534 3.4301021 -54.735344 -6.765717 0.16473328 17.352011
135632653061.22 -9.35956 -122.51376 -54.651093 4.0384731 -54.715687 -5.9986806 0.1632646 17.93243
135673469387.76 -9.3667202 -122.59519 -54.458172 4.9351401 -54.618328 -5.4176364 0.16106713 18.479527
135714285714.29 -9.3579388 -122.60345 -54.255226 4.627686 -54.568584 -5.0517163 0.1579341 18.98398
135755102040.82 -9.3597927 -122.68988 -54.244083 3.8322988 -54.475597 -5.2401996 0.15119025 19.503517
135795918367.35 -9.3656006 -122.76765 -54.255123 2.8623445 -54.404064 -5.2698169 0.14814664 20.017235
135836734693.88 -9.3786573 -122.77959 -54.359344 3.3979697 -54.324306 -5.6188664 0.14880607 20.326063
135877551020.41 -9.3939667 -122.87379 -54.197674 4.2851753 -54.388721 -5.0815921 0.11951966 20.636374
135918367346.94 -9.4066429 -122.89877 -54.184315 4.8092599 -54.317532 -5.0376825 0.10568714 20.951736
135959183673.47 -9.4164972 -122.89196 -54.021782 4.3206592 -54.066643 -5.3504524 0.07580176 21.335577
136000000000 -9.4134197 -122.91885 -53.886372 3.4489095 -54.070141 -6.6425714 0.049129609 21.564301
136040816326.53 -9.4210892 -122.9111 -53.95723 1.8513203 -54.178944 -8.0833397 0.039875429 21.68643
136081632653.06 -9.4170427 -122.91547 -54.019096 2.2629976 -54.444641 -7.5445142 0.0081826067 21.902248
136122448979.59 -9.3969707 -122.99651 -53.913261 2.5702929 -54.40345 -6.4256349 -0.018079063 22.149736
136163265306.12 -9.3976088 -122.9377 -53.768581 1.5995173 -54.326126 -6.8045483 -0.0071581891 22.134342
136204081632.65 -9.3802719 -122.87877 -53.609852 0.67779493 -54.319874 -6.9179974 -0.0036359115 22.229906
136244897959.18 -9.3572407 -122.90762 -53.598186 -1.4498153 -54.325451 -6.9460239 -0.02171766 22.590788
136285714285.71 -9.341423 -122.89654 -53.664867 -2.1033988 -54.289833 -7.0556383 0.0073211081 22.744268
136326530612.24 -9.3248034 -122.87442 -53.877666 -3.4707758 -54.205387 -6.8371444 0.058268074 22.723734
136367346938.78 -9.3181114 -122.83141 -54.072136 -3.636487 -54.097404 -6.7037454 0.12976371 22.647499
136408163265.31 -9.3107767 -122.89866 -54.083691 -2.9726915 -53.998436 -7.5469151 0.17196871 22.70216
136448979591.84 -9.3062239 -122.92393 -54.082043 -3.3130996 -54.099686 -8.4155064 0.17973211 22.90456
136489795918.37 -9.3128414 -122.98492 -54.258465 -3.7755058 -54.318863 -8.1635685 0.17094052 22.943153
136530612244.9 -9.323534 -122.99986 -54.430126 -2.9150884 -54.299126 -7.7723637 0.15293892 22.892296
136571428571.43 -9.3286304 -123.00761 -54.545731 -1.6254423 -54.298519 -7.3380175 0.12140598 23.125368
136612244897.96 -9.3412695 -123.07729 -54.302242 -0.77879381 -54.146004 -6.8215866 0.083669245 23.651346
136653061224.49 -9.3552961 -123.1403 -54.178452 -0.55626369 -54.155464 -8.1607771 0.089824982 23.629728
136693877551.02 -9.3653393 -123.1286 -54.090141 -1.5275807 -54.220226 -9.213027 0.11262202 23.818495
136734693877.55 -9.3638163 -123.12501 -54.029682 -2.1718733 -54.316841 -9.4124708 0.1180875 24.139679
136775510204.08 -9.363513 -123.1751 -54.192795 -2.7099776 -54.315201 -9.0868416 0.12116633 24.323927
136816326530.61 -9.3660927 -123.17706 -54.161095 -1.5006506 -54.464066 -9.0105677 0.13209409 24.624762
136857142857.14 -9.3602905 -123.13925 -53.995331 -1.806537 -54.408581 -9.0026264 0.15482827 24.894444
136897959183.67 -9.3498821 -123.17528 -53.959396 -2.8275399 -54.330009 -8.7498512 0.17492606 25.150326
136938775510.2 -9.3457603 -123.13383 -54.018154 -3.3903551 -54.302006 -9.4130087 0.20629337 25.297995
136979591836.73 -9.3292818 -123.11998 -53.983898 -3.6514721 -54.342945 -9.6522875 0.22507462 25.404968
137020408163.27 -9.3083477 -123.11964 -54.018089 -3.7910056 -54.351753 -10.090593 0.23677839 25.701347
137061224489.8 -9.2919369 -123.10736 -54.026226 -3.626894 -54.4356 -9.8560028 0.25169259 25.980247
137102040816.33 -9.2772923 -123.14002 -54.028904 -3.4320729 -54.485081 -9.7044153 0.25576633 26.295654
137142857142.86 -9.2649412 -123.18082 -53.94323 -2.822664 -54.407536 -9.095562 0.27079311 26.600468
137183673469.39 -9.2548227 -123.21509 -53.796783 -3.5752864 -54.380344 -9.1019373 0.27511382 26.679832
137224489795.92 -9.2500143 -123.21104 -53.818073 -4.1725821 -54.371208 -9.2083254 0.27013445 26.787455
137265306122.45 -9.2499104 -123.2499 -53.773743 -4.5498724 -54.380966 -8.6870775 0.24834168 27.24235
137306122448.98 -9.2450781 -123.30277 -53.80056 -4.7186785 -54.249596 -8.5175428 0.27289784 27.741287
137346938775.51 -9.2407389 -123.37804 -53.852242 -4.3120871 -54.124821 -8.2155428 0.29345816 28.021154
137387755102.04 -9.247674 -123.40614 -53.756283 -4.6902318 -53.934551 -8.1912823 0.30654174 28.152454
137428571428.57 -9.2641735 -123.47135 -53.756004 -5.0900478 -53.841457 -9.7722979 0.30383635 28.209223
137469387755.1 -9.2691154 -123.60581 -53.729935 -5.5435972 -53.843048 -10.730253 0.30848119 28.277327
137510204081.63 -9.2711477 -123.65465 -53.72736 -5.0293703 -53.935841 -11.604898 0.31350109 28.581881
137551020408.16 -9.2717304 -123.63811 -53.690418 -5.2697916 -53.869656 -11.846719 0.31915456 28.718405
137591836734.69 -9.2732515 -123.60987 -53.514042 -7.3645654 -53.999531 -13.120681 0.32271904 28.805248
137632653061.22 -9.2771931 -123.66196 -53.597706 -7.7588382 -54.140717 -13.128723 0.32628971 28.973816
137673469387.76 -9.2735338 -123.7574 -53.640488 -8.5281534 -54.245281 -12.175873 0.3290109 29.140715
137714285714.29 -9.2624216 -123.70506 -53.707329 -9.0736685 -54.254261 -11.689607 0.34289515 29.295973
137755102040.82 -9.2577009 -123.67271 -53.717911 -9.2792854 -54.125771 -11.313977 0.35606268 29.386862
137795918367.35 -9.2498846 -123.73955 -53.865501 -9.7460871 -54.023132 -11.251117 0.36934873 29.506454
137836734693.88 -9.2327538 -123.77523 -54.027283 -9.1563873 -54.018154 -11.69205 0.38647988 29.67753
137877551020.41 -9.2191925 -123.80067 -54.105091 -8.4641047 -53.885391 -12.159286 0.39702255 29.710684
137918367346.94 -9.2098455 -123.80539 -53.95454 -7.3177896 -53.918922 -12.988981 0.3892422 29.795799
137959183673.47 -9.2073584 -123.84078 -53.811447 -7.7780957 -53.956722 -13.408625 0.37347659 29.879417
138000000000 -9.2003574 -123.9056 -53.796734 -8.6435061 -54.06308 -13.912115 0.36390692 29.916407
138040816326.53 -9.1982841 -123.87988 -53.761703 -7.9083986 -54.126717 -13.575332 0.36911288 29.94165
138081632653.06 -9.2079458 -123.96337 -53.733208 -8.8604774 -54.163708 -13.402427 0.37304378 29.984289
138122448979.59 -9.2118502 -123.98746 -53.775024 -8.4113035 -54.142952 -12.948829 0.38043109 29.915676
138163265306.12 -9.2188568 -124.00635 -53.655357 -8.5905752 -54.112869 -12.208913 0.37575296 30.001125
138204081632.65 -9.2158079 -124.03268 -53.628719 -8.9426422 -53.934147 -11.85244 0.37233391 30.040522
138244897959.18 -9.2141647 -124.00977 -53.607773 -9.5936794 -53.713406 -12.655418 0.37478992 30.075041
138285714285.71 -9.2172213 -124.03383 -53.61293 -9.9268684 -53.588646 -14.065767 0.36290652 29.992054
138326530612.24 -9.2178888 -124.04798 -53.651394 -10.636575 -53.670933 -15.240084 0.34917936 30.058434
138367346938.78 -9.2155056 -124.00025 -53.803223 -10.449223 -53.803638 -15.935709 0.35626966 30.134775
138408163265.31 -9.2157917 -124.01917 -53.768517 -10.570578 -53.873981 -16.262285 0.36276746 30.158304
138448979591.84 -9.2167625 -124.03267 -53.77047 -8.9109678 -54.016354 -15.300225 0.35780707 30.082449
138489795918.37 -9.2090092 -124.03323 -53.556469 -9.3954096 -53.92704 -14.891582 0.35215551 30.234779
138530612244.9 -9.196022 -123.98833 -53.3479 -10.021221 -53.84948 -14.649883 0.36892694 30.355137
138571428571.43 -9.1895266 -124.00099 -53.20089 -11.202514 -53.774975 -14.832543 0.37357873 30.395929
138612244897.96 -9.1765881 -124.0118 -53.378334 -12.244019 -53.716274 -14.654741 0.37590489 30.409925
138653061224.49 -9.1745911 -124.05278 -53.423553 -12.421914 -53.664257 -15.062213 0.3826251 30.461573
138693877551.02 -9.183567 -124.15862 -53.405418 -13.25107 -53.608345 -15.377281 0.40050578 30.58873
138734693877.55 -9.1799917 -124.12868 -53.488911 -13.490791 -53.582851 -16.014111 0.42133483 30.683491
138775510204.08 -9.177536 -124.08337 -53.439472 -13.578647 -53.622646 -16.213564 0.43776217 30.750452
138816326530.61 -9.1858358 -124.11651 -53.439739 -14.947353 -53.629734 -16.422483 0.44979802 30.786085
138857142857.14 -9.191329 -124.13184 -53.595322 -14.869549 -53.593765 -16.904079 0.46239546 30.854645
138897959183.67 -9.2003307 -124.15959 -53.673222 -14.78194 -53.629681 -16.719696 0.47895366 30.93903
138938775510.2 -9.1968565 -124.12843 -53.689426 -14.184485 -53.603043 -17.007877 0.49150068 31.006126
138979591836.73 -9.1886063 -124.14701 -53.622654 -14.410152 -53.552582 -17.05662 0.50649559 31.028091
139020408163.27 -9.182518 -124.10412 -53.685509 -14.858684 -53.577179 -17.919718 0.51746368 31.024092
139061224489.8 -9.1818581 -124.13441 -53.657475 -14.287914 -53.565063 -18.39496 0.52423561 31.014681
139102040816.33 -9.1842098 -124.18873 -53.574738 -14.495081 -53.709793 -18.14642 0.52857739 31.025335
139142857142.86 -9.1798439 -124.25024 -53.617447 -14.214932 -53.682327 -17.939581 0.53456444 31.051062
139183673469.39 -9.1719656 -124.25989 -53.440018 -14.393265 -53.528954 -18.251978 0.53220767 31.030212
139224489795.92 -9.1603947 -124.20878 -53.31554 -15.187078 -53.441574 -19.197647 0.53323168 31.057608
139265306122.45 -9.1494589 -124.20067 -53.314735 -16.018242 -53.520981 -19.734798 0.53720993 31.048145
139306122448.98 -9.1437626 -124.28581 -53.369583 -16.828508 -53.565639 -20.42742 0.5327751 31.058661
139346938775.51 -9.1344633 -124.312 -53.463863 -17.749203 -53.582542 -20.691885 0.52669066 31.126198
139387755102.04 -9.1264906 -124.34766 -53.640926 -17.651621 -53.658096 -20.238644 0.52305067 31.156502
139428571428.57 -9.1243601 -124.39124 -53.752686 -17.16258 -53.643677 -20.049711 0.51974803 31.159849
139469387755.1 -9.1339464 -124.4325 -53.733715 -16.292456 -53.528156 -19.719498 0.52028078 31.12196
139510204081.63 -9.149888 -124.47656 -53.553566 -16.117876 -53.376938 -20.329527 0.5139783 31.013506
139551020408.16 -9.1584215 -124.51537 -53.441055 -16.639051 -53.338726 -21.309109 0.50279021 30.838867
139591836734.69 -9.160449 -124.50029 -53.276337 -16.925146 -53.443493 -22.416061 0.48755252 30.615278
139632653061.22 -9.1594257 -124.54214 -53.270805 -18.301176 -53.508533 -23.123966 0.47192121 30.421867
139673469387.76 -9.1613693 -124.53175 -53.373703 -19.457144 -53.628441 -23.562651 0.46085694 30.240824
139714285714.29 -9.17033 -124.60043 -53.64299 -19.687756 -53.774918 -23.090374 0.44382656 30.017918
139755102040.82 -9.1704712 -124.63657 -53.650375 -17.714134 -53.699619 -22.127481 0.43211675 29.803507
139795918367.35 -9.1628361 -124.63545 -53.549206 -17.315535 -53.605164 -22.847389 0.42190284 29.536968
139836734693.88 -9.1755009 -124.61288 -53.540508 -17.097761 -53.649506 -22.970335 0.40895212 29.162428
139877551020.41 -9.1643276 -124.62453 -53.294567 -17.02894 -53.674385 -22.593485 0.40291241 28.977198
139918367346.94 -9.1719475 -124.68986 -53.155037 -17.448137 -53.552792 -21.834953 0.39423397 28.818758
139959183673.47 -9.1664152 -124.71386 -53.040802 -19.498804 -53.396549 -23.153803 0.38681567 28.6385
140000000000 -9.1498156 -124.66483 -53.247997 -20.289343 -53.340202 -23.481066 0.37946388 28.399305
140040816326.53 -9.1407261 -124.6907 -53.290001 -19.885593 -53.257339 -24.522869 0.38134307 28.231676
140081632653.06 -9.1340036 -124.70643 -53.316296 -19.855282 -53.264805 -26.235039 0.39005247 28.150795
140122448979.59 -9.1285553 -124.79214 -53.243134 -19.787836 -53.264709 -27.188192 0.39932203 28.101257
140163265306.12 -9.1290274 -124.84168 -53.289261 -20.316412 -53.520283 -27.925871 0.41004798 28.04818
140204081632.65 -9.1207695 -124.8599 -53.232414 -19.67845 -53.539017 -27.181326 0.42563233 28.032019
140244897959.18 -9.1159172 -124.84345 -53.203815 -19.433725 -53.560085 -26.599709 0.44290283 28.115742
140285714285.71 -9.1207981 -124.89655 -53.058994 -20.280754 -53.490482 -26.716072 0.45789707 28.235744
140326530612.24 -9.1366644 -124.96395 -53.049843 -21.106892 -53.451103 -26.788206 0.48156142 28.378874
140367346938.78 -9.1316547 -124.95939 -52.934193 -21.955353 -53.310127 -27.401121 0.50054997 28.453701
140408163265.31 -9.138711 -125.01223 -52.976204 -23.325548 -53.292122 -28.192156 0.51461065 28.579794
140448979591.84 -9.1490698 -125.07664 -53.153652 -23.466442 -53.342838 -28.219526 0.52247602 28.728954
140489795918.37 -9.1451931 -125.03746 -53.125664 -23.131979 -53.241627 -28.445372 0.5370388 28.842127
140530612244.9 -9.1481152 -125.08804 -53.063587 -24.459742 -53.227772 -29.595613 0.55112934 28.972342
140571428571.43 -9.1452322 -125.1043 -53.116058 -25.233383 -53.319576 -30.391806 0.56318289 29.13949
140612244897.96 -9.1509504 -125.16188 -53.218533 -25.896759 -53.447762 -31.101011 0.57290375 29.244026
140653061224.49 -9.1439333 -125.1099 -53.372158 -25.400003 -53.590866 -30.408319 0.57760644 29.360979
140693877551.02 -9.1406593 -125.15255 -53.280308 -24.868584 -53.457642 -28.859186 0.5768708 29.435654
140734693877.55 -9.1321478 -125.1544 -53.17569 -24.668001 -53.182293 -29.115725 0.57493645 29.535658
140775510204.08 -9.1295691 -125.1647 -53.05032 -26.619171 -53.021969 -31.049744 0.56660497 29.60203
140816326530.61 -9.1220741 -125.22432 -53.246975 -27.69216 -53.123108 -32.686787 0.56114334 29.6959
140857142857.14 -9.1277428 -125.28561 -53.490917 -27.928173 -53.422119 -33.697502 0.55124104 29.732759
140897959183.67 -9.1250534 -125.34843 -53.741627 -27.519407 -53.722065 -31.736618 0.53095716 29.756765
140938775510.2 -9.1236553 -125.40073 -53.86401 -24.246681 -53.674763 -29.431419 0.51390886 29.80533
140979591836.73 -9.1308289 -125.42979 -53.340649 -22.243895 -53.182323 -27.767536 0.49459529 29.897896
141020408163.27 -9.138257 -125.42801 -52.969116 -23.814199 -52.799526 -29.201599 0.47258714 30.006657
141061224489.8 -9.1446905 -125.46203 -52.896088 -25.70118 -52.659874 -31.978437 0.46353003 29.994396
141102040816.33 -9.1485777 -125.43491 -53.022739 -27.67819 -52.884758 -34.144764 0.44232726 29.734741
141142857142.86 -9.1504126 -125.51346 -53.024994 -27.555872 -53.025738 -34.036098 0.41414014 29.511803
141183673469.39 -9.1656694 -125.5882 -52.891144 -28.446026 -52.951847 -34.673489 0.38176176 29.324163
141224489795.92 -9.1685486 -125.592 -53.198151 -30.794662 -53.054195 -35.591576 0.34281525 29.286011
141265306122.45 -9.1755009 -125.67694 -53.621189 -30.034395 -53.196266 -35.548824 0.30018678 29.324751
141306122448.98 -9.1750755 -125.66334 -53.751373 -27.58169 -53.225311 -33.832211 0.26353303 29.409952
141346938775.51 -9.1747227 -125.75567 -53.560226 -25.759298 -53.239883 -34.830624 0.23611356 29.492075
141387755102.04 -9.1778231 -125.66322 -53.259384 -24.702387 -53.355934 -31.942467 0.20887516 29.565529
141428571428.57 -9.1745548 -125.69514 -52.863983 -24.639801 -52.795349 -31.347614 0.18298498 29.467369
141469387755.1 -9.1687613 -125.67047 -52.508686 -26.491585 -52.495972 -33.721771 0.15765601 29.452576
141510204081.63 -9.153923 -125.66605 -52.335964 -29.38974 -52.275337 -35.917664 0.13352214 29.415245
141551020408.16 -9.1508789 -125.70348 -52.527348 -32.056084 -52.573345 -40.222115 0.12527123 29.398781
141591836734.69 -9.1489344 -125.73985 -52.900612 -33.23764 -53.235771 -40.10009 0.11447605 29.431698
141632653061.22 -9.1459599 -125.77055 -53.034046 -32.311783 -53.550514 -35.617203 0.10307156 29.361584
141673469387.76 -9.1432362 -125.8162 -53.075741 -31.711613 -53.288967 -33.529121 0.085518405 29.329126
141714285714.29 -9.1427307 -125.79325 -52.992161 -31.307966 -52.712551 -32.973518 0.082819544 29.351107
141755102040.82 -9.1442795 -125.80888 -52.8773 -31.950214 -52.394093 -34.544594 0.083403632 29.331917
141795918367.35 -9.1418629 -125.82413 -52.871166 -32.644657 -52.399818 -36.818573 0.093315624 29.283937
141836734693.88 -9.1435413 -125.87126 -53.114723 -33.54969 -52.547531 -38.183334 0.10311909 29.135715
141877551020.41 -9.1466742 -126.01165 -53.074642 -31.390221 -52.666473 -37.755291 0.10630656 28.987442
141918367346.94 -9.1542244 -125.98856 -52.993999 -31.732584 -52.625069 -38.622517 0.11138338 28.838493
141959183673.47 -9.1549654 -125.95991 -52.82576 -32.857929 -52.729042 -39.464642 0.11874294 28.803349
142000000000 -9.1595516 -125.98244 -53.005939 -33.334801 -52.936443 -40.094028 0.1505477 28.756886
142040816326.53 -9.1520853 -125.99884 -52.972649 -33.034714 -53.044346 -38.591797 0.16851535 28.696552
142081632653.06 -9.1568098 -126.05975 -52.783772 -32.630863 -53.022869 -38.197155 0.16786788 28.517645
142122448979.59 -9.1564322 -126.1213 -52.628078 -33.881954 -52.936287 -37.833035 0.18781534 28.607735
142163265306.12 -9.1453362 -126.13586 -52.565781 -35.057301 -52.853447 -38.299385 0.22958343 28.811163
142204081632.65 -9.1470718 -126.20561 -52.6171 -36.748009 -52.914169 -38.968636 0.26928398 28.866631
142244897959.18 -9.1497583 -126.19116 -52.66441 -37.501949 -52.980015 -39.431149 0.29506052 28.516098
142285714285.71 -9.1350088 -126.21102 -52.608059 -38.720043 -53.04438 -38.689514 0.30727738 28.289188
142326530612.24 -9.1313248 -126.28405 -52.965458 -40.393326 -52.927505 -38.55447 0.32303768 28.171953
142367346938.78 -9.1199303 -126.27415 -53.279053 -39.894295 -52.903034 -38.185936 0.3381069 28.21203
142408163265.31 -9.1212978 -126.28989 -53.306797 -38.496998 -52.755928 -38.643154 0.38250092 28.24304
142448979591.84 -9.1210737 -126.34184 -53.319958 -37.734032 -52.761505 -39.419941 0.38459817 28.329813
142489795918.37 -9.1169224 -126.34104 -53.167175 -36.909466 -52.630455 -40.007008 0.39897963 28.380503
142530612244.9 -9.1176472 -126.34958 -52.984379 -37.331745 -52.500061 -40.940273 0.40727386 28.379906
142571428571.43 -9.1081429 -126.31842 -52.853134 -39.034592 -52.597416 -44.185547 0.41578892 28.469154
142612244897.96 -9.1078768 -126.40451 -52.979557 -40.793785 -53.074917 -44.224194 0.42352754 28.589426
142653061224.49 -9.1161442 -126.52876 -53.096859 -41.338726 -53.10183 -42.933159 0.42596698 28.761709
142693877551.02 -9.1179285 -126.59792 -53.254143 -41.048889 -53.127045 -42.947327 0.42766243 28.973232
142734693877.55 -9.1236706 -126.65982 -53.100719 -40.38895 -52.927155 -43.934772 0.44179466 28.876827
142775510204.08 -9.1208935 -126.57819 -53.043453 -41.802998 -53.077175 -46.982735 0.44336846 28.894444
142816326530.61 -9.1260271 -126.4418 -53.09103 -44.709328 -53.609581 -48.785442 0.42308608 28.964897
142857142857.14 -9.1063509 -126.46394 -53.560165 -45.743725 -54.074795 -46.174568 0.41824305 29.257057
142897959183.67 -9.0774775 -126.50996 -53.99931 -44.248123 -54.280651 -42.946568 0.42636263 29.33647
142938775510.2 -9.0674162 -126.66547 -54.006145 -42.09148 -53.851025 -41.051529 0.42527416 29.414671
142979591836.73 -9.053545 -126.71918 -54.031139 -42.620579 -53.534618 -41.271885 0.41528881 29.377184
143020408163.27 -9.0495386 -126.7494 -54.085857 -40.838291 -53.356888 -42.53793 0.39178374 29.392029
143061224489.8 -9.0369997 -126.68604 -53.887615 -40.749886 -53.446556 -44.849953 0.37368751 29.608143
143102040816.33 -9.0221968 -126.75111 -53.834164 -41.08239 -53.783924 -45.408455 0.36346224 29.804842
143142857142.86 -9.0225401 -126.83361 -53.786327 -40.986431 -54.089256 -44.29969 0.37089199 29.85108
143183673469.39 -9.0178318 -126.86007 -53.66872 -41.73822 -54.038799 -43.691826 0.37068614 29.79357
143224489795.92 -9.0206947 -126.89425 -53.945499 -42.564693 -54.108906 -43.364395 0.3631227 29.640501
143265306122.45 -9.0259809 -126.86123 -53.969654 -41.205132 -54.035324 -42.730984 0.34996563 29.514015
143306122448.98 -9.0319948 -126.90585 -53.997009 -41.666168 -54.117119 -42.184414 0.33928111 29.487501
143346938775.51 -9.0364494 -126.94781 -54.083168 -41.137993 -53.947369 -41.335712 0.31871149 29.445461
143387755102.04 -9.0401039 -126.99352 -53.950466 -39.789116 -53.669048 -41.265396 0.30445132 29.308851
143428571428.57 -9.0555563 -127.06571 -53.858738 -39.948399 -53.450161 -43.165241 0.29006863 29.261354
143469387755.1 -9.0504627 -126.90134 -53.664536 -41.096264 -53.515713 -45.436256 0.28836608 29.234713
143510204081.63 -9.0310726 -127.27958 -53.718262 -41.868183 -53.627575 -44.996788 0.27235523 29.310169
143551020408.16 -9.0556602 -127.20512 -53.888313 -41.8713 -53.824753 -45.652573 0.26568267 29.309237
143591836734.69 -9.0640287 -127.08844 -53.922874 -40.45879 -53.975311 -44.26915 0.22581044 29.618601
143632653061.22 -9.0404949 -127.14549 -53.743862 -40.626247 -53.846638 -44.007675 0.24788694 29.788715
143673469387.76 -9.0138073 -127.2859 -53.618732 -41.568119 -53.608608 -44.275047 0.27734858 29.712
143714285714.29 -9.0043755 -127.32297 -53.646797 -42.8097 -53.638336 -45.162777 0.29502374 29.688534
143755102040.82 -8.9875402 -127.38397 -53.778694 -41.791824 -53.748589 -45.592693 0.29993698 29.597229
143795918367.35 -8.9762716 -127.44119 -53.758953 -41.724285 -53.659145 -44.517605 0.30893734 29.683168
143836734693.88 -8.9749098 -127.50253 -53.717949 -41.944008 -53.599602 -45.407368 0.31433573 29.722986
143877551020.41 -8.9574299 -127.60322 -53.680679 -41.424129 -53.547779 -45.706467 0.32098213 29.690845
143918367346.94 -8.9511461 -127.62328 -53.573425 -41.132828 -53.610165 -45.700474 0.32450232 29.746775
143959183673.47 -8.9569798 -127.63498 -53.510159 -42.090458 -53.46254 -46.094746 0.3273437 29.894663
144000000000 -8.9670744 -127.75745 -53.525539 -41.877972 -53.468349 -46.601147 0.33278596 30.047112
144040816326.53 -8.9621449 -127.7951 -53.320629 -42.313168 -53.355495 -46.66925 0.35445595 30.08909
144081632653.06 -8.9721117 -127.86775 -53.213215 -43.430614 -53.384434 -47.329716 0.35265389 30.151323
144122448979.59 -8.9776316 -127.92284 -53.269749 -44.668705 -53.366554 -47.733192 0.36895928 30.140043
144163265306.12 -9.0019207 -127.97578 -53.316547 -46.053768 -53.420242 -48.032478 0.38779971 30.089544
144204081632.65 -8.9873753 -127.96343 -53.468815 -46.463268 -53.387486 -48.696182 0.40392393 29.975863
144244897959.18 -9.0022898 -128.00246 -53.664097 -46.43998 -53.368 -49.628662 0.42010787 29.743677
144285714285.71 -9.0106554 -128.01021 -53.586075 -46.350868 -53.390541 -49.857166 0.42275921 29.487251
144326530612.24 -9.0122385 -128.08997 -53.610432 -46.036602 -53.394707 -49.759743 0.42501691 29.13641
144367346938.78 -9.0119896 -128.13705 -53.663013 -45.948418 -53.322403 -50.370583 0.42213351 28.906918
144408163265.31 -9.0092335 -128.08081 -53.600494 -45.630962 -53.270908 -51.367996 0.4263002 28.760569
144448979591.84 -8.9997826 -128.0674 -53.393539 -45.939011 -53.266907 -52.211788 0.42340779 28.543255
144489795918.37 -8.9864511 -127.99397 -53.482346 -48.751362 -53.311733 -52.981167 0.4341588 28.392801
144530612244.9 -8.9669561 -128.02492 -53.647488 -48.563385 -53.4156 -53.209682 0.44171983 28.217934
144571428571.43 -8.9540386 -128.1082 -53.724045 -48.248798 -53.431599 -53.018635 0.45875427 28.077332
144612244897.96 -8.9433031 -128.10535 -53.793564 -48.351196 -53.43433 -53.705635 0.46433309 27.898609
144653061224.49 -8.9362974 -128.06506 -53.839642 -48.289421 -53.476963 -54.755562 0.46089977 27.759081
144693877551.02 -8.9309406 -128.20927 -53.836266 -47.420074 -53.500294 -54.74823 0.45825115 27.625969
144734693877.55 -8.9297991 -128.12788 -53.891304 -48.150032 -53.743366 -54.729984 0.47156686 27.709156
144775510204.08 -8.9272652 -128.12128 -53.776302 -47.485115 -53.862179 -53.515816 0.49896401 27.731323
144816326530.61 -8.9360065 -128.21536 -53.755577 -47.441349 -53.641804 -51.733273 0.51611555 27.543787
144857142857.14 -8.9505005 -128.19679 -53.525063 -48.034348 -53.395954 -52.457844 0.53061533 27.359324
144897959183.67 -8.9626961 -128.25386 -53.535442 -49.385818 -53.201351 -54.308746 0.52610546 27.21698
144938775510.2 -8.9767361 -128.32332 -53.710751 -50.83107 -53.353172 -56.646461 0.5252468 27.13361
144979591836.73 -8.9870625 -128.34924 -54.135414 -51.490227 -53.778187 -56.978821 0.52355415 27.101889
145020408163.27 -8.995203 -128.35043 -54.368084 -48.697121 -54.001865 -55.119057 0.52432919 27.141987
145061224489.8 -9.0019217 -128.37215 -54.109497 -46.346947 -53.85981 -53.071339 0.52592522 27.243734
145102040816.33 -9.0059443 -128.41672 -53.710865 -46.673229 -53.506088 -52.945812 0.52109319 27.239555
145142857142.86 -9.0095501 -128.39984 -53.657425 -47.453049 -53.445995 -55.570068 0.5117622 27.170551
145183673469.39 -8.9961405 -128.34726 -53.580799 -48.629925 -53.511112 -56.292496 0.51157767 27.250326
145224489795.92 -8.9880075 -128.36942 -53.794327 -49.450233 -53.677673 -56.951065 0.5137713 27.414787
145265306122.45 -8.9777975 -128.34435 -53.848854 -49.578651 -53.926315 -55.042435 0.5260523 27.589149
145306122448.98 -8.9686756 -128.34114 -53.788651 -47.718502 -53.729935 -53.408062 0.52567708 27.624105
145346938775.51 -8.955904 -128.22675 -53.497158 -47.768272 -53.34119 -52.672382 0.53122145 27.633989
145387755102.04 -8.936327 -128.26707 -53.351528 -49.297134 -53.105122 -54.637188 0.53493655 27.573246
145428571428.57 -8.9283361 -128.26982 -53.404633 -51.00016 -53.173389 -56.620251 0.54544181 27.535238
145469387755.1 -8.9230146 -128.28841 -53.627335 -51.936035 -53.228085 -58.285072 0.54246277 27.356325
145510204081.63 -8.9152288 -128.26482 -53.764469 -51.178253 -53.532413 -58.618397 0.526443 27.013704
145551020408.16 -8.9143829 -128.31873 -53.80294 -51.700214 -53.713551 -58.760406 0.49707732 26.693304
145591836734.69 -8.9135036 -128.35655 -53.949249 -51.40403 -53.80941 -57.772232 0.47853634 26.551971
145632653061.22 -8.9163542 -128.31345 -54.043442 -50.112019 -53.828224 -56.566029 0.4751834 26.593422
145673469387.76 -8.9231062 -128.29776 -53.973316 -49.297901 -53.677711 -55.519917 0.46875602 26.523241
145714285714.29 -8.9327707 -128.34067 -53.892048 -47.890785 -53.553402 -55.213428 0.46358725 26.438217
145755102040.82 -8.9400845 -128.38754 -53.57341 -47.839375 -53.399891 -55.427841 0.45285064 26.238125
145795918367.35 -8.9437056 -128.3436 -53.496136 -49.87122 -53.296879 -55.969883 0.45395318 26.155075
145836734693.88 -8.9449358 -128.28394 -53.516735 -50.201481 -53.373943 -56.562439 0.47125053 26.087225
145877551020.41 -8.9486341 -128.27789 -53.616413 -49.370506 -53.335804 -56.692741 0.49441233 25.956182
145918367346.94 -8.9439821 -128.24248 -53.547192 -48.870014 -53.250584 -57.203903 0.49557877 25.596584
145959183673.47 -8.9371958 -128.29913 -53.350048 -50.503647 -53.176926 -57.771488 0.49603 25.321674
146000000000 -8.9291306 -128.25603 -53.363953 -51.04871 -53.135353 -58.376167 0.52321041 25.280762
146040816326.53 -8.9161577 -128.24861 -53.404976 -50.930454 -53.190224 -59.257439 0.54178596 25.091692
146081632653.06 -8.9146185 -128.28944 -53.403206 -51.802738 -53.220581 -59.814323 0.57472515 25.163879
146122448979.59 -8.9051056 -128.31216 -53.280235 -52.54636 -53.184109 -60.784306 0.6125409 25.243444
146163265306.12 -8.8896523 -128.2507 -53.366531 -53.202759 -53.214043 -60.730103 0.6424365 25.219318
146204081632.65 -8.862546 -128.20155 -53.569885 -53.342888 -53.16906 -61.484982 0.69875234 24.980743
146244897959.18 -8.848196 -128.15555 -53.622276 -52.596287 -53.226559 -62.526375 0.73094302 24.394531
146285714285.71 -8.8332853 -128.08665 -53.465397 -52.78577 -53.257545 -62.891228 0.72530144 23.953745
146326530612.24 -8.8310814 -128.17358 -53.480057 -51.893623 -53.348129 -62.833248 0.72078937 23.570856
146367346938.78 -8.8301296 -128.23151 -53.262291 -52.519684 -53.290291 -63.12159 0.72107488 23.576641
146408163265.31 -8.8315239 -128.18303 -53.222313 -53.706245 -53.21994 -63.862667 0.72979438 24.151953
146448979591.84 -8.836338 -128.27274 -53.253716 -54.926846 -53.20694 -64.387794 0.74527097 24.436628
146489795918.37 -8.834137 -128.25639 -53.383354 -55.161732 -53.312115 -65.517937 0.75599796 24.341311
146530612244.9 -8.8393154 -128.3735 -53.415596 -55.848331 -53.441254 -65.660751 0.75258267 24.258348
146571428571.43 -8.837266 -128.3074 -53.588177 -55.165173 -53.501457 -65.123009 0.75940531 24.403166
146612244897.96 -8.8439884 -128.24966 -53.536625 -54.593834 -53.448326 -65.326729 0.75566036 24.450933
146653061224.49 -8.851325 -128.37888 -53.320919 -54.589672 -53.362286 -64.698906 0.75327921 24.55975
146693877551.02 -8.8501644 -128.36749 -53.348679 -55.909756 -53.367836 -65.97728 0.75504082 24.744972
146734693877.55 -8.8493786 -128.34485 -53.305805 -55.808445 -53.380814 -66.608444 0.74639636 24.678762
146775510204.08 -8.8487673 -128.14655 -53.344753 -56.54163 -53.422161 -65.68956 0.7421881 24.615452
146816326530.61 -8.8437777 -128.20694 -53.457401 -56.362656 -53.347969 -65.816124 0.730039 24.527975
146857142857.14 -8.842845 -128.24892 -53.422302 -56.860054 -53.239037 -66.805618 0.71772683 24.454542
146897959183.67 -8.8239336 -128.08313 -53.541439 -57.57584 -53.228371 -68.093796 0.7099306 24.422424
146938775510.2 -8.8168726 -128.09515 -53.699238 -57.74955 -53.362488 -68.3517 0.69659328 24.285358
146979591836.73 -8.8038692 -128.17416 -53.810085 -55.807735 -53.427929 -68.460876 0.67887723 24.218988
147020408163.27 -8.8075447 -128.29739 -53.804771 -55.449905 -53.449024 -67.83651 0.67099935 24.267891
147061224489.8 -8.8112307 -128.26019 -53.676418 -53.780407 -53.206818 -68.16922 0.66043365 24.178196
147102040816.33 -8.8093853 -128.19849 -53.329987 -53.81144 -53.117027 -68.922432 0.6376676 24.052898
147142857142.86 -8.8087492 -128.16634 -53.114365 -55.100574 -53.104 -69.950203 0.64018363 24.044504
147183673469.39 -8.807435 -128.18471 -53.043797 -56.187008 -53.158733 -70.421806 0.62769836 23.930132
147224489795.92 -8.8112116 -128.21573 -53.053635 -57.691761 -53.120003 -71.381927 0.60419703 23.782339
147265306122.45 -8.8134298 -128.2478 -53.155972 -58.595428 -53.274769 -71.737213 0.59457541 23.702116
147306122448.98 -8.8224926 -128.36035 -53.26379 -58.535328 -53.255909 -72.327301 0.58475912 23.596815
147346938775.51 -8.8219023 -128.34235 -53.309547 -58.185875 -53.248459 -72.109833 0.55663365 23.469734
147387755102.04 -8.8195362 -128.2126 -53.277893 -57.610535 -53.265911 -72.576202 0.52536833 23.438366
147428571428.57 -8.8195152 -128.26585 -53.173233 -58.391575 -53.235199 -73.084511 0.51089472 23.455389
147469387755.1 -8.8218908 -128.3761 -53.144985 -59.25536 -53.228477 -73.512238 0.49260503 23.431259
147510204081.63 -8.8143234 -128.286 -53.215736 -60.092564 -53.207249 -73.86731 0.48114157 23.324568
147551020408.16 -8.8074293 -128.25214 -53.201756 -59.608795 -53.148651 -74.467865 0.47050267 23.318062
147591836734.69 -8.7998104 -128.29048 -53.28146 -60.327782 -53.213173 -75.228661 0.46948192 23.442596
147632653061.22 -8.7928648 -128.32187 -53.252007 -60.808697 -53.162209 -75.364296 0.45908871 23.556219
147673469387.76 -8.7757273 -128.29446 -53.364773 -61.213425 -53.235222 -75.33548 0.46706867 23.56868
147714285714.29 -8.7630405 -128.26997 -53.278912 -60.912392 -53.16711 -76.07 0.47161654 23.338234
147755102040.82 -8.7456503 -128.10207 -53.387352 -61.094021 -53.201893 -76.250023 0.45849434 23.218206
147795918367.35 -8.7442226 -128.25212 -53.359215 -61.087109 -53.238312 -76.452194 0.46118191 23.06596
147836734693.88 -8.7513924 -128.38264 -53.42844 -61.286583 -53.243866 -76.433113 0.46673435 22.977331
147877551020.41 -8.7458611 -128.35765 -53.441383 -60.516945 -53.235622 -76.517181 0.47726005 22.90827
147918367346.94 -8.7383842 -128.33382 -53.371422 -60.466759 -53.133156 -76.354172 0.48830071 22.903467
147959183673.47 -8.7365494 -128.33612 -53.335823 -59.891708 -53.116192 -76.274986 0.49752471 22.868248
148000000000 -8.7449322 -128.45813 -53.137772 -59.752033 -52.991489 -76.472466 0.50959796 22.872269
148040816326.53 -8.7538767 -128.55373 -53.005569 -60.279366 -52.920254 -77.007591 0.51951742 22.799809
148081632653.06 -8.7573175 -128.56265 -52.855721 -61.723328 -52.76067 -77.991631 0.52744639 22.646379
148122448979.59 -8.7530813 -128.57973 -52.823078 -63.400391 -52.775429 -78.483643 0.53361446 22.523495
148163265306.12 -8.7477369 -128.60649 -52.882339 -64.379845 -52.764374 -79.687622 0.53841752 22.479073
148204081632.65 -8.7464533 -128.6774 -52.960228 -65.949661 -52.810783 -81.131973 0.54789817 22.476082
148244897959.18 -8.738328 -128.64622 -53.147095 -67.023933 -52.925556 -81.579041 0.55555224 22.497215
148285714285.71 -8.7197523 -128.54442 -53.357887 -66.780716 -52.963291 -81.924347 0.55904818 22.589653
148326530612.24 -8.7153807 -128.60345 -53.427059 -65.940918 -53.112747 -81.578613 0.56273681 22.756262
148367346938.78 -8.7056456 -128.66946 -53.387371 -66.309998 -53.10239 -82.024055 0.56450289 22.963541
148408163265.31 -8.6941204 -128.63756 -53.414631 -66.826897 -53.116314 -82.186226 0.56721699 23.211565
148448979591.84 -8.6853867 -128.65915 -53.520302 -67.539665 -53.229866 -82.275505 0.5725984 23.450506
148489795918.37 -8.6754856 -128.67 -53.683483 -66.722855 -53.340939 -82.140411 0.57592642 23.706099
148530612244.9 -8.6685429 -128.66499 -53.659954 -66.043365 -53.377316 -81.766411 0.5799011 23.880785
148571428571.43 -8.6636267 -128.68901 -53.657879 -65.665619 -53.349266 -81.011894 0.58101988 24.086554
148612244897.96 -8.6692877 -128.72037 -53.518356 -65.230453 -53.175854 -80.827393 0.58453107 24.350384
148653061224.49 -8.6650362 -128.77643 -53.371815 -65.445129 -53.041939 -81.282913 0.58368474 24.660067
148693877551.02 -8.6717749 -128.83932 -53.246342 -66.074593 -52.993629 -82.079872 0.58027709 24.867174
148734693877.55 -8.6959705 -128.96996 -53.27042 -67.356339 -53.083191 -83.143433 0.57011241 25.033634
148775510204.08 -8.7084341 -129.03896 -53.248192 -67.393761 -53.094372 -83.486374 0.55591899 25.22607
148816326530.61 -8.7090225 -129.0188 -53.281593 -68.463715 -53.121269 -83.353775 0.54480481 25.501886
148857142857.14 -8.7306786 -129.14169 -53.329632 -68.828308 -53.221043 -83.172447 0.52933687 25.612059
148897959183.67 -8.7419605 -129.2487 -53.385017 -68.487518 -53.221767 -82.717522 0.50685543 25.649536
148938775510.2 -8.755373 -129.34689 -53.398365 -68.841866 -53.149242 -82.438919 0.48725867 25.719063
148979591836.73 -8.7674446 -129.45541 -53.440842 -69.456169 -53.147629 -82.499115 0.46602848 25.754013
149020408163.27 -8.7599573 -129.48514 -53.562759 -69.142113 -53.172546 -82.506981 0.44345683 25.7358
149061224489.8 -8.7704153 -129.51309 -53.629852 -69.298866 -53.126976 -82.26387 0.42098996 25.608883
149102040816.33 -8.7638512 -129.52771 -53.54562 -67.992027 -53.089691 -82.553642 0.40061906 25.514416
149142857142.86 -8.7616701 -129.59688 -53.478394 -67.969994 -53.035263 -82.100586 0.38481992 25.436554
149183673469.39 -8.7553635 -129.62723 -53.466942 -67.179901 -53.032131 -81.874931 0.37261236 25.287689
149224489795.92 -8.7570171 -129.71339 -53.313866 -67.425392 -52.945328 -81.809708 0.36048809 25.003349
149265306122.45 -8.7430449 -129.72459 -53.264511 -67.2257 -52.855343 -81.893669 0.35192397 24.77067
149306122448.98 -8.7440815 -129.80615 -53.158821 -67.533989 -52.850418 -82.386375 0.35491589 24.554565
149346938775.51 -8.7481956 -129.86375 -53.193077 -67.732819 -52.889359 -82.512459 0.36347175 24.431976
149387755102.04 -8.7418709 -129.90961 -53.104393 -67.839035 -52.851299 -82.603683 0.37637016 24.250895
149428571428.57 -8.7490644 -129.96547 -53.068401 -67.88221 -52.82859 -82.728943 0.39742556 23.977913
149469387755.1 -8.7665653 -130.01598 -53.053349 -68.10025 -52.787083 -82.957603 0.41798821 23.749575
149510204081.63 -8.7731552 -130.06427 -53.008945 -68.044273 -52.776142 -83.395523 0.43414852 23.593464
149551020408.16 -8.7851343 -130.19164 -52.871723 -68.675217 -52.774506 -83.552505 0.45581022 23.513432
149591836734.69 -8.7864275 -130.18018 -52.823196 -69.757736 -52.771919 -83.687515 0.47151995 23.431616
149632653061.22 -8.7916431 -130.22083 -52.902153 -70.681709 -52.801128 -83.620285 0.49736589 23.342318
149673469387.76 -8.809885 -130.26208 -52.980297 -70.401749 -52.783531 -83.385918 0.53010768 23.287455
149714285714.29 -8.821847 -130.35356 -53.037449 -70.25605 -52.707859 -83.787346 0.56252712 23.301907
149755102040.82 -8.8175688 -130.42828 -52.88089 -70.28981 -52.758553 -84.360443 0.58878857 23.274727
149795918367.35 -8.8208628 -130.42128 -52.947289 -71.263725 -52.832363 -84.826759 0.60975558 23.179749
149836734693.88 -8.8164787 -130.38499 -53.011322 -71.694305 -52.863548 -84.258141 0.62701905 23.083057
149877551020.41 -8.8073673 -130.38884 -53.188751 -71.794807 -52.85564 -84.07077 0.6452117 23.05278
149918367346.94 -8.8002977 -130.36118 -53.097027 -70.850761 -52.748646 -83.747162 0.6607458 23.094006
149959183673.47 -8.7951946 -130.33519 -52.998219 -70.818733 -52.642498 -83.515808 0.66805547 23.105635
150000000000 -8.7753124 -130.25604 -52.951607 -71.499893 -52.576653 -84.47583 0.67601359 23.207716
150040816326.53 -8.7760134 -130.22527 -52.949181 -71.969391 -52.545261 -85.15844 0.67450285 23.202604
150081632653.06 -8.7679634 -130.21072 -53.075657 -71.977036 -52.571556 -85.516151 0.67052507 23.213642
150122448979.59 -8.7513895 -130.26009 -53.082924 -72.054459 -52.557533 -86.080124 0.6574648 23.101942
150163265306.12 -8.7407598 -130.25021 -53.088322 -71.340912 -52.549004 -85.752708 0.65043855 23.089718
150204081632.65 -8.7269297 -130.25354 -53.02145 -70.736305 -52.442959 -86.219231 0.63797474 23.074764
150244897959.18 -8.7351532 -130.33797 -52.796673 -70.735962 -52.454735 -86.174416 0.62074089 22.988104
150285714285.71 -8.7415056 -130.3896 -52.690971 -70.739754 -52.483894 -86.939087 0.60632461 22.831255
150326530612.24 -8.7385912 -130.45667 -52.611904 -70.619675 -52.44648 -86.71032 0.59081161 22.575239
150367346938.78 -8.7523184 -130.51567 -52.529926 -71.501953 -52.365242 -86.866837 0.57348084 22.265594
150408163265.31 -8.7578945 -130.56358 -52.453625 -73.066765 -52.270931 -87.18116 0.55412024 22.001852
150448979591.84 -8.7580366 -130.63896 -52.333584 -74.479164 -52.173325 -87.556824 0.54268163 21.75736
150489795918.37 -8.7635126 -130.65239 -52.502197 -74.711815 -52.178654 -88.200478 0.52522755 21.375353
150530612244.9 -8.7771091 -130.72586 -52.611557 -74.304779 -52.092899 -88.771515 0.50159162 20.824842
150571428571.43 -8.7755756 -130.78032 -52.505993 -74.526939 -52.006287 -89.601479 0.49150947 20.226604
150612244897.96 -8.7820816 -130.80505 -52.41531 -74.919518 -51.969154 -90.656921 0.48181349 19.628525
150653061224.49 -8.7796125 -130.8699 -52.394917 -75.114044 -52.020779 -90.669037 0.4761003 19.070419
150693877551.02 -8.7614679 -130.95512 -52.474529 -75.286201 -52.063423 -91.277847 0.480432 18.465332
150734693877.55 -8.7660437 -130.99504 -52.440372 -74.700478 -52.028599 -91.527725 0.48189181 17.790401
150775510204.08 -8.7528658 -130.96265 -52.322147 -74.303276 -52.042721 -91.149887 0.48804855 17.17046
150816326530.61 -8.75072 -130.94 -52.238869 -74.86702 -51.974678 -91.751038 0.50723594 16.573496
150857142857.14 -8.7510319 -130.90242 -52.199451 -75.235756 -51.882072 -92.411835 0.54004949 15.891629
150897959183.67 -8.7341881 -130.90706 -52.197266 -76.293823 -51.74477 -92.913429 0.55424827 15.335174
150938775510.2 -8.7113161 -130.94075 -52.263931 -77.12928 -51.810745 -93.886139 0.563945 14.785583
150979591836.73 -8.7034168 -130.98305 -52.307625 -76.597038 -51.840054 -94.275856 0.58905619 14.349046
151020408163.27 -8.6987772 -130.93019 -52.223942 -76.466324 -51.86805 -94.67981 0.616427 14.092827
151061224489.8 -8.6966457 -131.00786 -52.163277 -76.398445 -51.782146 -95.016296 0.64215386 13.849153
151102040816.33 -8.6951933 -131.10909 -52.046719 -76.60099 -51.876091 -95.867775 0.65796804 13.512059
151142857142.86 -8.6922169 -131.23122 -52.022999 -77.382576 -51.932899 -96.386192 0.66562265 13.19384
151183673469.39 -8.6961203 -131.27327 -52.089905 -78.708313 -52.019016 -96.132088 0.67726558 12.989479
151224489795.92 -8.7069159 -131.26869 -52.217533 -78.79303 -52.025234 -96.625252 0.69230866 12.852447
151265306122.45 -8.7002172 -131.34415 -52.33268 -78.045265 -52.134815 -96.317192 0.70868665 12.715281
151306122448.98 -8.718338 -131.43036 -52.119427 -77.061539 -52.080776 -96.642975 0.72843224 12.562318
151346938775.51 -8.7116966 -131.50223 -52.006134 -78.091461 -52.055141 -96.495567 0.74144399 12.449442
151387755102.04 -8.7217131 -131.54646 -51.91988 -78.890846 -51.973351 -96.071854 0.74761033 12.268779
151428571428.57 -8.7217302 -131.4525 -51.987331 -79.967285 -51.884556 -96.333916 0.76336157 12.127317
151469387755.1 -8.7247639 -131.45802 -51.941021 -81.097023 -51.84293 -96.93222 0.76622027 11.951767
151510204081.63 -8.7186804 -131.44044 -51.968597 -81.944557 -51.670574 -98.079796 0.76125658 11.763129
151551020408.16 -8.7148838 -131.50851 -52.11681 -82.18177 -51.73999 -99.131065 0.76388919 11.558201
151591836734.69 -8.7043581 -131.58986 -52.090023 -80.781715 -51.737514 -99.600334 0.77445942 11.295761
151632653061.22 -8.704793 -131.57762 -52.174522 -82.176712 -51.736244 -100.61744 0.77447462 11.092482
151673469387.76 -8.6816473 -131.53958 -52.146748 -82.278481 -51.83131 -101.18929 0.76201034 10.764682
151714285714.29 -8.6563892 -131.52898 -52.140881 -83.094597 -51.842812 -101.82044 0.73712736 10.495964
151755102040.82 -8.6539478 -131.61057 -52.257427 -83.073021 -51.858097 -102.07076 0.72760785 10.177014
151795918367.35 -8.6433773 -131.62497 -52.307747 -82.898895 -51.816982 -102.1966 0.73208046 9.8937273
151836734693.88 -8.6241245 -131.63632 -52.431004 -81.949577 -51.854908 -103.48157 0.72725093 9.5851755
151877551020.41 -8.6268826 -131.70128 -52.320641 -81.049614 -51.847813 -103.93276 0.7186141 9.1884718
151918367346.94 -8.6323004 -131.71823 -52.223576 -80.044556 -51.873493 -104.08307 0.72780532 8.7982273
151959183673.47 -8.634057 -131.76166 -51.961681 -81.407837 -52.010712 -104.70808 0.71335667 8.4081745
152000000000 -8.6182451 -131.78833 -51.96323 -81.492569 -51.902966 -104.95782 0.70170629 8.1728373
152040816326.53 -8.6305265 -131.90761 -51.719624 -81.472511 -51.907997 -105.29844 0.68158054 7.7667198
152081632653.06 -8.6549854 -131.94998 -51.573311 -83.085396 -51.794659 -106.00842 0.65016443 7.4378943
152122448979.59 -8.644166 -132.02487 -51.389019 -83.993851 -51.939327 -107.34544 0.63666755 7.1314349
152163265306.12 -8.6431189 -132.11801 -51.461803 -86.226212 -51.977371 -108.06553 0.63389987 6.6923885
152204081632.65 -8.6639404 -132.03085 -51.465401 -88.374977 -52.01561 -107.80338 0.62515491 6.2625194
152244897959.18 -8.6615887 -132.1068 -51.805504 -90.234802 -52.103283 -108.77532 0.60865182 5.911005
152285714285.71 -8.6697474 -132.1729 -52.104725 -89.876717 -52.106377 -108.8958 0.59499663 5.5232592
152326530612.24 -8.6626377 -132.18619 -52.144733 -90.411919 -52.144588 -109.37979 0.58746469 5.2471619
152367346938.78 -8.6600275 -132.13763 -52.211765 -89.815506 -52.036251 -110.04169 0.58535141 4.90381
152408163265.31 -8.6523581 -132.25398 -52.384373 -90.484169 -51.990654 -111.34331 0.58756959 4.5638318
152448979591.84 -8.6494026 -132.17345 -52.379505 -90.051659 -51.952896 -112.14585 0.59279668 4.0984459
152489795918.37 -8.6339607 -132.18581 -52.493904 -89.673378 -51.93259 -112.60588 0.59906214 3.5592933
152530612244.9 -8.6385059 -132.27162 -52.269737 -89.226433 -52.115482 -113.69876 0.61293298 3.0787461
152571428571.43 -8.6167278 -132.34741 -52.252068 -90.374664 -52.099586 -114.2714 0.62444925 2.6248703
152612244897.96 -8.6132002 -132.3423 -52.342667 -91.373413 -52.186695 -114.94459 0.63672835 2.1110315
152653061224.49 -8.6108999 -132.30704 -52.422367 -90.973885 -52.243847 -115.14622 0.65537643 1.4748347
152693877551.02 -8.6000748 -132.37363 -52.246422 -90.66124 -52.168041 -115.73882 0.66878694 0.78573143
152734693877.55 -8.6029806 -132.49452 -52.231731 -92.398354 -52.389351 -115.86446 0.66016102 -0.080261976
152775510204.08 -8.6039934 -132.59862 -52.261597 -93.623238 -52.236652 -116.41853 0.65321618 -0.67783219
152816326530.61 -8.610673 -132.56448 -52.384583 -95.371712 -52.295692 -117.13855 0.66485155 -1.1767534
152857142857.14 -8.6148739 -132.47777 -52.510963 -96.068367 -52.246929 -118.54163 0.69191885 -1.6818758
152897959183.67 -8.6182413 -132.47183 -52.793938 -96.37043 -52.303204 -119.06218 0.7257176 -2.421154
152938775510.2 -8.6324034 -132.60115 -53.10675 -96.636772 -52.439377 -120.69081 0.76248384 -3.1019714
152979591836.73 -8.6381845 -132.6562 -53.121273 -95.616302 -52.608879 -120.94055 0.81921643 -3.6889105
153020408163.27 -8.6475029 -132.62802 -53.123863 -94.987511 -52.665493 -121.44186 0.87126493 -4.3034272
153061224489.8 -8.6531401 -132.45029 -53.050625 -96.388046 -52.760189 -121.35341 0.90299541 -4.7209697
153102040816.33 -8.6497259 -132.48802 -53.199375 -96.611801 -52.765297 -121.91556 0.95436031 -5.2263856
153142857142.86 -8.6339941 -132.51154 -53.260395 -96.945442 -52.775898 -122.59186 1.0059475 -5.5738792
153183673469.39 -8.6515303 -132.42847 -53.483345 -96.466255 -52.92646 -123.49475 1.0403104 -5.543829
153224489795.92 -8.6318722 -132.46609 -53.38147 -96.884544 -53.048077 -123.06855 1.0628327 -5.3399014
153265306122.45 -8.6235638 -132.36002 -53.560577 -96.895218 -53.058758 -122.83516 1.0900085 -5.1983681
153306122448.98 -8.618742 -132.32011 -53.60421 -96.769691 -53.146385 -122.97496 1.120675 -5.0498767
153346938775.51 -8.6078043 -132.29869 -53.530807 -96.612061 -53.13184 -123.36205 1.1368986 -4.7305026
153387755102.04 -8.5990553 -132.34799 -53.63715 -97.643257 -53.163395 -123.07284 1.1436208 -4.2797217
153428571428.57 -8.5844021 -132.3217 -53.851768 -96.824333 -53.26717 -123.38618 1.1723769 -3.7220664
153469387755.1 -8.5850773 -132.37318 -53.844189 -96.04171 -53.360474 -123.09261 1.1957034 -3.343847
153510204081.63 -8.5946684 -132.3633 -53.772121 -95.991501 -53.313324 -123.36951 1.2249713 -2.8971987
153551020408.16 -8.5913401 -132.384 -53.603436 -96.426346 -53.348518 -124.05413 1.2359817 -2.4004841
153591836734.69 -8.5882874 -132.33519 -53.59808 -96.315491 -53.380352 -123.92428 1.2416116 -1.8991077
153632653061.22 -8.5813303 -132.2699 -53.700546 -96.737823 -53.497604 -123.37872 1.2315135 -1.3270963
153673469387.76 -8.5962334 -132.29532 -53.883217 -96.789864 -53.566051 -122.74073 1.1981443 -0.71367407
153714285714.29 -8.5982924 -132.4035 -53.691536 -97.452042 -53.477947 -122.05652 1.190731 -0.24260357
153755102040.82 -8.6129847 -132.38565 -53.884144 -97.134598 -53.251232 -122.38926 1.1651055 0.044189714
153795918367.35 -8.6150894 -132.3976 -53.829578 -96.779007 -53.206284 -123.34905 1.141032 0.28799444
153836734693.88 -8.6190701 -132.24956 -53.811306 -97.531372 -53.189541 -123.73132 1.1095564 0.52349865
153877551020.41 -8.6143599 -132.25508 -53.764351 -97.417702 -53.176437 -124.90756 1.043611 0.80071819
153918367346.94 -8.6110754 -132.25269 -53.791859 -98.391228 -53.239906 -126.2292 0.99886161 0.86659467
153959183673.47 -8.605217 -132.2617 -53.936756 -98.831367 -53.252235 -125.63145 0.9481017 0.95325261
154000000000 -8.6037111 -132.19518 -53.978542 -98.891609 -53.347996 -125.94456 0.89887732 0.90563101
154040816326.53 -8.596324 -132.12283 -54.005875 -99.70089 -53.444984 -126.26933 0.84307677 0.64945179
154081632653.06 -8.5761156 -132.13022 -54.247013 -100.22663 -53.63377 -126.87836 0.79863513 0.49158868
154122448979.59 -8.5623579 -132.13115 -54.446274 -99.30983 -53.696033 -127.57126 0.75938052 0.30218539
154163265306.12 -8.559989 -132.1674 -54.49791 -98.944504 -53.716618 -127.30306 0.72552353 -0.011946836
154204081632.65 -8.5425177 -132.15645 -54.528851 -97.535835 -53.834759 -127.0125 0.7073878 -0.16135517
154244897959.18 -8.5468063 -132.09184 -54.506279 -96.867783 -53.855621 -126.74644 0.69115639 -0.41466922
154285714285.71 -8.537384 -132.08093 -54.45116 -96.589531 -53.841972 -126.56824 0.69651085 -0.80427718
154326530612.24 -8.537468 -132.11317 -54.121647 -96.761635 -53.804256 -127.32597 0.69891584 -1.2803816
154367346938.78 -8.5396156 -132.09587 -53.98259 -99.269913 -53.948376 -128.51347 0.71266121 -1.6997708
154408163265.31 -8.5366888 -131.97646 -54.235176 -100.19112 -54.112957 -128.71042 0.74098217 -1.9349023
154448979591.84 -8.5315676 -131.86772 -54.391045 -101.45882 -54.233036 -128.43242 0.77597958 -2.1698179
154489795918.37 -8.5356655 -131.92738 -54.432537 -101.94827 -54.271988 -128.21346 0.8136155 -2.3988585
154530612244.9 -8.5403099 -131.90808 -54.752705 -102.45383 -54.241196 -128.63426 0.8626312 -2.5880432
154571428571.43 -8.5338793 -131.8978 -55.043919 -101.12639 -54.332848 -128.27023 0.88677782 -2.5564251
154612244897.96 -8.5242882 -131.78033 -55.134716 -100.1623 -54.262661 -128.65791 0.90345716 -2.4200203
154653061224.49 -8.5143623 -131.70776 -54.958595 -99.239456 -54.261429 -128.01744 0.92876571 -2.0815969
154693877551.02 -8.511302 -131.61555 -54.85181 -99.835411 -54.353096 -129.18085 0.93593377 -1.849627
154734693877.55 -8.4967623 -131.54541 -54.928616 -100.73805 -54.382767 -129.30843 0.94195825 -1.5735794
154775510204.08 -8.4838533 -131.47374 -55.043842 -101.10184 -54.570374 -129.14032 0.95343763 -1.1979243
154816326530.61 -8.4763632 -131.45656 -55.154785 -101.0698 -54.5285 -129.23474 0.96322274 -0.69214892
154857142857.14 -8.4596272 -131.48337 -55.11834 -99.49955 -54.620728 -127.92872 0.95986915 -0.15475857
154897959183.67 -8.4483776 -131.43425 -55.109898 -98.934486 -54.681114 -127.61829 0.94012153 0.37209108
154938775510.2 -8.4319935 -131.36116 -54.986256 -99.603851 -54.464642 -126.53407 0.92266935 0.97874391
154979591836.73 -8.4217596 -131.41878 -54.968712 -100.17741 -54.410683 -127.1301 0.92502934 1.6310805
155020408163.27 -8.4127207 -131.37749 -55.160633 -99.851776 -54.320614 -127.26947 0.9077431 2.2540555
155061224489.8 -8.4027739 -131.39815 -55.100647 -99.398521 -54.334309 -128.08463 0.88220406 2.7994311
155102040816.33 -8.3993759 -131.43762 -54.951344 -98.01683 -54.374386 -128.677 0.85612792 3.3488808
155142857142.86 -8.3995943 -131.52231 -54.862103 -99.313339 -54.408524 -128.39095 0.83917326 3.8127005
155183673469.39 -8.396224 -131.5849 -54.918636 -100.23902 -54.4921 -128.69931 0.81885803 4.3072734
155224489795.92 -8.4034767 -131.58809 -54.917198 -99.957977 -54.524925 -128.25967 0.80340225 4.7782512
155265306122.45 -8.3944559 -131.42816 -55.023861 -99.497284 -54.517857 -127.92576 0.77920598 5.2511463
155306122448.98 -8.394556 -131.49915 -55.001534 -98.158058 -54.52478 -127.30145 0.75244641 5.5466104
155346938775.51 -8.3913622 -131.51068 -54.89259 -97.619362 -54.402859 -126.95658 0.72728246 5.8890457
155387755102.04 -8.3946009 -131.57262 -54.861492 -98.355568 -54.376148 -127.16096 0.7256344 6.1495876
155428571428.57 -8.3841105 -131.58003 -54.83889 -98.074501 -54.269394 -127.03507 0.71585208 6.4184227
155469387755.1 -8.3752327 -131.51736 -54.825909 -98.020836 -54.234161 -127.27773 0.71821743 6.5169034
155510204081.63 -8.3685646 -131.51942 -54.842564 -97.670601 -54.251953 -127.12498 0.7175324 6.5570216
155551020408.16 -8.3574543 -131.59477 -54.803051 -97.632027 -54.164486 -127.73916 0.71856892 6.5693598
155591836734.69 -8.3554096 -131.62718 -54.723339 -96.003914 -54.12431 -127.37319 0.72627741 6.6123877
155632653061.22 -8.3452902 -131.6792 -54.477791 -95.51123 -54.083477 -127.71849 0.73044157 6.5896206
155673469387.76 -8.3377256 -131.63486 -54.190628 -96.244011 -54.055668 -128.13759 0.7317729 6.5670867
155714285714.29 -8.3367195 -131.70259 -53.985725 -98.108147 -54.011215 -128.76659 0.74327105 6.7000365
155755102040.82 -8.3367834 -131.72873 -53.959919 -99.859177 -53.999344 -129.60075 0.76834452 6.7910438
155795918367.35 -8.3308449 -131.69106 -54.0686 -102.22729 -54.117924 -129.31235 0.7815631 6.8534594
155836734693.88 -8.3215876 -131.60388 -54.283745 -103.15051 -54.19397 -129.04556 0.78388947 6.9689054
155877551020.41 -8.3261318 -131.65808 -54.499855 -102.77531 -54.197277 -128.9688 0.77732944 7.0905385
155918367346.94 -8.3335609 -131.75792 -54.543037 -102.26311 -54.149639 -128.7789 0.78443319 7.3337021
155959183673.47 -8.3367434 -131.84071 -54.590572 -101.92753 -53.993217 -128.90065 0.79646575 7.5751758
156000000000 -8.325964 -131.6114 -54.548992 -101.59608 -53.983727 -129.52014 0.7916491 7.9235635
156040816326.53 -8.3121471 -131.54364 -54.475945 -101.93294 -53.976654 -129.39859 0.78145367 8.375967
156081632653.06 -8.3204899 -131.56905 -54.521744 -102.03816 -53.989979 -129.50903 0.77581543 8.8832626
156122448979.59 -8.3465757 -131.903 -54.498249 -102.40427 -53.97253 -130.00217 0.75669479 9.2909632
156163265306.12 -8.3428049 -131.8649 -54.54409 -101.61106 -53.947201 -129.73767 0.73830336 9.7446604
156204081632.65 -8.3249722 -131.55376 -54.559841 -101.07279 -53.894634 -129.87534 0.72362673 10.202198
156244897959.18 -8.306756 -131.40916 -54.468731 -100.24919 -53.832966 -130.71497 0.71246618 10.733826
156285714285.71 -8.3091631 -131.61905 -54.271507 -100.25196 -53.883041 -131.06978 0.69907802 11.263334
156326530612.24 -8.3153868 -131.78877 -54.208176 -100.573 -53.87933 -131.17244 0.69069713 11.829403
156367346938.78 -8.3072329 -131.73488 -54.047478 -100.96066 -53.895584 -131.62294 0.68014657 12.398999
156408163265.31 -8.2861891 -131.5403 -53.985668 -102.14634 -53.884975 -131.47844 0.67346948 12.92026
156448979591.84 -8.2834053 -131.52765 -53.965858 -102.43313 -53.867325 -131.61516 0.66414827 13.328559
156489795918.37 -8.2906466 -131.72079 -53.887814 -102.66919 -53.946838 -131.62877 0.65904689 13.714273
156530612244.9 -8.298151 -131.79749 -54.014507 -102.79346 -53.922649 -130.85841 0.64693296 14.038235
156571428571.43 -8.2892876 -131.81194 -53.901047 -102.03397 -53.876869 -130.11357 0.63954514 14.397047
156612244897.96 -8.2866678 -131.72081 -53.761662 -102.44344 -53.684025 -129.87767 0.63925248 14.692555
156653061224.49 -8.2944059 -131.82962 -53.699306 -102.80741 -53.586414 -130.49536 0.6298722 14.942164
156693877551.02 -8.2989244 -131.84576 -53.702618 -103.29263 -53.509907 -130.76927 0.6215387 14.990867
156734693877.55 -8.3042545 -131.9012 -53.641644 -103.49081 -53.530357 -131.60355 0.57981503 15.001271
156775510204.08 -8.3092079 -131.94704 -53.571186 -103.3923 -53.552135 -132.05362 0.53588253 15.045366
156816326530.61 -8.3119564 -132.06485 -53.429539 -103.60888 -53.507557 -131.78426 0.49376315 15.183245
156857142857.14 -8.3111248 -132.05618 -53.428082 -104.77811 -53.528103 -132.21863 0.47504929 15.460771
156897959183.67 -8.310874 -132.00368 -53.351906 -105.22547 -53.525803 -132.05263 0.46411303 15.569528
156938775510.2 -8.3129835 -132.1089 -53.440254 -105.98429 -53.398643 -132.10663 0.44282383 15.626881
156979591836.73 -8.3145781 -132.17123 -53.455704 -106.70703 -53.35405 -132.47768 0.43299076 15.777389
157020408163.27 -8.3187799 -132.22734 -53.515034 -107.23559 -53.373081 -132.89072 0.42213491 15.934767
157061224489.8 -8.3145771 -132.31519 -53.572563 -106.7757 -53.306076 -133.29413 0.41940284 16.135052
157102040816.33 -8.3047123 -132.25395 -53.693668 -106.50175 -53.355194 -133.80403 0.41622359 16.293638
157142857142.86 -8.2786264 -132.07466 -53.743866 -105.80523 -53.352333 -134.10533 0.42090771 16.423809
157183673469.39 -8.2768908 -132.08604 -53.622116 -105.26995 -53.354244 -134.23912 0.42524365 16.522442
157224489795.92 -8.2716331 -132.12218 -53.541798 -105.41962 -53.394592 -134.4003 0.42188454 16.658611
157265306122.45 -8.2689056 -132.23735 -53.578472 -104.85816 -53.384995 -134.0834 0.41898024 16.806925
157306122448.98 -8.2562408 -132.18529 -53.445244 -104.90148 -53.366394 -133.84366 0.41483474 16.988968
157346938775.51 -8.2536316 -132.18475 -53.310139 -105.06684 -53.242493 -134.36943 0.41560686 17.257488
157387755102.04 -8.2685356 -132.37709 -53.283752 -105.26546 -53.247337 -135.09047 0.42221338 17.481182
157428571428.57 -8.2701311 -132.43564 -53.235085 -105.58821 -53.156288 -135.03847 0.43394426 17.659969
157469387755.1 -8.2815104 -132.47728 -53.191597 -105.64363 -53.073738 -135.68359 0.44701791 17.745428
157510204081.63 -8.2897072 -132.4277 -53.087429 -106.03064 -53.146999 -136.2708 0.45093167 17.892235
157551020408.16 -8.2902975 -132.48169 -53.014645 -106.04314 -53.073036 -136.2224 0.44946471 18.128599
157591836734.69 -8.2970562 -132.55473 -52.846638 -106.66503 -53.009537 -136.55881 0.44482207 18.263227
157632653061.22 -8.3165369 -132.71204 -52.779015 -108.07076 -52.966702 -136.90514 0.43533826 18.288689
157673469387.76 -8.3135166 -132.64621 -52.813171 -108.79182 -52.906345 -137.43723 0.42519015 18.364805
157714285714.29 -8.3187943 -132.66837 -52.889435 -109.41041 -52.916878 -137.83644 0.41402012 18.353542
157755102040.82 -8.3181934 -132.6819 -52.911022 -110.23095 -52.873802 -138.91251 0.3919583 18.337431
157795918367.35 -8.326395 -132.72256 -52.981876 -110.21505 -52.974182 -139.39369 0.36766702 18.348167
157836734693.88 -8.321537 -132.67108 -52.986492 -110.29272 -52.986519 -139.80678 0.34112033 18.319462
157877551020.41 -8.3118801 -132.65906 -53.070354 -110.61488 -53.059525 -139.54761 0.31446144 18.237452
157918367346.94 -8.3024693 -132.69455 -53.120731 -109.74668 -53.026958 -138.8595 0.28708982 18.180042
157959183673.47 -8.2899656 -132.68719 -53.035217 -109.28571 -52.948341 -139.21445 0.26112637 18.168354
158000000000 -8.2764158 -132.62032 -53.044235 -109.66496 -52.893105 -139.11287 0.23362495 18.060682
158040816326.53 -8.2721977 -132.66365 -53.057961 -109.568 -52.835957 -139.48615 0.2070936 17.908333
158081632653.06 -8.2496557 -132.70807 -53.055691 -109.1608 -52.827888 -139.92973 0.18567143 17.866856
158122448979.59 -8.255969 -132.78513 -53.028908 -108.23668 -52.866718 -139.35527 0.16143727 17.848801
158163265306.12 -8.2639189 -132.76535 -52.835197 -108.28085 -52.775448 -139.19099 0.14827073 17.839161
158204081632.65 -8.2806206 -132.94243 -52.734867 -108.89313 -52.717178 -139.25812 0.1234344 17.731613
158244897959.18 -8.2843208 -133.21007 -52.603462 -109.02068 -52.598629 -139.42059 0.093274578 17.63744
158285714285.71 -8.2835274 -133.25755 -52.55526 -109.35932 -52.565742 -140.00153 0.079881638 17.592237
158326530612.24 -8.2796564 -133.28165 -52.472134 -110.5637 -52.508587 -140.64453 0.073925048 17.52125
158367346938.78 -8.3048105 -133.3705 -52.410618 -111.28526 -52.43206 -141.05374 0.054607529 17.309187
158408163265.31 -8.3174162 -133.43588 -52.532883 -112.09566 -52.414719 -142.23576 0.03844909 17.040236
158448979591.84 -8.3142223 -133.47916 -52.556278 -111.91433 -52.467209 -142.98596 0.021983581 16.864605
158489795918.37 -8.324151 -133.47809 -52.677849 -112.20283 -52.519432 -143.65884 0.022518227 16.66572
158530612244.9 -8.3273392 -133.51291 -52.636227 -111.803 -52.592522 -143.97528 0.012430239 16.355965
158571428571.43 -8.3392916 -133.53336 -52.618752 -112.0114 -52.638126 -144.44684 -0.0057929996 16.003519
158612244897.96 -8.333746 -133.57062 -52.686932 -112.61923 -52.694958 -144.42134 -0.020368174 15.632527
158653061224.49 -8.3323116 -133.47797 -52.674442 -111.73305 -52.705826 -144.63478 -0.036420077 15.242249
158693877551.02 -8.31423 -133.4301 -52.695496 -111.58041 -52.683296 -144.64595 -0.053666446 14.903797
158734693877.55 -8.3105555 -133.56383 -52.725117 -111.87981 -52.68858 -144.56253 -0.073866121 14.489219
158775510204.08 -8.3009586 -133.57213 -52.761444 -110.99164 -52.680527 -144.52721 -0.091410704 14.156195
158816326530.61 -8.2805471 -133.53036 -52.708061 -110.7734 -52.599049 -144.08813 -0.11082784 13.960684
158857142857.14 -8.27106 -133.64226 -52.742455 -109.79514 -52.544018 -143.89345 -0.13530476 13.667963
158897959183.67 -8.2642069 -133.69264 -52.543079 -109.15267 -52.422474 -144.41896 -0.150383 13.205024
158938775510.2 -8.2678671 -133.78088 -52.325542 -108.86467 -52.434982 -144.89105 -0.15837213 12.691041
158979591836.73 -8.266448 -133.90765 -52.0397 -108.95752 -52.400391 -145.01578 -0.16403848 12.173753
159020408163.27 -8.270484 -134.00183 -51.930134 -110.06231 -52.411583 -145.07365 -0.16845535 11.694486
159061224489.8 -8.2753334 -134.08281 -51.811996 -111.93339 -52.366432 -144.94269 -0.17460832 11.089612
159102040816.33 -8.3006029 -134.17732 -51.919441 -112.86256 -52.315563 -144.80936 -0.17606267 10.397234
159142857142.86 -8.3053646 -134.34479 -51.962376 -113.41681 -52.270901 -145.11328 -0.17001021 9.8211403
159183673469.39 -8.3036995 -134.51964 -52.070427 -113.63757 -52.321915 -145.60963 -0.16344038 9.2476349
159224489795.92 -8.3233128 -134.6039 -52.087353 -113.11747 -52.243687 -145.37044 -0.15469989 8.5480986
159265306122.45 -8.344101 -134.59235 -52.027107 -112.976 -52.150135 -145.11038 -0.14407156 7.81636
159306122448.98 -8.3524332 -134.76144 -52.00832 -113.2981 -52.150524 -145.48 -0.13254994 7.0225348
159346938775.51 -8.3288012 -134.85063 -51.826759 -113.46503 -52.058418 -146.40871 -0.11797331 6.3564024
159387755102.04 -8.333786 -134.91869 -51.787025 -115.03511 -52.068367 -146.54262 -0.10732903 5.6068358
159428571428.57 -8.338953 -134.96068 -52.038906 -115.02387 -52.075195 -146.36783 -0.095259726 4.8982754
159469387755.1 -8.3478155 -134.93562 -52.061886 -115.03177 -52.036678 -146.5378 -0.086877085 4.1452398
159510204081.63 -8.3451443 -134.93268 -52.07304 -115.31136 -51.878143 -147.3428 -0.076177724 3.545481
159551020408.16 -8.3376427 -134.92787 -52.11232 -114.25128 -51.826298 -147.78169 -0.065160669 2.9814124
159591836734.69 -8.3201895 -134.92232 -52.124313 -114.22874 -51.813587 -149.31465 -0.064475156 2.4922962
159632653061.22 -8.3142042 -135.04742 -52.104992 -113.97936 -51.893959 -149.2943 -0.070862383 1.9688189
159673469387.76 -8.2905035 -134.99477 -52.069004 -113.90338 -51.879189 -149.31702 -0.07266143 1.5421729
159714285714.29 -8.2765989 -135.02162 -52.074631 -113.64954 -51.860573 -149.87798 -0.080644011 1.2129809
159755102040.82 -8.2698975 -135.0567 -52.014099 -112.68481 -51.968601 -149.70872 -0.097117886 0.94003129
159795918367.35 -8.2688522 -135.09566 -51.7892 -112.44144 -51.93169 -149.81207 -0.11565106 0.73136574
159836734693.88 -8.2616158 -135.16628 -51.592209 -113.15456 -51.831696 -149.30551 -0.14159892 0.38521338
159877551020.41 -8.2613792 -135.22084 -51.582397 -114.13995 -51.663704 -149.15353 -0.17094037 0.04968632
159918367346.94 -8.2562113 -135.31238 -51.456902 -114.56222 -51.597298 -149.5383 -0.20121314 -0.28608984
159959183673.47 -8.271368 -135.3492 -51.41317 -115.8053 -51.49926 -150.26089 -0.22983909 -0.66415566
160000000000 -8.2878332 -135.49483 -51.355991 -116.87309 -51.495029 -151.16359 -0.25708318 -1.2363968
160040816326.53 -8.3050175 -135.53944 -51.331394 -117.82278 -51.345493 -151.50998 -0.28881049 -1.7726667
160081632653.06 -8.3061142 -135.66357 -51.455151 -118.4044 -51.296711 -152.10632 -0.32116234 -2.3437142
160122448979.59 -8.3221207 -135.82164 -51.353893 -119.02934 -51.197319 -153.03233 -0.35298902 -3.1789899
160163265306.12 -8.3332663 -135.79253 -51.422768 -119.81723 -51.176758 -153.93674 -0.38006586 -4.1534772
160204081632.65 -8.3415499 -135.79546 -51.526299 -120.20512 -51.116657 -154.90147 -0.40148154 -5.2223983
160244897959.18 -8.3384953 -135.75156 -51.515175 -120.29728 -51.115028 -155.79771 -0.40848723 -6.4512873
160285714285.71 -8.3407249 -135.84055 -51.57687 -120.73753 -51.015938 -155.86789 -0.41113141 -7.7968984
160326530612.24 -8.3274231 -135.82944 -51.490101 -120.78205 -50.992893 -157.27654 -0.41156852 -9.2218914
160367346938.78 -8.3198376 -135.94429 -51.425713 -121.2682 -51.003712 -158.60016 -0.40805951 -10.655565
160408163265.31 -8.3054342 -135.86493 -51.401817 -120.86863 -51.104668 -159.07852 -0.38940969 -12.068531
160448979591.84 -8.2899456 -135.79713 -51.435951 -121.5889 -51.10928 -159.23917 -0.36007658 -13.611504
160489795918.37 -8.2800636 -135.84258 -51.336353 -121.77557 -51.021591 -159.76564 -0.31523561 -15.068501
160530612244.9 -8.2634468 -135.77429 -51.354866 -122.43109 -51.04557 -160.33492 -0.25889567 -16.505857
160571428571.43 -8.2386084 -136.01285 -51.282524 -123.25292 -50.972961 -161.18748 -0.20372131 -17.869495
160612244897.96 -8.2383013 -135.99925 -51.368828 -123.75188 -51.018684 -161.95311 -0.14317897 -19.076372
160653061224.49 -8.2351484 -136.0258 -51.392952 -123.0699 -51.09679 -162.70294 -0.074229755 -20.017796
160693877551.02 -8.2349825 -136.1828 -51.230312 -123.6405 -51.068699 -163.28876 0.0047976431 -20.784416
160734693877.55 -8.2502794 -136.32358 -51.308704 -124.6054 -51.143684 -164.20964 0.086638078 -21.360832
160775510204.08 -8.2516632 -136.36668 -51.16143 -123.94374 -51.183578 -164.57983 0.1678928 -21.840122
160816326530.61 -8.2538366 -136.31683 -51.031136 -125.81971 -51.295528 -164.66672 0.24156548 -21.959862
160857142857.14 -8.2797832 -136.41537 -51.12899 -126.97086 -51.343292 -164.71573 0.30786437 -21.864265
160897959183.67 -8.3057137 -136.40265 -51.138298 -128.17296 -51.336624 -164.85289 0.37764132 -21.595894
160938775510.2 -8.3398666 -136.58212 -51.307983 -130.13467 -51.371746 -165.50327 0.4498013 -21.34343
160979591836.73 -8.3548298 -136.51886 -51.581467 -130.84811 -51.454159 -166.34778 0.50987464 -21.091623
161020408163.27 -8.3655577 -136.55437 -51.8232 -130.57777 -51.616386 -166.34482 0.56654906 -20.583029
161061224489.8 -8.3483887 -136.5087 -51.978497 -129.65289 -51.601795 -166.48457 0.61221445 -19.734541
161102040816.33 -8.3388004 -136.47552 -51.925434 -128.92583 -51.62677 -166.40279 0.63708019 -18.95002
161142857142.86 -8.3271208 -136.43564 -51.985256 -129.69408 -51.661415 -166.95001 0.65546721 -18.274954
161183673469.39 -8.3208866 -136.35155 -52.135803 -129.28076 -51.724453 -165.71916 0.67955375 -17.597473
161224489795.92 -8.3004608 -136.28137 -52.085323 -127.97888 -51.673733 -166.09793 0.69619769 -16.972328
161265306122.45 -8.2862654 -136.32123 -51.976799 -128.39519 -51.614563 -166.7556 0.70849931 -16.342827
161306122448.98 -8.2749872 -136.23782 -52.019527 -128.65799 -51.584133 -168.08382 0.70906264 -15.856517
161346938775.51 -8.2583151 -136.29002 -51.95536 -128.85733 -51.619705 -168.50792 0.69658226 -15.501204
161387755102.04 -8.248333 -136.30701 -51.968761 -128.60983 -51.79174 -169.09047 0.67947012 -15.243687
161428571428.57 -8.2332535 -136.36993 -51.915264 -128.79399 -51.760223 -168.53345 0.64861608 -14.988065
161469387755.1 -8.2246733 -136.43033 -51.826168 -128.63969 -51.666359 -168.40649 0.62230814 -15.075899
161510204081.63 -8.2172861 -136.49998 -51.611755 -129.98357 -51.638229 -168.61174 0.58709973 -15.323593
161551020408.16 -8.2225533 -136.51331 -51.601418 -131.51152 -51.511978 -169.61017 0.5324083 -15.57268
161591836734.69 -8.2202759 -136.64812 -51.55582 -132.64755 -51.51577 -170.64502 0.46936479 -16.056616
161632653061.22 -8.2415791 -136.69946 -51.652264 -134.14766 -51.618633 -172.0569 0.41496789 -16.686708
161673469387.76 -8.2621632 -136.70818 -51.783123 -136.15182 -51.69289 -172.87019 0.36084163 -17.438328
161714285714.29 -8.2700138 -136.76653 -51.876171 -136.6458 -51.712196 -173.73347 0.31103042 -18.289963
161755102040.82 -8.2976694 -136.81427 -52.178135 -137.88988 -51.794415 -173.9493 0.26200965 -19.207766
161795918367.35 -8.308465 -136.75523 -52.436687 -138.08167 -51.895771 -174.43977 0.21977666 -20.214787
161836734693.88 -8.3256712 -136.78143 -52.559109 -137.46111 -51.903431 -175.17284 0.19421645 -21.28187
161877551020.41 -8.3454742 -136.72887 -52.474041 -137.9843 -51.926388 -176.53276 0.18159048 -22.262674
161918367346.94 -8.3616734 -136.62015 -52.665749 -138.28699 -52.147072 -176.85344 0.16997778 -23.085838
161959183673.47 -8.3379164 -136.61436 -52.824879 -137.93289 -52.302429 -177.24539 0.19507135 -24.125475
162000000000 -8.3108091 -136.56599 -52.875931 -137.64641 -52.490715 -178.24947 0.2178223 -25.119219
162040816326.53 -8.2869253 -136.49422 -52.970562 -137.56085 -52.708847 -177.02232 0.25685468 -25.720222
162081632653.06 -8.2773943 -136.569 -53.21117 -136.47456 -52.762856 -177.04433 0.30894169 -26.142757
162122448979.59 -8.2636051 -136.49913 -53.049675 -134.93593 -52.871578 -176.52765 0.35795391 -26.475103
162163265306.12 -8.2336807 -136.49229 -52.757252 -134.84637 -52.760632 -176.41621 0.43004748 -26.845999
162204081632.65 -8.2108917 -136.4312 -52.504341 -135.58627 -52.652203 -176.58801 0.50046784 -27.136538
162244897959.18 -8.1920815 -136.48466 -52.386631 -137.17047 -52.71487 -177.86961 0.57026219 -27.144526
162285714285.71 -8.1731682 -136.40291 -52.37582 -139.51993 -52.827248 -177.81859 0.62691915 -26.875776
162326530612.24 -8.1639128 -136.46823 -52.506432 -141.2451 -52.928398 -178.0661 0.69891411 -26.514349
162367346938.78 -8.1585474 -136.5274 -52.716011 -143.17581 -52.972401 -178.40057 0.76898605 -26.177616
162408163265.31 -8.1463995 -136.58142 -53.037453 -143.35455 -53.144966 -178.80432 0.81898236 -25.789419
162448979591.84 -8.1497679 -136.54117 -53.116665 -142.58345 -53.181652 -178.83105 0.85917902 -25.148634
162489795918.37 -8.1577883 -136.46428 -53.22213 -143.48357 -53.208092 -179.2412 0.90140259 -24.339485
162530612244.9 -8.1697712 -136.44508 -53.340801 -143.12555 -53.246605 -179.40131 0.93207616 -23.623425
162571428571.43 -8.1815948 -136.43039 -53.42458 -142.68784 -53.497047 179.9828 0.95884711 -22.904028
162612244897.96 -8.1850042 -136.37274 -53.30167 -143.53265 -53.609921 -179.61642 1.015836 -22.362276
162653061224.49 -8.1776886 -136.23044 -53.486259 -144.06851 -53.732841 -179.05194 1.0440251 -21.563301
162693877551.02 -8.1772156 -136.08527 -53.572159 -144.45183 -53.692883 -178.57077 1.0516944 -20.69762
162734693877.55 -8.1797905 -135.98618 -53.728786 -144.58589 -53.738789 -178.68802 1.0534135 -19.885305
162775510204.08 -8.1776638 -135.93054 -53.859833 -144.46809 -53.767464 -178.99889 1.0459763 -19.138552
162816326530.61 -8.1595345 -135.80937 -54.004337 -144.23289 -53.775497 -178.60007 1.0374061 -18.352428
162857142857.14 -8.136878 -135.76852 -54.089252 -143.89699 -53.890362 -178.89703 1.0324512 -17.661665
162897959183.67 -8.1218929 -135.67488 -54.12434 -143.43477 -53.920708 -178.81277 1.0146885 -16.936825
162938775510.2 -8.0988836 -135.58238 -54.310001 -143.71504 -53.969593 -178.53764 0.99716449 -16.153114
162979591836.73 -8.0736332 -135.56291 -54.350239 -142.86494 -53.971722 -178.61272 0.98979223 -15.317284
163020408163.27 -8.0636444 -135.68539 -54.379627 -141.89494 -54.077229 -179.02138 0.97342819 -14.714226
163061224489.8 -8.0532455 -135.76254 -54.406548 -140.95836 -54.184406 -179.33057 0.95348585 -14.148883
163102040816.33 -8.0530176 -135.70064 -54.323067 -140.26131 -54.236477 -178.91589 0.94046801 -13.701761
163142857142.86 -8.0564318 -135.69058 -54.183189 -139.5972 -54.336308 -178.45576 0.92176378 -13.179693
163183673469.39 -8.0555239 -135.72258 -53.979836 -139.68541 -54.288555 -178.29599 0.89510715 -12.588284
163224489795.92 -8.0566721 -135.7939 -53.82206 -140.9362 -54.374958 -177.57936 0.87691182 -12.153768
163265306122.45 -8.0580578 -135.85515 -53.878948 -142.88007 -54.420383 -177.21947 0.86687279 -11.833498
163306122448.98 -8.07549 -135.83018 -53.988678 -144.01718 -54.500553 -176.96472 0.85126686 -11.435307
163346938775.51 -8.0690489 -135.80873 -54.232887 -144.64691 -54.501141 -176.74336 0.84576887 -11.10316
163387755102.04 -8.0746107 -135.86707 -54.358295 -144.11069 -54.492252 -176.16496 0.8357861 -10.899078
163428571428.57 -8.0877304 -135.90593 -54.581539 -143.25734 -54.452198 -175.1711 0.82269025 -10.709256
163469387755.1 -8.0955992 -135.94525 -54.445797 -142.33159 -54.498249 -174.73004 0.81096047 -10.499522
163510204081.63 -8.1009865 -135.89275 -54.526573 -141.98445 -54.333038 -174.8526 0.79671311 -10.361665
163551020408.16 -8.1111479 -135.81987 -54.621185 -142.09489 -54.38253 -175.16127 0.79426938 -10.283954
163591836734.69 -8.1133604 -135.80484 -54.699352 -141.71765 -54.297096 -175.04556 0.79152358 -10.174256
163632653061.22 -8.1080341 -135.72144 -54.952438 -140.65134 -54.376648 -174.89397 0.78185886 -10.14627
163673469387.76 -8.092947 -135.70279 -55.079567 -138.78665 -54.413696 -174.65613 0.77442563 -10.077112
163714285714.29 -8.0862284 -135.64651 -55.050243 -136.47971 -54.376289 -174.35104 0.77007538 -10.039801
163755102040.82 -8.0855627 -135.70319 -54.758148 -134.89302 -54.240734 -174.55389 0.75902456 -10.136347
163795918367.35 -8.0731916 -135.63617 -54.524212 -135.16762 -54.172997 -174.49385 0.75263232 -10.19077
163836734693.88 -8.0488863 -135.55539 -54.31554 -134.14098 -54.152367 -174.84456 0.72774178 -10.216742
163877551020.41 -8.0208311 -135.58331 -54.014278 -135.39354 -54.25135 -175.11609 0.71906382 -10.230848
163918367346.94 -8.0279102 -135.70009 -54.012783 -136.41628 -54.32943 -174.21724 0.71673709 -10.191195
163959183673.47 -8.0383492 -135.79887 -53.963497 -136.52805 -54.279861 -173.9364 0.71117812 -10.165462
164000000000 -8.0319061 -135.78264 -53.858891 -136.4451 -54.201359 -173.424 0.70345289 -10.165459
164040816326.53 -8.030817 -135.78609 -53.695873 -137.28319 -54.053963 -173.47472 0.69372237 -10.253241
164081632653.06 -8.0338049 -135.79855 -53.580952 -137.90329 -53.960701 -174.18542 0.68820453 -10.381024
164122448979.59 -8.0476179 -135.85028 -53.68095 -140.00725 -53.958981 -175.30026 0.68600798 -10.455871
164163265306.12 -8.0569468 -135.80705 -53.701408 -140.70058 -54.022484 -175.9912 0.68474078 -10.385753
164204081632.65 -8.0568237 -135.70152 -53.815052 -141.27505 -54.172211 -175.61809 0.68631876 -10.311242
164244897959.18 -8.0618267 -135.58453 -53.802391 -141.27794 -54.169098 -175.53394 0.69471073 -10.224346
164285714285.71 -8.0710506 -135.46281 -53.97974 -142.08614 -54.183792 -175.89513 0.70219213 -10.101308
164326530612.24 -8.0797129 -135.37131 -53.985909 -142.49298 -54.139782 -175.66899 0.71449476 -9.8745947
164367346938.78 -8.0613337 -135.19025 -54.103882 -142.94569 -54.130009 -175.95787 0.73047793 -9.5719604
164408163265.31 -8.0444269 -134.99258 -54.266285 -142.37933 -54.134018 -176.27823 0.75163132 -9.1924191
164448979591.84 -8.0391417 -134.86319 -54.372276 -142.57172 -54.161423 -176.90648 0.76830029 -8.7611227
164489795918.37 -8.0313168 -134.90111 -54.380188 -143.0002 -54.270222 -177.08557 0.78680944 -8.2795057
164530612244.9 -8.0167971 -134.84634 -54.559891 -142.19157 -54.197502 -177.68683 0.80494285 -7.814271
164571428571.43 -7.9912271 -134.66649 -54.604362 -141.08156 -54.298027 -177.31444 0.82432252 -7.1871228
164612244897.96 -7.9703641 -134.55984 -54.681404 -140.79976 -54.243759 -177.22511 0.84034538 -6.4874868
164653061224.49 -7.9646411 -134.55005 -54.639378 -139.685 -54.23288 -177.56149 0.85487628 -5.8542295
164693877551.02 -7.9537544 -134.53606 -54.551071 -139.05603 -54.207359 -177.63071 0.86095512 -5.1075692
164734693877.55 -7.939343 -134.43776 -54.352985 -138.70473 -54.173149 -178.01393 0.8666786 -4.3084612
164775510204.08 -7.9263539 -134.37059 -54.24054 -139.07904 -54.274837 -178.4129 0.86798155 -3.4504669
164816326530.61 -7.9150023 -134.39232 -54.166695 -139.27335 -54.23917 -178.31032 0.87615871 -2.614888
164857142857.14 -7.9260745 -134.43652 -53.991543 -139.41785 -54.21381 -178.05858 0.87719017 -1.7202461
164897959183.67 -7.9204283 -134.37323 -53.868038 -139.95074 -54.170658 -178.34377 0.87149578 -0.84674531
164938775510.2 -7.9080701 -134.25127 -53.679752 -140.59521 -54.125744 -178.09465 0.85791081 0.072088048
164979591836.73 -7.9122858 -134.30542 -53.674534 -141.64912 -54.070126 -178.30467 0.84059072 1.0005039
165020408163.27 -7.9225039 -134.30788 -53.56477 -142.04649 -53.908081 -178.69067 0.81971377 1.950323
165061224489.8 -7.9410787 -134.37943 -53.51796 -143.28972 -53.90176 -179.02425 0.79781401 2.8780897
165102040816.33 -7.9421678 -134.32706 -53.452629 -143.88083 -53.879456 -179.69655 0.7778883 3.7922401
165142857142.86 -7.9385786 -134.29237 -53.538799 -144.79233 -53.812626 -179.86401 0.75383198 4.6318374
165183673469.39 -7.9418273 -134.22328 -53.571327 -145.37938 -53.830845 179.78893 0.71329343 5.4378648
165224489795.92 -7.9308286 -134.11079 -53.658543 -145.98521 -53.755116 -179.98647 0.68380499 6.1791687
165265306122.45 -7.9298844 -134.25803 -53.813206 -145.76736 -53.72366 179.88248 0.64737904 6.74055
165306122448.98 -7.931077 -134.32693 -53.867596 -144.49345 -53.692375 179.89142 0.61142391 7.2734056
165346938775.51 -7.925426 -134.42078 -53.758682 -143.34055 -53.537094 179.66994 0.57423937 7.7051773
165387755102.04 -7.9233956 -134.46396 -53.718948 -143.15627 -53.53331 179.56184 0.54140759 8.0526924
165428571428.57 -7.9034939 -134.42905 -53.584866 -141.73415 -53.461346 179.59262 0.51166832 8.2554178
165469387755.1 -7.8932152 -134.49086 -53.312649 -141.49661 -53.360275 179.64983 0.48408425 8.3320484
165510204081.63 -7.8897777 -134.65742 -53.150604 -142.02792 -53.288727 179.26929 0.45076975 8.2381163
165551020408.16 -7.893332 -134.82991 -53.084854 -142.84831 -53.291794 179.05815 0.41650629 8.1046753
165591836734.69 -7.8884921 -134.92029 -53.049908 -142.88791 -53.233925 179.33382 0.38674036 7.958096
165632653061.22 -7.9000711 -135.06523 -53.025249 -142.92412 -53.205482 179.33246 0.36217642 7.727654
165673469387.76 -7.9022894 -135.14886 -52.814255 -143.21889 -53.111473 179.4485 0.34139553 7.5092177
165714285714.29 -7.9140472 -135.22873 -52.78476 -143.92198 -53.044743 178.81253 0.32376575 7.2176104
165755102040.82 -7.9228415 -135.26729 -52.720551 -144.88647 -53.012688 178.20937 0.31307769 6.9061394
165795918367.35 -7.9218941 -135.23604 -52.825829 -146.53476 -53.073029 177.74091 0.30486253 6.6669831
165836734693.88 -7.9335318 -135.33867 -52.905376 -146.72285 -53.130577 177.8318 0.30017662 6.4571271
165877551020.41 -7.9383049 -135.27904 -52.944386 -147.6179 -53.140827 177.30618 0.30077568 6.3342075
165918367346.94 -7.9359465 -135.26157 -53.217216 -148.16209 -53.251526 177.06772 0.30483985 6.2103052
165959183673.47 -7.9216084 -135.11493 -53.42107 -147.69791 -53.287567 177.17104 0.3100833 6.2941475
166000000000 -7.9068675 -135.11774 -53.529366 -146.78848 -53.292133 176.8326 0.3197284 6.381382
166040816326.53 -7.8838124 -135.08511 -53.560856 -146.29141 -53.30587 177.23735 0.32931516 6.6747398
166081632653.06 -7.8647017 -135.01443 -53.491268 -145.72551 -53.309807 177.03636 0.33873668 7.0624056
166122448979.59 -7.8463559 -134.88939 -53.419018 -146.72748 -53.373032 176.84932 0.35054353 7.5023541
166163265306.12 -7.8261065 -134.89014 -53.63192 -147.11829 -53.434029 176.4538 0.36339653 7.9320483
166204081632.65 -7.8287306 -135.01039 -53.833397 -145.94565 -53.519405 176.6684 0.37394163 8.5030441
166244897959.18 -7.8169565 -134.97165 -53.872906 -145.67613 -53.56366 177.2621 0.3830252 9.1832485
166285714285.71 -7.8014894 -134.98634 -53.863907 -144.49487 -53.570782 177.10361 0.39238259 9.8862076
166326530612.24 -7.7879291 -134.92154 -53.885368 -143.31482 -53.529144 177.81982 0.40388098 10.589128
166367346938.78 -7.7768135 -134.95311 -53.711311 -141.93719 -53.432285 178.0528 0.41098812 11.303376
166408163265.31 -7.7966661 -135.05719 -53.538605 -142.13396 -53.358749 177.85628 0.41020718 12.012905
166448979591.84 -7.8243837 -135.21771 -53.35627 -141.83318 -53.290825 177.52098 0.40615326 12.676829
166489795918.37 -7.8269925 -135.23218 -53.042206 -141.60416 -53.189072 177.26266 0.40070453 13.453947
166530612244.9 -7.8169618 -135.22597 -52.875355 -142.27393 -53.157497 177.01945 0.3957372 14.155824
166571428571.43 -7.8249779 -135.22942 -52.712875 -142.9664 -53.078247 177.06416 0.38655186 14.846593
166612244897.96 -7.8456993 -135.30469 -52.533337 -143.48164 -52.99667 177.37456 0.3745344 15.433685
166653061224.49 -7.8570199 -135.36818 -52.322018 -145.27373 -52.922737 177.15993 0.35585615 15.951897
166693877551.02 -7.8581271 -135.43112 -52.290516 -146.07678 -52.815109 176.84081 0.32753146 16.430609
166734693877.55 -7.8737307 -135.50739 -52.275051 -146.88455 -52.78672 176.58939 0.30112302 16.855818
166775510204.08 -7.8816018 -135.53502 -52.200619 -147.7473 -52.712799 176.58586 0.27169096 17.176426
166816326530.61 -7.8701038 -135.49638 -52.191311 -148.28288 -52.59325 176.64523 0.23779701 17.448627
166857142857.14 -7.8664312 -135.58455 -52.205986 -148.87885 -52.441013 176.30484 0.2063304 17.669601
166897959183.67 -7.8666472 -135.71796 -52.178558 -149.15428 -52.286282 175.70013 0.17288673 17.874931
166938775510.2 -7.8780103 -135.88469 -52.24493 -149.60715 -52.254288 174.95592 0.14156146 17.954746
166979591836.73 -7.8680105 -135.97119 -52.236736 -149.2682 -52.116241 174.61723 0.11241166 17.949717
167020408163.27 -7.8504219 -135.93349 -52.245602 -148.20299 -52.038692 174.47078 0.080534227 17.98266
167061224489.8 -7.8637223 -136.05949 -52.120525 -148.16515 -51.951538 173.60561 0.051804975 17.989752
167102040816.33 -7.8604445 -136.19606 -52.055176 -148.04675 -51.90416 173.21242 0.025467385 17.981936
167142857142.86 -7.8623881 -136.30588 -51.821777 -148.22607 -51.852467 172.45081 0.0059745116 17.887617
167183673469.39 -7.8519273 -136.36478 -51.790092 -148.84229 -51.860153 172.23489 -0.010973454 17.806673
167224489795.92 -7.8543544 -136.46259 -51.812763 -149.49403 -51.839417 171.98759 -0.028633464 17.696053
167265306122.45 -7.8707247 -136.6539 -51.80677 -149.27626 -51.853142 171.59698 -0.04524539 17.531487
167306122448.98 -7.8801661 -136.7726 -51.74369 -148.99297 -51.784786 171.72231 -0.063721702 17.362131
167346938775.51 -7.8801284 -136.7955 -51.598824 -149.18454 -51.754295 171.30067 -0.079625942 17.183559
167387755102.04 -7.8881426 -136.94118 -51.493195 -149.9662 -51.804035 170.70851 -0.098324351 16.964474
167428571428.57 -7.9017367 -137.0065 -51.390427 -150.67151 -51.795654 170.89326 -0.11752966 16.76078
167469387755.1 -7.9172029 -137.02968 -51.435226 -152.08015 -51.779728 171.20784 -0.13590193 16.530476
167510204081.63 -7.9207563 -137.1707 -51.375797 -152.2148 -51.678116 171.05534 -0.15753807 16.329983
167551020408.16 -7.9339013 -137.22324 -51.409523 -153.00693 -51.628262 170.78494 -0.18108577 16.149803
167591836734.69 -7.9344587 -137.20844 -51.535538 -153.20438 -51.651463 171.06808 -0.20728593 15.929767
167632653061.22 -7.9462094 -137.29012 -51.479172 -153.52818 -51.580143 170.78439 -0.24023698 15.667249
167673469387.76 -7.9427094 -137.30983 -51.598003 -152.90912 -51.541962 170.65698 -0.27260968 15.395097
167714285714.29 -7.9449015 -137.29939 -51.558308 -153.36938 -51.43322 170.30202 -0.30085412 15.140747
167755102040.82 -7.9419441 -137.37814 -51.660187 -152.90569 -51.437099 169.88354 -0.33281654 14.834162
167795918367.35 -7.9360585 -137.46915 -51.588562 -151.97647 -51.391396 169.72044 -0.36712503 14.504426
167836734693.88 -7.9252157 -137.50607 -51.534851 -151.31717 -51.326298 169.18042 -0.39542612 14.127904
167877551020.41 -7.920958 -137.45059 -51.416691 -150.83963 -51.282562 168.73459 -0.41567001 13.742157
167918367346.94 -7.9162207 -137.45636 -51.203381 -151.24895 -51.285454 168.09521 -0.43199322 13.368257
167959183673.47 -7.9145527 -137.54155 -51.182098 -151.98528 -51.334255 167.31705 -0.44721487 12.998466
168000000000 -7.9003077 -137.66162 -51.111523 -152.07571 -51.403183 167.79108 -0.4579061 12.655562
168040816326.53 -7.8953743 -137.79613 -51.063057 -152.26859 -51.440201 167.99641 -0.45742834 12.296324
168081632653.06 -7.9070292 -137.98453 -51.176647 -153.16356 -51.468616 168.33698 -0.45258564 11.992179
168122448979.59 -7.9215608 -138.13855 -51.202217 -152.2691 -51.494392 169.01378 -0.44536424 11.66444
168163265306.12 -7.9465313 -138.18352 -51.093266 -151.03966 -51.468658 169.76306 -0.43199891 11.453886
168204081632.65 -7.9347954 -138.1071 -50.789089 -150.8949 -51.456432 170.39867 -0.4099842 11.340326
168244897959.18 -7.9358788 -138.17068 -50.626659 -152.6909 -51.296501 170.683 -0.39130718 11.194199
168285714285.71 -7.9470458 -138.34465 -50.68121 -153.94563 -51.209167 171.0313 -0.37257132 11.040483
168326530612.24 -7.9418468 -138.42569 -50.848621 -154.80011 -51.027435 171.1149 -0.35348713 10.978562
168367346938.78 -7.9436202 -138.39874 -50.862976 -154.03342 -50.926373 170.78763 -0.32801637 11.010118
168408163265.31 -7.9376874 -138.38666 -50.737087 -153.5995 -50.835278 170.20648 -0.30176666 11.00281
168448979591.84 -7.9421263 -138.56012 -50.682835 -153.98698 -50.781467 170.1329 -0.27852955 11.017695
168489795918.37 -7.9389539 -138.49776 -50.673119 -155.26788 -50.75869 169.46727 -0.26296675 11.130487
168530612244.9 -7.9385805 -138.53899 -50.761444 -154.76021 -50.701752 169.20825 -0.2430996 11.15209
168571428571.43 -7.9273643 -138.46245 -50.731678 -154.47931 -50.628544 168.88229 -0.23064457 11.121826
168612244897.96 -7.919847 -138.55008 -50.62571 -154.3262 -50.548096 168.25871 -0.23264077 10.966144
168653061224.49 -7.9042859 -138.53929 -50.546566 -153.91847 -50.535412 167.81667 -0.2440702 10.830073
168693877551.02 -7.8853173 -138.52205 -50.306881 -154.42548 -50.380489 167.68802 -0.2573809 10.707544
168734693877.55 -7.8866377 -138.54269 -50.214256 -154.27316 -50.305565 167.41107 -0.27475929 10.434299
168775510204.08 -7.8923674 -138.67984 -49.990639 -154.89825 -50.250378 166.2113 -0.30702209 9.9605455
168816326530.61 -7.8936086 -138.77841 -49.797531 -156.03639 -50.157722 165.71265 -0.34169844 9.4859533
168857142857.14 -7.8804874 -138.81946 -49.692795 -157.63945 -50.052883 164.89877 -0.38297552 8.9694157
168897959183.67 -7.8848977 -138.93178 -49.632168 -159.12886 -49.971756 164.22932 -0.42788458 8.2697725
168938775510.2 -7.886095 -138.83907 -49.629753 -160.85954 -49.825466 163.67027 -0.47795936 7.4643312
168979591836.73 -7.8838553 -138.96054 -49.687286 -161.21449 -49.724892 162.54816 -0.54148179 6.4735889
169020408163.27 -7.8886108 -139.08392 -49.58136 -161.54903 -49.678768 161.14217 -0.59382069 5.4121537
169061224489.8 -7.8936305 -139.18713 -49.528221 -162.29507 -49.679321 160.09055 -0.63886464 4.2743931
169102040816.33 -7.909565 -139.22133 -49.427879 -163.52043 -49.705902 159.52568 -0.68292326 2.943593
169142857142.86 -7.9096117 -139.25696 -49.368805 -164.86421 -49.685249 158.04169 -0.72633517 1.5560943
169183673469.39 -7.9114661 -139.37161 -49.424454 -166.65825 -49.650677 157.50893 -0.7680071 0.14152841
169224489795.92 -7.9088473 -139.49567 -49.444218 -167.12172 -49.773712 156.68195 -0.79419422 -1.2971288
169265306122.45 -7.914196 -139.46959 -49.494984 -167.89714 -49.750057 156.86481 -0.80648547 -2.7905405
169306122448.98 -7.9137607 -139.52588 -49.579895 -168.7213 -49.704834 155.9809 -0.81044847 -4.2871051
169346938775.51 -7.9070482 -139.53668 -49.64669 -169.66779 -49.687214 155.15617 -0.8095485 -5.7115355
169387755102.04 -7.913115 -139.58418 -49.952023 -169.9568 -49.719311 153.90501 -0.79646367 -7.2171073
169428571428.57 -7.9132695 -139.70567 -49.984306 -169.0074 -49.882946 153.59047 -0.78223175 -8.4200926
169469387755.1 -7.900547 -139.75133 -50.093407 -168.68887 -50.045399 153.4584 -0.76388758 -9.4887495
169510204081.63 -7.8951607 -139.77835 -50.101345 -167.82191 -50.061077 154.12402 -0.74005967 -10.291792
169551020408.16 -7.9101791 -139.82298 -50.031376 -167.34047 -50.108265 154.74956 -0.70581913 -11.092995
169591836734.69 -7.9018106 -139.81537 -50.011227 -167.05836 -50.002605 154.20671 -0.67129081 -11.749339
169632653061.22 -7.9024425 -139.9929 -49.83374 -166.47433 -50.083202 153.92166 -0.62309104 -12.191963
169673469387.76 -7.8973317 -140.0338 -49.58065 -166.97017 -50.133579 154.28804 -0.57546461 -12.40142
169714285714.29 -7.88974 -140.11105 -49.605198 -168.60144 -50.117313 154.95895 -0.52597493 -12.558752
169755102040.82 -7.8961744 -140.19356 -49.630333 -169.99551 -50.06509 155.56256 -0.47447544 -12.651062
169795918367.35 -7.9168448 -140.24626 -49.614162 -170.54924 -49.976765 155.28535 -0.42836395 -12.722036
169836734693.88 -7.9093928 -140.14787 -49.828846 -171.34407 -50.005547 155.09003 -0.38982481 -12.689946
169877551020.41 -7.9129548 -140.18243 -49.882011 -171.13118 -50.022537 154.52771 -0.36105484 -12.58644
169918367346.94 -7.9179964 -140.27841 -50.007736 -171.98465 -50.115906 154.3116 -0.33415711 -12.415558
169959183673.47 -7.9245358 -140.21538 -50.142315 -172.06848 -50.248753 154.25078 -0.31730619 -12.30975
170000000000 -7.9197636 -140.27402 -50.208939 -172.18086 -50.383305 155.05667 -0.30900037 -12.310385
