!Keysight Technologies,N5247B,MY61256062,A.16.20.04
!Date: Friday, November 28, 2025 08:10:42
!Correction: S11(C  2-Port  ) 
!S21(C  2-Port  ) 
!S12(C  2-Port  ) 
!S22(C  2-Port  ) 
!S2P File: Measurements: S11, S21, S12, S22:
# Hz S  dB   R 50
67000000000 -12.952196 -94.285301 -72.498367 60.729473 -70.961655 63.943317 -0.14459206 15.413551
67048000000 -12.941699 -94.315269 -73.935013 55.873943 -73.087601 67.727196 -0.14707819 15.409993
67096000000 -12.930413 -94.348938 -73.640259 73.782501 -71.172226 68.074867 -0.14854826 15.440235
67144000000 -12.923508 -94.380058 -73.288826 72.453903 -72.616318 67.905983 -0.1500475 15.426377
67192000000 -12.92367 -94.422546 -69.936829 65.289375 -71.717316 63.096081 -0.15070646 15.437881
67240000000 -12.924159 -94.495003 -74.46212 59.393589 -72.448814 70.631729 -0.14579412 15.455235
67288000000 -12.912893 -94.475731 -70.867065 80.839409 -71.820877 66.565865 -0.15053038 15.479847
67336000000 -12.910052 -94.48204 -71.33345 64.947502 -70.333748 63.980732 -0.13635308 15.504487
67384000000 -12.895129 -94.471649 -71.309181 77.343864 -70.923424 72.035927 -0.14493623 15.466921
67432000000 -12.894331 -94.46476 -69.212929 78.506439 -70.899246 73.459534 -0.15336396 15.495633
67480000000 -12.887222 -94.481956 -70.388611 77.209023 -70.565125 70.49041 -0.14571729 15.512072
67528000000 -12.881817 -94.458519 -71.014847 81.015991 -71.128441 70.078964 -0.14639273 15.543708
67576000000 -12.884105 -94.486336 -69.553436 76.870224 -69.929672 70.132874 -0.14294621 15.530957
67624000000 -12.88483 -94.51059 -70.876808 69.736916 -70.607193 69.501106 -0.13530076 15.533888
67672000000 -12.888354 -94.526054 -72.290512 78.135162 -70.474525 72.942772 -0.14337508 15.555462
67720000000 -12.901622 -94.564247 -70.044235 63.536285 -70.792107 69.139565 -0.1428023 15.611626
67768000000 -12.90137 -94.652298 -70.646523 74.458755 -69.183281 70.338478 -0.13408852 15.634887
67816000000 -12.89008 -94.714989 -70.199234 78.530228 -70.824608 71.697449 -0.13718629 15.604474
67864000000 -12.889825 -94.792717 -69.774902 80.484535 -69.92337 69.383545 -0.14444861 15.613956
67912000000 -12.872035 -94.821587 -69.000748 61.888378 -71.111504 66.602539 -0.13829784 15.606796
67960000000 -12.854089 -94.851456 -69.257927 66.83007 -70.183525 71.324135 -0.13593853 15.591259
68008000000 -12.839261 -94.892868 -70.411102 71.847809 -69.527679 70.843697 -0.13687371 15.626554
68056000000 -12.819636 -94.849701 -69.148987 83.230217 -69.935539 70.422577 -0.13406876 15.606442
68104000000 -12.806425 -94.821617 -69.605606 71.955658 -70.194901 73.322433 -0.13453011 15.616729
68152000000 -12.797959 -94.792786 -69.732201 65.234245 -69.483948 68.603539 -0.13864152 15.605765
68200000000 -12.797976 -94.780693 -69.831139 67.976036 -69.332184 66.972549 -0.13897079 15.609237
68248000000 -12.792065 -94.750824 -69.892029 72.400284 -69.148079 71.115471 -0.14104456 15.551982
68296000000 -12.788423 -94.714684 -70.169685 68.572289 -69.381424 67.939178 -0.14319716 15.683318
68344000000 -12.7896 -94.772552 -70.366302 62.547554 -69.414131 66.08535 -0.13428609 15.482987
68392000000 -12.783026 -94.776428 -69.030479 66.750481 -69.406586 67.146187 -0.13875644 15.473451
68440000000 -12.78826 -94.799141 -69.364601 63.981655 -69.454903 65.396034 -0.14452462 15.45841
68488000000 -12.780141 -94.823914 -69.430061 69.162567 -69.569725 66.76635 -0.14192815 15.493168
68536000000 -12.767509 -94.835373 -69.219986 66.647995 -69.792221 68.029488 -0.14450401 15.569003
68584000000 -12.765186 -94.842438 -70.036125 65.014091 -70.019005 66.318428 -0.14788802 15.619729
68632000000 -12.76245 -94.842506 -70.271088 66.284874 -70.019043 66.71357 -0.14377561 15.574785
68680000000 -12.761186 -94.872063 -69.066269 70.111084 -70.011269 64.261169 -0.14358778 15.514592
68728000000 -12.761722 -94.914124 -68.515442 68.368065 -69.87886 65.41481 -0.14545523 15.539973
68776000000 -12.755143 -94.919418 -68.918175 71.040665 -69.676941 67.501068 -0.14424014 15.542613
68824000000 -12.754863 -94.966354 -69.175041 63.126637 -69.927673 69.331665 -0.14563538 15.565948
68872000000 -12.741825 -94.987297 -70.070389 70.662231 -70.084908 71.276131 -0.14529301 15.593066
68920000000 -12.730188 -94.978081 -69.457222 72.442711 -69.944695 68.528687 -0.14631 15.620295
68968000000 -12.721768 -94.990685 -69.9272 68.209869 -69.776062 68.590347 -0.14651428 15.645566
69016000000 -12.709326 -95.027 -69.598213 72.126816 -69.958824 68.228966 -0.14599703 15.699586
69064000000 -12.702123 -95.010368 -69.637184 75.213173 -69.81031 69.453667 -0.14492446 15.694998
69112000000 -12.696669 -95.016312 -69.027649 74.385818 -69.535889 71.509544 -0.14465308 15.718998
69160000000 -12.69271 -95.033119 -69.073425 71.888191 -69.488701 71.640411 -0.14401537 15.738856
69208000000 -12.690397 -95.052803 -68.418282 73.126495 -68.518982 71.272377 -0.14499833 15.825811
69256000000 -12.689231 -95.079407 -68.834114 70.191124 -68.763275 68.559891 -0.14247085 15.822309
69304000000 -12.691519 -95.094292 -68.556564 71.013329 -68.698967 68.2537 -0.14028947 15.83721
69352000000 -12.68045 -95.100632 -69.337082 72.723648 -68.799149 68.479462 -0.14069961 15.835331
69400000000 -12.67814 -95.10968 -69.292854 69.793724 -68.857544 66.437546 -0.14103627 15.845991
69448000000 -12.666018 -95.114738 -68.915428 69.785194 -68.619202 68.10701 -0.14264019 15.856627
69496000000 -12.656533 -95.097359 -69.10038 68.176186 -68.899063 67.221886 -0.14536662 15.87005
69544000000 -12.652223 -95.085709 -68.395981 68.486122 -68.693588 65.837662 -0.14539553 15.894898
69592000000 -12.642946 -95.080727 -69.002083 69.725853 -68.992943 66.396576 -0.14673249 15.914857
69640000000 -12.64332 -95.072067 -68.115143 69.121574 -68.930298 68.218452 -0.14684951 15.949708
69688000000 -12.642523 -95.114342 -68.382011 69.425941 -68.579803 68.593811 -0.14426985 15.956407
69736000000 -12.641 -95.123222 -68.842606 70.481712 -68.648346 67.81675 -0.14285633 15.967456
69784000000 -12.64302 -95.165428 -68.033096 68.220467 -68.793282 68.818977 -0.14396292 15.97258
69832000000 -12.637158 -95.207336 -68.830101 71.511391 -68.471817 70.018883 -0.14504276 15.961934
69880000000 -12.638366 -95.243187 -68.452545 68.234039 -68.542442 69.733147 -0.14623183 15.964602
69928000000 -12.632693 -95.317017 -68.399605 66.521805 -68.253647 66.949661 -0.14900339 15.983172
69976000000 -12.622407 -95.334351 -68.531815 67.960907 -68.092102 67.302299 -0.15131272 15.993999
70024000000 -12.614871 -95.339249 -67.87941 69.789001 -68.342651 67.735893 -0.15053977 16.017246
70072000000 -12.613282 -95.355255 -68.015869 68.027008 -68.179298 65.289505 -0.14922039 16.052418
70120000000 -12.600944 -95.353996 -68.624924 68.536758 -68.136772 66.923004 -0.14926191 16.054958
70168000000 -12.593461 -95.314835 -68.231277 68.498711 -68.764931 64.83696 -0.14776911 16.064314
70216000000 -12.600949 -95.343773 -68.137039 67.151772 -68.454445 66.344559 -0.14556551 16.085632
70264000000 -12.597663 -95.353951 -68.097961 67.797028 -68.302849 64.84539 -0.14644949 16.077841
70312000000 -12.603936 -95.350128 -68.097549 64.968811 -68.250809 64.706749 -0.148192 16.086271
70360000000 -12.607548 -95.392738 -68.318916 69.32856 -68.300293 65.197739 -0.14794935 16.091713
70408000000 -12.601089 -95.380676 -68.335472 66.839951 -68.399284 64.475487 -0.14998052 16.087967
70456000000 -12.602379 -95.402214 -68.060745 65.360199 -68.602325 61.920692 -0.15162499 16.112623
70504000000 -12.602077 -95.425507 -68.466751 65.791092 -68.369804 66.28833 -0.15450032 16.131784
70552000000 -12.601694 -95.458206 -68.097252 66.726852 -68.400391 63.568134 -0.15595976 16.144758
70600000000 -12.59963 -95.433159 -68.7743 69.475426 -68.467979 65.583511 -0.15496626 16.168005
70648000000 -12.59997 -95.385841 -68.511131 68.926476 -68.364311 65.429176 -0.15453224 16.190731
70696000000 -12.590055 -95.357498 -68.484283 70.375999 -68.551132 69.066902 -0.15377454 16.187307
70744000000 -12.589027 -95.388336 -68.527267 73.447105 -68.900284 71.931396 -0.15229599 16.202131
70792000000 -12.583016 -95.4151 -68.162979 71.951164 -68.680946 72.238846 -0.1528542 16.192093
70840000000 -12.58668 -95.474953 -67.958809 75.098595 -68.534607 73.543465 -0.15411623 16.196186
70888000000 -12.581836 -95.518494 -67.795891 75.823952 -67.763039 74.452675 -0.15705279 16.207945
70936000000 -12.575027 -95.546906 -67.67379 74.683334 -67.721115 73.780159 -0.15849026 16.205187
70984000000 -12.576899 -95.599442 -67.208176 73.935364 -67.413849 72.811768 -0.15722133 16.227901
71032000000 -12.56789 -95.600533 -66.979973 75.436562 -67.401985 73.897377 -0.16122989 16.254955
71080000000 -12.554366 -95.570686 -66.931061 74.025688 -66.956841 72.063957 -0.16229926 16.249424
71128000000 -12.549579 -95.585381 -66.581932 72.371071 -66.497017 71.941055 -0.15769295 16.289833
71176000000 -12.54391 -95.531189 -66.575218 70.364868 -67.05793 72.867203 -0.15933445 16.29763
71224000000 -12.532986 -95.518158 -66.762947 72.19632 -66.753563 71.381416 -0.16076221 16.305098
71272000000 -12.531717 -95.501968 -66.231972 73.849426 -66.571144 70.283379 -0.15413152 16.321899
71320000000 -12.529239 -95.521004 -66.341522 71.284462 -66.372231 70.595978 -0.15869324 16.328022
71368000000 -12.531267 -95.55584 -66.544296 71.071381 -66.122986 70.475563 -0.16568615 16.312492
71416000000 -12.534527 -95.559479 -66.117332 68.635628 -65.999641 70.107513 -0.15711801 16.333084
71464000000 -12.536572 -95.568497 -66.029381 70.885483 -66.11039 69.064468 -0.15908687 16.344263
71512000000 -12.541523 -95.602142 -66.160423 71.343582 -66.167122 69.672523 -0.16412207 16.34059
71560000000 -12.536096 -95.638489 -66.095642 68.381157 -65.818047 66.569824 -0.15854932 16.354511
71608000000 -12.540052 -95.654175 -66.093178 70.487236 -66.066101 67.671387 -0.15937124 16.37492
71656000000 -12.532844 -95.643608 -66.149269 68.843704 -65.965042 66.497688 -0.16232345 16.386213
71704000000 -12.5228 -95.634804 -65.978836 70.71096 -65.645386 67.422241 -0.15632658 16.37311
71752000000 -12.529022 -95.719963 -65.968987 70.870575 -65.810997 68.036278 -0.15771711 16.381739
71800000000 -12.524771 -95.769257 -65.944397 68.003365 -65.768616 67.158928 -0.159907 16.377356
71848000000 -12.506564 -95.719116 -65.34816 62.35133 -65.702988 64.267105 -0.15720685 16.388149
71896000000 -12.496598 -95.714745 -65.482681 66.39135 -65.467789 66.715797 -0.16064455 16.393692
71944000000 -12.49305 -95.911385 -65.707733 67.868553 -65.358421 66.148697 -0.16478963 16.405537
71992000000 -12.504522 -95.942917 -65.226799 64.786957 -65.155441 65.877609 -0.16069397 16.4321
72040000000 -12.504202 -96.015419 -65.569473 62.160793 -64.894913 64.136497 -0.15678225 16.460588
72088000000 -12.449684 -95.66571 -64.809326 65.147301 -65.187904 64.869957 -0.16252257 16.494999
72136000000 -12.422111 -95.463318 -65.329361 65.197563 -65.028358 62.720364 -0.16245754 16.477364
72184000000 -12.415433 -95.578407 -64.895241 66.774544 -64.897072 63.361492 -0.15416934 16.497211
72232000000 -12.417536 -95.625793 -64.785645 61.858345 -64.793419 61.553398 -0.16066793 16.516628
72280000000 -12.445916 -95.714539 -64.989983 64.836678 -64.807076 61.759609 -0.16543955 16.494328
72328000000 -12.459868 -95.766426 -64.883209 61.148582 -64.957626 61.488907 -0.15576175 16.546204
72376000000 -12.465675 -95.827408 -64.701698 60.397224 -64.760963 60.524624 -0.154672 16.580507
72424000000 -12.474635 -95.988373 -65.022255 61.762444 -64.746147 60.978085 -0.17084478 16.592377
72472000000 -12.48362 -96.016975 -64.613991 59.414757 -64.487511 60.137085 -0.16977197 16.581511
72520000000 -12.46918 -96.051979 -64.252769 60.191944 -64.624664 58.186165 -0.16455895 16.639618
72568000000 -12.47392 -96.124382 -64.621727 57.602394 -64.331856 58.119957 -0.1724277 16.649361
72616000000 -12.464078 -96.146278 -64.208618 56.607117 -64.22644 56.588173 -0.1726149 16.641632
72664000000 -12.4593 -96.172485 -64.29554 56.834553 -64.360062 55.625439 -0.16742133 16.662544
72712000000 -12.457047 -96.238129 -64.456696 58.450294 -64.216438 56.421497 -0.16680555 16.685377
72760000000 -12.447973 -96.203072 -64.776917 55.176468 -64.499031 53.699852 -0.16262147 16.681673
72808000000 -12.444676 -96.210411 -64.213364 55.9734 -64.492516 52.504311 -0.16510396 16.687366
72856000000 -12.436618 -96.240417 -64.417152 50.668446 -64.508995 51.395981 -0.16680124 16.698465
72904000000 -12.434255 -96.263817 -64.653854 52.234421 -64.761627 52.801437 -0.16057229 16.729422
72952000000 -12.427382 -96.262733 -64.82457 52.672371 -64.535294 51.73576 -0.16171727 16.758533
73000000000 -12.420385 -96.27301 -64.559723 52.759785 -64.493965 51.169739 -0.16411562 16.748428
73048000000 -12.418767 -96.307892 -64.59021 53.585369 -64.884827 49.667286 -0.16352774 16.777636
73096000000 -12.411532 -96.31987 -64.659348 54.32095 -64.948936 52.546314 -0.15819307 16.803432
73144000000 -12.411585 -96.313156 -64.869476 53.731697 -64.620064 51.444138 -0.16207166 16.803961
73192000000 -12.404064 -96.353622 -64.801338 52.452087 -64.453995 51.604477 -0.16391104 16.797562
73240000000 -12.405194 -96.37513 -64.73732 52.225227 -64.44619 50.486317 -0.15740198 16.855482
73288000000 -12.40427 -96.338051 -64.767014 50.97393 -64.491562 49.871307 -0.16050676 16.840033
73336000000 -12.403802 -96.351074 -64.858574 48.496307 -64.549583 48.6553 -0.1640425 16.822536
73384000000 -12.399314 -96.347855 -64.777725 49.652615 -64.468666 47.390934 -0.15735769 16.88802
73432000000 -12.396674 -96.3116 -64.513718 51.560074 -64.40522 46.021568 -0.16190453 16.888802
73480000000 -12.400722 -96.344757 -64.594261 49.17627 -64.61998 45.1493 -0.16737559 16.89646
73528000000 -12.39348 -96.353386 -64.592201 45.578358 -64.843445 44.284027 -0.16512869 16.931402
73576000000 -12.386262 -96.410881 -65.141701 46.082607 -64.976631 45.522217 -0.1684088 16.904007
73624000000 -12.38462 -96.46994 -65.442299 47.316612 -65.025322 44.513199 -0.16508755 16.907902
73672000000 -12.387939 -96.472473 -65.16423 46.120998 -64.99691 44.438038 -0.16426161 16.889036
73720000000 -12.378044 -96.469231 -65.198151 48.959976 -65.181953 44.760948 -0.16400191 16.885704
73768000000 -12.37374 -96.506561 -65.007942 47.944263 -65.183578 47.489418 -0.16169335 16.904812
73816000000 -12.363953 -96.493546 -65.028893 47.457005 -65.345573 47.316189 -0.16287757 16.923538
73864000000 -12.355744 -96.493713 -65.61496 48.379089 -65.106743 47.793179 -0.16831461 16.939615
73912000000 -12.344647 -96.503632 -64.862015 47.534981 -65.400658 45.656101 -0.16748562 16.953032
73960000000 -12.335049 -96.524612 -64.969948 49.512276 -65.300743 46.462597 -0.17114311 16.948759
74008000000 -12.326824 -96.563416 -65.142403 46.568645 -65.166573 47.45647 -0.1736833 16.958015
74056000000 -12.313289 -96.61158 -65.420967 48.797279 -65.18898 47.350323 -0.16988099 16.994099
74104000000 -12.310604 -96.636841 -65.28064 50.239101 -65.400749 48.092209 -0.17242177 17.008591
74152000000 -12.310609 -96.601723 -65.066055 46.478134 -64.994499 48.230297 -0.1698215 17.020113
74200000000 -12.303705 -96.562378 -65.14653 51.102692 -64.811722 48.524628 -0.16719803 17.032148
74248000000 -12.303118 -96.590164 -64.850395 47.196976 -65.025436 46.916958 -0.17243174 17.018423
74296000000 -12.296563 -96.586449 -64.747871 46.191315 -64.632492 46.455631 -0.17144443 17.003201
74344000000 -12.290346 -96.58976 -64.607964 47.615448 -64.754097 46.452713 -0.16743936 17.053812
74392000000 -12.285374 -96.599831 -64.665115 45.590984 -64.776329 44.980251 -0.18048586 17.000044
74440000000 -12.283167 -96.615135 -64.799263 45.751568 -64.545052 44.468109 -0.17766906 16.998903
74488000000 -12.28159 -96.593674 -64.832222 46.699314 -64.964539 44.0569 -0.17261948 17.088448
74536000000 -12.279826 -96.606415 -65.333527 43.147556 -64.636406 43.859249 -0.18155998 17.038908
74584000000 -12.279846 -96.637321 -65.319382 47.006435 -64.854019 42.314968 -0.18426992 17.059185
74632000000 -12.276277 -96.639244 -64.998108 44.627956 -64.877747 42.420658 -0.17772003 17.119215
74680000000 -12.274986 -96.662949 -65.247711 42.864643 -64.835007 42.399643 -0.17748569 17.101564
74728000000 -12.275508 -96.69796 -65.502106 43.08691 -65.30088 40.940861 -0.17454472 17.108957
74776000000 -12.274545 -96.721375 -65.372169 44.356121 -65.647049 41.43626 -0.16907808 17.11911
74824000000 -12.269342 -96.751816 -65.592361 44.96537 -65.200333 43.02573 -0.17291524 17.07732
74872000000 -12.266872 -96.774948 -65.509323 45.143688 -65.47168 43.796726 -0.18163717 17.070879
74920000000 -12.258616 -96.794495 -65.275871 45.925541 -65.2883 45.546394 -0.18511589 17.084181
74968000000 -12.253428 -96.816109 -65.35743 44.736347 -65.33255 42.883423 -0.19108424 17.087778
75016000000 -12.24563 -96.825401 -65.358086 46.037521 -65.596634 45.477325 -0.19941479 17.104702
75064000000 -12.235119 -96.835701 -65.614403 46.061489 -65.394363 46.718548 -0.19715722 17.176153
75112000000 -12.228813 -96.855446 -65.675591 48.055717 -65.57225 46.292992 -0.19579896 17.185917
75160000000 -12.224004 -96.898193 -65.507751 47.351524 -65.320656 47.940487 -0.20372485 17.193253
75208000000 -12.210926 -96.889694 -65.548698 51.252281 -65.329109 47.114216 -0.19430928 17.278824
75256000000 -12.202312 -96.907013 -65.121132 49.570736 -65.283615 49.756817 -0.19058193 17.262068
75304000000 -12.196046 -96.927887 -65.21965 48.058502 -65.050484 49.177139 -0.19254871 17.24225
75352000000 -12.187981 -96.949493 -65.177063 52.532944 -65.111259 49.112782 -0.18036579 17.259771
75400000000 -12.181419 -96.946365 -64.898315 49.674385 -64.867638 48.720215 -0.18392774 17.197079
75448000000 -12.176462 -96.966438 -65.053467 49.989433 -64.739693 47.187996 -0.18870527 17.1712
75496000000 -12.169594 -96.952705 -64.768005 48.672199 -64.640274 47.800232 -0.18378407 17.219496
75544000000 -12.167129 -96.948486 -64.670784 49.501511 -64.569328 47.648563 -0.18761992 17.186287
75592000000 -12.166844 -96.95282 -64.517754 46.895668 -64.488586 46.443752 -0.19235957 17.195175
75640000000 -12.162982 -96.960098 -64.144775 49.151585 -64.49855 45.116623 -0.18857603 17.252531
75688000000 -12.164701 -96.974174 -64.563751 47.640381 -64.510963 45.913994 -0.18973787 17.264841
75736000000 -12.165549 -97.016403 -64.57309 48.143566 -64.564354 44.661674 -0.18946421 17.28614
75784000000 -12.162635 -97.023666 -64.711967 48.387321 -64.646187 45.285904 -0.18463291 17.3382
75832000000 -12.16193 -97.071609 -64.355286 46.839489 -64.664688 45.354019 -0.18185014 17.341467
75880000000 -12.160122 -97.11969 -64.779762 47.146896 -64.664818 45.040646 -0.18543357 17.327715
75928000000 -12.154665 -97.146248 -64.679138 47.846409 -64.504486 44.969128 -0.18022709 17.377018
75976000000 -12.150509 -97.185707 -64.723717 46.288143 -64.374794 43.756363 -0.18021819 17.39052
76024000000 -12.146161 -97.223099 -64.524178 47.897476 -64.521881 45.60146 -0.18656458 17.369873
76072000000 -12.140911 -97.259552 -64.240356 46.338913 -64.364372 45.886929 -0.18749964 17.384407
76120000000 -12.131001 -97.290192 -64.354408 45.660538 -64.246437 44.67046 -0.18659835 17.401793
76168000000 -12.125421 -97.282616 -64.071648 46.321423 -64.349861 43.777355 -0.18848763 17.405451
76216000000 -12.117207 -97.320847 -64.562042 45.8298 -64.235733 42.988316 -0.19348371 17.398445
76264000000 -12.109327 -97.344017 -64.180908 44.529549 -64.497116 43.45499 -0.19351728 17.430531
76312000000 -12.100652 -97.350235 -64.021286 45.402119 -64.410446 44.199909 -0.19132905 17.455229
76360000000 -12.095557 -97.350998 -64.089317 47.091057 -64.026169 44.000999 -0.1932542 17.45134
76408000000 -12.090101 -97.390564 -64.009872 45.827518 -64.091034 43.717567 -0.19384153 17.476387
76456000000 -12.085677 -97.39016 -63.697845 44.111778 -63.902054 44.152321 -0.19070825 17.473251
76504000000 -12.084993 -97.412392 -64.321213 43.051411 -63.817432 41.751362 -0.18931739 17.498116
76552000000 -12.082479 -97.451317 -64.136673 44.154022 -63.822697 41.626953 -0.18944339 17.524086
76600000000 -12.076327 -97.450432 -63.890816 42.785686 -63.963493 39.707024 -0.18270184 17.50106
76648000000 -12.072853 -97.480339 -64.131798 41.971832 -63.891403 38.534241 -0.18262814 17.520929
76696000000 -12.07266 -97.508186 -64.105362 41.566704 -63.847912 38.144234 -0.18445249 17.529148
76744000000 -12.065751 -97.519638 -64.059608 38.910671 -64.123138 39.7757 -0.18466182 17.555199
76792000000 -12.066268 -97.590248 -64.267776 39.351368 -64.193459 38.801598 -0.18571238 17.541283
76840000000 -12.06276 -97.586693 -64.275887 38.854725 -64.284393 37.110493 -0.18858388 17.549286
76888000000 -12.055239 -97.593643 -64.1362 39.838493 -64.298325 36.849689 -0.18848574 17.569866
76936000000 -12.050333 -97.623184 -64.556633 38.002708 -64.483391 36.936096 -0.19175242 17.592817
76984000000 -12.048559 -97.662315 -64.731819 37.402733 -64.639565 36.521614 -0.19309372 17.614115
77032000000 -12.042263 -97.673508 -64.903313 39.475563 -64.439087 37.214855 -0.19140911 17.626949
77080000000 -12.039642 -97.713661 -64.526947 38.411037 -64.818993 35.478321 -0.19245996 17.634361
77128000000 -12.038232 -97.753899 -64.449295 37.472389 -64.71138 37.930305 -0.19364963 17.649595
77176000000 -12.037533 -97.80233 -64.869759 37.659863 -64.633415 38.174458 -0.19340144 17.666649
77224000000 -12.032446 -97.799767 -64.871857 40.631989 -64.777336 37.309875 -0.1909498 17.695694
77272000000 -12.02753 -97.842453 -65.087952 39.86731 -64.914078 36.374912 -0.19122057 17.536686
77320000000 -12.026701 -97.873955 -64.866119 40.201347 -65.06987 36.903526 -0.1926472 17.754404
77368000000 -12.021852 -97.8974 -64.914604 39.994602 -65.16449 38.787865 -0.1861598 17.776409
77416000000 -12.022097 -97.928078 -64.839554 40.933411 -64.967873 38.710793 -0.19034202 17.766258
77464000000 -12.018115 -97.955376 -65.102493 39.978699 -64.998428 37.934399 -0.19472647 17.764715
77512000000 -12.0143 -97.971802 -65.166023 39.294617 -65.138992 38.145023 -0.1898628 17.783842
77560000000 -12.014631 -98.00042 -65.03688 40.911667 -65.119644 39.120846 -0.18977006 17.807835
77608000000 -12.011857 -98.038017 -65.034256 41.264091 -65.239517 40.231865 -0.19643186 17.821983
77656000000 -12.011552 -98.048347 -64.825539 42.256409 -65.039124 41.594437 -0.19307235 17.768887
77704000000 -12.006508 -98.034256 -64.991776 42.162468 -65.097244 41.712196 -0.18938985 17.79793
77752000000 -12.005908 -98.089912 -65.110016 41.0672 -64.849594 40.764919 -0.19559938 17.802246
77800000000 -12.009249 -98.130913 -64.925262 41.186382 -64.889893 38.756256 -0.19285341 17.832655
77848000000 -12.00955 -98.151039 -65.399704 42.575771 -64.988342 39.275909 -0.18975842 17.816849
77896000000 -12.008913 -98.140877 -65.1866 43.738495 -65.247269 40.546158 -0.18939553 17.839317
77944000000 -12.007179 -98.184059 -65.341118 44.4258 -65.38533 41.204296 -0.18851277 17.855408
77992000000 -12.00366 -98.187904 -65.598328 43.892502 -65.293922 40.580345 -0.18989067 17.903824
78040000000 -12.000668 -98.214294 -65.439285 43.761967 -65.456444 42.264244 -0.1895932 17.901052
78088000000 -11.999162 -98.230515 -65.002975 46.541004 -65.347031 44.266361 -0.19010133 17.893669
78136000000 -11.997269 -98.275108 -65.187347 46.603985 -65.198593 44.48027 -0.1940053 17.897434
78184000000 -11.992546 -98.278557 -65.225128 46.187614 -65.093475 44.03651 -0.19273219 17.91427
78232000000 -11.994758 -98.325272 -65.029587 48.873302 -64.949326 44.26173 -0.1984254 17.944704
78280000000 -11.990672 -98.332802 -65.017761 47.363407 -64.963608 45.670609 -0.19749205 17.916409
78328000000 -11.98776 -98.347145 -64.936844 45.409164 -65.213295 45.633507 -0.19392246 17.946991
78376000000 -11.990677 -98.360123 -64.61084 47.361988 -64.974655 46.517262 -0.19293541 17.976723
78424000000 -11.987628 -98.361832 -64.512383 47.95525 -64.895515 46.704861 -0.1932331 18.002087
78472000000 -11.985308 -98.358727 -64.752716 47.480347 -64.867409 47.633785 -0.19313107 18.019043
78520000000 -11.983676 -98.368454 -64.732597 46.86969 -64.687088 46.084461 -0.19285612 18.035162
78568000000 -11.98025 -98.356133 -64.788918 47.985538 -64.680664 45.628979 -0.18771803 18.0406
78616000000 -11.982418 -98.358444 -64.896248 49.355598 -64.783768 46.253269 -0.18650323 18.052067
78664000000 -11.981468 -98.350098 -64.635201 49.457508 -64.769196 47.486309 -0.18849899 18.041178
78712000000 -11.978245 -98.348862 -64.43663 47.837479 -64.748642 47.908272 -0.18586557 18.046309
78760000000 -11.97533 -98.356575 -64.649658 48.123928 -64.747177 47.503284 -0.18704127 18.063663
78808000000 -11.976976 -98.38382 -64.478226 48.614868 -64.820313 47.027081 -0.18953317 18.066536
78856000000 -11.976727 -98.393723 -64.628731 51.86779 -64.634827 47.737541 -0.18867742 18.07081
78904000000 -11.974649 -98.416756 -64.433769 50.594387 -64.480003 49.73341 -0.19051567 18.09495
78952000000 -11.969886 -98.419327 -64.575325 52.403526 -64.43219 49.453819 -0.18987173 18.102283
79000000000 -11.970247 -98.447769 -64.210838 51.814266 -64.411575 49.800434 -0.1887404 18.125153
79048000000 -11.969661 -98.487526 -64.126907 51.312466 -64.327522 50.609016 -0.19053866 18.134817
79096000000 -11.961371 -98.484283 -64.131729 53.673698 -64.221756 50.528793 -0.18789886 18.153162
79144000000 -11.960826 -98.497414 -63.954594 51.900864 -64.085251 50.225857 -0.18748018 18.16485
79192000000 -11.954538 -98.49234 -63.536072 53.545231 -63.987854 50.863506 -0.18716964 18.163952
79240000000 -11.946139 -98.49839 -63.613201 51.257015 -63.818802 52.003254 -0.18476014 18.182737
79288000000 -11.939233 -98.48204 -63.604927 52.832916 -63.597004 51.477436 -0.18386994 18.186659
79336000000 -11.931137 -98.455551 -63.343189 51.965797 -63.527718 50.858028 -0.18429017 18.170315
79384000000 -11.92575 -98.447144 -63.321461 52.014542 -63.422256 50.428459 -0.1857494 18.194929
79432000000 -11.921048 -98.444542 -63.298042 51.492218 -63.346554 50.187859 -0.18838571 18.184504
79480000000 -11.918023 -98.450363 -63.343193 50.273857 -63.314133 51.019825 -0.18965323 18.176601
79528000000 -11.918366 -98.478058 -62.869225 50.479725 -63.13446 50.869076 -0.18951127 18.199451
79576000000 -11.915585 -98.486313 -62.950668 51.446213 -62.794556 50.823601 -0.19012541 18.197783
79624000000 -11.913914 -98.542847 -62.6745 49.741959 -62.679794 49.055473 -0.19379741 18.228634
79672000000 -11.916244 -98.591911 -62.794937 50.062271 -62.81823 47.303219 -0.1972634 18.268049
79720000000 -11.914557 -98.579193 -62.404789 49.863605 -62.687931 47.483715 -0.19547157 18.273991
79768000000 -11.913688 -98.5951 -62.467976 50.115341 -62.674797 46.735088 -0.19177218 18.275106
79816000000 -11.911955 -98.627838 -62.492466 47.89069 -62.518623 47.133419 -0.1897468 18.293242
79864000000 -11.901901 -98.609749 -62.558636 47.141926 -62.585217 46.266624 -0.18625869 18.319321
79912000000 -11.898913 -98.621681 -62.35791 48.296593 -62.583427 45.81538 -0.18483631 18.308081
79960000000 -11.895179 -98.662941 -62.202934 46.461491 -62.557835 44.734089 -0.18751803 18.314487
80008000000 -11.886333 -98.649086 -62.491749 45.168556 -62.418453 44.960503 -0.18820892 18.296219
80056000000 -11.882145 -98.662621 -62.21743 46.8559 -62.446369 44.656643 -0.18977275 18.299475
80104000000 -11.879204 -98.679428 -62.492855 45.125122 -62.475082 44.384182 -0.19433907 18.313263
80152000000 -11.877404 -98.686378 -62.258041 44.783974 -62.330284 43.429272 -0.19667481 18.315048
80200000000 -11.878255 -98.740349 -62.339203 46.050598 -62.41684 43.188957 -0.19548133 18.346422
80248000000 -11.876875 -98.757645 -62.374542 46.037159 -62.41481 43.919113 -0.19471779 18.363758
80296000000 -11.876412 -98.794487 -62.161297 44.993286 -62.398037 43.431778 -0.19710955 18.373526
80344000000 -11.874328 -98.818413 -62.313728 44.832161 -62.310631 43.135067 -0.19491409 18.408623
80392000000 -11.868467 -98.810837 -62.088196 44.739265 -62.232468 43.351017 -0.19099712 18.395964
80440000000 -11.85953 -98.843338 -62.274387 44.532673 -62.083801 43.187992 -0.19130361 18.414925
80488000000 -11.855159 -98.879929 -62.073391 44.561203 -62.093224 42.599957 -0.18820757 18.420494
80536000000 -11.855479 -98.897346 -62.039589 43.843189 -62.101677 41.822647 -0.19016136 18.408003
80584000000 -11.84543 -98.882729 -62.066936 42.729595 -62.07489 41.073807 -0.19147566 18.409748
80632000000 -11.840116 -98.874664 -61.773109 42.75042 -62.110249 41.690338 -0.19355518 18.405745
80680000000 -11.840531 -98.879478 -62.117302 43.223907 -62.051701 40.663082 -0.1951935 18.40834
80728000000 -11.838166 -98.894325 -61.975807 41.572418 -61.96069 40.587662 -0.19569957 18.426743
80776000000 -11.839377 -98.925354 -61.859886 42.833248 -61.846245 40.2453 -0.19579706 18.441765
80824000000 -11.841377 -98.940453 -62.049442 43.872509 -61.848976 39.512367 -0.19949122 18.439854
80872000000 -11.83864 -98.984779 -61.807545 41.435959 -61.939468 39.971516 -0.19912319 18.480713
80920000000 -11.840102 -99.01989 -61.809486 42.392982 -61.990688 39.647259 -0.19472322 18.507563
80968000000 -11.841084 -99.067314 -62.004513 40.66478 -61.823528 40.107868 -0.19630618 18.514704
81016000000 -11.835071 -99.062981 -61.655487 42.783672 -61.755722 40.184303 -0.19696978 18.51997
81064000000 -11.826876 -99.10041 -61.772423 40.889412 -61.742977 41.023178 -0.19325177 18.533058
81112000000 -11.816974 -99.112045 -61.968494 40.123676 -61.608658 39.912224 -0.19450393 18.528278
81160000000 -11.812775 -99.163956 -61.84314 41.289459 -61.603359 39.167866 -0.19457945 18.536392
81208000000 -11.810689 -99.168655 -61.553337 40.798683 -61.5107 37.135563 -0.1884633 18.544798
81256000000 -11.804234 -99.147621 -61.616734 38.196651 -61.556934 37.476334 -0.19530857 18.535736
81304000000 -11.805337 -99.178169 -61.505039 38.707165 -61.601597 37.249542 -0.19913971 18.535028
81352000000 -11.805661 -99.209572 -61.512283 38.579418 -61.534779 36.634754 -0.19617403 18.552088
81400000000 -11.80366 -99.228569 -61.543903 38.554558 -61.559078 36.506218 -0.19867334 18.567236
81448000000 -11.804133 -99.242462 -61.501297 39.484524 -61.585407 36.041824 -0.20460147 18.577856
81496000000 -11.808115 -99.260994 -61.873203 36.120903 -61.685936 35.53228 -0.20343728 18.602697
81544000000 -11.804621 -99.262688 -61.416119 37.157124 -61.633011 36.427242 -0.2012801 18.614466
81592000000 -11.797591 -99.237015 -61.509739 37.400188 -61.715397 35.652569 -0.20225143 18.609873
81640000000 -11.804509 -99.284225 -61.481426 37.172695 -61.643574 36.207207 -0.20163639 18.668514
81688000000 -11.795959 -99.27433 -61.640572 36.417263 -61.636017 35.76804 -0.19848312 18.651747
81736000000 -11.793136 -99.268013 -61.545128 38.24342 -61.580753 36.326401 -0.20352735 18.621408
81784000000 -11.788367 -99.24585 -61.553623 36.323345 -61.542953 35.74575 -0.20240059 18.623049
81832000000 -11.78424 -99.251434 -61.443382 35.978592 -61.439396 35.416042 -0.19943051 18.638725
81880000000 -11.7848 -99.268494 -61.415653 35.157787 -61.424728 35.441341 -0.20582271 18.647326
81928000000 -11.783991 -99.309921 -61.226414 37.732918 -61.341763 35.26524 -0.20925756 18.655828
81976000000 -11.78532 -99.359894 -61.663967 35.699612 -61.356121 34.216419 -0.20692103 18.684277
82024000000 -11.787799 -99.403076 -61.39782 36.187637 -61.459415 35.116932 -0.20820102 18.692091
82072000000 -11.789843 -99.460747 -61.161228 35.430836 -61.330219 34.222183 -0.21016602 18.798597
82120000000 -11.785711 -99.475822 -61.204662 37.449585 -61.322227 33.899857 -0.20652032 18.761339
82168000000 -11.779342 -99.505135 -61.280968 34.83292 -61.389088 33.87886 -0.20067063 18.773611
82216000000 -11.777821 -99.49115 -61.188717 34.988976 -61.302055 34.010929 -0.20053697 18.786884
82264000000 -11.768899 -99.498627 -61.071716 34.353024 -61.289925 33.212036 -0.20142163 18.773319
82312000000 -11.762622 -99.515633 -61.160557 34.114777 -61.2318 33.123718 -0.19839153 18.787872
82360000000 -11.755337 -99.500793 -61.197639 33.508495 -61.204601 33.478436 -0.20207813 18.781239
82408000000 -11.749702 -99.499725 -61.211708 34.434399 -61.188686 32.206276 -0.20745182 18.765226
82456000000 -11.743767 -99.491096 -61.452274 34.49482 -61.189377 31.697615 -0.20733127 18.786049
82504000000 -11.73691 -99.487923 -61.025589 33.792282 -61.256413 31.63463 -0.2126492 18.784023
82552000000 -11.740858 -99.503273 -61.273117 33.944912 -61.416771 32.212902 -0.21683362 18.793793
82600000000 -11.7428 -99.518593 -61.294403 33.253849 -61.436546 32.597538 -0.21166168 18.83662
82648000000 -11.741633 -99.53363 -61.156124 34.994488 -61.245598 32.856255 -0.21357685 18.85577
82696000000 -11.746203 -99.555801 -61.127396 34.587463 -61.317417 32.458355 -0.21568492 18.872879
82744000000 -11.750416 -99.559868 -61.204468 34.831989 -61.265121 32.594578 -0.20790394 18.903364
82792000000 -11.747701 -99.566452 -61.061813 34.1306 -61.052219 32.129097 -0.20377964 18.913973
82840000000 -11.745674 -99.550797 -60.921337 33.66819 -61.277119 32.735611 -0.20638812 18.903742
82888000000 -11.741763 -99.567993 -60.87463 33.837421 -61.041828 33.075008 -0.20418227 18.894011
82936000000 -11.73812 -99.582832 -61.186085 35.301643 -61.118279 32.823906 -0.20326719 18.89229
82984000000 -11.731147 -99.596481 -60.986919 34.579113 -60.95031 33.548218 -0.21013804 18.871162
83032000000 -11.723973 -99.624352 -60.740181 33.56271 -60.879604 32.788021 -0.21469018 18.909731
83080000000 -11.720203 -99.626984 -60.727867 34.199711 -60.790916 32.393566 -0.22077341 18.906803
83128000000 -11.719723 -99.6427 -60.801731 33.330227 -60.77631 32.150272 -0.22491743 18.874886
83176000000 -11.714654 -99.664642 -60.576706 32.434742 -60.748547 31.906948 -0.22892024 18.905495
83224000000 -11.711812 -99.699135 -60.594452 31.996967 -60.582611 31.678442 -0.23172379 19.000662
83272000000 -11.713909 -99.737389 -60.442101 33.261726 -60.575401 31.055832 -0.23146413 19.051046
83320000000 -11.716293 -99.774406 -60.521065 32.050571 -60.480839 31.317862 -0.22638792 19.094513
83368000000 -11.710178 -99.78849 -60.41087 30.037977 -60.512867 30.080837 -0.2227027 19.126427
83416000000 -11.709701 -99.81485 -60.340214 30.677294 -60.418171 29.838413 -0.21875489 19.136776
83464000000 -11.705498 -99.814415 -60.45953 29.429987 -60.412529 29.271677 -0.21342948 19.080914
83512000000 -11.703105 -99.820938 -60.362251 31.35984 -60.399345 28.585548 -0.21523826 19.06542
83560000000 -11.696865 -99.796791 -60.351124 29.008402 -60.415565 27.841349 -0.21801721 19.05213
83608000000 -11.693674 -99.756973 -60.38089 28.32605 -60.425461 27.24778 -0.22059339 19.048946
83656000000 -11.686168 -99.723656 -60.557774 27.017385 -60.41608 27.215137 -0.23041718 19.032091
83704000000 -11.683414 -99.730362 -60.540646 27.914248 -60.555336 27.577703 -0.23729779 19.012171
83752000000 -11.684538 -99.750061 -60.609562 28.290657 -60.564663 26.978848 -0.23902081 19.046013
83800000000 -11.684283 -99.780518 -60.687347 28.82044 -60.5494 26.983727 -0.24666244 19.052425
83848000000 -11.688561 -99.785736 -60.483566 28.77096 -60.499443 27.408577 -0.24925102 19.08687
83896000000 -11.690735 -99.814674 -60.23489 29.617493 -60.459709 26.948895 -0.24623202 19.16238
83944000000 -11.691305 -99.823761 -60.422024 28.845924 -60.386963 26.786407 -0.23951642 19.2215
83992000000 -11.689145 -99.847221 -60.349644 27.868868 -60.572075 26.356213 -0.23174182 19.260874
84040000000 -11.687601 -99.851593 -60.519207 27.714731 -60.461872 26.298862 -0.21908267 19.300089
84088000000 -11.683049 -99.868217 -60.400749 26.989695 -60.346615 26.447142 -0.20842779 19.295572
84136000000 -11.67968 -99.872101 -60.140118 26.372 -60.276642 26.593966 -0.20710102 19.286367
84184000000 -11.67322 -99.875763 -60.441551 27.596266 -60.28186 25.458361 -0.20844924 19.258793
84232000000 -11.666932 -99.935867 -60.451389 24.97821 -60.231319 25.146759 -0.21635474 19.257774
84280000000 -11.65809 -99.924484 -60.362095 27.141678 -60.389885 24.543638 -0.22362377 19.216877
84328000000 -11.652462 -99.936462 -60.316708 26.831635 -60.452518 24.99934 -0.22997937 19.224279
84376000000 -11.647194 -99.965904 -60.471626 25.62752 -60.397053 25.245989 -0.23879954 19.229008
84424000000 -11.642106 -99.9907 -60.388222 25.465183 -60.45623 24.97134 -0.24393685 19.258516
84472000000 -11.638661 -100.10459 -60.11216 26.482109 -60.218353 24.729418 -0.2469274 19.736217
84520000000 -11.640897 -100.08066 -60.131779 26.38464 -60.237679 24.379139 -0.24888395 19.431211
84568000000 -11.639983 -100.08951 -60.25161 25.50736 -60.283482 24.235239 -0.24866356 19.438595
84616000000 -11.636491 -100.10197 -60.294094 24.961365 -60.222355 24.327738 -0.24152137 19.496021
84664000000 -11.63195 -100.13324 -60.03651 25.67864 -60.105289 24.027515 -0.23425867 19.513325
84712000000 -11.625513 -100.14253 -60.075359 25.156441 -60.157784 23.075729 -0.22977932 19.535936
84760000000 -11.622316 -100.15481 -60.220356 23.716827 -60.138844 22.885424 -0.22576945 19.529535
84808000000 -11.616735 -100.15641 -60.355453 23.180994 -60.127228 22.588102 -0.22004355 19.538227
84856000000 -11.610987 -100.13534 -60.066444 25.690428 -60.274532 23.513853 -0.22110707 19.481428
84904000000 -11.605113 -100.0956 -60.446262 23.734394 -60.157417 22.929985 -0.22248772 19.393932
84952000000 -11.603841 -100.09537 -60.131897 24.68742 -60.133446 23.168211 -0.21465102 19.468946
85000000000 -11.600558 -100.07066 -60.149815 23.054281 -60.196156 22.894447 -0.22580026 19.420717
85048000000 -11.598342 -100.0883 -59.952087 23.000513 -60.155701 22.329277 -0.24528998 19.416916
85096000000 -11.602253 -100.11221 -60.034027 22.555965 -60.119404 22.680067 -0.24272703 19.356802
85144000000 -11.605717 -100.17121 -59.741352 23.73925 -60.061707 22.14521 -0.24620189 19.465931
85192000000 -11.607352 -100.16992 -60.103687 23.510502 -60.031628 21.776176 -0.24960057 19.497059
85240000000 -11.605799 -100.19988 -59.916145 23.875612 -59.961185 21.959618 -0.24834149 19.656437
85288000000 -11.604472 -100.26096 -59.957596 22.586611 -59.918533 20.876509 -0.22464101 19.5208
85336000000 -11.597669 -100.25832 -59.890133 22.950483 -60.007313 20.89399 -0.23551315 19.666777
85384000000 -11.594048 -100.26968 -60.166622 21.706371 -60.004974 20.700871 -0.23290324 19.605976
85432000000 -11.585214 -100.30027 -59.912804 22.135754 -60.066994 20.527443 -0.21142115 19.554901
85480000000 -11.574487 -100.30147 -60.013535 20.577036 -59.927879 20.718092 -0.20545386 19.5208
85528000000 -11.567549 -100.33858 -59.997478 21.926121 -59.942017 20.308348 -0.2154828 19.38402
85576000000 -11.564165 -100.34789 -60.078632 21.914547 -59.923332 19.703444 -0.22406667 19.424168
85624000000 -11.556985 -100.31943 -59.896824 21.052835 -59.94632 19.791683 -0.23171915 19.471813
85672000000 -11.556801 -100.35637 -59.805161 18.942585 -59.888458 19.038113 -0.23640059 19.466852
85720000000 -11.554807 -100.34481 -59.865498 20.332977 -60.010666 18.85673 -0.23692571 19.452412
85768000000 -11.552439 -100.37238 -59.862999 20.315613 -59.984882 18.821568 -0.23713812 19.534369
85816000000 -11.559432 -100.45117 -60.127296 19.015951 -59.982254 18.775246 -0.23834202 19.566105
85864000000 -11.557954 -100.47004 -59.782066 19.685301 -59.89642 19.064569 -0.23972705 19.708403
85912000000 -11.55544 -100.48518 -59.725544 19.567436 -59.930164 18.427597 -0.23202169 19.708124
85960000000 -11.555329 -100.52819 -59.928764 20.235435 -59.832867 18.559521 -0.23547161 19.742132
86008000000 -11.553018 -100.55053 -60.02618 19.969511 -59.844627 18.661364 -0.21844156 19.727507
86056000000 -11.544843 -100.57302 -59.659405 18.590418 -59.859795 17.987108 -0.21689458 19.722464
86104000000 -11.541508 -100.57487 -59.882347 19.052448 -59.887844 17.915022 -0.21879055 19.710327
86152000000 -11.534526 -100.54153 -59.825115 18.791239 -59.867058 17.883091 -0.21774584 19.735128
86200000000 -11.533435 -100.58472 -60.044617 18.424795 -59.95134 16.87575 -0.21837732 19.751404
86248000000 -11.531636 -100.58728 -60.025745 17.732515 -60.076057 16.727888 -0.22473015 19.676813
86296000000 -11.518282 -100.55563 -60.079716 17.707794 -60.005299 17.449154 -0.23103413 19.727848
86344000000 -11.524426 -100.62071 -60.178062 17.350174 -60.046535 17.535267 -0.22859935 19.712608
86392000000 -11.517966 -100.68182 -59.802288 18.311459 -60.017368 17.56358 -0.23572057 19.738834
86440000000 -11.515164 -100.65803 -60.093483 18.081564 -59.930412 17.475534 -0.22428472 19.693798
86488000000 -11.515625 -100.66157 -59.965195 20.556238 -59.957211 16.440859 -0.24039073 19.794695
86536000000 -11.517421 -100.72387 -59.903549 18.915068 -59.813805 17.365648 -0.24113278 19.840393
86584000000 -11.516783 -100.74837 -59.79171 15.597553 -59.984356 17.390923 -0.23974839 19.841223
86632000000 -11.51114 -100.76868 -60.004013 17.60858 -59.936607 15.872964 -0.22853087 19.859802
86680000000 -11.506605 -100.80551 -60.010021 18.345665 -60.02113 17.159899 -0.20871161 19.820818
86728000000 -11.500324 -100.79361 -60.001122 18.913925 -59.98687 16.845539 -0.19840075 19.887663
86776000000 -11.500437 -100.79825 -60.181366 18.625883 -59.975163 16.71096 -0.22301579 19.929913
86824000000 -11.49966 -100.75829 -59.662437 17.465445 -59.917801 17.335594 -0.23040408 19.92016
86872000000 -11.497328 -100.79208 -59.688271 17.587318 -59.80233 17.506714 -0.22948757 19.916138
86920000000 -11.485374 -100.8002 -59.947388 19.051275 -59.810619 18.234688 -0.23181744 19.872763
86968000000 -11.477467 -100.76634 -59.840225 19.988113 -59.801109 17.517668 -0.23396035 19.81238
87016000000 -11.476846 -100.74963 -59.587219 19.254473 -59.721512 17.875324 -0.23737735 19.774643
87064000000 -11.47274 -100.74187 -59.518753 18.359322 -59.74593 17.854906 -0.23334926 19.745296
87112000000 -11.471498 -100.78447 -59.73119 18.22555 -59.704647 16.722044 -0.23102894 19.761141
87160000000 -11.475786 -100.85583 -59.55867 19.572302 -59.7505 16.89435 -0.23783477 19.882181
87208000000 -11.479695 -100.87424 -59.550133 19.476164 -59.761059 16.336872 -0.23839316 19.976793
87256000000 -11.480101 -100.92723 -59.591339 17.235723 -59.68224 16.462934 -0.24010539 19.961454
87304000000 -11.47674 -100.95513 -59.75811 17.281532 -59.687462 17.192526 -0.2326659 19.852293
87352000000 -11.472753 -101.01583 -59.684456 18.217831 -59.606934 17.620567 -0.22594887 19.814308
87400000000 -11.460217 -100.99239 -59.601631 17.064901 -59.514675 17.306707 -0.22130264 19.920362
87448000000 -11.461518 -101.01337 -59.38541 18.532703 -59.43227 17.61475 -0.2185273 20.007063
87496000000 -11.458076 -100.97102 -59.523731 18.267399 -59.381077 16.874815 -0.22400698 19.949865
87544000000 -11.451942 -100.92654 -59.419117 18.647245 -59.31649 16.603006 -0.22615884 19.940187
87592000000 -11.446503 -100.95107 -59.400223 17.47357 -59.286297 16.487667 -0.23181744 20.023691
87640000000 -11.442802 -100.96394 -59.241009 17.554649 -59.326065 15.710816 -0.23726743 19.905046
87688000000 -11.437634 -101.0086 -59.263695 16.259155 -59.265278 15.781793 -0.23896666 19.952984
87736000000 -11.438742 -100.99449 -59.109257 16.574717 -59.229893 15.394299 -0.24158321 20.043644
87784000000 -11.438709 -101.0294 -59.196732 16.98996 -59.14653 15.128342 -0.24684025 20.042692
87832000000 -11.438699 -101.05822 -59.212818 15.893806 -59.145889 14.502851 -0.2480737 20.110264
87880000000 -11.437112 -101.08056 -59.287136 16.786449 -59.127136 13.733394 -0.24155147 20.132036
87928000000 -11.432182 -101.08848 -59.208733 15.524486 -59.144955 13.578967 -0.23884468 20.141914
87976000000 -11.430152 -101.10802 -59.037861 15.415452 -59.177788 13.627875 -0.23455402 20.154633
88024000000 -11.424829 -101.12794 -59.063576 14.385575 -58.952522 13.667073 -0.22677055 20.185734
88072000000 -11.421231 -101.11927 -59.013393 13.851941 -59.09322 13.026013 -0.22856578 20.159819
88120000000 -11.415467 -101.10229 -59.038891 12.572962 -59.063419 12.777282 -0.22847848 20.180119
88168000000 -11.408642 -101.12649 -59.154079 13.122052 -59.188805 12.003805 -0.22626956 20.108128
88216000000 -11.403405 -101.06572 -59.146324 13.529711 -59.172028 12.239756 -0.23344924 20.093979
88264000000 -11.401888 -101.10365 -59.134563 13.342087 -59.154846 13.157645 -0.23553446 20.209787
88312000000 -11.394177 -101.10506 -59.059746 14.131846 -59.21265 13.133549 -0.24119818 20.189598
88360000000 -11.390644 -101.1637 -59.033192 14.374292 -59.177711 12.951392 -0.24597752 20.209229
88408000000 -11.391758 -101.19619 -58.954868 13.158476 -59.107967 13.185725 -0.24917892 20.193972
88456000000 -11.391218 -101.27525 -59.031693 13.274514 -59.057693 12.792849 -0.24636216 20.375181
88504000000 -11.393027 -101.24796 -58.907673 13.873151 -59.004768 12.24834 -0.25037271 20.21139
88552000000 -11.386759 -101.28502 -59.018951 13.074849 -59.041409 12.722384 -0.24262382 20.296904
88600000000 -11.394414 -101.32011 -59.00415 12.75251 -59.003036 12.419129 -0.24193762 20.474791
88648000000 -11.388184 -101.30637 -58.978436 12.63512 -58.928905 12.364385 -0.24032015 20.380997
88696000000 -11.383503 -101.32317 -58.969139 12.325213 -58.974979 11.777061 -0.23398383 20.390535
88744000000 -11.377968 -101.31802 -58.971542 12.481614 -58.94746 12.345553 -0.23039071 20.384205
88792000000 -11.372654 -101.34365 -59.003841 12.371361 -58.871689 12.467367 -0.22998619 20.380192
88840000000 -11.36473 -101.31988 -58.892994 12.804111 -58.744953 12.242987 -0.23388357 20.339365
88888000000 -11.362054 -101.26877 -58.851433 12.515788 -58.735718 11.560369 -0.23879489 20.312769
88936000000 -11.35961 -101.27503 -58.645439 12.475581 -58.69809 11.382973 -0.24150495 20.275663
88984000000 -11.350092 -101.23907 -58.60828 12.389945 -58.696812 10.187721 -0.24730718 20.310629
89032000000 -11.343501 -101.31132 -58.61311 11.717014 -58.7029 10.253859 -0.24914548 20.353121
89080000000 -11.343682 -101.33349 -58.704197 11.602413 -58.840309 9.8729124 -0.24584822 20.392796
89128000000 -11.345952 -101.39245 -58.802509 11.478641 -58.714306 9.6519766 -0.24676162 20.551275
89176000000 -11.346926 -101.42317 -58.801281 10.386955 -58.771721 10.183709 -0.24550472 20.552057
89224000000 -11.344391 -101.43104 -58.657112 10.727115 -58.652802 9.9687777 -0.23912939 20.472393
89272000000 -11.34396 -101.41156 -58.620686 10.916588 -58.632053 9.7045279 -0.23422781 20.480654
89320000000 -11.341407 -101.47474 -58.525558 10.586779 -58.587822 8.9293995 -0.23453216 20.52356
89368000000 -11.33417 -101.45464 -58.515736 9.8916578 -58.564728 8.5450602 -0.23151436 20.499876
89416000000 -11.326737 -101.46726 -58.566547 9.9013376 -58.611134 8.5838165 -0.23125362 20.487064
89464000000 -11.319068 -101.5049 -58.574379 9.5054512 -58.62677 8.3486862 -0.23258178 20.525936
89512000000 -11.312983 -101.52673 -58.528133 8.3377562 -58.717014 8.178544 -0.23828815 20.495371
89560000000 -11.304568 -101.52859 -58.500301 10.029497 -58.675114 8.2704687 -0.24104604 20.472935
89608000000 -11.297576 -101.54771 -58.468292 9.6439476 -58.675781 7.6640058 -0.24786074 20.464481
89656000000 -11.29275 -101.56512 -58.616337 9.523633 -58.565781 8.1475239 -0.25186419 20.477667
89704000000 -11.290489 -101.60019 -58.567772 10.337309 -58.646729 7.8364563 -0.25620055 20.503412
89752000000 -11.29085 -101.59972 -58.422031 8.6352453 -58.610603 7.353075 -0.25807419 20.545317
89800000000 -11.293267 -101.65855 -58.658772 8.3005848 -58.510483 7.3028007 -0.25951967 20.63307
89848000000 -11.292048 -101.65315 -58.467567 8.1892414 -58.617859 7.6199369 -0.25287846 20.659925
89896000000 -11.289518 -101.65742 -58.558495 9.0171251 -58.58432 6.9471445 -0.24206407 20.688372
89944000000 -11.290155 -101.6774 -58.465508 8.349328 -58.507862 6.9743667 -0.23502891 20.70245
89992000000 -11.288376 -101.68231 -58.404755 8.1342573 -58.561619 6.9083033 -0.22940242 20.646879
90040000000 -11.29051 -101.66184 -58.4967 7.5136485 -58.539417 6.7328801 -0.2404709 20.602121
90088000000 -11.277936 -101.65067 -58.533611 7.5412121 -58.451885 6.6493802 -0.24288414 20.659353
90136000000 -11.26986 -101.65186 -58.550308 7.6329722 -58.500896 6.4199414 -0.24037898 20.648325
90184000000 -11.273129 -101.68642 -58.625751 5.9114408 -58.433189 6.3043528 -0.24104194 20.595657
90232000000 -11.268315 -101.6899 -58.598377 6.5033712 -58.501488 6.1775594 -0.24685834 20.598106
90280000000 -11.262094 -101.70965 -58.441601 7.1902571 -58.589088 5.9394164 -0.2509692 20.625753
90328000000 -11.26254 -101.74061 -58.609737 6.5430284 -58.566872 6.2352419 -0.25410292 20.645004
90376000000 -11.261725 -101.79237 -58.489811 7.5028458 -58.623814 6.1513004 -0.25691372 20.68391
90424000000 -11.259402 -101.80273 -58.419437 7.7705364 -58.574482 6.1199312 -0.25835496 20.723026
90472000000 -11.260902 -101.82964 -58.555653 6.8660612 -58.459335 6.5779533 -0.25689477 20.759109
90520000000 -11.260283 -101.8904 -58.512844 7.5643263 -58.465416 6.4571676 -0.2494166 20.836739
90568000000 -11.258265 -101.91938 -58.465347 7.7222333 -58.47123 6.246139 -0.23908946 20.896128
90616000000 -11.256008 -101.92097 -58.351242 6.9535036 -58.332787 6.2719893 -0.22905122 20.851347
90664000000 -11.248766 -101.92703 -58.484703 6.9652648 -58.333057 6.182281 -0.2363276 20.79603
90712000000 -11.245691 -101.94196 -58.402191 6.7384734 -58.295288 6.139668 -0.23198292 20.827976
90760000000 -11.239448 -101.94681 -58.424129 7.6291027 -58.31842 5.7828579 -0.23682128 20.785992
90808000000 -11.230522 -101.90733 -58.121849 7.6556029 -58.321247 6.284245 -0.24222611 20.760729
90856000000 -11.226209 -101.92874 -58.2929 6.8654008 -58.266006 5.9211802 -0.24695699 20.782595
90904000000 -11.22269 -101.95487 -58.321301 7.6974525 -58.208061 6.4996905 -0.25198406 20.760296
90952000000 -11.218349 -101.99254 -58.172565 6.2334132 -58.19054 6.0133505 -0.264377 20.748547
91000000000 -11.218323 -101.99331 -57.927956 6.7338233 -58.154305 5.6789327 -0.27204221 20.769022
91048000000 -11.2203 -102.00657 -57.899063 6.7126498 -58.12888 5.8051467 -0.26847446 20.864851
91096000000 -11.223593 -102.04633 -58.052624 7.4200907 -58.040226 5.4278517 -0.27433079 20.864231
91144000000 -11.226631 -102.06533 -57.854317 6.2767501 -58.030342 5.5174465 -0.27478495 20.920002
91192000000 -11.228233 -102.07102 -58.035583 6.30971 -57.985226 5.0522299 -0.26230237 20.991413
91240000000 -11.230134 -102.10713 -57.945507 6.027092 -57.835125 4.8693852 -0.25498867 20.998358
91288000000 -11.228004 -102.13259 -58.036278 5.220314 -57.876015 4.280756 -0.24718797 21.023405
91336000000 -11.229879 -102.13831 -57.956985 5.6758313 -57.873657 4.1847391 -0.24159499 20.984659
91384000000 -11.225357 -102.12654 -57.848919 6.2586904 -57.892899 3.9534259 -0.23919229 20.965849
91432000000 -11.22084 -102.0927 -57.764172 6.0795398 -57.880619 4.4795184 -0.24275002 20.93421
91480000000 -11.215138 -102.09843 -57.828125 5.1403217 -57.832161 4.2735581 -0.24809261 20.917042
91528000000 -11.209166 -102.11148 -57.705105 5.629149 -57.792583 3.9930897 -0.2546376 20.903957
91576000000 -11.203949 -102.11057 -57.696835 5.068902 -57.731236 4.0106611 -0.26262712 20.864475
91624000000 -11.197134 -102.11717 -57.573349 5.4023294 -57.652931 3.9271164 -0.27064627 20.8969
91672000000 -11.195381 -102.15509 -57.624569 5.2040262 -57.653324 3.4917109 -0.27607381 20.918764
91720000000 -11.198652 -102.22975 -57.515724 4.7251563 -57.5849 3.306721 -0.28278461 20.975119
91768000000 -11.197937 -102.25143 -57.609138 4.7361722 -57.557316 3.3386807 -0.28164732 21.031298
91816000000 -11.197624 -102.2777 -57.569008 3.9212248 -57.44886 3.2426276 -0.28157026 21.067972
91864000000 -11.200785 -102.36586 -57.456894 3.2456436 -57.374538 2.4247854 -0.27557206 21.146542
91912000000 -11.200378 -102.39082 -57.207268 3.796988 -57.290775 2.2246628 -0.26476878 21.180195
91960000000 -11.195172 -102.36591 -57.254387 2.1180668 -57.309475 1.5039366 -0.25767672 21.168823
92008000000 -11.19266 -102.41512 -57.2668 1.3363932 -57.18679 0.60301095 -0.25042865 21.164127
92056000000 -11.186901 -102.4129 -57.222572 0.82080668 -57.182766 0.4231289 -0.24246177 21.181458
92104000000 -11.181194 -102.37062 -57.266296 0.64609063 -57.180645 -0.31382421 -0.2436811 21.112841
92152000000 -11.173093 -102.36904 -57.136292 0.92430484 -57.243668 -0.85183746 -0.25373104 21.088486
92200000000 -11.169875 -102.3724 -57.102581 0.62185311 -57.274048 -0.72004455 -0.2597332 21.092289
92248000000 -11.165212 -102.31284 -57.141937 -0.46491098 -57.259502 -1.6520182 -0.26105857 21.064556
92296000000 -11.161601 -102.33242 -57.272697 -1.2212888 -57.264355 -1.9471877 -0.2723316 21.062946
92344000000 -11.160954 -102.34283 -57.288883 -1.2002722 -57.364857 -2.5975356 -0.28493345 21.036932
92392000000 -11.161692 -102.31886 -57.310005 -1.4357471 -57.365822 -2.4838507 -0.28852028 21.08061
92440000000 -11.16577 -102.32393 -57.378651 -1.0064427 -57.479111 -2.6596794 -0.29051089 21.145645
92488000000 -11.171773 -102.37537 -57.322815 -0.68509477 -57.426441 -2.4157813 -0.29293078 21.20146
92536000000 -11.175378 -102.37569 -57.358223 -1.0521178 -57.456486 -2.4179823 -0.28465539 21.259056
92584000000 -11.178591 -102.39987 -57.403362 -2.4584093 -57.369339 -2.4862101 -0.27835265 21.306097
92632000000 -11.17344 -102.41666 -57.470341 -1.9409112 -57.416595 -3.074559 -0.2617563 21.349939
92680000000 -11.174443 -102.41515 -57.475266 -2.248785 -57.431934 -2.941309 -0.25223893 21.335812
92728000000 -11.169873 -102.4287 -57.461224 -1.8964484 -57.323914 -2.9391994 -0.24774674 21.305027
92776000000 -11.164841 -102.40088 -57.451454 -2.4975059 -57.435955 -3.4548903 -0.24181803 21.313351
92824000000 -11.160232 -102.41989 -57.383728 -0.96033227 -57.434067 -2.9387231 -0.24832147 21.273603
92872000000 -11.155678 -102.41302 -57.317684 -1.41285 -57.398933 -2.8035424 -0.25484428 21.22846
92920000000 -11.147347 -102.4267 -57.219597 -2.1522236 -57.41983 -2.4810796 -0.26098737 21.219028
92968000000 -11.144116 -102.43301 -57.313316 -0.64922071 -57.353394 -2.7702971 -0.26815918 21.212137
93016000000 -11.14062 -102.44144 -57.299942 -1.9127185 -57.308998 -2.8647656 -0.27874953 21.173374
93064000000 -11.138703 -102.45841 -57.398125 -1.9407851 -57.279724 -2.68858 -0.28677255 21.204254
93112000000 -11.144862 -102.4858 -57.152008 -2.2804449 -57.307968 -3.2981977 -0.29240745 21.277689
93160000000 -11.14464 -102.52242 -57.113693 -1.832585 -57.240616 -3.8218107 -0.29892504 21.322458
93208000000 -11.146235 -102.5288 -57.273788 -3.5882189 -57.176376 -3.6075323 -0.29780152 21.412443
93256000000 -11.145632 -102.54328 -57.138866 -3.224745 -57.172829 -3.2383604 -0.28710717 21.444912
93304000000 -11.142926 -102.5619 -57.34848 -3.6291046 -57.111496 -3.7787125 -0.27526894 21.513706
93352000000 -11.134179 -102.56767 -57.139812 -3.3736694 -57.087749 -4.5493441 -0.25982389 21.54594
93400000000 -11.134718 -102.58847 -57.195938 -3.1046338 -57.044552 -4.8013859 -0.24014479 21.541292
93448000000 -11.127665 -102.51483 -57.066372 -4.1520262 -57.028973 -5.2027435 -0.22143312 21.483709
93496000000 -11.124692 -102.53651 -57.216049 -3.8827705 -57.043011 -4.8771076 -0.22947474 21.445099
93544000000 -11.119288 -102.53739 -56.880524 -3.9250541 -57.064091 -5.0142179 -0.2403672 21.393036
93592000000 -11.118852 -102.51105 -57.016842 -4.8973484 -57.028297 -5.6355414 -0.25465378 21.321411
93640000000 -11.116266 -102.51969 -57.11639 -4.2559495 -57.047787 -5.9500918 -0.26695305 21.329445
93688000000 -11.114 -102.48452 -57.054901 -5.2276487 -57.114685 -5.8193817 -0.27483597 21.324379
93736000000 -11.112066 -102.45955 -57.065678 -5.2242451 -57.141609 -5.537354 -0.28954011 21.318632
93784000000 -11.115602 -102.51259 -57.11565 -4.3622441 -57.114994 -5.7465191 -0.29196197 21.374556
93832000000 -11.113613 -102.49708 -56.910278 -4.4088159 -57.108658 -5.7172866 -0.2964181 21.448206
93880000000 -11.118323 -102.60616 -56.902958 -4.8218908 -57.027245 -5.7271037 -0.29735494 21.437775
93928000000 -11.120215 -102.59537 -57.027672 -4.2851963 -57.01255 -5.4278393 -0.2974675 21.537907
93976000000 -11.119387 -102.63153 -56.822582 -4.9841752 -56.89962 -5.4912004 -0.2791484 21.679483
94024000000 -11.112919 -102.67249 -56.847782 -4.9652176 -56.851696 -5.4495931 -0.27140564 21.627691
94072000000 -11.105628 -102.71384 -56.773727 -3.9129353 -56.765121 -5.7780457 -0.26377016 21.617573
94120000000 -11.099486 -102.7061 -56.683979 -5.3400264 -56.690613 -6.3096533 -0.24395984 21.676992
94168000000 -11.093787 -102.73601 -56.673904 -5.2035637 -56.694481 -6.9614115 -0.24380925 21.601879
94216000000 -11.086968 -102.73656 -56.820633 -6.723052 -56.689056 -7.2657428 -0.2464312 21.521856
94264000000 -11.076462 -102.70853 -56.649155 -7.3131051 -56.548347 -7.8982687 -0.25009385 21.507521
94312000000 -11.07488 -102.75053 -56.573021 -5.0200486 -56.688107 -8.4094439 -0.26209641 21.491465
94360000000 -11.06702 -102.73714 -56.570457 -6.7917962 -56.621193 -8.2767115 -0.26921305 21.454695
94408000000 -11.062009 -102.74573 -56.684326 -7.1344328 -56.632706 -8.5289364 -0.27747121 21.519077
94456000000 -11.062718 -102.76997 -56.534412 -7.8734956 -56.610428 -8.687912 -0.28393295 21.509281
94504000000 -11.062378 -102.80756 -56.548328 -8.7873201 -56.53904 -9.5591049 -0.290667 21.530207
94552000000 -11.06612 -102.80126 -56.610119 -8.225193 -56.486515 -9.8452692 -0.2929081 21.590147
94600000000 -11.067357 -102.85709 -56.466812 -9.4784584 -56.593929 -10.035059 -0.29683328 21.623598
94648000000 -11.071619 -102.87186 -56.642109 -9.2905016 -56.520378 -10.615685 -0.28865445 21.728945
94696000000 -11.071467 -102.88129 -56.678658 -9.6319361 -56.621815 -11.015182 -0.28534725 21.721807
94744000000 -11.072886 -102.92546 -56.643845 -9.8792229 -56.624493 -11.208973 -0.27359021 21.731867
94792000000 -11.071317 -102.96329 -56.562244 -9.8120699 -56.610668 -11.024938 -0.26011109 21.765993
94840000000 -11.077178 -102.98345 -56.602451 -9.6659899 -56.597656 -11.035672 -0.25813326 21.654047
94888000000 -11.074064 -103.01306 -56.589352 -10.285609 -56.581696 -11.199349 -0.26313865 21.595968
94936000000 -11.07281 -102.94165 -56.711006 -10.28717 -56.526539 -10.984764 -0.25923967 21.543493
94984000000 -11.074891 -103.03841 -56.676189 -10.270744 -56.624752 -11.346851 -0.26766303 21.440977
95032000000 -11.074058 -103.04713 -56.465904 -9.1865845 -56.62566 -11.752246 -0.27799606 21.459955
95080000000 -11.071488 -103.02895 -56.569935 -10.540719 -56.529312 -11.756683 -0.28822595 21.521954
95128000000 -11.074577 -103.04884 -56.312378 -11.105308 -56.554836 -11.81033 -0.29742369 21.614723
95176000000 -11.073992 -103.05544 -56.454712 -11.657446 -56.522717 -12.740578 -0.30344495 21.73982
95224000000 -11.071708 -103.0778 -56.429443 -11.016209 -56.568531 -12.338775 -0.30633843 21.831532
95272000000 -11.070293 -103.12063 -56.411289 -11.980258 -56.512451 -13.008348 -0.30626842 21.880182
95320000000 -11.071396 -103.14793 -56.5755 -11.564498 -56.569149 -13.106448 -0.30041441 21.946041
95368000000 -11.070286 -103.19282 -56.606731 -11.693393 -56.591331 -13.015524 -0.29717031 21.989693
95416000000 -11.062229 -103.16505 -56.669331 -12.168863 -56.53418 -12.947548 -0.2818796 22.020832
95464000000 -11.058307 -103.20261 -56.535503 -12.213308 -56.485058 -13.234612 -0.27090609 22.048687
95512000000 -11.053901 -103.22174 -56.357567 -12.344378 -56.383038 -13.321727 -0.26293981 22.024969
95560000000 -11.047226 -103.18964 -56.236385 -11.320063 -56.289532 -14.056276 -0.25453904 22.035463
95608000000 -11.041993 -103.20821 -56.379292 -12.659954 -56.387508 -14.227853 -0.25834617 21.992117
95656000000 -11.038733 -103.20191 -56.372433 -13.110936 -56.349667 -14.53214 -0.26263732 21.913395
95704000000 -11.032606 -103.17265 -56.401779 -12.63728 -56.396675 -14.432118 -0.26874432 21.96653
95752000000 -11.025518 -103.10504 -56.415398 -13.019628 -56.410778 -14.984434 -0.27462748 21.980186
95800000000 -11.021937 -103.10865 -56.262421 -12.907151 -56.397541 -14.681475 -0.28475848 21.893152
95848000000 -11.020823 -103.14397 -56.205276 -14.527879 -56.322689 -14.882523 -0.28882736 21.977579
95896000000 -11.014709 -103.11271 -56.403214 -14.195254 -56.374336 -15.426283 -0.2889466 22.018679
95944000000 -11.015678 -103.13719 -56.216434 -14.610502 -56.282539 -15.502525 -0.2974112 22.005703
95992000000 -11.014942 -103.13834 -56.335136 -14.843556 -56.306484 -15.393186 -0.29396385 22.061892
96040000000 -11.014299 -103.15717 -56.386017 -14.836164 -56.313004 -15.630633 -0.28989014 22.098429
96088000000 -11.015431 -103.18913 -56.193699 -14.895262 -56.307899 -16.045765 -0.28788185 22.113379
96136000000 -11.007738 -103.17525 -56.214176 -15.568288 -56.294712 -16.347855 -0.27958873 22.172674
96184000000 -11.00364 -103.20815 -56.230591 -15.557638 -56.255672 -16.735243 -0.27493498 22.183569
96232000000 -11.00011 -103.24777 -56.17749 -16.068483 -56.184258 -17.100681 -0.27492836 22.144125
96280000000 -10.994514 -103.26881 -56.260242 -17.197685 -56.234512 -17.098677 -0.27006885 22.165325
96328000000 -10.990987 -103.2957 -56.281815 -16.909027 -56.214672 -17.604755 -0.26680496 22.182398
96376000000 -10.986256 -103.33591 -56.32095 -17.093376 -56.24416 -18.003601 -0.27109951 22.141024
96424000000 -10.979908 -103.38256 -56.305248 -17.013077 -56.291607 -18.521015 -0.27445182 22.11022
96472000000 -10.972616 -103.39528 -56.442848 -16.821507 -56.363754 -17.936975 -0.282518 22.107269
96520000000 -10.969049 -103.43255 -56.518459 -17.010592 -56.402428 -18.301834 -0.29402313 22.170462
96568000000 -10.962783 -103.44408 -56.394966 -17.388569 -56.41103 -18.012262 -0.28779915 22.183914
96616000000 -10.957482 -103.53197 -56.386845 -17.001545 -56.423443 -18.813368 -0.28695837 22.200712
96664000000 -10.962831 -103.56378 -56.495449 -17.489582 -56.45911 -18.499664 -0.29394889 22.230391
96712000000 -10.960606 -103.58018 -56.500114 -17.462593 -56.44529 -18.582712 -0.29401648 22.269388
96760000000 -10.959306 -103.63349 -56.45269 -18.146866 -56.414402 -18.571869 -0.29517889 22.327692
96808000000 -10.95754 -103.61595 -56.504246 -17.328627 -56.492828 -18.951849 -0.28823453 22.323029
96856000000 -10.953324 -103.59138 -56.368622 -17.42038 -56.441303 -18.516773 -0.28337643 22.343493
96904000000 -10.949508 -103.60421 -56.446682 -17.656939 -56.433292 -18.603395 -0.28153822 22.351841
96952000000 -10.94564 -103.59026 -56.383152 -18.503881 -56.400684 -18.57181 -0.27409282 22.339411
97000000000 -10.942471 -103.58086 -56.302612 -18.006714 -56.381813 -18.561031 -0.27101383 22.362202
97048000000 -10.938701 -103.59438 -56.410904 -17.127213 -56.344261 -18.139194 -0.27115846 22.328728
97096000000 -10.93527 -103.57799 -56.506149 -17.678551 -56.335617 -18.309673 -0.27204055 22.352188
97144000000 -10.931788 -103.60234 -56.282249 -17.962175 -56.339863 -18.866512 -0.27509436 22.354063
97192000000 -10.925956 -103.5589 -56.277939 -17.593075 -56.349438 -18.702047 -0.27384028 22.350479
97240000000 -10.922981 -103.58292 -56.235165 -17.645252 -56.334091 -18.506071 -0.27449486 22.374495
97288000000 -10.92777 -103.63547 -56.346741 -17.522629 -56.287937 -18.243877 -0.27628154 22.386938
97336000000 -10.920685 -103.61757 -56.264225 -18.002886 -56.134773 -18.363337 -0.27234593 22.367907
97384000000 -10.921128 -103.67215 -56.057934 -17.998205 -56.139191 -18.925047 -0.27425274 22.401016
97432000000 -10.920238 -103.68449 -56.129562 -17.544308 -56.092556 -18.94696 -0.27329743 22.396095
97480000000 -10.916366 -103.70113 -55.962177 -18.410673 -56.074257 -19.456787 -0.27463025 22.402428
97528000000 -10.916154 -103.75249 -56.083008 -18.194603 -56.041729 -19.317677 -0.27809569 22.429554
97576000000 -10.910749 -103.75134 -56.033806 -18.295668 -56.071781 -19.389572 -0.27088404 22.244772
97624000000 -10.910987 -103.75661 -56.029808 -19.388851 -56.04604 -19.448822 -0.2684001 22.371229
97672000000 -10.901516 -103.79825 -56.008629 -19.578159 -56.039875 -19.731647 -0.2680642 22.384491
97720000000 -10.893409 -103.81396 -56.056313 -19.766653 -56.055637 -20.33135 -0.27175671 22.419052
97768000000 -10.886572 -103.88415 -56.157516 -18.953754 -55.934925 -20.574572 -0.26006079 22.466753
97816000000 -10.896487 -103.90655 -55.961609 -19.502888 -55.966377 -20.413618 -0.25153339 22.351469
97864000000 -10.884615 -103.87028 -55.84576 -20.016155 -55.96954 -20.37871 -0.2651006 22.363728
97912000000 -10.876871 -103.87717 -55.896626 -20.368284 -55.94397 -19.98703 -0.27320233 22.351686
97960000000 -10.86859 -103.88461 -55.918297 -20.022997 -55.905048 -20.79891 -0.27865872 22.369656
98008000000 -10.861016 -103.86233 -55.759426 -20.715717 -55.893635 -21.311008 -0.27562696 22.442701
98056000000 -10.857213 -103.89975 -56.005764 -19.723822 -55.88332 -21.209337 -0.27430734 22.462402
98104000000 -10.857411 -103.94869 -56.032436 -20.658854 -55.912094 -21.377333 -0.27688736 22.492651
98152000000 -10.854499 -103.9306 -55.860741 -20.749491 -55.83334 -21.612593 -0.27322826 22.549643
98200000000 -10.85352 -104.01238 -55.704636 -21.547695 -55.839851 -21.656963 -0.27366492 22.646074
98248000000 -10.84945 -103.90636 -55.785946 -20.488865 -55.811138 -21.943138 -0.26983389 22.579189
98296000000 -10.848491 -103.92368 -55.834034 -21.895529 -55.740833 -22.162067 -0.27323928 22.61854
98344000000 -10.84808 -103.93832 -55.736626 -21.432657 -55.73967 -22.215107 -0.27669507 22.639944
98392000000 -10.843063 -103.98448 -55.537075 -21.754639 -55.682808 -22.43659 -0.26932985 22.741827
98440000000 -10.845653 -104.02461 -55.663418 -21.590916 -55.633507 -22.938402 -0.27256972 22.714365
98488000000 -10.844478 -104.00723 -55.715069 -22.518091 -55.620411 -23.29071 -0.27495813 22.705757
98536000000 -10.840801 -104.00484 -55.656567 -22.313435 -55.695156 -23.431034 -0.27573258 22.720619
98584000000 -10.83101 -104.09265 -55.598934 -22.938124 -55.626598 -23.673639 -0.27660787 22.778982
98632000000 -10.831473 -104.00735 -55.48735 -22.361013 -55.599724 -23.721319 -0.28121066 22.734262
98680000000 -10.825708 -104.06558 -55.48098 -23.957527 -55.554466 -24.338745 -0.28302082 22.770164
98728000000 -10.824818 -104.08996 -55.516724 -24.089344 -55.576164 -24.660606 -0.28011993 22.803305
98776000000 -10.820141 -104.13128 -55.69894 -24.031326 -55.58942 -24.859945 -0.28200835 22.816198
98824000000 -10.817374 -104.24671 -55.487316 -25.273073 -55.57135 -25.364948 -0.27792045 22.95306
98872000000 -10.814065 -104.21709 -55.465397 -25.004059 -55.575436 -25.604465 -0.28273073 22.878397
98920000000 -10.807532 -104.20301 -55.643005 -25.092779 -55.620941 -25.965786 -0.28047556 22.882034
98968000000 -10.803927 -104.2639 -55.653324 -25.106766 -55.634815 -26.482168 -0.28260753 22.885254
99016000000 -10.799204 -104.27632 -55.621227 -25.602499 -55.661926 -26.558363 -0.28227243 22.892515
99064000000 -10.807417 -104.35378 -55.721848 -27.045431 -55.675156 -26.777061 -0.27619684 22.957106
99112000000 -10.80502 -104.44386 -55.689075 -25.762341 -55.732956 -26.816183 -0.27819973 22.979939
99160000000 -10.7844 -104.32634 -55.818665 -25.414299 -55.750458 -26.307848 -0.28305453 22.912153
99208000000 -10.776258 -104.30035 -55.675774 -25.436794 -55.765247 -26.360668 -0.28201774 22.918163
99256000000 -10.77316 -104.33609 -55.7896 -23.73358 -55.802795 -26.609241 -0.27742651 22.962025
99304000000 -10.772793 -104.36597 -55.698692 -25.630257 -55.829948 -26.690016 -0.28214976 22.918732
99352000000 -10.768738 -104.33307 -55.703011 -24.953983 -55.855335 -25.96171 -0.288533 22.919075
99400000000 -10.767426 -104.35181 -55.848351 -25.009439 -55.810547 -25.741585 -0.28997982 22.972073
99448000000 -10.770774 -104.4241 -55.721588 -24.825237 -55.776802 -25.337217 -0.28942168 23.00493
99496000000 -10.773887 -104.383 -55.738049 -24.56443 -55.65971 -25.145071 -0.29003322 22.978819
99544000000 -10.778715 -104.39012 -55.581402 -24.267086 -55.567039 -25.624086 -0.28496274 23.055803
99592000000 -10.781992 -104.40553 -55.666874 -23.979404 -55.547722 -25.408861 -0.28359222 23.081591
99640000000 -10.776739 -104.37802 -55.514816 -24.655058 -55.530682 -25.54797 -0.28440526 23.039427
99688000000 -10.77524 -104.35831 -55.322609 -24.450878 -55.420788 -25.433937 -0.27980903 23.053497
99736000000 -10.779635 -104.39906 -55.396038 -25.137407 -55.416645 -25.361713 -0.27624592 23.070637
99784000000 -10.779459 -104.39842 -55.209324 -24.787117 -55.279186 -25.531469 -0.27695772 23.063129
99832000000 -10.776565 -104.40857 -55.279255 -25.429909 -55.205738 -25.907087 -0.27832061 23.094805
99880000000 -10.774569 -104.43723 -55.122234 -24.29414 -55.135311 -26.685181 -0.27706116 23.09474
99928000000 -10.768271 -104.42091 -55.144299 -26.16765 -55.107754 -26.829002 -0.27787188 23.089117
99976000000 -10.762102 -104.39887 -55.193134 -26.817886 -55.169052 -27.378685 -0.28001279 23.093798
100024000000 -10.758121 -104.42796 -55.062653 -27.839802 -55.028603 -28.066338 -0.27960446 23.092833
100072000000 -10.755864 -104.43387 -54.916828 -28.186539 -55.054733 -28.392225 -0.27866066 23.118542
100120000000 -10.744111 -104.47269 -55.093082 -28.253626 -55.050343 -28.847458 -0.28075197 23.070625
100168000000 -10.744696 -104.50938 -54.803963 -28.347631 -54.898071 -28.922695 -0.28174952 23.118696
100216000000 -10.742396 -104.53771 -55.032551 -28.359772 -54.967468 -29.887262 -0.2839697 23.149702
100264000000 -10.74006 -104.55536 -55.048454 -28.872644 -55.035873 -30.412622 -0.28601438 23.130066
100312000000 -10.742419 -104.62679 -54.995972 -30.244242 -55.08453 -30.40777 -0.28566462 23.151533
100360000000 -10.739719 -104.64513 -55.079876 -29.779892 -55.019146 -30.691868 -0.28371519 23.18845
100408000000 -10.731446 -104.63047 -54.980904 -29.896309 -55.022697 -31.029598 -0.28110185 23.170221
100456000000 -10.722743 -104.62721 -54.902901 -30.841877 -55.002129 -30.967894 -0.26791579 23.152933
100504000000 -10.724338 -104.59203 -55.102978 -31.20048 -55.051971 -31.644312 -0.27747726 23.202034
100552000000 -10.718105 -104.6579 -54.966198 -31.006351 -55.055653 -31.520189 -0.27922267 23.16678
100600000000 -10.712371 -104.60838 -55.106632 -32.572792 -55.057083 -31.981182 -0.28613022 23.20426
100648000000 -10.717032 -104.60824 -55.066544 -32.353382 -55.039619 -32.194561 -0.2862646 23.154556
100696000000 -10.699142 -104.63184 -55.120174 -31.783705 -55.07309 -32.382122 -0.28149569 23.136555
100744000000 -10.708216 -104.6351 -55.10252 -32.996632 -55.109715 -32.715168 -0.28329575 23.173325
100792000000 -10.709189 -104.65327 -55.102024 -32.781162 -55.113529 -33.029034 -0.28872555 23.209568
100840000000 -10.709365 -104.65134 -55.011463 -32.637123 -55.136772 -32.762268 -0.29336917 23.194736
100888000000 -10.707139 -104.65308 -55.235931 -32.570023 -55.105003 -32.887325 -0.29648185 23.214552
100936000000 -10.709807 -104.67149 -55.113583 -32.689453 -55.05278 -33.295406 -0.29322186 23.247604
100984000000 -10.710483 -104.69781 -55.243095 -31.431896 -55.131386 -33.384262 -0.29171196 23.286016
101032000000 -10.711904 -104.71143 -55.104351 -32.339306 -55.056126 -33.35218 -0.29203033 23.297607
101080000000 -10.712266 -104.74637 -55.461628 -33.481094 -55.114807 -33.862762 -0.28948006 23.324518
101128000000 -10.715096 -104.76087 -55.207382 -31.520353 -55.127453 -34.313965 -0.28393295 23.370279
101176000000 -10.715321 -104.79502 -55.289154 -33.924908 -55.247108 -34.110615 -0.28205723 23.352427
101224000000 -10.712013 -104.75407 -55.098133 -32.788208 -55.171417 -33.610012 -0.28362843 23.373201
101272000000 -10.70948 -104.79797 -55.188015 -31.706295 -55.18692 -33.148289 -0.28320512 23.379625
101320000000 -10.708109 -104.81413 -55.108208 -32.211708 -55.148594 -33.397179 -0.2851803 23.39106
101368000000 -10.702693 -104.81304 -55.111996 -32.664402 -55.145622 -33.267883 -0.28945017 23.342985
101416000000 -10.697715 -104.83292 -54.98217 -33.0494 -55.116817 -33.418503 -0.29118791 23.386065
101464000000 -10.700273 -104.83675 -55.137333 -32.410202 -55.082981 -33.472603 -0.29918486 23.361668
101512000000 -10.694906 -104.84078 -55.140045 -33.193619 -55.06625 -33.792316 -0.3045502 23.364136
101560000000 -10.689629 -104.90323 -55.034763 -32.734093 -55.070576 -34.107697 -0.31245357 23.395006
101608000000 -10.696477 -104.96159 -55.108902 -33.11832 -54.999508 -34.048706 -0.30622789 23.384533
101656000000 -10.705592 -105.00674 -55.073143 -32.728352 -55.049244 -33.678558 -0.30742273 23.475906
101704000000 -10.687648 -104.8539 -55.004494 -32.520931 -54.970203 -33.719921 -0.31170398 23.447735
101752000000 -10.691795 -104.90508 -54.815418 -32.822758 -54.900314 -33.989349 -0.30841005 23.495218
101800000000 -10.693521 -104.83099 -54.771088 -32.461071 -54.832893 -33.895885 -0.30255231 23.520311
101848000000 -10.693275 -104.83125 -54.82164 -33.580574 -54.796085 -34.152882 -0.30179331 23.532719
101896000000 -10.693143 -104.80409 -54.763386 -34.421833 -54.682117 -34.311047 -0.30020636 23.51391
101944000000 -10.686678 -104.79488 -54.734264 -34.21035 -54.651035 -34.95224 -0.29422754 23.505163
101992000000 -10.685289 -104.68645 -54.749214 -33.607479 -54.60067 -35.396328 -0.30616844 23.48901
102040000000 -10.666265 -104.73944 -54.772678 -34.095787 -54.674519 -35.431435 -0.2934711 23.587524
102088000000 -10.674833 -104.8544 -54.642422 -34.574512 -54.716576 -35.243942 -0.29022861 23.541471
102136000000 -10.686932 -104.86972 -54.654919 -35.757175 -54.637589 -35.8517 -0.29928944 23.502127
102184000000 -10.686809 -104.82741 -54.688564 -35.991245 -54.648911 -36.264648 -0.30155358 23.540483
102232000000 -10.684183 -104.83483 -54.447884 -35.886078 -54.656372 -36.406841 -0.30776617 23.566408
102280000000 -10.679487 -104.79302 -54.655491 -36.101635 -54.625076 -36.258419 -0.30952099 23.509611
102328000000 -10.675028 -104.44549 -54.576324 -35.898701 -54.612667 -36.441784 -0.30631509 23.533283
102376000000 -10.689531 -104.84598 -54.41143 -36.303631 -54.533791 -36.559662 -0.31025159 23.62455
102424000000 -10.675447 -104.88179 -54.535656 -36.187546 -54.496243 -36.488087 -0.30897534 23.649374
102472000000 -10.671755 -104.98475 -54.388367 -36.889305 -54.408463 -37.541718 -0.30799127 23.633461
102520000000 -10.679774 -104.96523 -54.440304 -38.005627 -54.417889 -37.615696 -0.30882472 23.685762
102568000000 -10.669733 -104.9951 -54.510628 -38.355747 -54.453606 -38.232063 -0.30795819 23.778687
102616000000 -10.658904 -105.08741 -54.350147 -38.040859 -54.385033 -38.347946 -0.30314821 23.794416
102664000000 -10.663867 -105.1058 -54.363087 -38.084206 -54.391136 -39.216816 -0.29035175 23.695498
102712000000 -10.663869 -105.06524 -54.447807 -39.364597 -54.461586 -39.349239 -0.28759003 23.700869
102760000000 -10.658978 -105.01678 -54.437294 -39.692966 -54.371311 -39.534046 -0.29529858 23.719116
102808000000 -10.648759 -105.00618 -54.374058 -40.190613 -54.361179 -40.009418 -0.29757589 23.712255
102856000000 -10.65047 -105.02856 -54.276752 -39.300419 -54.382111 -40.420025 -0.30268523 23.697662
102904000000 -10.644173 -104.98419 -54.371078 -39.617256 -54.354271 -40.344452 -0.29605117 23.699457
102952000000 -10.635273 -104.99599 -54.210636 -40.420433 -54.385937 -41.214668 -0.30375308 23.730474
103000000000 -10.635721 -105.01414 -54.517254 -41.020084 -54.363102 -41.576584 -0.31052712 23.629808
103048000000 -10.635166 -104.94435 -54.303146 -40.384022 -54.409653 -41.617992 -0.31081241 23.733564
103096000000 -10.631024 -104.96468 -54.449741 -41.662289 -54.508614 -42.083652 -0.31292343 23.797482
103144000000 -10.627905 -104.93314 -54.444172 -42.270435 -54.468224 -42.18446 -0.31820911 23.734154
103192000000 -10.624849 -104.79813 -54.340237 -43.373909 -54.522362 -42.53101 -0.31702158 23.716452
103240000000 -10.626098 -104.96938 -54.454075 -41.804459 -54.495007 -42.912632 -0.30872297 23.826464
103288000000 -10.627398 -105.02462 -54.567879 -43.080719 -54.580399 -43.003563 -0.30454853 23.848541
103336000000 -10.631264 -105.07614 -54.591194 -42.640392 -54.573788 -42.809307 -0.30120257 23.864538
103384000000 -10.630881 -105.10992 -54.39463 -42.623016 -54.499359 -42.805679 -0.29352179 23.935259
103432000000 -10.62768 -105.09612 -54.638855 -43.113571 -54.537464 -43.216351 -0.2871044 23.921751
103480000000 -10.632964 -105.17045 -54.683083 -43.26408 -54.555351 -43.59 -0.28467557 23.8971
103528000000 -10.625569 -105.17459 -54.760746 -43.362835 -54.512058 -43.610519 -0.28088838 23.871119
103576000000 -10.622268 -105.12347 -54.598797 -42.944946 -54.660694 -43.583385 -0.2752946 23.841026
103624000000 -10.622805 -105.16606 -54.712929 -42.180649 -54.70348 -43.709755 -0.28423834 23.812704
103672000000 -10.622352 -105.303 -54.616398 -41.242317 -54.681854 -43.88435 -0.29443806 23.831509
103720000000 -10.618571 -105.42725 -54.733776 -44.053154 -54.710022 -43.369022 -0.30249485 23.934031
103768000000 -10.617439 -105.29821 -54.8055 -43.015827 -54.663555 -43.559319 -0.30759445 23.9
103816000000 -10.614968 -105.47957 -54.471977 -42.174828 -54.721146 -43.28791 -0.3148618 23.906239
103864000000 -10.607239 -106.1446 -54.638294 -43.869518 -54.656643 -43.694145 -0.32650131 24.031082
103912000000 -10.614962 -105.32922 -54.548687 -43.594227 -54.639324 -43.265942 -0.31796902 23.89748
103960000000 -10.619761 -105.39256 -54.577808 -43.267311 -54.609619 -44.07481 -0.3261455 23.939339
104008000000 -10.625417 -105.3893 -54.744057 -43.034058 -54.637917 -44.152771 -0.31204274 24.083588
104056000000 -10.619861 -105.44061 -54.469994 -43.366718 -54.558727 -44.288677 -0.30728909 24.114653
104104000000 -10.611869 -105.62962 -54.638248 -43.524006 -54.572914 -44.259106 -0.31251645 24.150537
104152000000 -10.599075 -105.64234 -54.657883 -42.912075 -54.542576 -44.343666 -0.28616893 24.202177
104200000000 -10.604166 -105.64368 -54.623974 -43.495518 -54.545208 -44.934185 -0.28087127 24.242493
104248000000 -10.591759 -105.61908 -54.592728 -44.212997 -54.608112 -44.89193 -0.28436574 24.126379
104296000000 -10.583636 -105.65714 -54.509144 -43.742321 -54.58757 -44.776348 -0.27948353 24.136934
104344000000 -10.585619 -105.71604 -54.711781 -44.1292 -54.621319 -44.720585 -0.28160644 24.127357
104392000000 -10.577951 -105.73181 -54.587833 -43.897045 -54.657261 -44.876915 -0.29433751 24.042515
104440000000 -10.580267 -105.5684 -54.602421 -43.075729 -54.670177 -44.48019 -0.30358154 24.045961
104488000000 -10.581926 -105.55829 -54.653404 -43.711777 -54.61256 -44.074909 -0.3093428 24.053766
104536000000 -10.580137 -105.51538 -54.664852 -43.667198 -54.579239 -44.161785 -0.31635499 24.002808
104584000000 -10.572841 -105.47907 -54.582314 -43.664093 -54.526482 -43.870201 -0.32156679 24.069502
104632000000 -10.575469 -105.48483 -54.43301 -43.270576 -54.569176 -43.980373 -0.31934348 24.08659
104680000000 -10.573785 -105.53938 -54.469212 -43.464016 -54.489017 -43.98933 -0.3173385 24.15078
104728000000 -10.57382 -105.55782 -54.514011 -44.322361 -54.481331 -44.38969 -0.31299993 24.274591
104776000000 -10.577983 -105.57713 -54.464958 -44.823238 -54.407089 -44.330486 -0.30585679 24.268736
104824000000 -10.577826 -105.56004 -54.365757 -43.606522 -54.352039 -44.484344 -0.30376336 24.292492
104872000000 -10.576566 -105.55181 -54.325077 -44.315624 -54.355389 -44.899853 -0.29344174 24.348341
104920000000 -10.5728 -105.5748 -54.276028 -43.488029 -54.297081 -45.185974 -0.2837083 24.299517
104968000000 -10.576888 -105.44263 -54.211815 -43.319424 -54.333405 -44.990253 -0.28085995 24.202269
105016000000 -10.574683 -105.44302 -54.384163 -44.228626 -54.279881 -45.131165 -0.28165671 24.226727
105064000000 -10.568118 -105.70395 -54.523727 -44.805176 -54.285851 -45.207352 -0.28290036 24.226587
105112000000 -10.549343 -105.78814 -54.247505 -44.247131 -54.286839 -44.958565 -0.29689869 24.211109
105160000000 -10.544658 -105.81728 -54.232502 -44.78767 -54.267109 -45.481781 -0.3042706 24.223564
105208000000 -10.542767 -105.88711 -54.070583 -45.121452 -54.176281 -45.858757 -0.30450603 24.23934
105256000000 -10.537181 -105.89375 -54.299274 -45.053925 -54.157906 -45.622593 -0.3135525 24.277397
105304000000 -10.533852 -105.90458 -54.245419 -46.127586 -54.216587 -46.396736 -0.32262841 24.270262
105352000000 -10.535056 -105.98006 -54.239494 -45.132938 -54.23785 -46.109467 -0.32608244 24.279715
105400000000 -10.534367 -105.99024 -54.287411 -46.002701 -54.198021 -46.377769 -0.32354751 24.386806
105448000000 -10.532419 -105.97131 -54.197483 -46.02784 -54.156002 -46.15321 -0.32613909 24.380096
105496000000 -10.53095 -106.03304 -54.145828 -46.961155 -54.167862 -46.471325 -0.3207083 24.402462
105544000000 -10.532544 -106.05756 -54.137772 -46.644337 -54.180775 -46.380745 -0.31719312 24.482626
105592000000 -10.521338 -106.07903 -54.278381 -45.620796 -54.102364 -46.367466 -0.3010633 24.493589
105640000000 -10.523659 -106.14946 -54.14452 -46.311993 -54.059742 -46.655941 -0.30048957 24.5252
105688000000 -10.523091 -106.16898 -54.172062 -46.340736 -53.988228 -46.977806 -0.30141982 24.528341
105736000000 -10.523863 -106.13577 -54.101887 -46.560486 -54.025112 -46.887493 -0.29125631 24.518122
105784000000 -10.520413 -106.17966 -54.094704 -46.306778 -54.05423 -46.598812 -0.29849774 24.513325
105832000000 -10.522255 -106.13846 -54.029396 -46.09444 -54.001499 -46.720901 -0.305626 24.426014
105880000000 -10.513407 -106.14243 -54.05579 -46.407131 -54.001888 -46.35051 -0.31253815 24.447432
105928000000 -10.511147 -106.19353 -53.898617 -46.756649 -53.967758 -46.23764 -0.3212401 24.441944
105976000000 -10.5052 -106.26719 -53.965248 -46.680019 -53.861122 -46.643398 -0.32813808 24.411444
106024000000 -10.507554 -106.25712 -53.785496 -46.877651 -53.843407 -46.929928 -0.33306694 24.540316
106072000000 -10.509154 -106.29759 -53.780876 -46.749825 -53.803501 -47.076965 -0.33291155 24.583485
106120000000 -10.515776 -106.3603 -53.768818 -46.899357 -53.736351 -47.399792 -0.33219585 24.619164
106168000000 -10.519228 -106.34241 -53.675335 -47.154163 -53.66988 -48.092033 -0.32725766 24.639713
106216000000 -10.514182 -106.33205 -53.606884 -46.934158 -53.647568 -48.246964 -0.32088724 24.717297
106264000000 -10.513348 -106.36356 -53.6124 -47.871998 -53.643898 -48.44817 -0.31700489 24.723991
106312000000 -10.507016 -106.38544 -53.531635 -47.811798 -53.520756 -48.654175 -0.30715546 24.814005
106360000000 -10.504216 -106.37497 -53.419395 -49.152538 -53.558743 -48.919617 -0.29598522 24.75625
106408000000 -10.498466 -106.37885 -53.463871 -49.011005 -53.517643 -49.086697 -0.29745445 24.71286
106456000000 -10.494798 -106.43546 -53.44001 -50.080563 -53.475636 -49.603863 -0.29008442 24.758442
106504000000 -10.496657 -106.39202 -53.520786 -49.296947 -53.473385 -49.58765 -0.29732999 24.747383
106552000000 -10.487749 -106.40218 -53.410175 -50.03548 -53.432915 -49.828114 -0.30147782 24.698854
106600000000 -10.478537 -106.4183 -53.34679 -50.579857 -53.376369 -50.633366 -0.29788777 24.603701
106648000000 -10.479428 -106.48158 -53.33876 -49.871429 -53.387398 -50.644539 -0.32508358 24.706358
106696000000 -10.480591 -106.42994 -53.356117 -51.448231 -53.390106 -51.191662 -0.32354751 24.728313
106744000000 -10.462221 -106.52498 -53.315319 -50.592926 -53.375347 -51.444904 -0.32428297 24.719267
106792000000 -10.470379 -106.55491 -53.270458 -50.340393 -53.358429 -51.854618 -0.32756472 24.801834
106840000000 -10.47164 -106.61671 -53.341854 -50.580971 -53.39423 -52.021122 -0.32833102 24.89744
106888000000 -10.470654 -106.6257 -53.219837 -52.231861 -53.310905 -52.391319 -0.32372153 24.923628
106936000000 -10.468221 -106.63644 -53.252384 -52.149548 -53.313808 -52.460125 -0.31951454 24.941641
106984000000 -10.461333 -106.66415 -53.283569 -52.455036 -53.197315 -52.787216 -0.31134689 24.963705
107032000000 -10.458082 -106.65246 -53.219051 -52.428516 -53.170898 -53.424583 -0.30311075 24.985174
107080000000 -10.452491 -106.66469 -53.190884 -53.808315 -53.149452 -54.248062 -0.30058613 24.965637
107128000000 -10.448437 -106.64294 -53.129211 -54.111691 -53.191853 -54.631435 -0.29729423 24.926226
107176000000 -10.447166 -106.6482 -53.227097 -53.837975 -53.199459 -54.808388 -0.29784036 24.936123
107224000000 -10.438233 -106.64237 -53.132549 -54.167046 -53.220276 -55.238495 -0.30501196 24.903286
107272000000 -10.439058 -106.63966 -53.112892 -54.753212 -53.226601 -55.602894 -0.31432191 24.850813
107320000000 -10.434874 -106.66516 -53.192806 -55.458748 -53.255886 -55.845154 -0.32238919 24.869835
107368000000 -10.430118 -106.64297 -53.128136 -55.721512 -53.259743 -56.214428 -0.3266333 24.923046
107416000000 -10.427356 -106.68644 -53.1992 -56.614315 -53.26062 -56.740662 -0.33404556 24.938286
107464000000 -10.430812 -106.75982 -53.318668 -57.3041 -53.300598 -57.03101 -0.33387616 25.019747
107512000000 -10.432863 -106.7561 -53.315422 -56.319759 -53.318787 -57.583344 -0.3317647 25.009859
107560000000 -10.439874 -106.79755 -53.360424 -56.726402 -53.34647 -57.911446 -0.32691604 25.017632
107608000000 -10.443195 -106.83717 -53.348545 -57.26656 -53.388226 -58.040997 -0.32690877 25.094595
107656000000 -10.44291 -106.80014 -53.452839 -57.686794 -53.381405 -58.348633 -0.31308144 25.120548
107704000000 -10.440235 -106.82038 -53.48074 -57.75705 -53.455013 -58.770508 -0.30750081 25.112755
107752000000 -10.440265 -106.89649 -53.436474 -58.052319 -53.477203 -58.711643 -0.30329007 25.124016
107800000000 -10.437291 -106.83487 -53.472492 -58.1409 -53.545284 -58.666676 -0.29045498 25.139484
107848000000 -10.434253 -106.88144 -53.584667 -58.395763 -53.589211 -58.597435 -0.29346141 25.124704
107896000000 -10.42682 -106.92374 -53.58316 -57.688175 -53.624653 -58.596207 -0.29580677 25.074413
107944000000 -10.418792 -106.93637 -53.700386 -58.297325 -53.619095 -58.623371 -0.29623464 25.047754
107992000000 -10.40934 -106.95769 -53.679451 -57.853294 -53.670639 -58.268284 -0.30426309 25.032974
108040000000 -10.404977 -106.93566 -53.718117 -57.603283 -53.625938 -57.696014 -0.31035697 25.003092
108088000000 -10.397292 -106.98274 -53.634457 -56.829609 -53.621841 -57.994072 -0.32162616 25.071489
108136000000 -10.389088 -107.04011 -53.559341 -57.787617 -53.589569 -58.125008 -0.33091342 25.121094
108184000000 -10.384719 -107.0503 -53.492424 -57.861149 -53.59314 -58.472519 -0.33181304 25.127644
108232000000 -10.384752 -107.08474 -53.597286 -57.984604 -53.62299 -58.536484 -0.33638021 25.168314
108280000000 -10.384033 -107.09264 -53.430031 -58.353161 -53.567432 -58.27029 -0.32983637 25.189043
108328000000 -10.381407 -107.13086 -53.557007 -58.490707 -53.544643 -58.314388 -0.32408327 25.233944
108376000000 -10.380715 -107.10545 -53.494061 -57.720394 -53.493195 -58.469719 -0.32191023 25.235657
108424000000 -10.374622 -107.04731 -53.520275 -58.350628 -53.52309 -58.499794 -0.31470233 25.246838
108472000000 -10.365979 -107.00938 -53.539421 -58.278393 -53.528996 -58.310547 -0.30802542 25.284777
108520000000 -10.361645 -107.01069 -53.559689 -57.759747 -53.480995 -58.161499 -0.29993233 25.270178
108568000000 -10.359676 -107.01231 -53.582481 -57.782532 -53.481495 -58.269363 -0.30208439 25.238184
108616000000 -10.358877 -107.02439 -53.405014 -58.30122 -53.390797 -58.417316 -0.30494449 25.179684
108664000000 -10.353782 -107.00031 -53.444679 -58.185242 -53.390034 -58.934498 -0.31241992 25.194674
108712000000 -10.348874 -107.00435 -53.390511 -58.041622 -53.36647 -59.215328 -0.32065371 25.147528
108760000000 -10.344422 -107.02747 -53.311218 -58.240417 -53.425468 -59.499123 -0.32696012 25.128067
108808000000 -10.341191 -107.03981 -53.275482 -58.332352 -53.418171 -59.324974 -0.33086288 25.161581
108856000000 -10.340602 -107.07065 -53.333645 -58.337322 -53.396206 -59.315426 -0.33688092 25.144941
108904000000 -10.341141 -107.14481 -53.294422 -59.072975 -53.342335 -59.259857 -0.34543619 25.229891
108952000000 -10.342506 -107.136 -53.217609 -59.287239 -53.275215 -59.455357 -0.34158784 25.301012
109000000000 -10.34277 -107.20284 -53.247799 -59.591011 -53.219246 -59.927082 -0.3424989 25.357262
109048000000 -10.338016 -107.25635 -53.216457 -59.719246 -53.150402 -60.560009 -0.33975562 25.365553
109096000000 -10.335676 -107.30164 -53.248363 -59.768078 -53.17585 -61.113037 -0.32554701 25.424057
109144000000 -10.339163 -107.40788 -53.108299 -60.374809 -53.172523 -61.177727 -0.31901026 25.437449
109192000000 -10.333274 -107.40372 -53.139317 -60.816246 -53.184822 -61.592701 -0.32261419 25.397507
109240000000 -10.328005 -107.3838 -53.214897 -61.136627 -53.205498 -61.895584 -0.32116374 25.328367
109288000000 -10.327766 -107.39676 -53.164051 -61.115818 -53.227314 -62.137085 -0.31707004 25.314573
109336000000 -10.313612 -107.30546 -53.312428 -61.748558 -53.278496 -62.280857 -0.32543764 25.276073
109384000000 -10.307437 -107.31448 -53.282112 -62.069618 -53.2822 -62.360947 -0.33424631 25.251163
109432000000 -10.305253 -107.36271 -53.227318 -62.089138 -53.314137 -62.535614 -0.33704177 25.267082
109480000000 -10.299165 -107.40093 -53.413712 -61.708355 -53.338032 -62.23518 -0.34375226 25.264692
109528000000 -10.294118 -107.43366 -53.295979 -61.66452 -53.341354 -62.574287 -0.35390949 25.26783
109576000000 -10.29347 -107.4389 -53.347187 -62.014553 -53.396576 -62.444645 -0.36104104 25.263571
109624000000 -10.301471 -107.53912 -53.411659 -61.687634 -53.381771 -62.714737 -0.36750898 25.37541
109672000000 -10.296347 -107.49639 -53.409447 -61.86478 -53.424297 -62.338173 -0.36575255 25.410629
109720000000 -10.298676 -107.50905 -53.403919 -60.916321 -53.409649 -62.378918 -0.36281753 25.464949
109768000000 -10.299506 -107.54314 -53.371708 -61.66058 -53.406151 -61.924061 -0.35803387 25.569435
109816000000 -10.29812 -107.50762 -53.437462 -61.172478 -53.397827 -61.495567 -0.34465426 25.581335
109864000000 -10.297776 -107.58366 -53.380436 -61.181938 -53.339924 -61.190723 -0.33356029 25.619907
109912000000 -10.296413 -107.57587 -53.247604 -61.137405 -53.215202 -61.154018 -0.32443807 25.638258
109960000000 -10.291309 -107.51598 -53.241772 -60.935986 -53.14447 -61.221512 -0.31697062 25.574978
110008000000 -10.295908 -107.59223 -53.091496 -61.198036 -53.05637 -61.189911 -0.32168221 25.53647
110056000000 -10.292458 -107.54108 -53.046837 -61.499447 -53.026199 -61.666206 -0.319166 25.545334
110104000000 -10.291121 -107.55324 -53.097984 -61.165157 -53.098064 -61.882362 -0.32831678 25.483097
110152000000 -10.289785 -107.51041 -53.122005 -60.046543 -53.074139 -61.639034 -0.33551741 25.44553
110200000000 -10.284498 -107.58319 -52.936661 -61.563282 -53.005161 -61.639126 -0.33953783 25.406082
110248000000 -10.290289 -107.61668 -52.865242 -62.074268 -52.938297 -61.859917 -0.34947872 25.506769
110296000000 -10.291034 -107.63805 -52.882595 -61.325375 -52.945145 -61.975636 -0.35622704 25.588451
110344000000 -10.297825 -107.65753 -52.783401 -61.659328 -52.889023 -62.40181 -0.36156738 25.582369
110392000000 -10.301624 -107.66389 -52.756752 -62.671745 -52.767025 -62.603931 -0.36311641 25.711327
110440000000 -10.30224 -107.72804 -52.730015 -62.08358 -52.697044 -62.856285 -0.36759603 25.746197
110488000000 -10.305345 -107.77525 -52.71389 -62.530643 -52.64875 -63.368076 -0.35952905 25.800714
110536000000 -10.307214 -107.78771 -52.642422 -63.370556 -52.618 -63.748013 -0.3426297 25.877016
110584000000 -10.300026 -107.79745 -52.664318 -63.094028 -52.535866 -64.583435 -0.34000617 25.876871
110632000000 -10.293724 -107.83092 -52.602741 -64.327271 -52.587921 -65.26889 -0.33485019 25.849115
110680000000 -10.288237 -107.77903 -52.519386 -64.515831 -52.599182 -65.017525 -0.32683146 25.839903
110728000000 -10.291444 -107.83348 -52.689232 -64.737801 -52.598763 -65.439636 -0.32379627 25.89439
110776000000 -10.283729 -107.78291 -52.543541 -64.978615 -52.585308 -65.559708 -0.3277255 25.816616
110824000000 -10.278955 -107.75901 -52.538925 -64.955437 -52.557915 -65.689522 -0.32827267 25.801937
110872000000 -10.276552 -107.75745 -52.508545 -66.512665 -52.597862 -65.935699 -0.32854515 25.782246
110920000000 -10.274179 -107.76274 -52.590736 -66.904922 -52.503567 -66.430389 -0.33521762 25.736622
110968000000 -10.270537 -107.73529 -52.570152 -65.670479 -52.508148 -66.995567 -0.34256023 25.701138
111016000000 -10.272813 -107.71878 -52.569771 -66.621803 -52.489994 -67.365967 -0.35324818 25.674734
111064000000 -10.271833 -107.65372 -52.560226 -67.198219 -52.516983 -67.899498 -0.35794589 25.781319
111112000000 -10.273705 -107.69277 -52.668583 -66.986252 -52.566334 -68.083862 -0.36528313 25.809155
111160000000 -10.278778 -107.6868 -52.599586 -68.323174 -52.527515 -68.597816 -0.36523274 25.826908
111208000000 -10.281448 -107.66766 -52.703949 -67.687477 -52.594212 -68.644508 -0.3587651 25.978504
111256000000 -10.283166 -107.67338 -52.597378 -68.418617 -52.592365 -68.440254 -0.35348573 26.014156
111304000000 -10.283571 -107.70684 -52.45977 -67.614487 -52.530682 -68.624168 -0.33938053 25.982021
111352000000 -10.280426 -107.66656 -52.455109 -68.344124 -52.494091 -68.879204 -0.32251856 26.100372
111400000000 -10.27985 -107.70267 -52.500175 -69.345139 -52.459667 -69.335846 -0.3145974 26.08729
111448000000 -10.27944 -107.68832 -52.488613 -69.4814 -52.472736 -69.746109 -0.31072176 25.988543
111496000000 -10.279256 -107.67336 -52.632008 -69.994041 -52.521435 -69.989357 -0.30487591 26.031994
111544000000 -10.278941 -107.63939 -52.491306 -68.720772 -52.470905 -70.281441 -0.30802599 26.057579
111592000000 -10.277748 -107.63602 -52.539032 -70.597343 -52.484905 -70.703842 -0.31851301 25.970543
111640000000 -10.273377 -107.69713 -52.623295 -70.784142 -52.593143 -71.508713 -0.3205843 26.011415
111688000000 -10.265047 -107.77486 -52.605961 -70.757637 -52.596848 -71.445953 -0.32324159 25.979336
111736000000 -10.267906 -107.72141 -52.779976 -71.376122 -52.731312 -71.559097 -0.33180439 25.983976
111784000000 -10.266288 -107.7464 -52.609215 -70.965034 -52.705578 -71.351448 -0.33508787 26.014629
111832000000 -10.264996 -107.78345 -52.830719 -72.245346 -52.721478 -71.473396 -0.34250057 26.053598
111880000000 -10.264949 -107.84167 -52.444542 -70.555855 -52.722954 -71.854996 -0.34638479 26.03096
111928000000 -10.264513 -107.88177 -52.813599 -71.332359 -52.720905 -71.756454 -0.34036142 26.152687
111976000000 -10.26157 -107.84859 -52.664742 -70.467934 -52.735138 -71.551376 -0.33472773 26.179632
112024000000 -10.257299 -107.89243 -52.758457 -71.095619 -52.692673 -71.8647 -0.32652223 26.185661
112072000000 -10.250056 -107.85439 -52.688133 -71.270309 -52.706215 -72.310684 -0.31947553 26.171455
112120000000 -10.241529 -107.8174 -52.812412 -72.675728 -52.699566 -72.301605 -0.3086071 26.17613
112168000000 -10.240346 -107.86159 -52.786366 -70.403839 -52.690075 -72.409088 -0.3061426 26.235552
112216000000 -10.233961 -107.86739 -52.861073 -71.801208 -52.757893 -72.44812 -0.31920835 26.308367
112264000000 -10.230495 -107.87544 -52.628605 -70.941406 -52.717308 -72.419746 -0.29529387 26.1675
112312000000 -10.213494 -107.86597 -52.818962 -70.783516 -52.814018 -72.877106 -0.29915604 26.083483
112360000000 -10.238601 -107.89179 -52.66391 -70.857681 -52.812145 -72.145027 -0.31553206 26.083071
112408000000 -10.227453 -107.89697 -52.684032 -70.695595 -52.81237 -71.876991 -0.31959951 26.050278
112456000000 -10.22232 -107.81404 -52.727272 -71.222366 -52.712185 -71.972862 -0.32098201 26.104883
112504000000 -10.220819 -107.81461 -52.639896 -72.551758 -52.647957 -71.716553 -0.33145598 26.086102
112552000000 -10.226293 -107.85465 -52.590679 -70.256462 -52.638512 -72.633682 -0.34001765 26.028662
112600000000 -10.226115 -107.89083 -52.785614 -71.741203 -52.637794 -72.828331 -0.34451133 26.12027
112648000000 -10.226409 -107.9043 -52.690716 -71.715012 -52.674488 -72.549538 -0.34757027 26.249815
112696000000 -10.22753 -107.93163 -52.622059 -70.438759 -52.684784 -72.655289 -0.33956584 26.22611
112744000000 -10.223394 -108.00503 -52.460739 -71.097374 -52.644077 -73.068192 -0.32887769 26.206553
112792000000 -10.223879 -108.01666 -52.677132 -70.621002 -52.640747 -72.879349 -0.32273829 26.238247
112840000000 -10.221944 -108.01137 -52.637581 -72.316383 -52.589405 -73.066444 -0.31052324 26.344381
112888000000 -10.215111 -108.02758 -52.80809 -72.182503 -52.587315 -73.060211 -0.30094761 26.3137
112936000000 -10.217488 -108.06638 -52.652847 -70.883194 -52.527668 -72.533516 -0.29895887 26.507586
112984000000 -10.211191 -108.10078 -52.367939 -72.548134 -52.476723 -72.531731 -0.29168925 26.383051
113032000000 -10.210935 -108.10905 -52.288437 -72.559914 -52.40918 -72.843529 -0.29871735 26.442291
113080000000 -10.206424 -108.10822 -52.344807 -72.935547 -52.34959 -73.989838 -0.30464599 26.17638
113128000000 -10.205026 -108.13168 -52.457478 -74.061569 -52.405502 -74.728943 -0.31069452 26.133745
113176000000 -10.204335 -108.17205 -52.466587 -73.163651 -52.433006 -75.333076 -0.32811156 26.157566
113224000000 -10.200729 -108.17596 -52.443245 -72.669624 -52.459858 -75.264816 -0.33140373 26.233599
113272000000 -10.199099 -108.1637 -52.465393 -73.538353 -52.527523 -75.630341 -0.33561835 26.26112
113320000000 -10.196381 -108.20112 -52.635025 -74.219368 -52.536991 -75.184891 -0.34467584 26.154238
113368000000 -10.191752 -108.35577 -52.447128 -75.721748 -52.535248 -75.011444 -0.3463335 26.214851
113416000000 -10.18827 -108.35855 -52.252487 -73.53756 -52.502918 -74.838585 -0.34494206 26.31332
113464000000 -10.184677 -108.39899 -52.526764 -74.706459 -52.494686 -75.508247 -0.34455869 26.307837
113512000000 -10.178131 -108.41872 -52.494244 -74.981834 -52.435303 -75.708778 -0.34027043 26.393829
113560000000 -10.171099 -108.45416 -52.510143 -76.331604 -52.488724 -75.802689 -0.32418591 26.484402
113608000000 -10.168446 -108.49919 -52.441948 -74.738991 -52.432617 -75.715561 -0.31249893 26.498489
113656000000 -10.164569 -108.54087 -52.540485 -74.294189 -52.471432 -76.003815 -0.30887029 26.424284
113704000000 -10.160523 -108.46669 -52.490997 -74.696732 -52.430359 -76.28862 -0.30228144 26.374523
113752000000 -10.156813 -108.51662 -52.602234 -75.886124 -52.409893 -76.185677 -0.29798952 26.42849
113800000000 -10.158885 -108.52 -52.546146 -74.255676 -52.501316 -76.447891 -0.3073591 26.381796
113848000000 -10.15336 -108.55114 -52.593323 -74.970459 -52.519806 -76.368607 -0.31916153 26.276743
113896000000 -10.157413 -108.48919 -52.405708 -73.827423 -52.557571 -75.818077 -0.31928775 26.35853
113944000000 -10.160793 -108.52797 -52.441334 -74.85701 -52.542187 -75.770416 -0.32338381 26.329306
113992000000 -10.154697 -108.59922 -52.53146 -75.463684 -52.514534 -75.352608 -0.33646804 26.261713
114040000000 -10.156891 -108.6339 -52.273792 -75.337509 -52.431305 -75.153992 -0.33749917 26.406719
114088000000 -10.155969 -108.63583 -52.374207 -74.232506 -52.386948 -75.276199 -0.34357014 26.449888
114136000000 -10.156609 -108.7321 -52.303837 -73.131889 -52.34951 -75.472771 -0.34843466 26.421028
114184000000 -10.15664 -108.74787 -52.435638 -75.091637 -52.32753 -75.444038 -0.33972707 26.515709
114232000000 -10.158695 -108.79834 -52.193867 -75.281105 -52.231674 -75.490356 -0.33860585 26.549519
114280000000 -10.155485 -108.83669 -52.261478 -75.211029 -52.177788 -75.759651 -0.33020672 26.62339
114328000000 -10.154572 -108.86087 -52.034111 -75.017601 -52.154903 -76.21199 -0.32423446 26.582554
114376000000 -10.152593 -108.8922 -52.224846 -76.30619 -52.148022 -76.260788 -0.32188374 26.573088
114424000000 -10.149714 -108.9407 -52.139763 -75.875633 -52.109322 -75.985191 -0.31467757 26.61278
114472000000 -10.150629 -108.99187 -52.067341 -75.778633 -52.046738 -76.446045 -0.3169592 26.540026
114520000000 -10.143029 -109.0332 -52.011299 -75.799377 -51.99799 -76.275009 -0.32705474 26.522312
114568000000 -10.14374 -109.03685 -52.022469 -75.240738 -51.886395 -76.494789 -0.32583132 26.57255
114616000000 -10.144932 -109.10136 -51.957035 -76.711205 -51.847919 -76.802124 -0.33516786 26.578901
114664000000 -10.137983 -109.1129 -51.923695 -77.002274 -51.861629 -77.380775 -0.34658554 26.60833
114712000000 -10.134323 -109.09355 -51.866337 -77.271767 -51.823662 -77.859299 -0.34891459 26.632366
114760000000 -10.133823 -109.13734 -51.897545 -77.149849 -51.794903 -78.088531 -0.35849294 26.470634
114808000000 -10.133403 -109.16005 -51.78022 -77.486526 -51.772167 -78.762436 -0.36104611 26.548689
114856000000 -10.133627 -109.12577 -51.974205 -77.023148 -51.771416 -78.995354 -0.35896611 26.650242
114904000000 -10.12968 -109.14523 -51.669792 -78.424965 -51.726715 -79.447388 -0.35551873 26.676685
114952000000 -10.131866 -109.16208 -51.852821 -78.805626 -51.737835 -80.097473 -0.35337538 26.705591
115000000000 -10.123743 -109.21004 -51.802444 -79.237869 -51.754772 -80.353287 -0.34706107 26.757236
