! Generated by S-View
! Download App: https://apps.microsoft.com/detail/9MT55KNCWHML
! Source: Load_mTRLcal_LP.s2p [Renumber [2,1]]
! Exported: 2026-03-03 19:13:48
! Note: Exported from a derived (virtual) item.
# HZ S DB R 50
67000000000 -0.14766572000000017 15.565397000000001 -70.322838000000004 37.680881999999997 -70.332702999999995 35.417988000000001 -11.836192 -68.142028999999994
67048000000 -0.14474352999999962 15.563478000000002 -70.594818000000004 43.080643000000016 -70.376723999999996 42.432251000000008 -11.832706999999999 -68.185058999999995
67096000000 -0.15028035999999961 15.602767999999999 -69.580794999999995 47.451405000000001 -70.737212999999997 42.068492999999997 -11.834333000000001 -68.316543999999993
67144000000 -0.15098009999999931 15.600783999999999 -69.772132999999997 44.214225999999996 -69.685103999999995 43.344501000000001 -11.847875000000002 -68.361693999999986
67192000000 -0.14772625000000028 15.613689000000001 -70.236969000000002 46.79069100000001 -70.450119000000001 41.426071 -11.858242000000001 -68.414153999999996
67240000000 -0.14650357000000006 15.624384000000001 -69.719314999999995 46.934207999999998 -69.530852999999993 48.906067 -11.8645 -68.485305999999994
67288000000 -0.14971712000000043 15.645123000000003 -69.328896 52.689185999999992 -70.791884999999994 53.557704999999991 -11.853134999999998 -68.500595000000004
67336000000 -0.13338055000000046 15.660151000000001 -69.635788000000005 50.101048000000006 -69.160270999999995 44.210628999999997 -11.843567 -68.480804000000006
67384000000 -0.1422523299999997 15.623172 -69.942879000000005 53.097977 -69.527527000000006 54.875960999999997 -11.819749999999999 -68.468841999999995
67432000000 -0.15394619000000004 15.648942 -69.918152000000006 55.560158000000001 -70.042282 54.194946000000002 -11.799804 -68.435463000000013
67480000000 -0.14590440999999985 15.6694 -69.601067 46.620491000000001 -69.233153999999999 51.448955999999995 -11.788611 -68.454391000000001
67528000000 -0.14497504000000014 15.691714000000003 -70.123763999999994 45.756424000000003 -69.454528999999994 51.47455200000001 -11.788796999999999 -68.452751000000006
67576000000 -0.14512545999999971 15.694261000000003 -68.948982000000001 52.887794 -68.937316999999993 52.471199000000006 -11.807815 -68.508651999999998
67624000000 -0.13742514000000022 15.683413 -68.975409999999997 48.865420999999998 -69.434509000000006 50.731667000000002 -11.827897 -68.580337999999998
67672000000 -0.13728967000000017 15.705073999999996 -69.147735999999995 50.389023000000002 -68.927391 47.067501 -11.851534000000001 -68.634895
67720000000 -0.13707860999999999 15.760714999999999 -69.739410000000007 43.709514999999989 -69.514420000000001 54.850266000000012 -11.874389999999998 -68.707526999999985
67768000000 -0.13390990999999877 15.771886999999998 -68.586699999999993 49.540339999999993 -69.262566000000007 54.579360999999992 -11.879530000000001 -68.788749999999993
67816000000 -0.12886265999999974 15.752867000000004 -69.805770999999993 53.583775000000017 -69.721915999999993 49.798076999999999 -11.867286 -68.817451000000005
67864000000 -0.13494292999999982 15.760468000000001 -69.071404000000001 48.801944999999996 -68.69014 58.354187000000003 -11.852311 -68.839469999999992
67912000000 -0.13907154999999954 15.732040999999999 -69.354774000000006 53.766643999999992 -68.969932999999997 51.316845000000001 -11.816903999999999 -68.851997000000011
67960000000 -0.13132352000000047 15.720701 -69.573791999999997 53.173396999999994 -69.046486000000002 54.782909000000004 -11.789459000000001 -68.849807999999996
68008000000 -0.12857947999999972 15.753181000000003 -69.449546999999995 51.245583000000003 -68.695151999999993 53.738689000000001 -11.772491 -68.901664999999994
68056000000 -0.13152549999999991 15.715468 -68.947929000000002 50.780781000000012 -68.338211000000001 55.054023999999991 -11.757868 -68.928779999999989
68104000000 -0.13086784000000007 15.729050000000001 -68.763396999999998 49.390636000000008 -68.585503000000003 53.663787999999997 -11.750209999999999 -68.976280000000003
68152000000 -0.13016385999999977 15.716344000000005 -68.462669000000005 53.632496000000003 -68.411490999999998 55.83005099999999 -11.747197 -68.995643999999999
68200000000 -0.13691646000000102 15.694347000000002 -68.840698000000003 49.551125000000006 -68.707504 50.497520000000009 -11.74718 -69.001907000000003
68248000000 -0.13870353000000021 15.648889 -68.793541000000005 52.246959999999994 -68.747344999999996 50.426182000000004 -11.735047000000002 -68.986464999999981
68296000000 -0.13238846999999968 15.589435999999999 -68.882423000000003 51.304302000000007 -68.447272999999996 55.589072999999999 -11.726395 -68.943572999999986
68344000000 -0.13671343000000061 15.588635999999997 -68.815421999999998 49.835808 -68.531563000000006 53.06781800000001 -11.717741 -68.974304000000004
68392000000 -0.13980424000000044 15.567719 -68.357360999999997 49.636303000000005 -68.566840999999997 53.188023000000015 -11.700189999999999 -68.971717999999996
68440000000 -0.14138310000000029 15.561069 -68.563721000000001 47.366664999999998 -68.367531 50.888733000000009 -11.691770999999999 -68.977348000000006
68488000000 -0.1413432500000002 15.572804999999999 -68.563896 47.088509000000016 -67.926033000000004 49.917315999999992 -11.673994 -68.981781000000012
68536000000 -0.14482811000000009 15.623001000000002 -68.617500000000007 47.582095999999986 -68.297272000000007 51.816212 -11.658277999999999 -68.993026999999998
68584000000 -0.14520496000000002 15.677719000000003 -68.868926999999999 47.587624000000005 -68.384131999999994 49.86272799999999 -11.647251999999998 -69.013717999999997
68632000000 -0.14198804999999964 15.680613999999998 -68.494690000000006 48.911620999999997 -68.288207999999997 51.192081000000009 -11.64016 -69.022987000000001
68680000000 -0.14246443999999953 15.716894 -68.438698000000002 48.780384000000005 -68.181999000000005 50.022663000000001 -11.641137000000001 -69.054924
68728000000 -0.1431495400000001 15.711637000000003 -68.376784999999998 47.314841999999999 -68.533294999999995 49.375393000000003 -11.645329 -69.091178999999997
68776000000 -0.14217501999999929 15.701613999999999 -68.160103000000007 48.389277999999997 -68.250152999999997 49.650210999999999 -11.64883 -69.127068000000008
68824000000 -0.14276136000000117 15.719645000000002 -68.629645999999994 48.012912999999998 -68.367576999999997 47.847732999999991 -11.656001 -69.202538000000004
68872000000 -0.14341225999999963 15.742720999999998 -68.811477999999994 46.992057999999993 -68.597694000000004 50.839474000000003 -11.653316999999998 -69.251945000000006
68920000000 -0.14500420999999958 15.765987000000003 -68.652161000000007 51.178534999999997 -68.284835999999999 52.610268000000005 -11.646326 -69.264029999999991
68968000000 -0.14362711000000047 15.793932 -68.063889000000003 47.221313000000002 -68.30574 51.737018999999997 -11.633113 -69.303489999999996
69016000000 -0.14286542999999968 15.84708 -68.303550999999999 48.90647899999999 -68.304130999999998 52.045876000000007 -11.616032000000001 -69.317649999999986
69064000000 -0.14102610999999907 15.847321999999998 -68.399756999999994 48.734188000000003 -68.314873000000006 53.793900000000001 -11.601341000000001 -69.315369000000004
69112000000 -0.14136518999999997 15.864955000000005 -68.694999999999993 52.623486 -68.181213 53.460064000000003 -11.59511 -69.347724999999997
69160000000 -0.1405087099999992 15.878474999999998 -68.339348000000001 53.485264000000008 -68.131827999999999 53.219073999999999 -11.597343 -69.378960000000006
69208000000 -0.13921776000000027 15.95195 -68.213982000000001 52.19223800000001 -67.981009999999998 52.496066999999996 -11.607509999999998 -69.445541000000006
69256000000 -0.13781630999999994 15.945831000000002 -68.163162 50.844710999999997 -67.768730000000005 53.733138999999994 -11.622802 -69.497833
69304000000 -0.13626653000000111 15.955187000000002 -67.891257999999993 48.668303999999992 -67.834052999999997 52.739147000000003 -11.636462999999999 -69.551734999999994
69352000000 -0.13517711999999965 15.956773999999998 -68.094620000000006 48.638297999999999 -67.522636000000006 51.928505000000015 -11.637775999999999 -69.598679000000018
69400000000 -0.13611375000000092 15.962756999999996 -67.726059000000006 47.753307 -67.742455000000007 51.622368000000002 -11.638007999999999 -69.61814099999998
69448000000 -0.1379774400000004 15.972567 -67.890572000000006 49.251212999999986 -67.838965999999999 52.230964999999998 -11.628680000000003 -69.663216000000006
69496000000 -0.14004137000000014 15.986453999999998 -67.807381000000007 49.446049000000002 -67.763267999999997 50.037094000000003 -11.615259999999999 -69.665001000000004
69544000000 -0.14122932999999896 16.009083 -68.065781000000001 47.82158299999999 -67.695541000000006 50.24417900000001 -11.602945 -69.666366999999994
69592000000 -0.14153821999999888 16.031474999999997 -67.936927999999995 49.008288999999998 -67.740959000000004 50.914963 -11.58544 -69.670822000000001
69640000000 -0.14049507999999986 16.066904000000001 -67.912948999999998 47.35504499999999 -67.688156000000006 50.087417999999985 -11.573802000000001 -69.656875999999997
69688000000 -0.13938374999999997 16.070498000000004 -68.008133000000001 49.360275000000001 -67.632614000000004 50.626522000000001 -11.565356 -69.668564000000003
69736000000 -0.1382374500000014 16.079905000000007 -67.636191999999994 47.27702699999999 -67.677757 51.225521000000001 -11.564577999999999 -69.686179999999993
69784000000 -0.13810544000000141 16.085782999999999 -67.720909000000006 47.259571000000001 -67.765754999999999 49.859005000000003 -11.573015 -69.744002999999992
69832000000 -0.13949656000000024 16.075851 -67.837577999999993 49.007530000000003 -67.699935999999994 50.468555000000002 -11.580622 -69.800338999999994
69880000000 -0.14131036000000086 16.077509000000003 -67.843964 51.158843999999995 -67.592811999999995 51.368217000000001 -11.592123000000001 -69.862716999999989
69928000000 -0.14422489999999977 16.095192000000004 -67.590903999999995 49.119559999999993 -67.508674999999997 50.759445000000007 -11.595855 -69.940505999999999
69976000000 -0.14492819999999956 16.107603000000005 -67.638762999999997 48.757621999999991 -67.550323000000006 51.284987999999998 -11.585436 -69.977042999999995
70024000000 -0.14502268999999926 16.131873999999996 -67.414032000000006 50.201885000000004 -67.541313000000002 52.562839999999994 -11.567124 -69.973251000000005
70072000000 -0.14491831000000038 16.165813 -67.735625999999996 47.751434000000017 -67.522682000000003 51.004627000000013 -11.548225000000002 -69.968040000000002
70120000000 -0.14413791999999956 16.169653000000004 -67.752632000000006 47.700623 -67.410767000000007 52.286835000000004 -11.521910999999999 -69.954048
70168000000 -0.14219695000000107 16.175433999999999 -67.765197999999998 49.947960000000002 -67.338965999999999 50.328055999999997 -11.503791 -69.922966000000017
70216000000 -0.14040122999999999 16.195948000000001 -67.325378000000001 49.177444000000001 -67.188193999999996 51.268493999999997 -11.510498000000002 -69.947884000000002
70264000000 -0.14117985999999969 16.188096999999999 -67.509628000000006 49.445362000000003 -67.146361999999996 50.812359000000001 -11.520074000000001 -69.982131999999993
70312000000 -0.14256823000000046 16.197495 -67.339164999999994 49.695014999999991 -67.166458000000006 51.144657000000009 -11.542832000000001 -70.041283000000007
70360000000 -0.14348531000000028 16.202627 -67.520981000000006 47.507553000000001 -67.204552000000007 49.993668000000007 -11.567346000000001 -70.114142999999999
70408000000 -0.14425218000000023 16.199472000000007 -67.416060999999999 49.484825000000001 -67.188964999999996 50.043476000000005 -11.576015 -70.160201999999998
70456000000 -0.14617372999999978 16.226576000000001 -67.480559999999997 48.924281999999998 -67.219054999999997 50.383155999999993 -11.582979999999999 -70.194656000000009
70504000000 -0.15005474000000016 16.246495999999997 -67.207924000000006 49.551022000000003 -67.060066000000006 51.003135999999998 -11.578474999999999 -70.206558000000001
70552000000 -0.15061693999999975 16.258514000000002 -67.459891999999996 48.799809000000003 -67.287139999999994 50.336494000000002 -11.567961 -70.212188999999995
70600000000 -0.14860772999999958 16.284866000000005 -67.27919 48.597545999999994 -67.338722000000004 49.270256000000003 -11.557072999999999 -70.193686999999997
70648000000 -0.14944169000000004 16.307606 -67.184853000000004 49.615298999999993 -67.389938000000001 50.165461999999998 -11.540272 -70.155860999999987
70696000000 -0.14911537000000033 16.302571999999994 -67.471039000000005 49.275646000000009 -67.376755000000003 51.153239999999997 -11.523992 -70.140579000000002
70744000000 -0.14725144000000004 16.317696000000005 -67.725348999999994 49.043807999999999 -67.490273000000002 52.619648000000012 -11.517892 -70.154708999999997
70792000000 -0.1465089299999997 16.307104000000002 -67.961769000000004 50.862484000000002 -67.388000000000005 53.587485999999998 -11.514241999999999 -70.185333000000014
70840000000 -0.14971712000000043 16.312351 -67.742042999999995 51.101662000000005 -67.436126999999999 55.575783000000001 -11.524148 -70.232712000000006
70888000000 -0.15384989999999962 16.322448999999999 -67.613235000000003 53.157462999999993 -67.117064999999997 55.994736000000003 -11.5327 -70.317977999999997
70936000000 -0.15368388999999952 16.321059999999996 -66.96669 54.927010000000003 -67.418762000000001 56.188110000000002 -11.539044999999998 -70.376755000000003
70984000000 -0.15239625999999881 16.344087999999999 -67.027939000000003 54.085658999999993 -67.232010000000002 56.507449999999999 -11.553048 -70.44338999999998
71032000000 -0.1564103099999995 16.371002000000001 -66.872580999999997 56.816963000000001 -66.722037999999998 57.409022999999998 -11.550440999999999 -70.480491999999984
71080000000 -0.15901302999999983 16.365798999999999 -66.651252999999997 55.031917999999997 -66.515395999999996 56.430744000000004 -11.533683 -70.45251500000002
71128000000 -0.15407867999999991 16.403378999999997 -66.584418999999997 55.243828000000008 -66.554062000000002 58.147846000000001 -11.516611000000001 -70.472106999999994
71176000000 -0.15286197999999998 16.418461000000001 -66.479018999999994 55.941128000000013 -66.311995999999994 57.739372000000003 -11.500439999999998 -70.434967
71224000000 -0.15689415999999978 16.420052000000002 -66.337067000000005 55.990673000000001 -66.235946999999996 56.88908 -11.479732 -70.412918000000005
71272000000 -0.15366566000000037 16.428932 -66.152107000000001 53.606766 -66.119804000000002 56.331260999999998 -11.476188 -70.424469000000002
71320000000 -0.15427366999999972 16.439589000000002 -66.134215999999995 56.085766 -66.014854 57.400084999999997 -11.488700000000001 -70.484886000000003
71368000000 -0.15831925000000086 16.439298999999998 -65.701201999999995 54.192443999999995 -65.913833999999994 55.947802999999993 -11.505466 -70.529594000000003
71416000000 -0.15767093000000107 16.442851999999998 -65.926597999999998 54.843646999999997 -65.690178000000003 55.270995999999997 -11.521720999999999 -70.566688999999997
71464000000 -0.15767898999999952 16.453911000000005 -65.618896000000007 52.963489999999993 -65.741767999999993 56.204852999999993 -11.52983 -70.606849999999994
71512000000 -0.15817589000000004 16.463744999999999 -65.370925999999997 54.389690000000009 -65.545203999999998 55.516216 -11.531974 -70.631103999999993
71560000000 -0.15809641999999974 16.463932 -65.404587000000006 53.603691000000005 -65.598845999999995 53.600349000000001 -11.520042999999999 -70.614311000000001
71608000000 -0.15622567999999992 16.483912000000004 -65.572479000000001 53.562767000000001 -65.392937000000003 54.161918999999997 -11.505322 -70.608664999999988
71656000000 -0.1579098400000005 16.498373000000001 -65.343665999999999 52.456859999999999 -65.213904999999997 54.79824099999999 -11.484816 -70.602340999999981
71704000000 -0.15425650999999957 16.483624000000002 -65.435767999999996 51.180779000000001 -65.339759999999998 53.489348999999997 -11.466747 -70.586639000000005
71752000000 -0.15870881000000042 16.484085 -65.375350999999995 52.335800000000013 -65.492965999999996 54.688923000000003 -11.46364 -70.644103999999999
71800000000 -0.15549371000000017 16.487970000000004 -65.414017000000001 51.881450999999998 -65.404731999999996 54.359572999999997 -11.466887999999999 -70.696410999999998
71848000000 -0.15186598999999934 16.495861000000001 -65.157875000000004 52.814692999999991 -65.491776000000002 55.572071000000001 -11.457793000000001 -70.714591999999996
71896000000 -0.15848731000000074 16.501335000000001 -65.222649000000004 51.535995 -65.374695000000003 56.032088999999999 -11.451939000000003 -70.729979999999998
71944000000 -0.15984576999999997 16.528803 -64.909194999999997 52.552204000000003 -65.132110999999995 52.530242999999992 -11.456455999999999 -70.908257000000006
71992000000 -0.15564798000000016 16.566635000000002 -64.825789999999998 53.283217999999998 -64.964011999999997 53.465831999999999 -11.461904999999998 -70.911438000000004
72040000000 -0.15537806999999956 16.599392000000002 -64.590537999999995 50.848723999999997 -64.877860999999996 53.916728999999997 -11.451752000000003 -70.961822999999995
72088000000 -0.16025051000000046 16.621666000000001 -64.2239 50.972617999999997 -64.811629999999994 54.156424999999992 -11.407673000000001 -70.791236999999995
72136000000 -0.15778985999999998 16.608782000000005 -64.715714000000006 51.302882999999994 -64.631752000000006 53.673888999999996 -11.391454 -70.729149000000007
72184000000 -0.15266330999999975 16.629850000000001 -64.283874999999995 50.608958999999999 -64.492348000000007 53.203628999999999 -11.385082000000001 -70.813193999999996
72232000000 -0.15952886999999993 16.644535000000005 -64.529876999999999 51.126609999999999 -64.272636000000006 52.271087999999999 -11.383475999999998 -70.827872999999997
72280000000 -0.16476597000000104 16.61722 -64.231849999999994 49.154575000000001 -64.330132000000006 50.748179999999991 -11.406608 -70.880470000000017
72328000000 -0.15441636999999983 16.661107999999999 -64.128494000000003 48.952579 -64.179862999999997 51.108158000000003 -11.414999999999999 -70.915184000000011
72376000000 -0.16098490000000007 16.671366000000003 -64.018744999999996 48.288162 -63.872912999999997 52.143733999999995 -11.422961000000001 -70.954993999999985
72424000000 -0.17601845999999954 16.677016999999999 -64.101562999999999 49.331528000000006 -63.800879999999999 51.22452899999999 -11.442446000000002 -71.099350000000015
72472000000 -0.17093362999999959 16.685734 -64.100532999999999 48.955078 -63.742882000000009 48.528473000000005 -11.453427000000001 -71.103950999999995
72520000000 -0.16586255999999977 16.739929 -63.775913000000003 46.598351000000001 -63.810389999999998 48.412742999999992 -11.448190999999998 -71.183555999999996
72568000000 -0.17640235000000076 16.727208999999998 -63.751353999999992 46.007103000000001 -63.881625999999997 47.159279000000005 -11.452907000000002 -71.226669000000001
72616000000 -0.17337455000000135 16.724523999999999 -63.725417999999998 45.424609999999994 -63.657116000000002 47.270846999999996 -11.441547999999999 -71.233756999999997
72664000000 -0.16198997000000079 16.775552999999999 -63.554363000000002 44.964438999999999 -63.650405999999997 46.058467999999991 -11.43022 -71.274169999999998
72712000000 -0.16735003999999998 16.763812999999999 -63.504565999999997 43.59774800000001 -63.639919000000006 45.000957 -11.423249 -71.337020999999993
72760000000 -0.16408308999999871 16.749248999999999 -63.409137999999999 41.89860199999999 -63.512351999999993 44.900184999999993 -11.405804 -71.310837000000006
72808000000 -0.16029884999999983 16.793012999999998 -63.422333000000002 41.622841000000001 -63.636077999999998 44.16109500000001 -11.392264999999998 -71.322127999999992
72856000000 -0.16668558000000072 16.785274999999999 -63.760371999999997 42.724425999999994 -63.617283 43.364780000000003 -11.380967999999999 -71.337494000000007
72904000000 -0.16316031000000147 16.796419 -63.641136000000003 40.524802999999999 -63.530849000000003 42.533947000000005 -11.376764999999999 -71.370621
72952000000 -0.15805291999999985 16.864664000000001 -63.600017999999999 41.090510999999999 -63.708568999999997 42.550471999999999 -11.370107000000001 -71.386359999999996
73000000000 -0.16035070000000018 16.853535000000001 -63.706753000000006 39.426014000000009 -63.712336999999991 42.705142999999985 -11.362866 -71.395522999999997
73048000000 -0.16500661999999899 16.845613000000004 -63.700699 39.449455000000007 -63.666137999999997 42.094966999999997 -11.363163 -71.452292999999997
73096000000 -0.15611674000000042 16.891020000000001 -63.811981000000003 40.273567 -63.642712000000003 42.70003899999999 -11.356399 -71.449637999999993
73144000000 -0.15541025999999977 16.916831999999999 -63.546504999999996 40.157341000000002 -63.628605 43.152362999999994 -11.352755999999999 -71.466048999999998
73192000000 -0.16401696000000032 16.871475000000004 -63.326602999999999 40.619999 -63.396614 41.389481000000004 -11.343024 -71.493820000000014
73240000000 -0.16276523000000012 16.905764000000005 -63.347607000000004 39.203071999999999 -63.53070799999999 41.761329999999994 -11.338898999999998 -71.503005999999999
73288000000 -0.15089379000000036 16.969919000000001 -63.236710000000002 38.938575999999991 -63.432892000000002 40.555782000000001 -11.332958 -71.501274000000009
73336000000 -0.15735204999999969 16.933592000000001 -63.350033000000003 38.312557000000005 -63.370368999999997 40.127132000000003 -11.326599999999999 -71.502396000000005
73384000000 -0.16455840999999977 16.922411 -63.242283 36.16578299999999 -63.399806999999996 38.832721999999997 -11.320762999999999 -71.516768999999996
73432000000 -0.15539040999999973 16.995138000000004 -63.316600999999999 35.917755000000007 -63.259605000000001 38.231262000000001 -11.315693 -71.501784999999984
73480000000 -0.16026475000000034 17.014715000000002 -63.327147999999994 33.959876999999999 -63.609634 37.827435000000008 -11.322165 -71.52604700000002
73528000000 -0.16996147999999883 16.990834999999997 -63.618865999999997 33.151832999999996 -63.353565000000003 36.415569000000005 -11.320004000000001 -71.560790999999995
73576000000 -0.16451001000000046 17.005507000000001 -63.569298000000003 34.356045000000009 -63.510105000000003 35.55379099999999 -11.321797 -71.61295299999999
73624000000 -0.16336538999999869 16.999886999999998 -63.530563000000001 32.000866000000002 -63.511817999999998 36.137320999999993 -11.32626 -71.679259999999985
73672000000 -0.16478318000000006 16.969881000000001 -63.603554000000003 31.966950999999995 -63.921779999999998 35.745322999999999 -11.327651000000001 -71.684944000000002
73720000000 -0.15974103000000139 16.994676999999999 -63.736598999999998 33.639247999999995 -63.805950000000003 36.728175999999998 -11.317493000000001 -71.707526999999999
73768000000 -0.15795225999999968 17.004396 -64.019278999999997 33.083096000000005 -63.820437999999996 35.748740999999995 -11.307735999999998 -71.723563999999982
73816000000 -0.16251585000000046 17.004594999999991 -63.911785000000009 33.768645999999997 -63.798789999999997 36.067356000000004 -11.290615000000003 -71.710487000000015
73864000000 -0.16719669000000034 17.023175999999999 -63.804580999999999 34.797615000000008 -63.797058 36.084385000000005 -11.268542999999999 -71.701285999999982
73912000000 -0.16672673999999912 17.038550999999995 -63.919192999999993 32.971264000000005 -63.654052999999998 35.853316999999997 -11.243802000000001 -71.683028999999991
73960000000 -0.17188016000000128 17.029105999999995 -63.776423999999999 33.359917000000003 -63.828732000000002 36.690913999999999 -11.224584 -71.699798999999999
74008000000 -0.17316873000000027 17.049803000000001 -63.897891999999999 31.343407000000003 -63.866173000000003 36.275078000000001 -11.208843 -71.730048999999994
74056000000 -0.17173742999999864 17.068068999999998 -63.830974999999995 33.809708000000001 -63.952964999999999 35.671756999999992 -11.194777 -71.774406000000013
74104000000 -0.17069966999999997 17.095181999999998 -64.131996000000001 34.262813999999992 -63.794795999999998 36.42297700000001 -11.194486000000001 -71.800353999999999
74152000000 -0.16850055999999972 17.098656000000002 -63.791179999999997 34.96381800000001 -63.792949999999998 35.859679999999997 -11.197205 -71.791893000000002
74200000000 -0.1660965399999986 17.106724 -63.853527 34.141502000000003 -63.784301999999997 36.105125000000001 -11.195779999999999 -71.785019000000005
74248000000 -0.16717491000000045 17.115587000000001 -63.568451000000003 34.398509999999995 -63.752265999999992 36.895473000000003 -11.198479000000001 -71.826614000000006
74296000000 -0.16934614999999989 17.080739999999999 -63.655678000000002 33.566493999999999 -63.402240999999997 36.039444000000003 -11.193238999999998 -71.842147999999995
74344000000 -0.16758840000000039 17.112379000000004 -63.544552000000003 32.871634999999998 -63.426994000000001 36.189857000000003 -11.184006999999998 -71.844986000000006
74392000000 -0.17322637000000002 17.098832999999999 -63.381134000000003 32.478560999999999 -63.38786300000001 34.867825000000003 -11.174461000000001 -71.854796999999991
74440000000 -0.17350115999999988 17.081939999999996 -63.35225299999999 33.482104999999997 -63.329158999999997 34.203555999999999 -11.167507000000001 -71.87363400000001
74488000000 -0.17172557000000074 17.141203000000001 -63.434696000000002 32.800831000000002 -63.398570999999997 34.549693999999995 -11.161303 -71.848526000000007
74536000000 -0.17723141999999995 17.120043000000003 -63.492137999999997 30.588699000000002 -63.336413999999991 34.680450000000008 -11.156571 -71.865829000000005
74584000000 -0.18056033999999971 17.132066999999999 -63.343764999999991 30.890588999999988 -63.306292999999997 34.463734000000009 -11.158177999999999 -71.902389999999997
74632000000 -0.17434181000000087 17.192539 -63.355991000000003 30.169186 -63.213383 32.89777800000001 -11.157073 -71.907264999999995
74680000000 -0.17033729000000042 17.206126999999999 -63.350116999999997 28.977203000000003 -63.264961 33.135899000000002 -11.158404000000001 -71.932456999999999
74728000000 -0.17256211000000032 17.176210000000001 -63.483986000000002 29.471637999999999 -63.446097999999999 31.849734999999995 -11.159814000000001 -71.966614000000021
74776000000 -0.16632434999999984 17.187151 -63.573807000000002 28.187199000000003 -63.407398000000001 32.132319999999993 -11.159610000000001 -71.991837000000004
74824000000 -0.16585986000000011 17.184397000000001 -63.832943 29.914100999999995 -63.691544 32.693729000000005 -11.155846 -72.025947999999985
74872000000 -0.17611900999999971 17.15333 -63.828209000000001 28.559341 -63.554473999999999 32.085284999999999 -11.151035999999998 -72.048691000000019
74920000000 -0.18306713999999991 17.141457000000003 -63.634697000000003 29.456019999999999 -63.713729999999998 32.355460999999998 -11.142264000000001 -72.057013999999995
74968000000 -0.18552056000000022 17.175712999999998 -63.79842 30.094360000000009 -63.622275999999999 31.275772 -11.130155999999999 -72.066269000000005
75016000000 -0.1929549000000001 17.199930000000002 -63.606650999999999 29.271465000000003 -63.707465999999997 30.95720900000001 -11.116188000000001 -72.060944000000021
75064000000 -0.1961718600000002 17.229841 -63.829197000000008 29.352624999999996 -63.630768000000003 31.0886 -11.100439 -72.061194999999998
75112000000 -0.19232304000000075 17.264601000000003 -63.817245 29.340474999999998 -63.782539 31.083995999999999 -11.086048 -72.078063999999998
75160000000 -0.1950269800000001 17.308004 -63.984474000000006 29.115643000000002 -63.804596000000004 32.461098 -11.079422999999998 -72.116271999999995
75208000000 -0.19397064999999947 17.329401000000001 -63.874766999999999 29.932358000000001 -63.903632999999999 33.034359000000009 -11.066834999999999 -72.116355999999996
75256000000 -0.18710343999999962 17.340603000000002 -63.970131000000009 30.587754999999994 -63.801552000000001 34.608635 -11.063744 -72.148055999999983
75304000000 -0.18544464999999966 17.344785999999999 -63.856589999999997 29.848307000000002 -63.781379999999999 34.170307000000001 -11.062994 -72.195694000000003
75352000000 -0.17930598999999969 17.320986000000005 -63.767344999999992 31.577908000000001 -63.610942999999992 34.910496000000002 -11.061747 -72.233559
75400000000 -0.17911823000000054 17.285620000000005 -63.787205 30.611575999999999 -63.577896000000003 34.595176999999993 -11.060172999999997 -72.265900000000002
75448000000 -0.1813543000000003 17.27862 -63.643044000000003 29.794979000000001 -63.585692999999999 33.821308000000002 -11.058234000000001 -72.291022999999996
75496000000 -0.18385995999999954 17.26754 -63.937816999999995 30.208970999999998 -63.574459000000004 34.155174000000002 -11.052517999999999 -72.29847700000002
75544000000 -0.18224910999999944 17.279408 -63.685516 30.293678 -63.471415999999998 34.284610999999991 -11.047934 -72.309578000000002
75592000000 -0.18336523999999962 17.313931000000004 -63.576911999999993 30.533591999999995 -63.315426000000002 34.091824000000003 -11.042490000000001 -72.315453000000005
75640000000 -0.18755911000000045 17.318266000000001 -63.543197999999997 30.639908000000002 -63.360878 33.509731000000002 -11.036035999999999 -72.324141999999995
75688000000 -0.18779965999999992 17.329636000000001 -63.470374999999997 30.010383999999998 -63.261795000000006 34.023524999999992 -11.034995000000002 -72.33985100000001
75736000000 -0.18065396999999958 17.398082999999996 -63.398955999999998 29.977395999999995 -63.300037000000003 32.556129000000006 -11.034985000000002 -72.370720000000006
75784000000 -0.18057032000000101 17.428782000000002 -63.419556 28.854624000000001 -63.362518000000001 32.515064000000002 -11.031079999999999 -72.380218999999983
75832000000 -0.18036712999999996 17.413446 -63.533507999999998 29.543909000000006 -63.267910000000001 32.240626999999996 -11.032001000000001 -72.429496999999998
75880000000 -0.18031936999999909 17.426105 -63.432383999999999 28.466863999999998 -63.480110000000003 32.861355000000003 -11.032218 -72.469748999999993
75928000000 -0.17577182000000108 17.469716999999999 -63.490371999999994 29.294262 -63.297707000000003 33.146648000000006 -11.029738999999999 -72.49788700000002
75976000000 -0.1755400000000002 17.483328 -63.521149000000001 30.020593999999999 -63.305962000000008 32.468594000000003 -11.026196000000002 -72.537948999999998
76024000000 -0.18089253999999858 17.472520999999997 -63.512157000000002 29.847975000000002 -63.307636000000002 33.275696000000003 -11.022612000000001 -72.578461000000019
76072000000 -0.18546031000000077 17.471121 -63.340614000000002 30.297142000000001 -63.136578 32.901608000000003 -11.017484 -72.597054
76120000000 -0.18210766000000028 17.497791000000007 -63.326954000000001 28.996977000000001 -63.072147000000001 32.334648000000001 -11.008478 -72.625152999999997
76168000000 -0.18238571000000009 17.506926 -63.128807000000002 28.615214999999996 -63.019309999999997 32.681576 -10.998733000000001 -72.630470000000003
76216000000 -0.18901375000000023 17.493006000000001 -63.132762999999997 28.909158999999999 -63.154892000000004 30.668459000000002 -10.988716 -72.651389999999992
76264000000 -0.18938336999999997 17.521023 -63.327206000000004 28.273955999999995 -63.008869000000004 31.430531999999999 -10.976032 -72.679839999999999
76312000000 -0.18656349000000144 17.544771000000001 -63.307944999999997 27.888638000000004 -63.187275 32.429313999999998 -10.965911999999999 -72.694321000000002
76360000000 -0.18897238000000033 17.544284999999995 -63.138897 28.899432999999995 -63.226013000000009 32.035834999999999 -10.958544 -72.704543999999999
76408000000 -0.18791373000000142 17.578150000000001 -63.188617999999998 28.489202000000002 -63.032992999999998 32.590946000000002 -10.953357 -72.754402000000013
76456000000 -0.1857191299999999 17.576139000000001 -63.282936000000007 28.757302999999993 -62.872428999999997 31.607702000000007 -10.948696 -72.769576999999998
76504000000 -0.18617546999999884 17.586680999999999 -62.939365000000002 28.753511 -62.768062999999998 30.571497000000001 -10.949574 -72.807213000000004
76552000000 -0.18244941999999964 17.630949000000001 -62.754615999999999 27.695663000000007 -62.756557000000001 31.759198999999999 -10.949298000000001 -72.861266999999998
76600000000 -0.17772812000000021 17.606161000000004 -62.896220999999997 27.091000000000001 -62.809330000000003 30.523839999999996 -10.945017999999999 -72.875625999999997
76648000000 -0.18036525000000028 17.606729999999999 -62.816833000000003 25.920506 -62.581637999999998 30.509868999999995 -10.944185999999998 -72.913246000000015
76696000000 -0.17807681999999922 17.632852999999997 -62.73679700000001 25.906436999999993 -62.649990000000003 29.528267000000003 -10.943845 -72.949471000000003
76744000000 -0.17862137 17.655827000000002 -62.714107999999996 26.017166 -62.555340000000001 27.905958000000002 -10.939439 -72.962440000000015
76792000000 -0.18245616999999961 17.634170999999998 -63.000320000000002 24.846751999999999 -62.581074000000001 28.290628000000002 -10.936318999999997 -73.036758000000006
76840000000 -0.18250800999999955 17.658404999999998 -62.961326999999997 24.357831999999998 -62.578484000000003 27.113240999999999 -10.934837 -73.045379999999994
76888000000 -0.1843847000000009 17.664294999999999 -63.030197000000001 22.524199999999997 -62.542442000000008 26.007449999999999 -10.929278999999998 -73.063132999999993
76936000000 -0.18934226000000048 17.674053000000001 -63.13818400000001 22.830132000000003 -62.873604 25.191780000000005 -10.926917 -73.096306000000013
76984000000 -0.18836895000000003 17.710017999999998 -63.129435999999998 22.882849 -62.883212999999998 24.794917999999996 -10.92714 -73.147193999999999
77032000000 -0.1863665100000001 17.725757999999999 -63.042575999999997 22.727224 -63.057837999999997 25.515208999999999 -10.92642 -73.172820999999999
77080000000 -0.18784398999999954 17.732813 -63.286476 22.507684999999999 -63.172283 24.994127000000002 -10.927963999999999 -73.230255
77128000000 -0.18930603999999951 17.751736000000001 -63.310211000000002 23.113604000000002 -63.038277000000001 25.152132000000002 -10.932293 -73.277573000000004
77176000000 -0.18900482000000027 17.763860999999995 -63.192760000000007 22.364210000000007 -62.995616999999996 24.322707999999995 -10.934370000000001 -73.332419999999999
77224000000 -0.18627435999999956 17.795155999999995 -63.213920999999999 21.389046 -63.216728000000003 25.385521000000001 -10.934670000000001 -73.372330000000005
77272000000 -0.18685561000000034 17.797333000000002 -63.417937999999992 22.61561 -63.171638000000002 24.561171000000002 -10.932294999999998 -73.410995
77320000000 -0.18730450999999923 17.840654000000001 -63.538815 21.674940000000003 -63.165474000000003 26.089852999999994 -10.931779000000002 -73.45599399999999
77368000000 -0.18318245000000008 17.860708000000002 -63.642513000000001 22.955496 -63.263866 25.153905999999999 -10.92872 -73.487555999999984
77416000000 -0.18449840999999978 17.863987000000002 -63.454757999999998 23.202095 -63.292282 24.954231000000004 -10.927128 -73.523262000000003
77464000000 -0.18849060000000029 17.865241999999999 -63.411845999999997 22.852609999999995 -63.33505199999999 25.360435000000003 -10.924499999999998 -73.556861999999995
77512000000 -0.18702722000000044 17.875530000000001 -63.71976500000001 22.016687000000008 -63.428890000000003 25.585739 -10.923353000000002 -73.585532999999998
77560000000 -0.18393204999999993 17.909496000000001 -63.744658999999999 23.610889000000004 -63.393718999999997 25.367428 -10.926819999999999 -73.624770999999996
77608000000 -0.18981521000000051 17.917017000000005 -63.727291000000001 23.714711999999999 -63.350867999999998 25.757313000000003 -10.930534000000002 -73.675895999999995
77656000000 -0.18920436999999954 17.879209999999997 -63.459216999999995 24.6675 -63.279715999999993 25.819766999999999 -10.935207 -73.704932999999997
77704000000 -0.18422644000000002 17.910882999999998 -63.344265 23.811198999999995 -63.253525000000003 25.845444000000001 -10.938202 -73.701729
77752000000 -0.18800374999999869 17.926726999999996 -63.383067999999994 23.506398999999998 -63.314213000000009 26.097585999999996 -10.940832999999996 -73.768555000000006
77800000000 -0.18726936999999969 17.945544999999999 -63.280884 22.832691000000001 -63.321835 25.081489999999995 -10.945978000000004 -73.818168999999997
77848000000 -0.18471260000000017 17.931463000000001 -63.470649999999999 22.100693 -63.331603999999999 25.410706000000005 -10.946262000000001 -73.84343699999998
77896000000 -0.18338090000000001 17.959164000000001 -63.638351 21.531328000000006 -63.500427000000002 25.06279 -10.945133999999999 -73.854934999999998
77944000000 -0.18386886999999957 17.969498000000002 -63.687049999999999 22.477394 -63.482970999999999 25.584488 -10.944125 -73.894997000000018
77992000000 -0.18451082999999982 18.014394999999997 -63.72188899999999 22.285205999999992 -63.365189000000001 25.285194000000001 -10.942225000000001 -73.919135999999995
78040000000 -0.1828770600000004 18.015799000000001 -63.826157000000009 22.690901 -63.565688999999999 26.152107000000001 -10.941157000000004 -73.942702999999995
78088000000 -0.18612495000000032 17.998491000000001 -63.887112000000002 23.592275999999998 -63.671531999999999 25.958463999999996 -10.942342 -73.961235000000002
78136000000 -0.18738044999999959 18.016171 -63.88646700000001 24.153272999999999 -63.541015999999999 26.839570999999999 -10.944057000000001 -74.007126
78184000000 -0.18683346000000042 18.028279999999999 -63.868003999999999 24.909197000000002 -63.517722999999997 27.318843999999999 -10.944542999999999 -74.025268999999994
78232000000 -0.1922180500000002 18.053070000000005 -63.836750000000002 24.782440000000001 -63.566406000000001 27.932120999999999 -10.952776 -74.086403000000004
78280000000 -0.19143643999999879 18.035892 -63.705658 25.168282000000001 -63.533492999999993 27.278402000000003 -10.954678999999999 -74.120193
78328000000 -0.18871688999999858 18.061810000000001 -63.713017000000001 26.133669000000001 -63.335017999999998 26.860549999999996 -10.959603 -74.153830999999997
78376000000 -0.18676319999999974 18.093962000000001 -63.736556999999998 25.780176000000001 -63.456741000000001 27.287235000000003 -10.968033999999999 -74.183914000000001
78424000000 -0.18771696000000054 18.113697000000002 -63.674312999999998 25.838069999999998 -63.529223999999999 27.647507000000001 -10.973040999999998 -74.223961000000003
78472000000 -0.18798130999999896 18.124469999999999 -63.745612999999999 26.037375999999998 -63.413238999999997 27.888643000000002 -10.975019 -74.236794000000017
78520000000 -0.18473555000000116 18.156988000000002 -63.593654999999998 25.416051999999997 -63.378880000000002 28.014352999999996 -10.976754 -74.264870000000002
78568000000 -0.18180399000000003 18.154022000000001 -63.615059000000002 25.835523999999999 -63.468735000000002 28.122461000000001 -10.973394000000001 -74.272757999999996
78616000000 -0.18318731000000063 18.146820000000002 -63.635750000000002 26.768736000000001 -63.451217999999997 28.588013000000007 -10.970806000000001 -74.286194000000009
78664000000 -0.18058002999999992 18.169002999999996 -63.715263 26.768084000000009 -63.319843000000006 28.618048000000002 -10.965902 -74.295272999999995
78712000000 -0.17825455999999962 18.171555999999999 -63.524085999999997 26.561156999999994 -63.43105700000001 28.767472999999999 -10.958545000000001 -74.293312
78760000000 -0.18310953999999932 18.166292000000002 -63.585124999999998 25.995360999999999 -63.372501 28.455676999999998 -10.954229 -74.302254000000005
78808000000 -0.18478499000000015 18.172007000000001 -63.583648999999994 26.385228999999999 -63.357745999999999 28.595167 -10.953316999999998 -74.3172
78856000000 -0.18061943000000047 18.198232999999998 -63.610325000000003 27.217518000000005 -63.494061000000002 29.790904999999995 -10.954241 -74.339134000000001
78904000000 -0.18331744999999924 18.21529 -63.582374999999999 27.242225999999995 -63.419818999999997 29.989449 -10.956835 -74.376311999999999
78952000000 -0.1848287400000011 18.210016 -63.586880000000001 28.061834000000001 -63.307837999999997 30.292641 -10.958480999999999 -74.392539999999997
79000000000 -0.18301180000000014 18.236571999999999 -63.435276000000002 28.189288999999999 -63.196361999999993 31.030476 -10.967012999999998 -74.443268000000003
79048000000 -0.18250610999999914 18.258973999999998 -63.631207000000003 28.875872000000001 -63.164055000000005 30.612893999999997 -10.972897 -74.497658000000001
79096000000 -0.18236654000000116 18.259325000000004 -63.469433000000002 28.841293000000011 -63.138035000000002 31.323014999999998 -10.972031000000001 -74.502082999999985
79144000000 -0.18175295999999982 18.272566000000005 -63.373669 28.330219 -63.139557000000003 31.344588999999996 -10.973743000000001 -74.551604999999995
79192000000 -0.17966129000000042 18.282066 -63.618172000000001 29.783845999999997 -63.103508000000005 31.370117 -10.970502 -74.566872000000004
79240000000 -0.17875380999999996 18.292767999999995 -63.276195999999999 29.932146000000003 -63.079661999999999 31.222977 -10.961071 -74.580391000000006
79288000000 -0.17846034000000033 18.291252 -63.142741999999998 31.071639999999991 -62.949818000000008 31.278174999999997 -10.952853000000001 -74.585762000000003
79336000000 -0.17682723999999966 18.289209000000003 -63.217528999999999 30.541342 -62.775081999999998 31.991882 -10.942381000000001 -74.582816999999991
79384000000 -0.17917541999999956 18.307209 -63.062595000000002 30.206641999999988 -62.808551999999992 32.659962 -10.932698999999996 -74.571342000000016
79432000000 -0.18233226000000105 18.292449999999999 -63.006850999999997 30.879225000000002 -62.773533 33.270747999999998 -10.925991999999997 -74.571106
79480000000 -0.18273775000000037 18.290329 -62.992237000000003 31.217410999999998 -62.716090999999999 31.992643000000001 -10.925408000000001 -74.592979
79528000000 -0.18288247000000002 18.314275999999996 -62.783397999999991 31.345600000000001 -62.799767000000003 32.590992 -10.931728 -74.629868000000002
79576000000 -0.18472447999999989 18.308065000000003 -62.645690999999999 32.445221000000004 -62.503456 32.232402999999998 -10.941863000000001 -74.671631000000019
79624000000 -0.18736531999999995 18.340764999999998 -62.489978999999998 29.898105999999988 -62.494853999999989 32.739944000000008 -10.954882000000001 -74.752335000000002
79672000000 -0.18939093999999979 18.379599000000002 -62.517516999999998 29.988821000000009 -62.312404999999998 32.146214000000001 -10.969882999999999 -74.834243999999998
79720000000 -0.18837786999999923 18.386669000000001 -62.406647 30.445069999999998 -62.277808999999998 32.508582999999994 -10.979677000000001 -74.877448999999999
79768000000 -0.18599930000000028 18.386957000000002 -62.336121000000006 29.299277999999997 -62.09845 31.519827000000003 -10.985372 -74.916984999999997
79816000000 -0.18406548000000025 18.406365999999998 -62.31904999999999 29.981003000000001 -62.070988 30.991936000000003 -10.983014999999998 -74.950919999999996
79864000000 -0.17944007000000042 18.433219999999999 -62.201813000000001 28.671215 -62.098475999999998 31.383388999999998 -10.968139000000001 -74.945244000000002
79912000000 -0.17869960000000018 18.423788000000005 -62.154888 29.037249000000003 -61.973312 31.010248000000008 -10.952399 -74.950942999999995
79960000000 -0.1826821400000001 18.419889000000001 -62.199005 28.752775 -61.869731999999999 30.878213999999996 -10.936242 -74.980002999999996
80008000000 -0.18081130000000054 18.416412000000001 -62.024951999999999 28.523969999999998 -61.894092999999998 31.551431999999998 -10.919736 -74.957199000000017
80056000000 -0.18306039000000013 18.417749000000001 -61.914527999999997 27.550186 -61.734183999999999 30.672194000000008 -10.910633999999998 -74.967178000000004
80104000000 -0.18774371000000117 18.424826000000003 -61.872612000000004 27.825678000000007 -61.793014999999997 30.586583999999995 -10.909321 -74.987441999999987
80152000000 -0.18911784999999917 18.432144000000001 -61.938003999999999 27.225822000000001 -61.69935199999999 30.055674000000003 -10.913914 -75.007865999999993
80200000000 -0.19093545000000042 18.449297000000005 -61.912098 26.647386999999995 -61.780586 29.563207999999999 -10.927846000000001 -75.080749999999995
80248000000 -0.18853736999999998 18.474993000000001 -61.882663999999998 27.182146000000003 -61.717124999999996 29.122001999999998 -10.941108 -75.132530000000003
80296000000 -0.18963458000000005 18.493061000000001 -61.874080999999997 27.562124000000001 -61.645424000000006 29.567977999999997 -10.952902999999999 -75.202049000000002
80344000000 -0.18974165999999934 18.515180999999998 -61.738697000000002 27.208412000000003 -61.665156999999994 28.667297000000008 -10.961347 -75.248298999999989
80392000000 -0.18447787999999971 18.511322000000003 -61.636142999999997 27.246745999999998 -61.603313 29.437439000000001 -10.960356000000001 -75.266486999999998
80440000000 -0.18386482000000037 18.532661000000001 -61.590629999999997 26.659725000000002 -61.475067000000003 28.991882000000004 -10.950438 -75.310280000000006
80488000000 -0.18371791000000137 18.525009000000004 -61.577370000000002 26.536648 -61.478470000000002 28.655536999999999 -10.939467999999998 -75.34169
80536000000 -0.18396445999999986 18.520803000000001 -61.581985000000003 26.033039000000002 -61.429774999999999 29.044249000000001 -10.928853999999999 -75.343597000000003
80584000000 -0.18343328999999964 18.529140000000002 -61.562491999999992 25.908863 -61.329250000000002 28.168361999999998 -10.911235999999999 -75.324188000000007
80632000000 -0.18654348999999953 18.523465999999999 -61.624493000000001 25.319546000000003 -61.354385000000001 28.223472999999995 -10.897022 -75.307898999999992
80680000000 -0.18970378999999943 18.517683000000002 -61.584216999999995 24.879420999999997 -61.297218000000001 27.893333000000002 -10.890902000000001 -75.316527999999991
80728000000 -0.19028009000000046 18.535288000000001 -61.526412999999998 25.444532000000002 -61.338856 27.610524999999992 -10.893046999999999 -75.347954000000016
80776000000 -0.18876798000000042 18.557774999999999 -61.507731999999997 25.324293000000001 -61.379646000000001 27.109792999999996 -10.904166 -75.397141000000005
80824000000 -0.19172077000000146 18.558392999999999 -61.457881999999998 25.544767 -61.299067999999998 27.283200999999998 -10.920271 -75.450974000000002
80872000000 -0.19315596999999976 18.585951000000001 -61.54142800000001 24.524398999999999 -61.294803999999999 28.251533999999999 -10.935851 -75.525489999999991
80920000000 -0.18941093999999878 18.609939999999998 -61.498294999999999 25.110662000000001 -61.216270000000002 27.650398000000003 -10.954758 -75.608260999999999
80968000000 -0.18852061000000037 18.624356999999996 -61.382595000000002 25.58588 -61.167786 27.252685999999994 -10.968730000000001 -75.677566999999996
81016000000 -0.18932685000000057 18.632171999999997 -61.352127000000003 25.202646000000001 -61.08728 27.419579999999996 -10.969655999999999 -75.697899000000007
81064000000 -0.18760667999999983 18.632578000000002 -61.182789 24.509952999999996 -61.105666999999997 26.587221 -10.960782 -75.724281000000005
81112000000 -0.18736153999999866 18.635304999999995 -61.093802999999994 24.865591000000002 -61.112979999999993 26.410897999999996 -10.942821 -75.722183000000001
81160000000 -0.18601443999999995 18.655190000000001 -61.058067000000008 24.000473 -60.912082999999996 27.165921999999998 -10.928103 -75.745513999999986
81208000000 -0.18384185 18.649740000000001 -60.963985000000001 23.349076999999998 -60.895164000000001 25.993488000000003 -10.912257 -75.748390000000001
81256000000 -0.18909810000000077 18.646070000000002 -60.997379000000002 24.309308999999995 -60.739318999999995 25.874031000000002 -10.899430000000001 -75.722938999999997
81304000000 -0.19076314999999969 18.657515 -60.992858999999996 23.130966000000001 -60.710968000000001 25.588454999999996 -10.896264999999998 -75.751427000000007
81352000000 -0.19186090999999977 18.658155000000001 -60.862907 22.931898 -60.677596999999999 24.954046000000009 -10.903712000000001 -75.80162
81400000000 -0.19396198999999953 18.675138 -60.892966999999999 22.056536000000001 -60.671227000000002 24.044267999999999 -10.915861 -75.872107999999997
81448000000 -0.19577539999999949 18.698360000000005 -60.936604000000003 22.023705 -60.698143000000002 24.000306999999999 -10.933228 -75.925362000000007
81496000000 -0.19700362999999971 18.714869 -61.039313999999997 21.959425000000003 -60.643383 22.908264000000003 -10.951594 -75.988692999999998
81544000000 -0.19710438999999963 18.720079000000002 -60.924618000000009 20.743761000000003 -60.746718999999999 22.742290000000001 -10.960086 -76.022071999999994
81592000000 -0.19555821999999962 18.724763999999997 -60.870831000000003 21.048639000000005 -60.717701000000005 23.603103999999995 -10.958568 -76.017639000000003
81640000000 -0.19389106000000028 18.778776000000001 -61.002746999999999 21.086807 -60.723457000000003 23.362244 -10.9617 -76.061538999999996
81688000000 -0.19279063000000013 18.756246999999998 -60.922749000000003 21.887944999999998 -60.809089999999998 22.90579 -10.947622000000003 -76.062294000000009
81736000000 -0.19717590999999954 18.733025000000001 -60.920315000000002 20.469297000000001 -60.665492999999998 23.159817 -10.930311 -76.046378999999988
81784000000 -0.19484396000000057 18.740851999999997 -60.901539 20.941984000000005 -60.701915999999997 23.159732999999999 -10.912972999999999 -76.010513000000003
81832000000 -0.19356003000000038 18.750297999999997 -60.860832000000002 20.606016 -60.586558999999994 22.846613000000001 -10.900079 -75.998863
81880000000 -0.19987636999999886 18.759656999999997 -60.867095999999997 21.069552999999999 -60.598224999999999 22.722504000000001 -10.892386 -76.003600999999989
81928000000 -0.20193874999999975 18.772644000000003 -60.811405000000001 20.587440000000001 -60.53171900000001 22.512415000000001 -10.888085 -76.027428
81976000000 -0.20133432999999906 18.796056999999998 -60.743542000000005 20.130570999999996 -60.493378 22.294682999999996 -10.892859999999999 -76.077483999999998
82024000000 -0.20129392999999957 18.807631000000001 -60.755116000000001 19.952671000000002 -60.584826999999997 21.578593999999999 -10.904284000000001 -76.126839000000004
82072000000 -0.20237619000000034 18.905982999999996 -60.673954000000009 19.771372 -60.589507999999995 21.682179999999999 -10.916751 -76.192886000000001
82120000000 -0.20016044000000011 18.871483000000001 -60.621288 19.566089999999999 -60.407043000000002 21.813815999999999 -10.922593000000001 -76.246245999999985
82168000000 -0.19429195999999976 18.886011 -60.705295999999997 19.647524000000001 -60.466540999999992 21.654263000000004 -10.92774 -76.302063000000004
82216000000 -0.19168748999999957 18.903038000000006 -60.701942000000003 19.213163000000002 -60.548988000000001 21.614066999999995 -10.930401 -76.318565000000021
82264000000 -0.19383611999999995 18.887131 -60.631824000000009 18.455165999999995 -60.326439000000001 21.435848 -10.923535999999999 -76.340744000000001
82312000000 -0.19389675999999981 18.890158 -60.552768999999998 18.779768000000001 -60.428268000000003 20.476082000000002 -10.915405 -76.354301000000007
82360000000 -0.19421805000000009 18.896746000000004 -60.673560999999992 18.037459999999999 -60.410728000000006 20.628035000000004 -10.900513999999999 -76.343322999999998
82408000000 -0.19831484999999993 18.882007999999999 -60.469986000000006 18.026146000000001 -60.304611000000001 21.246476999999992 -10.886458999999999 -76.339821000000001
82456000000 -0.20370667000000048 18.883784999999996 -60.439109999999999 17.746140999999998 -60.398598000000007 19.618485999999997 -10.872123 -76.330780000000004
82504000000 -0.20633653999999987 18.890931999999999 -60.552302999999995 16.985441000000005 -60.352440000000001 19.027370000000001 -10.860291 -76.307663000000005
82552000000 -0.20750502999999892 18.911931999999997 -60.656162000000002 17.116896000000001 -60.408596000000003 19.103783 -10.863395000000001 -76.341919000000004
82600000000 -0.20800468000000022 18.934373999999998 -60.627952999999991 17.943735 -60.44533899999999 19.019031999999999 -10.872924999999999 -76.379622999999995
82648000000 -0.20826374999999875 18.960732 -60.669758000000002 17.270094 -60.429603999999998 19.204355000000003 -10.884260999999999 -76.416336000000001
82696000000 -0.20713361000000027 18.992214000000001 -60.739913999999999 17.079325000000001 -60.346752000000009 19.265228 -10.903841 -76.469948000000002
82744000000 -0.20383418000000017 19.004971999999999 -60.568629999999999 17.140309999999999 -60.450771000000003 19.066752999999999 -10.921011 -76.517807000000005
82792000000 -0.19832163000000039 19.021702000000001 -60.583042000000006 17.096382000000002 -60.359065999999999 19.468456 -10.929684999999999 -76.554664999999986
82840000000 -0.19747497000000014 19.029102000000005 -60.546585000000007 16.957834000000002 -60.342896000000003 19.617901 -10.932919999999999 -76.573723000000001
82888000000 -0.19915651999999956 19.015938000000002 -60.509734999999992 17.189342 -60.255661000000003 19.181794999999997 -10.929282999999998 -76.595534999999998
82936000000 -0.19858337999999978 19.006446999999998 -60.491427999999999 17.971018000000001 -60.237597999999998 19.372175000000002 -10.920418999999999 -76.598274000000004
82984000000 -0.20371506999999969 18.990648 -60.408828999999997 17.874655000000001 -60.197982999999994 19.505053000000004 -10.904902 -76.598495000000014
83032000000 -0.20710454999999947 19.024156999999992 -60.398521000000002 17.537910000000004 -60.247317999999993 20.101849000000001 -10.886474 -76.591239999999999
83080000000 -0.21279682000000039 19.023683999999999 -60.459384999999997 17.526541000000002 -60.108722999999998 19.404630999999998 -10.872214000000003 -76.574271999999993
83128000000 -0.22047329000000027 18.992241 -60.352153999999999 17.287230000000001 -60.036766 19.217060000000004 -10.862076999999999 -76.578345999999996
83176000000 -0.22373060999999994 19.029817999999995 -60.29492599999999 17.573771000000001 -60.120486999999997 18.592276000000002 -10.855017999999998 -76.590835999999996
83224000000 -0.22218855000000082 19.131360999999998 -60.152180000000001 17.014303000000002 -59.971321000000003 18.693914000000003 -10.853299 -76.623610999999997
83272000000 -0.22351966999999967 19.176749999999998 -60.225276999999991 16.836521000000001 -59.991928000000001 18.195848000000002 -10.860951 -76.671104
83320000000 -0.22070369000000009 19.217945 -60.180275000000009 17.044355000000003 -59.93944900000001 18.665738999999999 -10.869305000000001 -76.725089999999994
83368000000 -0.21557473999999968 19.245628000000004 -60.093249999999998 16.414681999999999 -59.924412000000004 18.330511000000001 -10.870557999999999 -76.756020000000007
83416000000 -0.20973432000000028 19.264368000000001 -59.930931000000001 16.187988000000004 -59.737735999999998 17.784472000000001 -10.874495 -76.801192999999984
83464000000 -0.20678798999999998 19.209751000000001 -59.850150999999997 15.330602999999998 -59.743938 17.134314000000003 -10.872089000000001 -76.820755000000005
83512000000 -0.20688002999999988 19.200876000000001 -59.915576999999999 13.677376999999998 -59.682361999999998 16.765684000000004 -10.86552 -76.839827999999997
83560000000 -0.2110681399999994 19.179896999999997 -59.900158000000005 14.346086 -59.738109999999992 16.470421000000002 -10.853950999999999 -76.809478999999996
83608000000 -0.21355754000000113 19.175829000000007 -59.931046000000009 13.604374 -59.860717999999991 15.860889 -10.84318 -76.781288000000004
83656000000 -0.22184174000000029 19.160501 -60.055152999999997 13.116413000000003 -59.83995800000001 15.531810999999999 -10.827226 -76.755668999999997
83704000000 -0.23115670999999993 19.130642000000002 -60.019665000000003 12.974938999999999 -59.796073999999997 14.740598999999998 -10.816333 -76.763046000000003
83752000000 -0.23279453999999888 19.165904999999999 -60.133960999999999 12.557445 -59.933577999999997 15.166487 -10.811095999999999 -76.765220999999997
83800000000 -0.23737269999999971 19.190003999999998 -60.204540000000001 13.458344 -59.981135999999999 15.519396999999998 -10.810169 -76.785019000000005
83848000000 -0.24117410000000039 19.221257999999995 -60.168303999999999 13.866172000000002 -59.838932 15.918979000000002 -10.816751 -76.805274999999995
83896000000 -0.24073520000000045 19.273188000000001 -60.089336000000003 13.071919000000001 -59.877541000000001 15.613175000000002 -10.828082000000004 -76.848572000000004
83944000000 -0.23097980000000021 19.352703000000005 -60.025227000000001 13.130426 -59.803429000000001 15.241007 -10.839105 -76.89469099999998
83992000000 -0.22108228999999882 19.403510999999998 -59.965739999999997 13.340899000000002 -59.768954999999991 15.207614999999997 -10.850512999999999 -76.958602999999997
84040000000 -0.21216343000000024 19.418024000000003 -60.039332999999999 13.078970999999999 -59.820774 14.559196999999999 -10.861792999999999 -76.999877999999995
84088000000 -0.20283480999999998 19.398690999999999 -60.017654 13.181258000000001 -59.832256000000001 14.598354 -10.866928000000001 -77.05066699999999
84136000000 -0.19634031000000107 19.408424 -59.889449999999997 13.331085999999996 -59.770802000000003 14.199789000000003 -10.868852 -77.069687000000002
84184000000 -0.19994493999999979 19.371608999999999 -59.917213000000004 12.930075 -59.770896999999998 14.180795 -10.861784999999999 -77.075485
84232000000 -0.20901581999999869 19.353470000000002 -59.939250999999999 12.310962999999997 -59.762649999999994 13.697475000000001 -10.852195999999999 -77.130286999999996
84280000000 -0.21572979999999969 19.321366999999999 -59.980003000000004 11.876672999999998 -59.798705999999996 14.187487000000003 -10.836174 -77.094909999999999
84328000000 -0.22455569000000108 19.320945999999999 -60.020451000000001 11.558883999999997 -59.812007999999999 14.799658999999997 -10.821363999999999 -77.097960999999984
84376000000 -0.23170330999999994 19.335624999999997 -59.968764999999998 12.059525000000004 -59.841816000000001 15.109663000000003 -10.809956000000003 -77.119300999999979
84424000000 -0.23569351000000013 19.374485000000004 -59.938324000000009 12.138707 -59.665179999999999 14.460164999999998 -10.804372000000001 -77.139595
84472000000 -0.23990678999999882 19.757729000000001 -59.976757000000006 12.477245 -59.667445999999998 14.043038000000001 -10.806165 -77.258803999999998
84520000000 -0.24257237000000029 19.520554000000001 -59.863723999999998 11.836114 -59.589271999999994 14.109798 -10.817137000000002 -77.258903999999987
84568000000 -0.24113879999999979 19.540564 -59.931418999999991 11.623894999999999 -59.607863999999999 13.442182000000001 -10.829556999999998 -77.302550999999994
84616000000 -0.23248729000000035 19.597814999999997 -59.860408999999997 11.923860000000001 -59.653500000000001 12.637503000000001 -10.840189000000001 -77.347228999999999
84664000000 -0.22635872999999984 19.608871000000004 -59.773178000000001 11.553355999999999 -59.662703999999998 13.491179000000001 -10.846399999999999 -77.405440999999996
84712000000 -0.22238662999999856 19.627298 -59.751865000000002 11.348853 -59.645912000000003 12.655355000000002 -10.846593 -77.433907000000005
84760000000 -0.21725896000000064 19.627506000000004 -59.645988000000003 10.277099 -59.607582000000001 12.637772 -10.845207000000002 -77.466255000000004
84808000000 -0.21131217000000033 19.632318000000005 -59.712761 10.112313999999998 -59.675750999999991 11.881880000000001 -10.835430000000002 -77.467346000000006
84856000000 -0.21051244000000147 19.587159999999997 -59.787022 9.9881000999999987 -59.694674999999997 12.765375999999996 -10.821228999999999 -77.451492000000002
84904000000 -0.21257579000000026 19.496502 -59.748463000000001 10.047217 -59.650565999999998 12.463895999999998 -10.805808000000001 -77.401756000000006
84952000000 -0.21038908000000048 19.547768000000001 -59.733711 10.023059999999997 -59.547924000000009 12.798889999999998 -10.794195 -77.391143999999997
85000000000 -0.21987390999999981 19.517799 -59.778637000000003 10.163952999999999 -59.563366000000002 13.178952000000001 -10.783096 -77.379752999999994
85048000000 -0.23501907000000102 19.530949 -59.823340999999999 10.681599 -59.431286 12.951012999999998 -10.778672999999998 -77.398787999999996
85096000000 -0.23905608000000036 19.452218999999999 -59.767932999999999 10.191534999999998 -59.396317000000003 12.257661000000004 -10.785979999999999 -77.431923000000012
85144000000 -0.24005149000000026 19.568280999999999 -59.715381999999991 10.143434000000001 -59.491221999999993 12.320668 -10.797253000000001 -77.495009999999994
85192000000 -0.24026981000000033 19.619205000000001 -59.705871999999999 9.6609688000000009 -59.386127000000002 12.153855999999996 -10.807734999999997 -77.517280999999997
85240000000 -0.24174467999999999 19.726536000000003 -59.632496000000003 9.7792462999999969 -59.293987000000001 11.430821 -10.818467 -77.565582000000006
85288000000 -0.22084886000000037 19.621919999999999 -59.594776000000003 9.6855487999999976 -59.411445999999998 11.828089000000002 -10.828652999999999 -77.648865000000001
85336000000 -0.23018216999999991 19.732978999999997 -59.473880999999992 9.1789607999999987 -59.382229000000002 11.202665 -10.830956 -77.684616000000005
85384000000 -0.22106676000000045 19.727050999999999 -59.500542000000003 9.2632875000000023 -59.332649000000004 10.700988000000001 -10.833615999999999 -77.707802000000001
85432000000 -0.20178906999999993 19.668182000000002 -59.555176000000003 8.440820699999998 -59.421337000000001 10.65812 -10.826838 -77.756591999999998
85480000000 -0.2006700799999997 19.595684000000002 -59.599636000000004 8.8431834999999985 -59.488028999999997 10.793697 -10.815486999999999 -77.787307999999996
85528000000 -0.20801227999999988 19.505769999999998 -59.551768999999993 8.6293858999999991 -59.336281 10.421435000000001 -10.803449999999998 -77.815314999999998
85576000000 -0.21498202999999994 19.547953 -59.588341 8.2199068000000004 -59.388846999999998 9.9551915999999991 -10.790910999999998 -77.789626999999996
85624000000 -0.22443382000000028 19.567920999999998 -59.581432000000007 8.3968191000000019 -59.391499000000003 10.504883999999999 -10.779385 -77.762534999999986
85672000000 -0.2287188599999998 19.567463 -59.561450999999998 8.119374300000004 -59.366238000000003 10.253686 -10.773873 -77.800483999999997
85720000000 -0.22883372999999974 19.568928000000003 -59.574390000000001 7.4422278000000004 -59.37809 10.455199 -10.775090000000002 -77.797279000000017
85768000000 -0.22979104999999875 19.632458 -59.568592000000002 7.4868555000000008 -59.297244999999997 9.4797048999999998 -10.782963000000001 -77.834640999999991
85816000000 -0.231640500000001 19.660527999999999 -59.667152000000002 7.3090634000000021 -59.292431000000001 9.0563202 -10.80499 -77.953620999999998
85864000000 -0.22982188999999956 19.794483 -59.515811999999997 7.4577545999999995 -59.336410999999998 9.5922059999999991 -10.821285 -78.013152999999988
85912000000 -0.22345290000000001 19.799973999999999 -59.607318999999997 7.1101445999999999 -59.332206999999997 9.1753139000000008 -10.837358999999999 -78.066063
85960000000 -0.22691728000000022 19.824886000000003 -59.518700000000003 7.1923838 -59.37121599999999 8.6116103999999982 -10.851336 -78.133423000000008
86008000000 -0.2109944999999987 19.820230000000002 -59.548282999999998 6.8019604999999999 -59.430804999999999 8.5886191999999966 -10.856759999999998 -78.175156000000001
86056000000 -0.20902397000000003 19.821214999999995 -59.626831000000003 6.9095411000000011 -59.39846 8.8133230000000005 -10.852547999999999 -78.227035999999998
86104000000 -0.20907557000000035 19.819849000000001 -59.558174000000001 6.9390139999999993 -59.564484 8.8421229999999991 -10.846408 -78.229370000000003
86152000000 -0.2116027000000002 19.804514000000001 -59.528942000000001 6.2663627000000011 -59.381531000000003 8.8436011999999984 -10.83249 -78.206253000000004
86200000000 -0.21215363999999992 19.820835000000006 -59.509765999999999 6.3237424000000004 -59.519615000000002 8.3177404000000017 -10.821870000000002 -78.228813000000002
86248000000 -0.21407881000000045 19.802970999999996 -59.602867000000003 6.6414885999999997 -59.460597999999997 8.7024059000000005 -10.811401999999999 -78.233490000000003
86296000000 -0.2225337599999998 19.808176 -59.642246 7.340900399999998 -59.429839999999999 9.0575209000000001 -10.790239 -78.170691999999988
86344000000 -0.22256400000000012 19.771025000000002 -59.598506999999998 7.0273614000000002 -59.594439999999992 9.4287881999999978 -10.792901000000001 -78.239142999999984
86392000000 -0.22485418999999937 19.848627 -59.615574000000002 7.6304255000000003 -59.421363999999997 9.4936190000000007 -10.787224999999999 -78.281882999999993
86440000000 -0.21749381999999989 19.800710999999996 -59.54996899999999 7.5296168000000003 -59.481667000000002 9.6182984999999981 -10.791458 -78.269813999999997
86488000000 -0.23378250000000014 19.841865999999996 -59.537810999999998 6.8533987999999999 -59.545997999999997 10.169822000000002 -10.796528 -78.28860499999999
86536000000 -0.23017069999999989 19.945122000000001 -59.436400999999996 8.040273700000002 -59.401901000000009 9.4901313999999992 -10.804876999999999 -78.368888999999996
86584000000 -0.22920838999999996 19.948429000000001 -59.350071 7.3404965000000013 -59.238632000000003 8.8709916999999976 -10.811769999999999 -78.409324999999995
86632000000 -0.22234057999999959 19.912243 -59.454441000000003 6.7192887999999993 -59.406475 8.9013796000000021 -10.811706999999998 -78.438659999999999
86680000000 -0.20103499 19.948592999999999 -59.446975999999992 7.3090105000000003 -59.336196999999999 9.0604105000000015 -10.808381000000001 -78.469573999999994
86728000000 -0.19316678999999953 19.993175999999995 -59.531593000000001 7.3920645999999994 -59.294769000000002 9.1517333999999995 -10.801743999999999 -78.453415000000007
86776000000 -0.21702192999999984 19.987213000000001 -59.46054500000001 6.5541782 -59.314030000000002 9.4807539000000016 -10.793413999999999 -78.490768000000017
86824000000 -0.22016554999999877 20.006748000000002 -59.417431000000001 7.3300771999999998 -59.208945999999997 9.4669571000000001 -10.784133000000001 -78.461807000000007
86872000000 -0.2184755999999996 20.013880000000004 -59.432857999999996 7.6503959000000012 -59.200184 9.0387316000000002 -10.772907999999999 -78.468147000000016
86920000000 -0.22324086999999967 19.949507000000001 -59.347526999999999 7.6396073999999992 -59.136341000000002 8.7830458000000018 -10.755418000000001 -78.453086999999996
86968000000 -0.2257116399999998 19.904834999999995 -59.497242 7.3139843999999998 -59.254665000000003 8.7948399000000013 -10.739072 -78.424323999999999
87016000000 -0.22766547999999898 19.903233 -59.330604999999998 7.8703298999999998 -59.24427 9.4867372999999997 -10.732927000000004 -78.436583999999996
87064000000 -0.22688836999999992 19.852408999999998 -59.374003999999999 7.2676535000000015 -59.103614999999998 8.8196000999999988 -10.729081999999998 -78.446571000000006
87112000000 -0.2257432799999998 19.856820999999997 -59.231239000000002 7.0346766000000001 -59.188831000000008 8.3316783999999995 -10.734303000000001 -78.48015599999998
87160000000 -0.22924440999999979 19.988055999999997 -59.317771999999998 7.1948322999999998 -59.18162199999999 8.6160554999999999 -10.751884 -78.573470999999998
87208000000 -0.22950584999999968 20.071869 -59.299095000000001 7.2535123999999991 -59.083618000000001 8.9760322999999982 -10.770032000000002 -78.620307999999994
87256000000 -0.23077150999999912 20.058323000000001 -59.328978999999997 7.7186593999999999 -59.219726999999992 8.7504749000000022 -10.78861 -78.699684000000005
87304000000 -0.22406067000000068 19.98498 -59.283268 7.6495079999999991 -59.240265000000001 8.3824290999999977 -10.800841999999999 -78.771552999999997
87352000000 -0.21839010999999961 19.955082000000001 -59.279442000000003 6.943106199999999 -59.141666000000001 9.1527604999999994 -10.807143999999999 -78.849457000000015
87400000000 -0.21258939999999954 20.032174999999999 -59.249146000000003 7.6941012999999998 -59.104588 8.5461244999999977 -10.800561999999999 -78.843506000000005
87448000000 -0.21102004000000096 20.106964000000001 -59.146160000000009 7.6444535000000009 -58.896636999999998 9.3808880000000006 -10.797523 -78.889510999999999
87496000000 -0.21608156999999947 20.05875 -59.018039999999999 7.6825609000000004 -58.940238999999998 9.0270948000000004 -10.787346000000003 -78.866669000000002
87544000000 -0.21841923999999996 20.054482 -58.970993 7.2777885999999992 -58.919978999999998 9.1843882000000008 -10.771629000000001 -78.813629000000006
87592000000 -0.22424710999999961 20.117392000000002 -58.962017000000003 7.5682219999999996 -58.870384000000001 9.3196048999999981 -10.755765 -78.832283000000004
87640000000 -0.22894260000000033 20.037830000000003 -58.86056099999999 6.7169423000000004 -58.748741000000003 9.3913239999999973 -10.742546000000001 -78.841576000000003
87688000000 -0.23172733000000109 20.062563000000001 -58.903984000000008 7.2009796999999978 -58.760101000000006 8.4479866000000001 -10.735022000000003 -78.891616999999997
87736000000 -0.23498464000000024 20.131396999999996 -58.794074999999999 6.9259748000000014 -58.602440000000001 8.6964321000000009 -10.737192 -78.884826999999987
87784000000 -0.23757774999999987 20.153524000000001 -58.757462000000004 6.6463995000000002 -58.553604000000007 7.8664664999999978 -10.741003999999998 -78.919159000000008
87832000000 -0.23931592999999998 20.209842999999996 -58.708778000000009 6.2048234999999972 -58.530590000000004 7.933535599999999 -10.748685999999999 -78.975448999999998
87880000000 -0.23454717999999974 20.216925 -58.663502000000001 5.8470416000000007 -58.517414000000002 7.8080220000000002 -10.756022000000002 -79.006195000000019
87928000000 -0.22934075000000043 20.259228 -58.65959500000001 5.1822276 -58.522452999999999 7.1980019000000004 -10.758198999999999 -79.039848000000006
87976000000 -0.2255597699999998 20.265787 -58.607909999999997 5.7168797999999992 -58.525131000000002 7.2810502000000001 -10.760588 -79.080939999999984
88024000000 -0.21993599999999991 20.27338 -58.675823000000008 4.916057099999998 -58.441890999999998 7.2120546999999995 -10.753098000000001 -79.099914999999996
88072000000 -0.21878892000000039 20.285246000000001 -58.616741000000005 4.4506240000000004 -58.429210999999995 6.6172237000000003 -10.745097999999997 -79.078072000000006
88120000000 -0.21931708999999999 20.282501 -58.727673000000003 3.8494665999999991 -58.542716999999996 6.3478417000000009 -10.731524 -79.087752999999992
88168000000 -0.21827279000000002 20.217043 -58.792411999999999 3.7553504000000006 -58.495120999999997 5.646862500000001 -10.717145000000002 -79.107391000000007
88216000000 -0.22480728999999872 20.212263 -58.74780299999999 4.0386752999999995 -58.539639000000001 5.6586094000000005 -10.701122000000002 -79.054581000000013
88264000000 -0.22757681999999962 20.299448000000005 -58.763652999999998 3.8643271999999995 -58.453803999999998 5.7327700000000013 -10.689819999999999 -79.075760000000002
88312000000 -0.23286664000000001 20.285851000000005 -58.777531000000003 4.5849704999999989 -58.492866999999997 5.9443774000000005 -10.677818000000002 -79.084427000000005
88360000000 -0.23783450000000012 20.303336999999999 -58.717261999999991 4.6551980999999998 -58.426772999999997 5.998299600000002 -10.669670999999997 -79.122139000000004
88408000000 -0.24133801000000027 20.304255999999995 -58.711017999999996 4.5885467999999987 -58.540058000000002 6.3153052000000001 -10.671454000000001 -79.155333999999996
88456000000 -0.23825396999999982 20.463650000000001 -58.646991999999997 4.6660155999999997 -58.503509999999999 6.3458443000000022 -10.674766999999999 -79.217781000000002
88504000000 -0.24201727000000001 20.329097999999998 -58.703830999999994 4.4279970999999998 -58.425349999999995 6.0463151999999987 -10.683831999999999 -79.209357999999995
88552000000 -0.23582195999999975 20.397445999999995 -58.576571999999999 4.3849172999999997 -58.386223000000001 5.6451677999999994 -10.687143000000001 -79.277732999999998
88600000000 -0.23254764000000033 20.576129999999999 -58.517100999999997 4.5535569000000002 -58.256720999999999 6.1775174000000002 -10.707740000000001 -79.357697000000002
88648000000 -0.23147259999999964 20.478723999999996 -58.547282999999993 4.2710958000000003 -58.278033999999998 5.4750113000000011 -10.71027 -79.365775999999997
88696000000 -0.22638763000000012 20.478657000000005 -58.46217 4.1796230999999988 -58.277821000000003 5.3371239000000008 -10.708719 -79.382416000000006
88744000000 -0.22115992000000043 20.497261000000002 -58.467906999999997 4.0724163000000004 -58.261096999999999 5.6545815000000008 -10.705638 -79.416908000000006
88792000000 -0.22116019000000123 20.484976 -58.458950000000002 4.0944523999999998 -58.247340999999999 5.9154319999999982 -10.694684000000001 -79.428093000000018
88840000000 -0.22582588999999875 20.439402000000001 -58.372687999999997 4.1413359999999999 -58.254807 5.6393007999999991 -10.679004000000001 -79.398803999999998
88888000000 -0.23055393999999976 20.411449000000008 -58.282817999999999 3.6044283000000008 -58.163989999999998 5.4213443000000003 -10.663420000000002 -79.337555000000009
88936000000 -0.23205691999999928 20.402804999999997 -58.293846000000002 3.3211814999999998 -58.074908999999991 5.1612802000000002 -10.653546 -79.334366000000003
88984000000 -0.23811149999999959 20.421496999999999 -58.294772999999999 2.5362344000000001 -58.046753000000002 4.7156152999999996 -10.636562999999999 -79.318459000000004
89032000000 -0.24221790000000035 20.449632999999999 -58.357903 2.6334130999999998 -58.038898000000003 4.4700445999999987 -10.62875 -79.377975000000006
89080000000 -0.23806882999999945 20.508568 -58.340373999999997 2.0203593000000004 -58.076861999999998 3.9705286000000006 -10.631417000000001 -79.421700000000001
89128000000 -0.23790558999999936 20.638089999999998 -58.306026000000003 2.7278218000000005 -58.051696999999997 4.1458611000000003 -10.643372999999999 -79.531386999999981
89176000000 -0.23626748000000017 20.661658999999993 -58.346229999999998 2.4689928999999995 -58.095505000000003 4.275638100000001 -10.656451000000002 -79.585731999999993
89224000000 -0.23142508999999933 20.582443000000001 -58.273628000000002 2.2439029000000001 -58.135029000000003 4.1136432000000012 -10.665277 -79.599082999999993
89272000000 -0.22593115000000027 20.596775000000001 -58.289802999999992 2.4177073999999998 -58.080573999999999 4.6203064999999999 -10.675178000000001 -79.616225999999997
89320000000 -0.22451069999999909 20.646638999999997 -58.153182999999999 2.4687399999999999 -58.032845000000002 3.7088833000000001 -10.678300999999999 -79.676376000000005
89368000000 -0.2239162200000003 20.602374999999999 -58.149281000000002 1.8262484999999997 -58.008063999999997 3.8855726999999995 -10.673163000000001 -79.676711999999995
89416000000 -0.22275746000000041 20.598333000000004 -58.172671999999999 1.6609145000000003 -58.029091000000001 3.3141744000000002 -10.662617999999998 -79.675751000000005
89464000000 -0.22262421000000038 20.647549000000005 -58.228878000000002 1.6740949000000001 -58.057701000000002 3.6377660999999986 -10.652718999999999 -79.717995000000002
89512000000 -0.22954215000000014 20.608328 -58.227612000000008 1.3529775000000002 -58.010264999999997 3.0722816000000002 -10.639628000000002 -79.733817999999999
89560000000 -0.23308595999999981 20.580414000000005 -58.192115999999999 1.8423502000000003 -58.023674 3.8810737 -10.625327 -79.718941000000001
89608000000 -0.2377893799999995 20.594282 -58.174282000000005 1.4688930999999998 -57.949909000000005 3.5966546999999998 -10.615226000000002 -79.740516999999997
89656000000 -0.24271060999999955 20.592988999999999 -58.151179999999997 1.7000565999999999 -57.89797200000001 3.8270651999999998 -10.609386000000001 -79.762360000000001
89704000000 -0.24864217999999963 20.608456 -58.105595000000001 1.7151903999999998 -57.872078000000002 3.2693632000000008 -10.607213 -79.802361000000005
89752000000 -0.24869370000000079 20.666067000000009 -58.113154999999999 1.3494534 -57.779998999999989 2.9491490999999992 -10.612927000000001 -79.808609000000004
89800000000 -0.2501900800000002 20.745777 -58.0779 1.2655590000000001 -57.774982000000001 2.9640147999999997 -10.621430999999999 -79.885070999999996
89848000000 -0.24517438999999958 20.765326999999999 -58.046787000000002 1.6029769000000003 -57.843868000000001 2.6535103000000002 -10.626134 -79.906807000000001
89896000000 -0.23431112999999965 20.801004000000006 -58.052653999999997 1.2625856 -57.849303999999997 2.8432137999999996 -10.629363000000001 -79.957611000000014
89944000000 -0.22652072999999984 20.821055999999995 -57.930999999999997 1.3043295999999998 -57.805549999999997 3.1492032999999995 -10.634416 -80.010429000000002
89992000000 -0.22279261000000011 20.762068000000003 -58.001060000000003 0.94770133000000001 -57.830044000000001 2.8301169999999995 -10.634177999999999 -80.033439999999999
90040000000 -0.23162331000000042 20.725642999999998 -57.911701000000008 0.8505352100000001 -57.721581 2.6458839999999997 -10.633330999999998 -79.996323000000004
90088000000 -0.2318431099999996 20.791709999999998 -57.936806000000004 1.0722377000000001 -57.735695 2.3861620000000001 -10.616548999999999 -79.975669999999994
90136000000 -0.23130686999999986 20.753677000000003 -57.936348000000002 0.57635002999999996 -57.755276000000002 2.1854407999999999 -10.598521000000002 -79.968292000000005
90184000000 -0.23430592999999911 20.700709999999994 -57.97551 0.47671311999999993 -57.748375000000003 1.7688719000000004 -10.590956 -79.987945999999994
90232000000 -0.23818149999999993 20.729310999999999 -57.972724999999997 0.37299233999999998 -57.756000999999998 1.7049364 -10.576541000000002 -79.997330000000005
90280000000 -0.24265940000000047 20.742094000000002 -57.921672999999998 0.44857364999999988 -57.662643000000003 1.9495622999999997 -10.564655 -79.998192000000017
90328000000 -0.24577398999999958 20.761119999999998 -57.910209999999999 0.54286772000000016 -57.694381999999997 2.4468671999999998 -10.562156999999999 -80.020409000000001
90376000000 -0.24782484999999979 20.804946999999999 -57.911797 0.23877721000000007 -57.658531000000004 2.3612568 -10.563246999999997 -80.061661000000001
90424000000 -0.24944212000000004 20.837622 -57.940719999999999 0.44325679999999995 -57.611831999999993 2.5140623999999998 -10.569920000000002 -80.085396000000003
90472000000 -0.24719538000000107 20.883522000000006 -57.862282 0.47468749000000005 -57.577160000000006 2.6587993999999999 -10.584261 -80.127319
90520000000 -0.24110651000000011 20.946111999999999 -57.738377 0.69154673999999994 -57.490775999999997 1.5505637999999997 -10.59531 -80.220543000000006
90568000000 -0.23100437000000004 20.997368000000009 -57.765895999999998 0.74099159000000003 -57.540852000000001 1.7008866 -10.605785999999998 -80.277786000000006
90616000000 -0.22137210000000004 20.971198999999999 -57.652054 0.3309225999999999 -57.518826000000004 1.7604036000000005 -10.61429 -80.334029999999998
90664000000 -0.22667045999999963 20.926338000000001 -57.685859999999998 0.27549069999999998 -57.519576999999998 1.4315678999999997 -10.614748000000001 -80.376587000000001
90712000000 -0.223216620000001 20.940722999999998 -57.659000000000006 0.13727312 -57.49129099999999 1.7408218 -10.614853 -80.393401999999995
90760000000 -0.22749281000000099 20.904301000000007 -57.593510000000009 0.29708517000000001 -57.446666999999998 1.9901888000000003 -10.605335999999998 -80.398132000000004
90808000000 -0.23336018999999958 20.876740999999999 -57.581287000000003 0.32621908000000005 -57.401958000000008 2.1932725999999998 -10.592649000000002 -80.372237999999996
90856000000 -0.23881240000000148 20.897023999999998 -57.593029000000001 0.028061855999999993 -57.353988999999999 1.968963 -10.583906000000001 -80.403769999999994
90904000000 -0.2443689399999999 20.869810000000001 -57.589275000000001 0.26643482000000007 -57.310284000000003 2.0128290999999994 -10.578203999999999 -80.435349000000002
90952000000 -0.25492525000000049 20.868185000000004 -57.576672000000002 -0.035255425 -57.219952000000006 1.5675347999999998 -10.572806 -80.459823999999998
91000000000 -0.26235765000000033 20.893597 -57.472973000000003 -0.10017426 -57.198371999999999 1.5314075 -10.575521999999999 -80.49238600000001
91048000000 -0.26171835999999993 20.958657999999996 -57.424393000000002 0.041101205999999994 -57.161308000000005 1.6169690999999999 -10.584545 -80.523796000000004
91096000000 -0.2664243 20.976244000000001 -57.395515000000003 -0.13427607999999996 -57.114727000000002 1.0256797 -10.597358999999999 -80.589309999999998
91144000000 -0.26479601999999997 21.052033999999999 -57.380313999999998 -0.24819020999999999 -57.076542000000003 1.061893 -10.610478000000001 -80.631927000000005
91192000000 -0.25411581999999938 21.106141999999998 -57.285232999999998 -0.51173508000000001 -57.038226999999999 0.58750528000000002 -10.621461999999999 -80.665313999999981
91240000000 -0.24791995000000006 21.100466000000008 -57.185974000000002 -0.89641689999999996 -57.091155999999998 0.83129764000000006 -10.629550999999999 -80.718292000000005
91288000000 -0.23775575000000046 21.14357 -57.159999999999997 -1.0034946999999999 -57.000816 0.50747549999999997 -10.63264 -80.752823000000006
91336000000 -0.23212763999999955 21.111259 -57.112372999999998 -1.5887016 -57.013004000000002 0.47210085000000013 -10.633987000000001 -80.776443
91384000000 -0.23202523999999999 21.071739000000001 -57.122765000000001 -1.5640146000000004 -56.966515000000001 0.14647031999999999 -10.626003000000001 -80.758720000000011
91432000000 -0.2340286400000009 21.050211000000001 -57.129672999999997 -1.6243519000000002 -56.934303 0.62419628999999999 -10.615480999999999 -80.734215000000006
91480000000 -0.23762587999999935 21.053775999999999 -57.130451000000008 -2.1491940000000005 -56.874358999999998 0.22153867999999999 -10.602765000000002 -80.73883099999999
91528000000 -0.24712714999999993 21.002870999999999 -57.099648000000002 -2.1184044000000002 -56.830417999999995 -0.011468114000000001 -10.587165000000001 -80.719466999999995
91576000000 -0.25469797999999982 20.972588999999996 -57.094566 -2.1396430000000008 -56.83908799999999 -0.28132990000000002 -10.573982000000001 -80.708916000000002
91624000000 -0.2606701599999991 21.031813 -57.108584999999998 -2.1321154000000004 -56.779854 -0.4793978000000001 -10.562565999999997 -80.714821000000001
91672000000 -0.26695221999999985 21.039886000000006 -57.081603999999999 -2.048486 -56.761882999999997 -0.90076971000000006 -10.561178000000002 -80.749397000000016
91720000000 -0.27521076999999988 21.067556 -57.027293999999998 -2.2344959000000002 -56.772540999999997 -0.78457481000000007 -10.570161000000001 -80.826949999999997
91768000000 -0.27441653999999988 21.137978 -56.981976000000003 -2.3288565000000006 -56.695308999999995 -0.79659455999999995 -10.580769 -80.882332000000005
91816000000 -0.27015205999999914 21.212447999999998 -56.920775999999989 -2.7623355000000003 -56.645083999999997 -0.73337770000000002 -10.595455000000001 -80.938141000000002
91864000000 -0.26627099999999976 21.265784999999997 -56.831778999999997 -2.6708164000000005 -56.545741999999997 -0.62894397999999996 -10.614014999999998 -81.059830000000005
91912000000 -0.25835222000000002 21.267019000000008 -56.718609000000001 -3.3317349000000003 -56.52537199999999 -1.6316360000000001 -10.627378 -81.117249000000001
91960000000 -0.24642133999999977 21.307108000000003 -56.676647000000003 -3.5395168999999997 -56.405079000000001 -1.9889375000000005 -10.631707000000002 -81.131614999999996
92008000000 -0.23946882999999897 21.302575999999998 -56.627701000000002 -3.8206375000000015 -56.453533 -2.3533192000000005 -10.635106 -81.181137000000007
92056000000 -0.23609555000000007 21.263708000000001 -56.642558999999999 -4.3730726000000004 -56.465941999999998 -2.8495364000000003 -10.632046000000003 -81.201065
92104000000 -0.23532129999999984 21.230479999999996 -56.622021000000004 -4.4251184000000006 -56.514034000000002 -3.7640123000000001 -10.622244999999999 -81.166122000000001
92152000000 -0.24281627000000067 21.226804999999999 -56.61932800000001 -5.1016959999999996 -56.464241000000001 -3.639923099999999 -10.607985999999999 -81.158669000000003
92200000000 -0.25071412000000026 21.199926000000001 -56.636432999999997 -5.4806952000000004 -56.375354999999999 -3.3849344000000001 -10.597331999999998 -81.158973999999986
92248000000 -0.25290728000000046 21.174801000000002 -56.671356000000003 -5.7972145000000017 -56.478789999999996 -3.7137159999999998 -10.586231 -81.107590000000002
92296000000 -0.2631133500000003 21.179993 -56.713833000000008 -5.7140836999999998 -56.441001999999997 -4.2993522000000004 -10.579844000000001 -81.120345999999998
92344000000 -0.27506018000000015 21.155655000000003 -56.682963999999998 -6.1164699000000011 -56.470161000000004 -4.069321200000001 -10.583331000000001 -81.129288000000003
92392000000 -0.27911830000000093 21.201687 -56.732478999999998 -6.4801549999999999 -56.453170999999998 -4.7090416000000008 -10.593989000000001 -81.153899999999993
92440000000 -0.28192908000000039 21.263701999999999 -56.743606999999997 -6.5005611999999999 -56.478805999999999 -5.1315632000000004 -10.615252 -81.20015699999999
92488000000 -0.28325235999999954 21.327085 -56.756946999999997 -6.2360238999999984 -56.520828000000009 -5.127043200000001 -10.638439999999999 -81.29806499999998
92536000000 -0.27594193999999994 21.377924 -56.776913 -6.4344406000000003 -56.578406999999999 -5.1519518 -10.662288 -81.333397000000005
92584000000 -0.26879939000000008 21.424879000000001 -56.727290999999994 -5.9888611000000012 -56.528503000000001 -5.3937616000000022 -10.680054999999999 -81.387260000000012
92632000000 -0.25345990000000018 21.458701999999999 -56.675224 -6.1080122000000001 -56.507648000000003 -5.0293926999999989 -10.687488 -81.419357000000019
92680000000 -0.24312013000000049 21.458470999999999 -56.607697000000002 -6.5628780999999998 -56.533149999999999 -5.2104349000000001 -10.692307 -81.443520000000021
92728000000 -0.23806719000000037 21.436078999999996 -56.645199000000005 -6.5868057999999996 -56.622718999999996 -4.7646445999999996 -10.687993000000001 -81.455551
92776000000 -0.23313212000000016 21.424771999999997 -56.654564000000001 -6.7042488999999996 -56.539352000000001 -5.2251438999999991 -10.680349 -81.446219999999997
92824000000 -0.23925848000000022 21.393488000000001 -56.633526000000003 -6.5350194000000013 -56.524113 -5.0554608999999999 -10.667767 -81.440383999999995
92872000000 -0.2451804099999996 21.348472999999998 -56.699599999999997 -6.0972090000000003 -56.438147999999998 -4.6635894999999996 -10.654182999999996 -81.426933000000005
92920000000 -0.25159015999999879 21.331732000000002 -56.62088 -6.0915670000000004 -56.400241999999999 -4.6383433000000007 -10.640350000000002 -81.432327000000001
92968000000 -0.25933200000000034 21.325256 -56.588734000000002 -6.0118580000000001 -56.388660000000002 -4.1419668000000005 -10.634027 -81.438843000000006
93016000000 -0.27024846999999969 21.281486999999998 -56.486851000000001 -6.2464341999999986 -56.244216999999999 -4.1335367999999999 -10.632248000000001 -81.431786000000002
93064000000 -0.27780648999999902 21.321611000000001 -56.467606000000004 -6.155950100000001 -56.22264100000001 -4.6579904999999995 -10.636810000000001 -81.462463
93112000000 -0.28177132999999976 21.404184000000004 -56.385506000000007 -6.2031279000000001 -56.135536000000002 -5.5086240999999996 -10.65447 -81.529099000000002
93160000000 -0.28875544999999953 21.438427000000001 -56.366782999999998 -6.7977028000000015 -56.171066000000003 -5.4119973000000003 -10.667974000000001 -81.574477999999999
93208000000 -0.28969948999999984 21.510743999999995 -56.265865000000005 -6.8036747000000011 -56.157767999999997 -4.9891295000000007 -10.686061 -81.618545999999995
93256000000 -0.27546504000000005 21.593971 -56.265526000000001 -6.9437379999999997 -56.078948999999994 -5.9446158000000011 -10.698453000000001 -81.659233
93304000000 -0.26407799000000093 21.644100000000005 -56.17960699999999 -7.3904467 -55.98563 -5.9937882 -10.706390000000001 -81.724648000000002
93352000000 -0.2524756800000002 21.627311999999993 -56.157352000000003 -7.5585522999999997 -55.998092999999997 -6.0287361000000015 -10.704245999999999 -81.754104999999981
93400000000 -0.22892732999999965 21.672229999999995 -56.059283999999998 -7.8414178000000003 -55.950198999999998 -6.6195082999999997 -10.703334000000002 -81.791259999999994
93448000000 -0.21064639000000021 21.616318 -56.070793000000009 -8.3085213000000024 -56.014378000000001 -6.4030465999999997 -10.693751999999998 -81.713554000000002
93496000000 -0.22181613999999988 21.514233000000001 -56.080185 -8.6935863000000015 -55.907299000000002 -7.0478344000000002 -10.678122999999999 -81.742492999999996
93544000000 -0.2311201199999999 21.498344000000003 -56.014838999999995 -8.9936589999999992 -55.930911999999999 -6.9098672999999993 -10.660248000000001 -81.710662999999997
93592000000 -0.24175782999999978 21.479008000000004 -56.034115 -8.9308442999999986 -55.891238999999999 -7.2515101000000008 -10.643993 -81.661750999999995
93640000000 -0.26004293999999967 21.417359999999999 -56.076954000000001 -9.7596559999999979 -55.971286999999997 -7.7466197000000001 -10.626267 -81.652107000000001
93688000000 -0.26749124999999874 21.422263999999995 -56.111816000000005 -9.9829501999999994 -55.914279999999998 -7.3562784000000008 -10.613626 -81.606026
93736000000 -0.2785389400000004 21.461735000000004 -56.210025999999999 -9.9290637999999998 -55.957915999999997 -7.7891649999999979 -10.609366 -81.587952000000001
93784000000 -0.28321837999999966 21.491727999999995 -56.169662000000002 -9.564294799999999 -55.904609999999991 -7.700071799999999 -10.615900999999999 -81.645401000000007
93832000000 -0.28876013000000045 21.533783 -56.131755999999996 -9.6007271000000021 -55.935862999999998 -7.6868033000000011 -10.626999 -81.647186000000005
93880000000 -0.28852028000000046 21.575497000000006 -56.114104999999995 -9.1667785999999989 -55.84066 -7.8238554000000002 -10.645372999999999 -81.779517999999996
93928000000 -0.28593141000000033 21.681742 -56.079441000000003 -9.1704463999999994 -55.806426999999999 -7.9424644000000013 -10.664429 -81.806563999999995
93976000000 -0.27134115000000014 21.765274000000002 -55.968628000000002 -9.2270030999999992 -55.748317999999998 -8.1996698000000006 -10.677591 -81.87855500000002
94024000000 -0.26166254000000005 21.750242 -55.911723999999992 -9.6698283999999983 -55.733677 -7.8800577999999994 -10.685224000000002 -81.938254999999998
94072000000 -0.25172237000000142 21.756903000000001 -55.869472999999999 -9.8448696000000027 -55.686084999999999 -8.2713079 -10.685835000000001 -81.988921999999988
94120000000 -0.23567218999999995 21.762450999999999 -55.790218000000003 -9.8912907000000008 -55.72388500000001 -8.4507531999999994 -10.681624999999999 -82.007866000000007
94168000000 -0.23488354999999986 21.711065000000001 -55.784331999999999 -10.659905000000002 -55.64576000000001 -8.5541124000000011 -10.673627 -82.038405999999995
94216000000 -0.2346917199999996 21.679022 -55.735759999999999 -10.589877 -55.582236999999999 -9.1822481000000007 -10.662175000000001 -82.035315999999995
94264000000 -0.24250913000000043 21.612040000000007 -55.735759999999999 -11.509999999999998 -55.587761 -9.2681961000000008 -10.644299999999999 -82.009758000000005
94312000000 -0.25423327000000046 21.578768 -55.786113999999998 -11.452054999999996 -55.604621999999999 -9.2587738000000002 -10.635251 -82.04602100000001
94360000000 -0.25858327999999964 21.581738000000005 -55.705356999999999 -11.883411000000002 -55.519779 -9.7929659000000004 -10.624814000000001 -82.044403000000003
94408000000 -0.26672348000000035 21.645035 -55.740467000000002 -11.415362 -55.479621999999999 -10.131468999999999 -10.620439000000001 -82.042800999999997
94456000000 -0.27524467999999958 21.609370999999996 -55.680503999999999 -11.582864000000002 -55.505352000000002 -10.068910000000001 -10.628869999999999 -82.090950000000021
94504000000 -0.28125265000000044 21.633773999999992 -55.657200000000003 -11.71759 -55.448414 -10.484933000000002 -10.638776 -82.13024900000002
94552000000 -0.28168019999999966 21.722214000000001 -55.616520000000008 -12.079108999999999 -55.397011000000006 -11.009483999999999 -10.659022 -82.172439999999995
94600000000 -0.28513827999999952 21.764847 -55.575347999999998 -12.893387000000001 -55.56309499999999 -10.907524999999998 -10.679316999999999 -82.266136000000003
94648000000 -0.28102756000000045 21.818659 -55.618988000000002 -13.024758 -55.462395000000001 -11.447516 -10.699021 -82.328209000000001
94696000000 -0.27474689000000052 21.846132000000004 -55.607208 -13.125145 -55.521968999999999 -11.782664 -10.711714000000001 -82.374695000000003
94744000000 -0.26165705999999966 21.883071999999999 -55.594611999999998 -13.142033 -55.470222 -12.179423 -10.722418000000001 -82.414505000000005
94792000000 -0.25228199000000012 21.858238 -55.586075000000001 -13.850272000000002 -55.472049999999996 -11.897318 -10.725249000000002 -82.484893999999997
94840000000 -0.24758422000000027 21.791801 -55.57407400000001 -13.730963999999998 -55.449314000000001 -11.883763999999998 -10.72842 -82.515632999999994
94888000000 -0.25101553999999926 21.744022000000001 -55.597267000000002 -13.64411 -55.491157999999999 -11.815110000000004 -10.718890000000002 -82.51619700000002
94936000000 -0.2495413600000001 21.672433999999999 -55.529606000000001 -14.138961000000002 -55.474559999999997 -11.818534 -10.707663 -82.450539000000006
94984000000 -0.25779182000000045 21.572770999999999 -55.583393000000001 -14.217138000000002 -55.415503999999999 -12.332777 -10.696529999999999 -82.523719999999997
95032000000 -0.26738361000000038 21.582102000000003 -55.547756 -13.738985 -55.354804999999999 -12.187381999999999 -10.685805999999999 -82.515213000000003
95080000000 -0.27787738999999972 21.631233000000002 -55.534142000000003 -13.821205000000001 -55.330154 -11.828616999999999 -10.671931000000001 -82.469566
95128000000 -0.28923269999999868 21.712285999999999 -55.502398999999997 -14.118772999999999 -55.277701999999998 -12.33638 -10.668050000000001 -82.485709999999997
95176000000 -0.29360293999999987 21.844259000000005 -55.438048999999992 -14.504381 -55.198605000000001 -12.739551999999998 -10.668195000000001 -82.504020999999995
95224000000 -0.2965938200000004 21.929371 -55.474120999999997 -14.730919999999999 -55.229343 -12.575279 -10.669673 -82.538300000000021
95272000000 -0.2969984700000004 21.974627000000005 -55.451588000000001 -14.451115000000001 -55.206364000000001 -12.609337999999999 -10.677678999999999 -82.594970999999987
95320000000 -0.29018571999999954 22.054869 -55.397598000000002 -14.765976 -55.197856999999999 -13.094469999999999 -10.686827999999998 -82.637732999999997
95368000000 -0.28659972999999928 22.102945000000002 -55.396251999999997 -14.795577999999999 -55.189509999999999 -13.192201000000001 -10.695637 -82.710823000000005
95416000000 -0.27234152000000117 22.126556000000001 -55.34387199999999 -15.014970999999999 -55.194274999999998 -12.821820000000001 -10.698620999999999 -82.733756999999997
95464000000 -0.26077320999999887 22.163623999999999 -55.284111000000003 -15.307729999999999 -55.124271 -13.397417999999998 -10.701266 -82.771934999999985
95512000000 -0.25251326000000007 22.146947999999998 -55.23020600000001 -15.287830000000001 -55.099578999999999 -13.225477 -10.702207 -82.815658999999997
95560000000 -0.24523793000000041 22.123760000000001 -55.212986000000001 -15.564342000000002 -55.059921000000003 -13.511909000000001 -10.695540999999999 -82.788307000000003
95608000000 -0.24817592999999974 22.099661000000005 -55.145389999999999 -15.999068999999999 -54.989154999999997 -13.837027000000001 -10.686295999999999 -82.818466000000001
95656000000 -0.2517865600000001 22.037442999999996 -55.123759999999997 -16.216553000000001 -55.002051999999999 -14.283303999999999 -10.677762 -82.815230999999997
95704000000 -0.25976068000000041 22.055741999999999 -55.142612 -16.743942000000001 -54.941082000000002 -14.328651000000002 -10.665876999999996 -82.785072
95752000000 -0.26478006999999965 22.076753999999998 -55.162823000000003 -16.611246000000001 -54.883071999999999 -14.580337 -10.652050999999998 -82.725403
95800000000 -0.27257660000000034 22.030555999999997 -55.201889000000001 -16.920279000000004 -54.934165999999998 -14.846835 -10.644579999999999 -82.723716999999994
95848000000 -0.27910065999999989 22.080721 -55.129505000000009 -16.847764999999995 -54.925220000000003 -14.920941000000001 -10.641356 -82.755423999999991
95896000000 -0.27975242999999966 22.115037999999998 -55.073436999999998 -17.586243000000003 -54.912616999999997 -15.432900999999999 -10.637069 -82.724693000000002
95944000000 -0.2853345600000009 22.140620999999999 -55.080112 -17.459442000000003 -54.919254000000002 -15.333295 -10.642515 -82.765144000000006
95992000000 -0.28501251000000016 22.158125000000002 -55.099815000000007 -17.416225000000001 -54.909115 -15.670327 -10.649233000000001 -82.780906999999999
96040000000 -0.27823093999999904 22.230902 -55.011372000000009 -17.399336000000002 -54.905906999999999 -15.703099999999999 -10.658343000000002 -82.806618
96088000000 -0.27692682000000024 22.236722999999998 -54.983589000000002 -17.914078 -54.846512000000004 -16.281704000000001 -10.667544999999999 -82.872855999999999
96136000000 -0.27130121000000013 22.256934999999999 -54.967120999999999 -18.163405999999998 -54.761589000000001 -16.080763000000005 -10.669105999999999 -82.887009000000006
96184000000 -0.26515317000000088 22.288300000000007 -54.930557 -18.400597000000001 -54.714371 -16.468956000000002 -10.671710999999998 -82.920212000000006
96232000000 -0.2628182499999997 22.280155000000001 -54.907027999999997 -18.942129000000001 -54.738258000000002 -17.091336999999996 -10.670825999999998 -82.977615
96280000000 -0.26005914999999902 22.269064 -54.942431999999997 -19.253175999999996 -54.785254999999999 -17.364287999999995 -10.664721999999999 -83.006637999999995
96328000000 -0.25858079999999961 22.263027000000001 -54.884631999999996 -19.401956999999999 -54.758385000000004 -17.661369000000001 -10.656362999999999 -83.028114000000002
96376000000 -0.26017651000000031 22.262419000000001 -54.93721 -19.488430000000001 -54.723801000000009 -17.980125000000008 -10.646176999999998 -83.060654
96424000000 -0.26245004000000033 22.242349999999998 -54.941398999999997 -19.933399000000001 -54.694156999999997 -18.085885999999995 -10.633767000000001 -83.094406000000021
96472000000 -0.2716274599999986 22.221634000000002 -54.929259999999999 -19.961379999999998 -54.742114999999998 -18.049828000000002 -10.623772000000001 -83.108017000000004
96520000000 -0.28145510000000007 22.276585000000001 -54.934916999999999 -20.184824000000003 -54.721438999999997 -18.669941000000001 -10.615629999999999 -83.126998999999998
96568000000 -0.27817795000000006 22.277596000000003 -54.903008 -20.085396000000006 -54.743454 -18.476856000000002 -10.608971999999998 -83.125343000000001
96616000000 -0.27769473000000111 22.318819000000001 -54.931229000000002 -20.267358999999999 -54.737118000000002 -18.605557999999998 -10.605268000000001 -83.237694000000005
96664000000 -0.28311916999999986 22.353961999999996 -54.984211000000002 -20.552594999999997 -54.764980000000001 -18.758870999999999 -10.614977 -83.273735000000016
96712000000 -0.28489834000000003 22.361737999999999 -54.92794 -20.313969 -54.701855000000002 -19.132645 -10.62018 -83.315178000000003
96760000000 -0.2837809600000008 22.443804000000004 -54.929763999999999 -20.456901999999996 -54.816574000000003 -19.130479999999999 -10.627943999999999 -83.374542000000005
96808000000 -0.27652126999999932 22.447655000000001 -54.873683999999997 -20.884287 -54.73827399999999 -19.023410999999999 -10.633468000000001 -83.390090999999998
96856000000 -0.27402829999999984 22.434752000000007 -54.843409999999999 -20.681678999999999 -54.681399999999996 -19.097223 -10.635073999999999 -83.366401999999979
96904000000 -0.2703369000000001 22.466242000000008 -54.877341999999999 -20.920380000000002 -54.726170000000003 -19.036307999999995 -10.633447 -83.390060000000005
96952000000 -0.26238211999999983 22.462143000000008 -54.865475000000004 -20.518444000000002 -54.620716000000002 -18.856320999999998 -10.630077000000002 -83.378524999999996
97000000000 -0.2617147900000002 22.456629 -54.723140999999998 -20.510701999999998 -54.632632999999998 -19.059932999999997 -10.623389 -83.370644000000013
97048000000 -0.26072430999999974 22.437722999999991 -54.751381000000009 -20.716784999999998 -54.659443000000003 -19.181162 -10.614046999999999 -83.379981999999998
97096000000 -0.26045217999999959 22.469415999999995 -54.700885999999997 -21.181694 -54.563609999999997 -19.344674999999999 -10.606121999999999 -83.364998
97144000000 -0.26383617999999959 22.459772000000001 -54.659419999999997 -21.293109999999995 -54.574325999999999 -19.948821999999996 -10.595506 -83.372901999999996
97192000000 -0.26309079000000052 22.446081000000003 -54.693829000000001 -21.652725 -54.509258000000003 -19.575438999999999 -10.583874 -83.321960000000004
97240000000 -0.26305008000000024 22.484144000000001 -54.684432999999999 -21.322033000000005 -54.457813000000002 -19.719342999999995 -10.575329999999997 -83.333068999999995
97288000000 -0.26516801000000001 22.488243000000008 -54.637153999999995 -21.229890999999995 -54.416823999999991 -19.280494999999998 -10.575448000000002 -83.363228000000007
97336000000 -0.2619421800000013 22.471382000000002 -54.549461000000001 -21.280249000000001 -54.316710999999998 -20.053419000000002 -10.570451 -83.343163000000004
97384000000 -0.26290955999999988 22.520847 -54.440143999999997 -21.590758999999998 -54.289874999999995 -20.359054999999994 -10.571555999999999 -83.406745999999998
97432000000 -0.2621362800000005 22.507759 -54.465362999999996 -22.390897999999996 -54.252251000000001 -20.551447 -10.572908000000002 -83.411850000000015
97480000000 -0.26452529000000019 22.483951999999999 -54.407379000000006 -22.940429999999996 -54.212424999999996 -20.981332999999999 -10.574230999999997 -83.448188999999999
97528000000 -0.26442899999999897 22.548982999999996 -54.37499600000001 -22.939071999999999 -54.248050999999997 -21.375544000000001 -10.577643999999999 -83.488197
97576000000 -0.25839150000000033 22.417772000000006 -54.378933000000004 -23.240659999999998 -54.172767999999998 -22.008932000000001 -10.575415 -83.511985999999993
97624000000 -0.25848821000000044 22.446141999999998 -54.358542999999997 -23.383751000000004 -54.175643999999998 -21.951062999999998 -10.57836 -83.527641000000003
97672000000 -0.25534913000000031 22.490791000000002 -54.303508999999998 -23.544041000000004 -54.122734000000001 -22.452591000000002 -10.571941000000001 -83.552422000000007
97720000000 -0.25791376999999921 22.522490000000001 -54.284733000000003 -24.151443 -54.122459000000006 -22.967711999999999 -10.565602999999999 -83.574173000000002
97768000000 -0.25073113999999874 22.521702000000001 -54.321686 -24.665997000000001 -54.12478999999999 -23.317828999999996 -10.558567999999999 -83.630402000000004
97816000000 -0.24221871999999955 22.455767000000005 -54.362228000000002 -24.946670999999998 -54.18074 -23.309436999999996 -10.566686000000001 -83.691756999999996
97864000000 -0.25322062000000023 22.457356999999991 -54.330482000000003 -24.622465000000005 -54.093594000000003 -23.559366000000001 -10.555861 -83.653221000000002
97912000000 -0.26147475999999964 22.423786000000007 -54.286411000000001 -25.090390999999997 -54.075939000000005 -23.948783999999996 -10.548133 -83.655106000000004
97960000000 -0.26343982999999982 22.479977000000002 -54.280051999999998 -25.105570000000004 -54.048560999999999 -23.742418000000001 -10.542126 -83.689316000000005
98008000000 -0.26344311000000004 22.522956999999998 -54.262965999999999 -25.391805999999999 -54.039771999999999 -24.409080999999997 -10.535712 -83.693359000000001
98056000000 -0.26384141999999883 22.531466999999999 -54.178192000000003 -26.117172 -53.966312000000002 -24.700288999999998 -10.536237 -83.739707999999993
98104000000 -0.26568919000000124 22.582277000000005 -54.209023000000002 -26.222564999999999 -53.977778999999998 -25.023327000000002 -10.542054 -83.81662
98152000000 -0.26231750999999998 22.647829000000002 -54.204467999999999 -26.583202 -54.034550000000003 -25.018806000000001 -10.544874 -83.828629000000006
98200000000 -0.26307815000000023 22.733025000000001 -54.156002000000001 -26.988886000000001 -54.035392999999999 -25.532883000000005 -10.546167000000001 -83.940483
98248000000 -0.26031640000000011 22.670000000000002 -54.211188999999997 -26.930934999999998 -53.976578000000003 -25.757412000000002 -10.548494999999999 -83.836464000000007
98296000000 -0.26228312000000026 22.731664999999996 -54.136986 -27.156471000000003 -53.983414000000003 -25.972131999999998 -10.551987999999998 -83.867965999999996
98344000000 -0.26556867000000045 22.752334999999999 -54.127536999999997 -27.315443000000002 -53.952838999999997 -25.976603000000001 -10.550446000000001 -83.893844999999999
98392000000 -0.25856349000000034 22.848362000000002 -54.094073999999999 -27.918219000000001 -53.908169000000001 -26.139441000000005 -10.547792000000001 -83.964744999999979
98440000000 -0.26173899000000045 22.825533 -54.077613999999997 -28.515276 -53.909393000000001 -26.783497000000008 -10.548963000000001 -84.012999999999991
98488000000 -0.26274537999999958 22.846336000000001 -54.119872999999998 -28.779637999999998 -53.915751999999998 -27.332127 -10.545674 -83.995255
98536000000 -0.26391180999999908 22.849534999999999 -54.142417999999999 -29.195692000000005 -53.925831000000002 -27.322046 -10.537865 -83.975464000000002
98584000000 -0.2665082500000005 22.886765000000004 -54.116794999999996 -29.507222999999996 -53.883419000000004 -27.728449000000001 -10.525968000000001 -84.068695000000005
98632000000 -0.26926868999999964 22.870501000000004 -54.141117000000001 -29.665926000000002 -53.868270999999993 -28.115918999999998 -10.525048999999999 -83.955658
98680000000 -0.27080744999999995 22.912692999999997 -54.156593000000001 -29.953023999999992 -53.911639999999998 -28.715976999999995 -10.519920000000001 -83.983588999999995
98728000000 -0.27011817999999954 22.918151999999999 -54.151783000000002 -30.146794999999997 -53.891468000000003 -28.621310999999999 -10.518195000000002 -84.015334999999993
98776000000 -0.27136815000000003 22.939929999999997 -54.167549000000001 -30.346834000000005 -53.937054000000003 -28.896833000000001 -10.515366999999999 -84.067757000000015
98824000000 -0.26563910000000024 23.097338000000001 -54.175766000000003 -30.631547999999992 -53.923507999999998 -29.443888000000008 -10.500244999999996 -84.226119999999995
98872000000 -0.27240684999999931 22.996207999999999 -54.095791000000006 -30.888892999999996 -53.946869 -29.893340999999999 -10.512449999999999 -84.172912999999994
98920000000 -0.26950061000000014 23.006824000000002 -54.139679000000001 -31.286556000000008 -53.924332 -30.141123000000004 -10.510835 -84.178191999999996
98968000000 -0.27032587000000047 23.027113 -54.198959000000002 -31.426315000000006 -54.020682999999998 -30.083623999999997 -10.511279999999999 -84.245041000000001
99016000000 -0.27085262999999998 23.027108999999999 -54.263610999999997 -32.056224999999991 -54.048878000000002 -30.549615999999997 -10.509166 -84.257637000000003
99064000000 -0.26472061999999968 23.088946999999997 -54.259365000000003 -32.382446000000009 -54.133471999999998 -30.250847000000007 -10.510228999999997 -84.362685999999997
99112000000 -0.26762477000000001 23.097402999999996 -54.352187999999998 -32.187598999999999 -54.146800999999996 -30.485188000000004 -10.511570000000001 -84.468673999999993
99160000000 -0.27025839999999957 23.059536000000005 -54.378585999999999 -31.87331799999999 -54.157001000000008 -30.390142000000001 -10.502728999999999 -84.355216999999996
99208000000 -0.27072701000000027 23.049728000000005 -54.363892 -31.99398200000001 -54.198196000000003 -30.046415 -10.495241 -84.339187999999979
99256000000 -0.26830703000000089 23.071513999999997 -54.426659000000001 -31.677337999999995 -54.223976 -30.207311999999998 -10.495459 -84.400702999999993
99304000000 -0.2710014300000001 23.062559 -54.451397 -31.469697999999998 -54.307017999999999 -30.078388 -10.495233000000002 -84.434982000000005
99352000000 -0.27633034999999984 23.069328000000002 -54.432231999999999 -31.597005999999993 -54.201118000000001 -29.691679000000001 -10.494702999999996 -84.429435999999995
99400000000 -0.27958237999999891 23.082087000000001 -54.462012999999999 -31.258310000000009 -54.227707000000002 -29.784234999999999 -10.498060000000001 -84.462020999999993
99448000000 -0.27822623000000035 23.12623 -54.396560999999998 -31.021435 -54.197181999999998 -29.445537999999999 -10.504894999999998 -84.547133999999986
99496000000 -0.27711912999999955 23.132714999999997 -54.355476000000003 -30.810776000000001 -54.184311000000001 -29.244364000000001 -10.513137 -84.541573
99544000000 -0.27407077000000024 23.174012999999999 -54.333697999999998 -30.619598000000007 -54.071052999999992 -29.427406000000001 -10.525627 -84.580626999999993
99592000000 -0.27250329000000106 23.197762000000001 -54.271129999999999 -30.546652000000002 -54.098598000000003 -29.617879999999996 -10.536441999999999 -84.607735000000005
99640000000 -0.27115076999999899 23.186791999999993 -54.19896700000001 -30.875689000000001 -54.100540000000009 -29.437153000000006 -10.537644999999999 -84.592200999999989
99688000000 -0.2679416500000002 23.187954000000001 -54.170299999999997 -30.70186 -54.042445999999998 -29.226762999999995 -10.541689999999997 -84.599281000000005
99736000000 -0.26481473000000094 23.199787000000001 -54.108024999999998 -30.711891000000001 -53.939216999999999 -29.452793 -10.548515 -84.649856999999983
99784000000 -0.26508655999999986 23.200042999999997 -54.056266999999998 -30.798324999999995 -53.910705999999998 -29.453544999999998 -10.551852999999999 -84.648308000000014
99832000000 -0.26588842000000046 23.224917999999999 -54.056655999999997 -31.373487000000001 -53.848422999999997 -29.710060000000002 -10.551174000000001 -84.663269
99880000000 -0.26524146999999959 23.218223999999999 -53.973343 -31.684801000000011 -53.812614000000004 -29.929699000000003 -10.549258999999997 -84.679030999999981
99928000000 -0.26606979999999958 23.211693 -53.974072 -31.600786000000006 -53.758564 -30.353222000000006 -10.545154 -84.673866000000004
99976000000 -0.26779684000000048 23.220465000000001 -53.865627000000003 -31.900013000000001 -53.729195000000004 -30.552474999999998 -10.539382 -84.672889999999995
100024000000 -0.26679393999999962 23.223185000000004 -53.957797999999997 -32.220798000000002 -53.677345000000003 -31.082391999999992 -10.537563999999996 -84.695319999999981
100072000000 -0.2679190899999998 23.228450999999996 -53.85244800000001 -32.566794999999999 -53.659694999999999 -31.17811399999999 -10.538596000000002 -84.716949
100120000000 -0.26873883999999981 23.205815999999999 -53.845100000000002 -33.25353599999999 -53.694316999999998 -32.002625000000002 -10.534371999999998 -84.747230999999999
100168000000 -0.26925327999999993 23.249281000000003 -53.840072999999997 -32.595016000000001 -53.598708999999999 -32.006042000000001 -10.540419999999999 -84.80272699999999
100216000000 -0.27293163999999892 23.239028999999999 -53.864936999999998 -33.501655999999997 -53.60353099999999 -32.383118000000003 -10.546017000000001 -84.846703000000005
100264000000 -0.27235033999999997 23.257009999999998 -53.792529999999999 -33.72243499999999 -53.603656999999998 -32.863166999999997 -10.552142999999997 -84.882851000000002
100312000000 -0.27120723999999907 23.298476999999998 -53.802391 -33.940604999999991 -53.60996200000001 -33.038279999999993 -10.563592000000002 -84.970993000000007
100360000000 -0.2732519499999998 23.279551000000001 -53.781025 -34.410583000000003 -53.643017 -33.765442 -10.566610999999998 -84.994140999999999
100408000000 -0.26889965000000043 23.286349999999999 -53.747924999999995 -34.801605000000002 -53.661628999999998 -33.507548999999997 -10.564019 -85.019958000000003
100456000000 -0.25574337999999869 23.310694000000002 -53.82055299999999 -34.563965000000003 -53.632061 -33.384982999999998 -10.561868999999998 -85.055915999999982
100504000000 -0.26577890000000026 23.309229000000002 -53.849640000000001 -35.062977000000004 -53.640552999999997 -34.203400000000009 -10.564634999999999 -85.058623999999995
100552000000 -0.26714465000000015 23.279637999999995 -53.838245000000001 -34.990234000000001 -53.64944100000001 -34.171886000000001 -10.558887000000002 -85.112404000000012
100600000000 -0.27050658999999966 23.346703999999999 -53.779217000000003 -35.451236999999999 -53.740948000000003 -34.236561000000002 -10.552277 -85.078186000000002
100648000000 -0.27274861999999955 23.271338 -53.837710999999999 -35.995319000000002 -53.710757999999998 -34.62019699999999 -10.554337 -85.076103000000003
100696000000 -0.2705710499999997 23.2486 -53.845530999999994 -35.903400000000005 -53.637726000000001 -34.322280999999997 -10.534539000000001 -85.086815000000001
100744000000 -0.27069392999999975 23.306521999999998 -53.882571999999996 -35.632781999999999 -53.734009 -35.390484000000001 -10.542159 -85.096771000000004
100792000000 -0.27587988999999874 23.325490999999996 -53.827705000000002 -35.630420999999991 -53.659911999999998 -34.632679000000003 -10.544287000000001 -85.130188000000004
100840000000 -0.27984381000000147 23.314011000000001 -53.910400000000003 -35.712833000000003 -53.770350999999998 -35.389256000000003 -10.551125000000001 -85.138626000000002
100888000000 -0.28314074999999966 23.334139000000004 -53.814087000000001 -35.814959999999992 -53.665641999999998 -34.748523999999996 -10.554525999999999 -85.16323100000001
100936000000 -0.28068595999999957 23.366537000000001 -53.848056999999997 -35.923625999999999 -53.620398999999999 -35.126289 -10.566419000000003 -85.200607000000005
100984000000 -0.27985706999999999 23.397310000000001 -53.808540000000001 -36.105990999999996 -53.663043999999999 -35.350296 -10.575925999999999 -85.263251999999994
101032000000 -0.27955559000000085 23.417583 -53.750889000000001 -35.930328000000003 -53.655903000000002 -35.387264000000002 -10.586967000000001 -85.299735999999996
101080000000 -0.27787298000000038 23.435222999999997 -53.761257000000001 -36.375500000000002 -53.651996999999994 -35.537109000000008 -10.597059 -85.344109000000003
101128000000 -0.27206039000000032 23.486343000000002 -53.790722000000002 -36.311034999999997 -53.628872000000001 -35.793419 -10.607447000000001 -85.390923000000001
101176000000 -0.26936841000000022 23.480907000000002 -53.800494999999998 -36.282738000000002 -53.678875000000005 -35.318935000000003 -10.611467999999999 -85.425674000000001
101224000000 -0.27223595999999983 23.483077999999999 -53.790622999999997 -36.620789000000002 -53.708351 -34.528377999999989 -10.613396999999997 -85.429451
101272000000 -0.27181953000000014 23.484166999999996 -53.763041999999999 -36.196255000000001 -53.596541999999999 -35.155593999999994 -10.611903 -85.469002000000003
101320000000 -0.27239773000000017 23.508658999999998 -53.728745000000004 -36.340637000000001 -53.577213 -34.666031000000004 -10.613484 -85.509841999999992
101368000000 -0.27650774000000022 23.465910000000001 -53.672187999999998 -36.492995999999998 -53.457332999999998 -34.832085000000014 -10.608900000000002 -85.512466000000003
101416000000 -0.28085138999999987 23.479016999999995 -53.668453 -36.530708000000004 -53.476394999999997 -35.451659999999997 -10.605324 -85.531447999999997
101464000000 -0.28519079000000003 23.482315000000003 -53.682914999999994 -36.423823999999996 -53.447220000000002 -35.035099000000002 -10.611643000000001 -85.551002999999994
101512000000 -0.29073702999999856 23.482299999999995 -53.617191000000005 -36.607784000000002 -53.454895 -35.651694999999989 -10.611561999999999 -85.567924000000005
101560000000 -0.29944003000000102 23.495259999999998 -53.634369 -36.826636999999998 -53.481395999999997 -35.677143000000001 -10.614115999999999 -85.630660999999989
101608000000 -0.29406189999999988 23.503138000000003 -53.572375999999991 -36.864750000000001 -53.378596999999999 -35.731189999999998 -10.628475 -85.710274000000013
101656000000 -0.29634022999999959 23.588655000000006 -53.541083999999998 -36.606361 -53.382133000000003 -35.690083000000008 -10.648762999999999 -85.775497000000001
101704000000 -0.29901155999999979 23.565974999999998 -53.476528000000002 -36.460135999999999 -53.34201800000001 -35.835304000000008 -10.640773000000001 -85.679901000000001
101752000000 -0.29631221000000108 23.603726999999996 -53.447639000000002 -36.616047000000009 -53.206470000000003 -35.748119000000003 -10.65569 -85.748786999999993
101800000000 -0.29123139000000042 23.621967000000005 -53.316589 -37.163886999999995 -53.170932999999998 -36.039352000000001 -10.664244999999998 -85.704018000000019
101848000000 -0.28831141999999949 23.662601000000002 -53.302352999999997 -37.299476999999996 -53.173149000000002 -36.601391 -10.670456999999999 -85.723267000000007
101896000000 -0.28824808999999951 23.611123999999997 -53.224285000000002 -37.312587999999998 -53.109276000000001 -36.540908999999999 -10.672853 -85.722403999999997
101944000000 -0.2812156400000001 23.606786999999997 -53.147399999999998 -37.986621999999997 -53.073124 -36.717731000000001 -10.667822000000001 -85.728088
101992000000 -0.28882542000000033 23.622292999999999 -53.155670000000001 -38.244606000000005 -52.989544000000002 -37.09845 -10.663485999999999 -85.630866999999995
102040000000 -0.28104605999999926 23.659459999999999 -53.147320000000001 -38.485450999999998 -52.973213000000001 -37.58831 -10.636145000000001 -85.660301000000018
102088000000 -0.27821657000000122 23.638697000000001 -53.13242000000001 -39.017017000000003 -52.948143000000002 -38.058566999999989 -10.635475 -85.748535000000018
102136000000 -0.28521678000000034 23.627994999999999 -53.073303000000003 -39.445709000000001 -52.973026000000004 -38.554569000000001 -10.636675 -85.733147000000002
102184000000 -0.28936382999999971 23.638117000000005 -53.096043000000002 -39.697594000000002 -52.941040000000001 -38.953547999999998 -10.625647000000001 -85.694519
102232000000 -0.29439819000000017 23.683347999999999 -53.067916999999994 -40.065021999999999 -52.915897000000001 -38.853351999999994 -10.616899 -85.697029000000001
102280000000 -0.29633218000000039 23.633773999999999 -53.095576999999999 -39.928429000000008 -52.855389000000002 -39.362907 -10.610694000000001 -85.663794999999993
102328000000 -0.29409956999999992 23.643861999999999 -53.02330400000001 -40.001472000000007 -52.880482000000001 -39.367640999999992 -10.603911 -85.393805999999984
102376000000 -0.29520132999999915 23.748334999999997 -53.027949999999997 -40.69907400000001 -52.807369000000001 -39.589115000000007 -10.626461000000001 -85.755950999999996
102424000000 -0.29502704999999912 23.759486999999996 -52.908413000000003 -40.262416999999999 -52.755195999999998 -39.541313000000002 -10.62438 -85.798339999999996
102472000000 -0.29463089000000042 23.740901999999998 -52.922530999999999 -40.740611999999999 -52.746452000000005 -40.601345000000009 -10.628556 -85.904144000000002
102520000000 -0.29431286000000079 23.794350000000001 -52.857536000000003 -41.577857999999999 -52.736328 -40.97142800000001 -10.646191 -85.897437999999994
102568000000 -0.29351070999999995 23.865620000000003 -52.891342000000002 -41.582058000000004 -52.785530000000008 -41.508045000000003 -10.647294 -85.946877000000001
102616000000 -0.29020122000000004 23.880127000000002 -52.815674000000001 -42.014339000000014 -52.71581599999999 -41.569786000000001 -10.643022999999999 -86.046051000000006
102664000000 -0.27690389999999993 23.823616000000005 -52.841808 -42.666271000000002 -52.739818999999997 -42.129790999999997 -10.65498 -86.110359000000003
102712000000 -0.27646911000000013 23.80274 -52.806697999999997 -43.234043 -52.773918000000002 -42.465870000000002 -10.654477999999997 -86.095909000000006
102760000000 -0.28423861 23.797225999999998 -52.845824999999998 -43.557972000000007 -52.748505000000002 -42.983386999999993 -10.649490999999999 -86.081100000000006
102808000000 -0.2834742400000001 23.817703000000005 -52.877144000000001 -43.342044999999999 -52.771397 -42.840823999999991 -10.636870999999999 -86.070960999999997
102856000000 -0.28811445999999963 23.805851000000001 -52.889384999999997 -44.158295000000003 -52.745888000000001 -43.223381000000003 -10.631223 -86.094077999999996
102904000000 -0.28453350000000038 23.785613999999999 -52.888981000000001 -44.003227000000003 -52.762248999999997 -43.405929999999998 -10.619799 -86.068404999999984
102952000000 -0.29283803999999974 23.799043999999999 -52.898417999999992 -44.594349000000001 -52.760086000000001 -43.856155000000001 -10.605428 -86.061157000000009
103000000000 -0.29754760999999968 23.748227999999997 -52.918640000000003 -44.872204000000004 -52.747787000000002 -44.200896999999998 -10.600459000000001 -86.096687000000003
103048000000 -0.29735106000000083 23.828053000000004 -52.947651 -45.124442999999999 -52.739418000000001 -44.480648000000002 -10.601088000000001 -86.054741000000007
103096000000 -0.30075535000000009 23.865058999999999 -52.911263000000005 -45.394566000000005 -52.748085000000003 -44.440929000000004 -10.604543 -86.101624000000001
103144000000 -0.30346104999999912 23.838101999999996 -52.951630000000009 -45.441436999999993 -52.778480999999999 -44.840187000000007 -10.606200999999999 -86.080391000000006
103192000000 -0.30255090999999978 23.825926000000003 -52.885933000000009 -45.594741999999997 -52.830501999999996 -44.973171000000001 -10.614186 -86.010811000000018
103240000000 -0.29602873000000013 23.925796999999999 -52.877834000000007 -46.184067000000006 -52.808673999999996 -45.297130999999993 -10.629004999999999 -86.153580000000005
103288000000 -0.29215854000000036 23.952739999999999 -52.931828000000003 -46.552314999999986 -52.753383999999997 -45.66340300000001 -10.644255000000001 -86.224532999999994
103336000000 -0.28853633999999923 23.958742000000001 -52.936072999999993 -46.550217000000004 -52.812064999999997 -45.771220999999997 -10.660793 -86.292518999999999
103384000000 -0.27935407000000029 24.03923 -52.941116000000001 -46.83459100000001 -52.901725999999996 -45.794739 -10.672226999999999 -86.347594999999998
103432000000 -0.27272518999999956 24.034008 -52.918747000000003 -46.662112999999998 -52.811062 -46.031272999999999 -10.673774 -86.355559999999983
103480000000 -0.27273703000000044 23.968500000000006 -52.910839000000003 -47.102992999999991 -52.869179000000003 -46.238944999999994 -10.679812999999999 -86.444084000000004
103528000000 -0.26786953000000047 23.966925 -52.877181999999998 -47.260100999999992 -52.889099000000002 -45.943325000000002 -10.668934999999999 -86.448943999999997
103576000000 -0.26253747999999921 23.963500999999997 -52.921760999999996 -47.72573899999999 -52.865437 -46.772305000000017 -10.657131 -86.391029000000003
103624000000 -0.27258489000000014 23.916721000000003 -52.93934999999999 -48.134342000000004 -52.859295000000003 -46.522838999999991 -10.646542 -86.396857999999995
103672000000 -0.28373535999999994 23.913336000000001 -53.026482000000001 -48.166618 -52.882469 -46.339663999999999 -10.635724 -86.538460000000001
103720000000 -0.29062547999999866 24.028658 -53.054862999999997 -47.987288999999997 -52.829417999999997 -46.833754999999996 -10.622519 -86.628608999999997
103768000000 -0.29456936999999989 24.015485999999999 -53.029426999999998 -48.132499999999993 -52.840866000000005 -46.593327000000002 -10.606260000000001 -86.50232699999998
103816000000 -0.3027946100000003 24.003865999999999 -53.055115000000001 -48.39320399999999 -52.981678000000002 -47.221058000000006 -10.601724999999998 -86.678871000000001
103864000000 -0.31394564999999991 24.112581000000002 -53.037586000000005 -48.773552000000002 -52.901375000000002 -47.541606999999999 -10.607298 -87.402489000000003
103912000000 -0.30771643000000015 24.002297999999996 -53.011958999999997 -48.237414999999991 -52.816551000000004 -47.178825000000003 -10.608637000000002 -86.546997000000005
103960000000 -0.31198295999999992 24.061626 -53.003703999999999 -48.11519599999999 -52.761519999999997 -47.001034000000004 -10.625532 -86.627921999999984
104008000000 -0.29930772999999877 24.177661999999998 -53.007362000000001 -48.490153999999997 -52.887752999999989 -47.695735999999989 -10.642674 -86.650467000000006
104056000000 -0.29494005000000029 24.195966999999992 -53.005935999999998 -48.482319000000004 -52.849944999999998 -48.025554999999997 -10.655944999999999 -86.746749999999992
104104000000 -0.29625013000000044 24.264389000000001 -52.914535999999998 -48.977196000000013 -52.852832999999997 -47.893112000000002 -10.662122000000004 -86.962624000000005
104152000000 -0.27361833999999985 24.293742999999999 -52.928218999999999 -49.036026 -52.871284000000003 -47.953727999999998 -10.654083999999999 -87.004822000000004
104200000000 -0.26797937999999999 24.316459999999999 -52.926780999999998 -48.906685000000003 -52.887348000000003 -48.065750000000001 -10.660185999999999 -87.008949000000015
104248000000 -0.26902633999999975 24.258673000000002 -52.926833999999999 -49.531277000000003 -52.836159000000002 -48.309483 -10.641888999999999 -86.982956000000001
104296000000 -0.26666676999999883 24.229872 -52.938502999999997 -49.546913000000004 -52.860737 -48.645496000000001 -10.628819 -87.01333600000001
104344000000 -0.2693923700000011 24.216515000000001 -52.943268000000003 -49.625629000000004 -52.871741999999998 -48.467934 -10.617578999999999 -87.040549999999996
104392000000 -0.27906006999999861 24.188510999999995 -53.023052 -49.570155999999997 -52.829886999999999 -48.324482000000003 -10.597749000000004 -87.034996000000007
104440000000 -0.2909966399999987 24.127689 -53.007663999999998 -49.641032999999993 -52.852294999999998 -48.157085000000009 -10.584781 -86.855530000000002
104488000000 -0.29725486000000012 24.112936000000001 -52.996704000000001 -49.159630000000007 -52.891491000000002 -48.626045000000005 -10.575122 -86.820808
104536000000 -0.3015266400000014 24.141763999999998 -53.005634000000001 -49.44529 -52.885894999999998 -48.799830999999998 -10.567250999999999 -86.798866000000004
104584000000 -0.30730689000000067 24.184877 -53.00497399999999 -48.929934999999993 -52.879154 -48.263973 -10.562962000000001 -86.762198999999995
104632000000 -0.30845645000000083 24.153019 -52.935470999999993 -49.363312000000001 -52.816174000000004 -48.49824499999999 -10.568667000000001 -86.788193000000007
104680000000 -0.30452101999999986 24.261598999999997 -52.897102000000004 -49.05732299999999 -52.734028000000002 -47.971901000000003 -10.579830999999997 -86.863083000000003
104728000000 -0.29827785000000029 24.388226999999997 -52.854202000000001 -49.006293999999997 -52.704501999999998 -48.129722999999998 -10.595420000000001 -86.886077999999998
104776000000 -0.29358935000000036 24.351046000000007 -52.750346999999998 -49.472163999999999 -52.652423999999996 -48.515701000000007 -10.614671 -86.945167999999995
104824000000 -0.29067611999999959 24.362988000000001 -52.688892000000003 -49.780811 -52.587688 -48.764468999999991 -10.627041999999999 -86.955391000000006
104872000000 -0.27929275999999981 24.446953000000001 -52.716048999999998 -50.094749 -52.551430000000003 -49.352203000000003 -10.639084 -86.970955000000004
104920000000 -0.26917120999999905 24.407001000000001 -52.661448999999998 -50.341208999999999 -52.52985799999999 -49.502746999999999 -10.641031999999997 -87.013947000000002
104968000000 -0.2682905200000002 24.295339999999999 -52.680073 -50.984305999999989 -52.624957999999999 -49.932109999999994 -10.646512999999999 -86.903510999999995
105016000000 -0.27008620000000044 24.304003000000002 -52.704376000000003 -50.623386000000004 -52.604218000000003 -49.810524000000001 -10.641852 -86.903075999999984
105064000000 -0.26815008999999962 24.351145000000002 -52.691063 -51.230900000000005 -52.620830999999995 -49.840721000000002 -10.631235999999999 -87.113418999999993
105112000000 -0.28253679999999992 24.328671 -52.708393000000001 -51.276524000000002 -52.545414000000001 -49.944298000000003 -10.604412999999999 -87.177429000000004
105160000000 -0.2922390999999997 24.291405000000001 -52.637222000000001 -51.456657 -52.490237999999998 -49.848717000000001 -10.58672 -87.181114000000008
105208000000 -0.29136896000000001 24.332659 -52.64629 -51.66795299999999 -52.496239000000003 -51.071204999999999 -10.575865 -87.265174999999999
105256000000 -0.2993135499999996 24.391199 -52.611297999999998 -52.10937899999999 -52.493865999999997 -50.934260999999999 -10.563971 -87.255202999999995
105304000000 -0.30912932999999915 24.362901999999998 -52.678539000000001 -51.960087000000009 -52.521320000000003 -51.276927999999998 -10.562371000000002 -87.256264000000002
105352000000 -0.31216013000000037 24.373384000000001 -52.625511000000003 -52.429206999999998 -52.50356699999999 -51.274864000000001 -10.572474 -87.356361000000007
105400000000 -0.30888223999999981 24.503077000000001 -52.708309 -52.368225000000002 -52.494949000000005 -51.264732000000009 -10.582370999999998 -87.379386999999994
105448000000 -0.31253146999999981 24.486191000000002 -52.673332000000002 -52.120018000000002 -52.491615000000003 -51.323391000000001 -10.596214 -87.391289
105496000000 -0.3076830800000005 24.496305 -52.639046 -52.290092000000008 -52.510654000000002 -51.468192999999999 -10.604184 -87.492699000000002
105544000000 -0.30178970000000016 24.609182000000001 -52.643044000000003 -52.483123999999997 -52.498027999999991 -51.842373000000002 -10.620998 -87.513381999999993
105592000000 -0.2875579599999995 24.6157 -52.597481000000002 -52.568671999999999 -52.472366000000001 -52.077522000000002 -10.616876 -87.557158999999999
105640000000 -0.28738647999999956 24.605472999999996 -52.542209999999997 -52.507996000000006 -52.507739999999998 -52.019455000000001 -10.621451 -87.633269999999982
105688000000 -0.28586727000000023 24.649014999999999 -52.532608000000003 -52.868998999999995 -52.498047 -52.194373999999996 -10.616729999999999 -87.643173000000004
105736000000 -0.27761278000000117 24.621428000000002 -52.548694999999995 -53.25219700000001 -52.426524999999998 -51.921512999999997 -10.611298 -87.605727999999999
105784000000 -0.28566324999999965 24.581440000000001 -52.539104000000009 -52.951031 -52.407753 -51.602234000000003 -10.596518 -87.626579000000007
105832000000 -0.29005619999999954 24.544986999999992 -52.506779000000002 -52.998263999999999 -52.370792000000002 -51.279446000000007 -10.584626999999999 -87.581879000000001
105880000000 -0.29849716999999965 24.540308 -52.495308000000009 -52.844250000000002 -52.307696999999997 -52.257205999999996 -10.564930000000004 -87.547195000000002
105928000000 -0.30606955000000041 24.554245000000009 -52.437877999999998 -53.023608999999986 -52.262763999999997 -52.363284999999998 -10.55209 -87.574393999999998
105976000000 -0.31382405999999952 24.519829000000001 -52.454574999999998 -53.119548999999999 -52.240077999999997 -52.485175999999996 -10.543909000000003 -87.636336999999997
106024000000 -0.32036638000000117 24.606980999999998 -52.425549000000004 -53.000239999999991 -52.218299999999999 -52.416854999999998 -10.541156000000001 -87.616089000000002
106072000000 -0.3176746399999999 24.712111000000004 -52.369297000000003 -53.095015999999987 -52.160633000000004 -52.788398999999998 -10.546583000000002 -87.651366999999993
106120000000 -0.31772782999999971 24.732945999999995 -52.232544000000004 -53.488814999999995 -52.132739999999998 -52.776637999999991 -10.558569 -87.724166999999994
106168000000 -0.31485236 24.713766 -52.194659999999999 -53.678348999999997 -52.054016000000004 -52.568920000000006 -10.568966 -87.730018999999999
106216000000 -0.3049869799999998 24.845391999999997 -52.179713999999997 -53.935616000000003 -52.031574000000006 -53.267505999999997 -10.574007999999999 -87.745650999999995
106264000000 -0.3012050700000008 24.844978000000008 -52.113124999999997 -54.657204 -52.00313899999999 -53.385838000000007 -10.581956999999999 -87.801070999999979
106312000000 -0.29382396000000133 24.872782000000004 -52.046939999999999 -54.800582999999996 -51.951571999999999 -54.117023000000017 -10.581678 -87.841637000000006
106360000000 -0.2811551700000004 24.877216000000001 -52.039371000000003 -55.348743000000006 -51.914822000000001 -54.602898000000003 -10.586176 -87.828468000000001
106408000000 -0.28089198000000054 24.845610000000001 -52.037559999999999 -55.760002 -51.840733 -55.024856999999997 -10.580099000000001 -87.851958999999994
106456000000 -0.27792238999999919 24.808078999999999 -52.005222000000003 -56.362388999999993 -51.875561000000005 -55.064075000000003 -10.573985000000004 -87.904785000000004
106504000000 -0.28192714000000019 24.849758000000001 -52.004539000000001 -56.243609999999997 -51.824787000000001 -55.371037000000008 -10.572534000000001 -87.877791999999999
106552000000 -0.28507691999999968 24.829096 -51.991298999999998 -56.731144 -51.810928000000004 -56.164519999999996 -10.558064999999999 -87.882430999999997
106600000000 -0.28659475000000012 24.689754000000001 -51.943297999999999 -57.173267000000003 -51.778702000000003 -56.370781000000001 -10.545629999999999 -87.899413999999993
106648000000 -0.30895423999999994 24.797525 -51.967441999999991 -57.715324000000003 -51.837780000000002 -56.864586000000003 -10.543224 -87.995575000000002
106696000000 -0.30848286000000014 24.851492 -51.953322999999997 -58.048721 -51.817055000000003 -57.076526999999984 -10.546807000000001 -87.946053000000006
106744000000 -0.31215233000000009 24.809701999999994 -51.938301000000003 -58.492943000000004 -51.792521999999998 -57.613289000000009 -10.533867000000001 -88.042038000000005
106792000000 -0.31348294000000043 24.909943000000005 -51.955368 -58.764572000000001 -51.813354000000004 -57.740501000000002 -10.548405000000001 -88.104873999999995
106840000000 -0.31300633999999855 25.013660000000002 -51.991244999999999 -58.922047000000006 -51.793671000000003 -58.073176999999987 -10.561641 -88.189010999999979
106888000000 -0.31095091000000025 25.007873999999997 -51.972450000000009 -59.311207000000003 -51.778689999999997 -58.386794999999985 -10.574142 -88.240500999999995
106936000000 -0.30426836000000002 25.060632999999999 -51.931454000000002 -59.281807000000015 -51.749786 -58.720776000000001 -10.583501999999999 -88.288382999999996
106984000000 -0.29488574999999856 25.093619999999994 -51.880661000000003 -59.86959499999999 -51.724086999999997 -59.422339999999998 -10.589043999999998 -88.335716000000005
107032000000 -0.28975344000000031 25.059930999999999 -51.837967000000006 -60.273018 -51.709854 -59.666373999999998 -10.591873 -88.337783999999999
107080000000 -0.28635167999999978 25.053194000000001 -51.838509000000002 -60.851814000000005 -51.69659 -60.147799999999997 -10.589082000000001 -88.357558999999995
107128000000 -0.28085995000000047 25.056069999999998 -51.902061000000003 -61.538165999999997 -51.766784999999999 -60.416836000000004 -10.585252999999998 -88.353638000000004
107176000000 -0.28334214999999968 25.036726000000002 -51.908805999999998 -61.830691999999992 -51.798152999999999 -60.820014999999998 -10.577936999999999 -88.353188000000003
107224000000 -0.29111429999999949 24.993566999999999 -51.923694999999995 -62.091174999999993 -51.793818999999999 -60.586182000000001 -10.563965 -88.342911000000001
107272000000 -0.29978836000000098 24.944362999999999 -51.992457999999999 -62.472709999999992 -51.752209000000001 -61.371456000000009 -10.55735 -88.33618199999998
107320000000 -0.30672066999999886 24.976393000000002 -51.985283000000003 -62.895190999999997 -51.761226999999998 -61.728504000000001 -10.549054 -88.351425000000006
107368000000 -0.31031804999999957 25.040388 -51.970688000000003 -63.03769299999999 -51.779007000000007 -62.176921999999998 -10.539939999999998 -88.338593000000003
107416000000 -0.31945880999999976 25.017136000000001 -52.028129999999997 -63.286068 -51.806930999999999 -63.078757999999993 -10.540984999999999 -88.368874000000005
107464000000 -0.3199405700000002 25.101351000000001 -52.056865999999999 -63.506484999999998 -51.834949000000002 -63.259056000000001 -10.548161 -88.426865000000006
107512000000 -0.31572163000000014 25.129987999999997 -52.085875999999999 -64.089684000000005 -51.877018 -63.651169000000003 -10.552968999999999 -88.437004000000002
107560000000 -0.3111099599999998 25.134150999999999 -52.077846999999991 -64.624213999999995 -51.890532999999991 -63.466808 -10.565906999999999 -88.497283999999993
107608000000 -0.31219795000000017 25.181634999999996 -52.107906 -64.843635999999989 -51.973247999999998 -64.070580000000007 -10.576364999999999 -88.546875
107656000000 -0.29743892000000072 25.229771000000003 -52.130634000000001 -65.075751999999994 -52.036895999999999 -64.569450000000003 -10.578893000000001 -88.50882
107704000000 -0.29178891000000018 25.231836000000001 -52.166823999999998 -65.381134000000003 -52.088085 -64.689293000000006 -10.579205999999999 -88.540649000000002
107752000000 -0.28811889999999885 25.231683999999998 -52.194064999999995 -65.619011 -52.093924999999999 -64.626106000000007 -10.577109999999998 -88.624641000000011
107800000000 -0.27497882000000007 25.244978 -52.286968000000002 -65.926315000000002 -52.157887000000002 -65.028282000000004 -10.572391000000001 -88.572806999999997
107848000000 -0.2768051299999994 25.236750000000001 -52.343280999999998 -66.064972000000012 -52.220993 -64.785347000000002 -10.565683 -88.606926000000016
107896000000 -0.28051725000000022 25.17024 -52.403632999999999 -66.052649999999986 -52.249794000000009 -64.642478999999994 -10.554176999999999 -88.658249000000012
107944000000 -0.2809808899999986 25.143515000000001 -52.446804 -65.946067999999997 -52.264857999999997 -64.536811999999998 -10.544109000000004 -88.660659999999993
107992000000 -0.28845914999999983 25.150084 -52.523128999999997 -65.453811999999999 -52.300690000000003 -64.349486999999996 -10.535042000000001 -88.692367999999988
108040000000 -0.29566377000000016 25.101491999999997 -52.515427000000003 -64.873146000000006 -52.358058999999997 -64.256073000000001 -10.531800999999998 -88.666702000000001
108088000000 -0.30491309999999955 25.188874999999999 -52.474959999999996 -64.464455000000001 -52.254210999999998 -63.876556000000001 -10.529426999999998 -88.733276000000004
108136000000 -0.31518161000000045 25.222025000000002 -52.423183000000002 -64.577599000000006 -52.237445999999998 -64.005866999999995 -10.529351999999999 -88.800880000000006
108184000000 -0.31672307999999849 25.227372999999996 -52.434032000000002 -65.004020999999995 -52.217472000000001 -64.494820000000004 -10.535830000000001 -88.834441999999996
108232000000 -0.3208666099999995 25.275053 -52.456524000000002 -65.132407999999998 -52.258128999999997 -64.326958000000005 -10.546507 -88.909401000000003
108280000000 -0.31370079999999861 25.316243999999998 -52.456406000000001 -65.167716999999996 -52.226489999999998 -64.654655000000005 -10.55837 -88.962349000000003
108328000000 -0.30925356999999976 25.341892000000001 -52.411380999999999 -65.163116000000016 -52.243744000000007 -64.47653200000002 -10.570033 -89.033332999999999
108376000000 -0.30579653000000029 25.344265000000004 -52.366641999999999 -65.223693999999995 -52.237178999999998 -64.421722000000003 -10.578199999999999 -89.036666999999994
108424000000 -0.29765349999999902 25.368952 -52.352477999999998 -65.461403000000004 -52.239311000000001 -64.794983000000002 -10.580133999999997 -89.018814000000006
108472000000 -0.29171777000000015 25.394732000000001 -52.392063 -65.376366000000004 -52.299495999999991 -64.785422999999994 -10.577742000000001 -88.998344000000003
108520000000 -0.28448733999999881 25.364621999999997 -52.371216000000004 -65.162711999999999 -52.281784000000002 -64.658141999999998 -10.572784000000002 -88.992446999999984
108568000000 -0.28562537000000005 25.348059000000003 -52.369633 -65.163025000000019 -52.243065000000001 -64.467758000000003 -10.566916000000003 -88.981819000000016
108616000000 -0.28860604999999939 25.305679000000001 -52.328175000000002 -65.261650000000003 -52.239222999999996 -64.300292999999996 -10.561749000000001 -88.988968
108664000000 -0.29703340000000045 25.292852000000003 -52.308239 -65.412803999999994 -52.14938699999999 -64.357300000000009 -10.555820000000001 -88.983542999999997
108712000000 -0.30474567000000108 25.255223999999998 -52.275761000000003 -65.827636999999996 -52.112895999999999 -64.454346000000015 -10.549827999999998 -88.992621999999997
108760000000 -0.31046956999999969 25.257750999999999 -52.307629000000006 -65.997459000000006 -52.072319 -65.111115000000012 -10.550139000000001 -89.029357999999988
108808000000 -0.31483229999999868 25.283823000000002 -52.301070999999993 -66.051826000000005 -52.077641 -65.191413999999995 -10.555281999999998 -89.049415999999994
108856000000 -0.3208746900000003 25.262398000000001 -52.306938000000002 -66.131370999999987 -52.04974399999999 -65.042755 -10.565950000000001 -89.098624999999998
108904000000 -0.32847254999999997 25.352965999999999 -52.239094000000001 -65.964302000000004 -52.000422999999998 -65.251334999999997 -10.580379000000001 -89.200553999999983
108952000000 -0.32586926000000072 25.404319999999998 -52.168526 -66.126450000000006 -52.000979999999998 -65.801963999999998 -10.592082999999999 -89.191818000000012
109000000000 -0.32659563000000102 25.467887999999999 -52.094147 -66.232917999999998 -51.963405999999999 -66.185097000000013 -10.599752000000002 -89.263633999999996
109048000000 -0.32312587000000026 25.486177000000001 -52.068401000000001 -67.145690999999999 -51.959327999999999 -66.528030000000001 -10.599771 -89.321219999999997
109096000000 -0.31017124999999912 25.534362999999999 -52.056721000000003 -67.632339000000002 -51.977192000000002 -66.877814999999998 -10.595972 -89.381095999999999
109144000000 -0.30407568999999862 25.541231 -52.091816000000001 -67.961852999999991 -52.000380999999997 -67.031577999999996 -10.593506999999999 -89.479523000000015
109192000000 -0.30644010999999949 25.515976000000002 -52.073231 -68.235045999999997 -51.983733999999998 -67.463004999999995 -10.581476999999996 -89.482299999999995
109240000000 -0.30484756999999862 25.448550999999991 -52.068641999999997 -68.698348999999993 -51.961849000000001 -67.650665000000004 -10.568459000000004 -89.467041000000009
109288000000 -0.30282485000000003 25.428992999999995 -52.116168999999999 -69.162102000000004 -51.982608999999997 -68.210883999999993 -10.556248999999999 -89.473433999999997
109336000000 -0.30960050000000039 25.397512000000006 -52.194347 -69.569648999999998 -51.999786 -68.197197000000003 -10.535296000000001 -89.402725000000018
109384000000 -0.31690573999999944 25.402573 -52.250706000000008 -69.519347999999994 -52.044483 -68.519492999999997 -10.52 -89.396027000000004
109432000000 -0.3223337199999996 25.368614000000001 -52.294517999999997 -69.625565000000009 -52.100951999999992 -68.704154999999986 -10.514328000000003 -89.450279000000009
109480000000 -0.3285585599999995 25.369493000000002 -52.356631999999991 -69.468924999999999 -52.141865000000003 -68.894653000000005 -10.509862999999999 -89.486655999999996
109528000000 -0.3380663400000003 25.383967999999999 -52.355075999999997 -69.541381999999999 -52.141582 -68.858611999999994 -10.510405000000002 -89.539101000000002
109576000000 -0.34484705000000038 25.393450000000001 -52.419570999999998 -69.594566 -52.209705 -69.004897999999983 -10.518432000000001 -89.563796999999994
109624000000 -0.35261332999999973 25.479835999999999 -52.426327000000001 -69.324669 -52.239811000000003 -68.855094999999992 -10.537284000000003 -89.668342999999993
109672000000 -0.35040381999999953 25.519110000000001 -52.447330000000001 -69.464271999999994 -52.25956 -68.741478000000001 -10.544842999999997 -89.669357000000005
109720000000 -0.34493728999999984 25.615580000000001 -52.474045000000004 -69.239258000000007 -52.317745000000002 -68.695769999999996 -10.558287 -89.719611999999998
109768000000 -0.34264203999999937 25.673687000000001 -52.483181000000002 -68.980323999999996 -52.323184999999995 -68.347465999999997 -10.565232999999999 -89.754608000000019
109816000000 -0.32949677000000133 25.684166000000005 -52.456950999999997 -68.459952999999999 -52.335963999999997 -68.103881999999999 -10.568752999999999 -89.737137000000004
109864000000 -0.31703329000000013 25.759546 -52.407021 -68.000518999999997 -52.290714000000008 -67.869018999999994 -10.568957999999999 -89.810576999999995
109912000000 -0.30882165000000017 25.751642000000004 -52.322842000000009 -67.890067999999999 -52.239525 -67.482841000000008 -10.563286000000002 -89.811226000000019
109960000000 -0.30168479999999864 25.685295 -52.285263 -67.843520999999996 -52.233685000000001 -67.236748000000006 -10.550416999999999 -89.734711000000004
110008000000 -0.30522164999999879 25.682943000000002 -52.233452 -67.916945999999996 -52.118206000000001 -67.360839999999996 -10.544255 -89.791747999999998
110056000000 -0.30423257000000031 25.651552000000002 -52.190922 -67.880463000000006 -52.096012000000002 -67.121413999999987 -10.530336999999999 -89.719513000000006
110104000000 -0.31268030000000008 25.621490000000001 -52.183387999999994 -67.997985999999997 -52.074444 -67.227469999999997 -10.521281 -89.709952999999999
110152000000 -0.31801081000000003 25.608231000000004 -52.149600999999997 -68.146606000000006 -51.978901000000008 -67.182143999999994 -10.516446000000002 -89.681083999999998
110200000000 -0.32451534000000121 25.547062000000007 -52.098503000000001 -68.015006999999997 -51.908569 -67.448433000000009 -10.515141 -89.738968
110248000000 -0.33568855999999986 25.598444000000001 -52.075733 -68.299689999999998 -51.916988000000003 -68.089873999999995 -10.532159000000004 -89.823241999999993
110296000000 -0.34048068999999948 25.705181 -52.065086000000001 -68.474570999999997 -51.908169000000001 -67.911545000000004 -10.554215999999998 -89.912391999999997
110344000000 -0.34393492000000048 25.723896 -51.985129999999998 -68.58248900000001 -51.828570999999997 -68.313934000000003 -10.580622 -89.987862000000007
110392000000 -0.35004267000000067 25.768575999999999 -51.950080999999997 -68.689781000000011 -51.753780000000006 -68.262259999999998 -10.607892 -90.051727
110440000000 -0.35296178000000034 25.834908999999996 -51.903664000000006 -68.824066000000002 -51.707272000000003 -68.394569000000018 -10.631990999999999 -90.159767000000016
110488000000 -0.34168640000000039 25.948038 -51.809276999999994 -69.265152000000015 -51.709220999999999 -68.859566000000001 -10.651103000000003 -90.245422000000005
110536000000 -0.32880061999999999 25.959 -51.706341000000002 -69.638199 -51.62834500000001 -69.037811000000005 -10.659727999999999 -90.284447
110584000000 -0.32605844999999989 25.951001999999999 -51.627566999999999 -70.544853000000003 -51.613819000000007 -69.924362000000016 -10.658870999999998 -90.306908000000007
110632000000 -0.31865564000000124 25.968914000000002 -51.669884000000003 -71.027855000000002 -51.616779000000001 -70.324341000000004 -10.650907 -90.329132000000001
110680000000 -0.31101707000000001 25.950506000000001 -51.685306999999995 -71.122603999999995 -51.639946000000009 -70.727890000000002 -10.634519000000001 -90.293152000000006
110728000000 -0.30953406999999994 25.966613999999993 -51.666289999999996 -71.425635999999997 -51.603828 -70.424735999999996 -10.623651000000002 -90.324950999999999
110776000000 -0.31203133000000027 25.920683 -51.657307000000003 -71.784041999999999 -51.544930000000008 -71.179030999999995 -10.600469 -90.251853999999994
110824000000 -0.31211758000000017 25.912437000000004 -51.655746000000001 -72.076172 -51.506073000000001 -71.316673000000009 -10.580657 -90.230948999999995
110872000000 -0.31267362999999987 25.883031999999996 -51.652664000000001 -72.232146999999998 -51.535912000000003 -71.952461 -10.567019 -90.240074000000007
110920000000 -0.32237220000000033 25.794949999999996 -51.644877999999999 -72.825745000000012 -51.485161000000005 -72.459220999999999 -10.557209 -90.244331000000003
110968000000 -0.32811825999999966 25.806215000000002 -51.604050000000001 -73.004897999999983 -51.482048000000006 -72.731796000000017 -10.557551 -90.214027000000002
111016000000 -0.33646467000000035 25.827915000000001 -51.622818000000009 -73.861725000000007 -51.421036000000001 -73.106659000000008 -10.565058000000001 -90.234511999999995
111064000000 -0.3454572300000005 25.819679000000001 -51.649754000000001 -74.136429000000007 -51.510566999999995 -73.501380999999995 -10.576034999999999 -90.217926000000006
111112000000 -0.35116854000000086 25.890940000000001 -51.681767000000001 -74.321915000000018 -51.544356999999998 -73.85524700000002 -10.589700000000001 -90.251334999999997
111160000000 -0.34847391000000005 26.00423 -51.710284999999999 -74.587310999999985 -51.578079000000002 -74.304069999999996 -10.606612000000002 -90.264626000000007
111208000000 -0.34678065999999863 26.028566000000001 -51.724037000000003 -74.974463999999998 -51.564396000000002 -74.259140000000002 -10.619664000000002 -90.266250999999997
111256000000 -0.34094321999999982 26.078136000000001 -51.709293000000002 -74.977577000000011 -51.567439999999998 -74.598067999999998 -10.626996999999999 -90.317284000000001
111304000000 -0.32195037999999987 26.149851000000002 -51.696658999999997 -75.105987999999996 -51.582256000000001 -74.664246000000006 -10.629348999999998 -90.330269000000001
111352000000 -0.30874800999999985 26.182383000000002 -51.632565 -75.235595999999987 -51.584564 -74.978981000000005 -10.624063 -90.314018000000004
111400000000 -0.30166565999999961 26.149920000000002 -51.643608 -75.807274000000007 -51.558117000000003 -75.003304 -10.616942999999999 -90.316833000000003
111448000000 -0.29508552000000021 26.114992000000001 -51.667633000000002 -76.085648000000006 -51.595154000000001 -75.509765999999999 -10.605809999999998 -90.299347000000012
111496000000 -0.29009190000000112 26.136255000000002 -51.667343000000002 -76.586783999999994 -51.602558000000002 -75.768096999999997 -10.589983 -90.266548
111544000000 -0.29481231999999985 26.118977000000001 -51.721432 -76.358856000000003 -51.625835000000002 -76.172759999999982 -10.573638000000001 -90.216850000000008
111592000000 -0.30381140000000012 26.070851999999999 -51.69014 -77.007019 -51.573428999999997 -76.451897000000002 -10.556932 -90.181586999999993
111640000000 -0.30490088000000043 26.124745999999995 -51.743018999999997 -77.577941999999993 -51.699234000000004 -76.599525 -10.544705 -90.208656000000019
111688000000 -0.31000053999999982 26.057230000000001 -51.844600999999997 -77.738922000000002 -51.664963 -76.747780000000006 -10.537105 -90.301925999999995
111736000000 -0.31864615999999873 26.075766000000002 -51.886524000000009 -77.613228000000007 -51.724991000000003 -76.777396999999993 -10.546538000000002 -90.271666999999994
111784000000 -0.32078776000000098 26.115431000000008 -51.891987 -77.767982000000003 -51.688353999999997 -76.489349000000004 -10.561775000000001 -90.358588999999995
111832000000 -0.32840218999999993 26.136061000000005 -51.901668999999998 -77.548271 -51.712231000000003 -77.362289000000004 -10.58498 -90.439139999999995
111880000000 -0.33248705000000151 26.122032000000001 -51.949199999999998 -77.903503000000001 -51.74966400000001 -77.608063000000001 -10.613281000000001 -90.530106000000004
111928000000 -0.3261340900000001 26.244392000000005 -51.946811999999994 -78.119095000000002 -51.821658999999997 -77.646927000000005 -10.641277000000001 -90.646538000000007
111976000000 -0.32055894000000007 26.279219000000005 -52.001373000000001 -77.864470999999995 -51.831085000000002 -77.827727999999993 -10.660021 -90.664421000000004
112024000000 -0.31515126999999954 26.230191999999999 -51.904251000000002 -78.031470999999996 -51.877276999999999 -77.791388999999995 -10.674075 -90.744232000000011
112072000000 -0.30611676000000138 26.252984999999999 -51.900635000000001 -78.257071999999994 -51.820309000000002 -78.156349000000006 -10.679260000000001 -90.747910000000005
112120000000 -0.29357385999999908 26.303747000000001 -51.871616000000003 -78.469832999999994 -51.961910000000003 -78.364868000000001 -10.674644999999998 -90.737960999999999
112168000000 -0.29535428000000075 26.277159000000005 -51.895344000000001 -78.829398999999995 -52.036189999999998 -77.848884999999996 -10.671662 -90.78400400000001
112216000000 -0.30369173999999921 26.364526999999995 -51.975430000000003 -78.784721000000005 -51.956211000000003 -77.600204000000019 -10.657844000000001 -90.781731000000008
112264000000 -0.28166251999999997 26.268509000000002 -51.970112 -79.035285999999999 -51.847118000000009 -77.336945 -10.642365 -90.749931000000018
112312000000 -0.28851779999999971 26.143702999999999 -51.988045 -78.822220000000002 -51.941138999999993 -77.838661000000002 -10.611627000000002 -90.742744000000016
112360000000 -0.3027615500000001 26.142004 -52.095615000000002 -79.008087000000003 -51.979396999999999 -78.212890999999999 -10.624373 -90.736198000000002
112408000000 -0.30220982000000035 26.184451999999997 -52.079830000000001 -79.101462999999981 -51.969975000000005 -78.449370999999999 -10.604416000000001 -90.750243999999995
112456000000 -0.30798846000000041 26.157534000000005 -52.054070000000003 -78.289589000000007 -51.913143000000005 -77.586617000000004 -10.594953999999998 -90.662827000000007
112504000000 -0.31988734000000069 26.109231999999999 -52.004910000000002 -78.475623999999996 -51.940913999999992 -78.128883000000002 -10.594944 -90.657577999999987
112552000000 -0.32316825000000049 26.139146999999998 -52.042042000000002 -78.890190000000004 -51.898040999999999 -78.445030000000003 -10.608219999999999 -90.723868999999993
112600000000 -0.32796108999999962 26.211275000000008 -52.044209000000009 -78.80927299999999 -51.899943999999998 -78.403343000000007 -10.617437999999996 -90.766471999999993
112648000000 -0.33537840999999963 26.270702000000004 -52.043247000000001 -78.403290000000013 -52.010970999999998 -78.114318999999995 -10.629413 -90.764968999999979
112696000000 -0.3295221900000001 26.280446999999999 -51.998576999999997 -78.775351999999998 -51.947231000000002 -77.676841999999994 -10.642283000000001 -90.828322999999997
112744000000 -0.31687232999999948 26.309784000000001 -51.98767500000001 -78.982581999999994 -51.845664999999997 -77.898544000000001 -10.648295999999998 -90.908896999999996
112792000000 -0.31025577000000043 26.335096 -51.949050999999997 -78.808928999999992 -51.845427999999998 -78.174606000000011 -10.655981000000001 -90.946303999999998
112840000000 -0.29909474000000058 26.411892000000005 -51.892966999999999 -79.256148999999994 -51.945648000000006 -77.932120999999995 -10.658321000000001 -90.997925000000009
112888000000 -0.28989317999999997 26.384080999999998 -51.847358999999997 -79.402855000000002 -51.828777000000002 -78.590377999999987 -10.652352 -90.998039000000006
112936000000 -0.28415515999999985 26.586054000000004 -51.886191999999994 -79.361000000000004 -51.768444000000002 -78.998772000000002 -10.650128 -91.044182000000006
112984000000 -0.28008732000000003 26.434620000000002 -51.822158999999999 -79.204459999999997 -51.774956000000003 -78.533614999999998 -10.640639999999999 -91.05006400000002
113032000000 -0.28733560000000075 26.46265 -51.810989000000006 -79.160972999999998 -51.696106 -79.180779000000001 -10.626462999999999 -91.066574000000003
113080000000 -0.29178809999999872 26.276616999999998 -51.729114999999993 -80.136848000000015 -51.734921 -79.126723999999996 -10.608646 -91.055893000000012
113128000000 -0.29933350999999997 26.219975000000005 -51.732440999999994 -80.780440999999982 -51.739838000000006 -79.850250000000003 -10.594438 -91.078834999999998
113176000000 -0.31526401999999998 26.240005000000004 -51.837665999999999 -81.222153000000006 -51.756599000000001 -79.221405000000004 -10.583171999999998 -91.103789999999989
113224000000 -0.32011837000000021 26.281300999999999 -51.840397000000003 -81.810203999999999 -51.752380000000002 -79.612915000000015 -10.573225000000001 -91.108810000000005
113272000000 -0.32338995000000026 26.328399999999998 -51.886035999999997 -81.530708000000004 -51.850731000000003 -79.846137999999982 -10.566594 -91.126350000000002
113320000000 -0.33141740999999975 26.239080000000001 -51.913929000000003 -81.376960999999994 -51.765414999999997 -80.441436999999993 -10.570257000000002 -91.191681000000003
113368000000 -0.33460807999999959 26.273483000000006 -51.975303999999994 -81.485709999999983 -51.856445000000008 -80.501686000000007 -10.581749 -91.345458999999991
113416000000 -0.331636190000001 26.398684000000006 -51.918258999999992 -81.140106000000003 -51.869101999999998 -80.958618000000016 -10.59487 -91.398437999999999
113464000000 -0.33067235000000134 26.395214000000003 -51.884956000000003 -81.373504999999994 -51.750900000000001 -80.985930999999994 -10.610564 -91.466201999999996
113512000000 -0.32800575999999909 26.438201999999997 -51.872138999999997 -81.667609999999996 -51.84893799999999 -81.381270999999998 -10.622947 -91.520019999999988
113560000000 -0.3097328199999998 26.574677999999995 -51.933639999999997 -82.307441999999995 -51.80066699999999 -81.161445999999998 -10.629533 -91.597115000000002
113608000000 -0.30024216000000037 26.550305999999999 -51.941685 -82.162734999999998 -51.972617999999997 -81.548255999999995 -10.639234000000002 -91.669303999999997
113656000000 -0.29566820999999899 26.493684999999999 -51.935558 -82.296042999999997 -51.956206999999999 -81.681740000000005 -10.639708000000001 -91.745255
113704000000 -0.28777757000000048 26.509132000000001 -51.961379999999991 -82.042946000000001 -52.053741000000002 -80.806045999999995 -10.636542 -91.71379899999998
113752000000 -0.28678030000000049 26.499003999999999 -51.964866999999998 -82.095779000000007 -51.985309999999998 -81.095733999999993 -10.634327000000003 -91.774276999999998
113800000000 -0.29546150999999954 26.451329999999999 -52.062140999999997 -82.27574199999998 -51.976005999999998 -80.977103999999997 -10.631088 -91.766662999999994
113848000000 -0.30401572999999998 26.425554000000009 -52.081299000000001 -82.473167000000004 -52.047150000000002 -80.792235999999988 -10.62077 -91.779838999999996
113896000000 -0.30790566999999958 26.444165999999996 -52.140526000000008 -81.693625999999995 -52.016311999999999 -80.346175999999986 -10.618372000000001 -91.705017000000012
113944000000 -0.31339863000000029 26.369482000000009 -52.136299000000001 -81.169280999999998 -52.054150000000007 -80.219695999999999 -10.616854999999997 -91.760619999999989
113992000000 -0.32232842000000106 26.382294000000002 -52.130195999999998 -81.146912 -51.938254999999998 -80.550835000000006 -10.611881 -91.827324000000004
114040000000 -0.32676502999999962 26.433533000000001 -52.019263999999993 -80.800476000000018 -51.915515999999997 -80.608727000000002 -10.61642 -91.860091999999995
114088000000 -0.32891428000000006 26.567699000000005 -52.074714999999998 -80.210327000000007 -51.969878999999999 -80.297760000000011 -10.622819 -91.855796999999995
114136000000 -0.33471124999999996 26.519357999999997 -51.977969999999999 -80.383590999999981 -51.867671999999999 -79.806931000000006 -10.632636 -91.976012999999995
114184000000 -0.33054023999999954 26.527784 -51.922668000000002 -80.568297999999999 -51.900173000000002 -79.453293000000002 -10.645631 -92.010292000000007
114232000000 -0.32438341000000048 26.652301999999995 -51.815628000000004 -80.420631 -51.872089000000003 -79.554023999999998 -10.657724999999999 -92.084198000000001
114280000000 -0.31809600999999899 26.684455999999997 -51.760147000000003 -80.171188000000001 -51.745373000000001 -79.660469000000006 -10.667686 -92.144927999999993
114328000000 -0.31134328000000022 26.673849000000001 -51.682659000000001 -80.325180000000003 -51.692169000000007 -79.757675000000006 -10.673139000000001 -92.182838000000004
114376000000 -0.30872296999999993 26.670573999999998 -51.695896000000005 -80.716697999999994 -51.595005 -80.004784000000001 -10.675653999999998 -92.229454000000018
114424000000 -0.30400210999999988 26.665120999999999 -51.573833 -80.579025000000001 -51.547339999999991 -80.023621000000006 -10.676939000000001 -92.302314999999993
114472000000 -0.30378586000000052 26.648340000000001 -51.565627999999997 -80.750518999999997 -51.523707999999999 -79.995734999999982 -10.676617 -92.343238999999983
114520000000 -0.31356667999999949 26.630267999999997 -51.511279999999999 -80.799796999999998 -51.469025000000002 -79.991721999999996 -10.667325999999999 -92.398621000000006
114568000000 -0.31442597999999866 26.634037000000003 -51.425311999999998 -80.837356999999997 -51.331645999999999 -80.258369000000016 -10.662955999999999 -92.394172999999995
114616000000 -0.32213718000000002 26.656668 -51.346511999999997 -81.562423999999993 -51.273139999999998 -80.654114000000007 -10.658867000000001 -92.455375999999987
114664000000 -0.33395164999999938 26.682758 -51.368999000000002 -81.747864000000007 -51.244979999999998 -81.108574000000004 -10.646368000000004 -92.456787000000006
114712000000 -0.33605938999999985 26.711983000000007 -51.280673999999998 -81.876747000000009 -51.166305999999999 -81.682845999999998 -10.63495 -92.449600000000004
114760000000 -0.34504070999999964 26.588556000000001 -51.203319999999991 -82.395270999999994 -51.098549000000006 -82.342055999999999 -10.63138 -92.481055999999995
114808000000 -0.34959039000000103 26.647127000000001 -51.152965999999999 -83.178641999999996 -51.116923999999997 -82.744225 -10.628984000000001 -92.501778000000002
114856000000 -0.34620705000000113 26.763895000000005 -51.224071999999992 -83.763046000000003 -51.138294000000002 -82.883956999999995 -10.629396 -92.493088
114904000000 -0.34149736000000053 26.802700000000005 -51.158828999999997 -84.241981999999993 -51.081688 -83.487144000000001 -10.629802 -92.526404999999997
114952000000 -0.33990284999999876 26.813970999999999 -51.122540000000001 -84.622992999999994 -51.076926999999998 -84.050194000000005 -10.637988999999999 -92.565849
115000000000 -0.33266785999999998 26.877762000000001 -51.157867000000003 -85.474975999999998 -51.050857999999991 -84.322685000000021 -10.636348999999999 -92.641684999999995
