!Keysight Technologies,N5247B,MY61256062,A.16.20.04
!Date: Tuesday, November 18, 2025 08:17:54
!Correction: S11(C  2-Port  ) 
!S21(C  2-Port  ) 
!S12(C  2-Port  ) 
!S22(C  2-Port  ) 
!S2P File: Measurements: S11, S21, S12, S22:
# Hz S  dB   R 50
67000000000 0.05716303 13.889439 -69.765816 -74.032578 -70.333549 -73.961403 -1.1940534 -58.58062
67048000000 0.045957766 13.899441 -69.030273 -75.903999 -70.225067 -73.147682 -1.1795558 -58.606255
67096000000 0.031874694 13.907574 -71.344536 -74.686501 -70.488274 -73.298927 -1.1755311 -58.610462
67144000000 0.040228866 13.878015 -72.089371 -71.797226 -70.526566 -70.94619 -1.1746205 -58.686108
67192000000 0.032715406 13.839435 -71.298782 -76.796059 -70.876137 -74.237244 -1.1875361 -58.737293
67240000000 0.027860045 14.040213 -72.784676 -74.884277 -70.939995 -74.742279 -1.1769023 -58.840446
67288000000 0.045144208 13.978694 -70.399857 -79.833496 -70.978012 -73.693497 -1.198012 -58.79668
67336000000 0.045649372 14.050353 -71.21917 -62.744667 -71.224861 -71.001549 -1.2065079 -58.818844
67384000000 0.027129009 14.187773 -71.064438 -74.685661 -71.067162 -70.59211 -1.1939027 -58.796387
67432000000 0.043579161 14.077074 -71.091934 -76.416946 -70.785225 -66.641075 -1.1909966 -58.970425
67480000000 0.0022100993 14.023038 -71.076225 -73.313156 -70.873863 -67.793564 -1.1826472 -59.032288
67528000000 0.017913371 13.986243 -71.945297 -61.034298 -70.783905 -69.584305 -1.1747946 -59.115486
67576000000 0.017645257 14.112741 -71.252174 -67.429115 -71.068237 -68.737694 -1.2059512 -59.132
67624000000 0.028198512 14.220946 -70.920898 -74.697746 -70.834671 -67.329956 -1.1975859 -59.230679
67672000000 0.029990718 14.214805 -71.051125 -70.357811 -71.356491 -67.706245 -1.221719 -59.272846
67720000000 0.030481709 14.244966 -70.721115 -66.498123 -70.915878 -65.798889 -1.2183158 -59.330799
67768000000 0.034868866 14.226169 -71.501709 -61.163239 -71.278877 -63.406532 -1.2244152 -59.297058
67816000000 0.022810761 14.384522 -70.186859 -73.259644 -71.358566 -65.291039 -1.203481 -59.356823
67864000000 0.049392201 14.470357 -72.221916 -57.059772 -71.073524 -65.764015 -1.2083883 -59.39682
67912000000 0.029489901 14.402043 -71.407669 -71.937927 -71.372795 -63.889629 -1.2212903 -59.479992
67960000000 0.011446174 14.423063 -70.659676 -68.196823 -71.118187 -66.489906 -1.2082317 -59.383087
68008000000 0.0075417962 14.44622 -71.391319 -60.83403 -71.472763 -60.706081 -1.2245657 -59.350731
68056000000 0.002252013 14.557838 -70.651276 -64.15731 -71.008652 -60.697186 -1.215854 -59.419292
68104000000 0.002840315 14.538652 -71.330521 -65.727341 -71.572632 -60.093433 -1.2113177 -59.476162
68152000000 0.0081505692 14.652283 -71.070816 -64.569527 -71.082932 -60.412067 -1.1957536 -59.56929
68200000000 0.020180853 14.79204 -70.394585 -65.825661 -71.320724 -57.778244 -1.2023954 -59.604794
68248000000 0.02227718 14.75854 -70.865715 -60.743633 -70.979362 -58.478188 -1.2153543 -59.676014
68296000000 0.038981713 14.648704 -70.831024 -59.774666 -70.980492 -59.999737 -1.2138693 -59.653255
68344000000 0.027832782 14.629589 -71.191154 -61.729652 -70.90683 -57.3657 -1.2083759 -59.537441
68392000000 0.039637912 14.659309 -70.869011 -62.638 -70.850212 -55.820934 -1.2026727 -59.57692
68440000000 0.032428164 14.811378 -71.335228 -59.178379 -70.646278 -56.074829 -1.1718497 -59.655972
68488000000 0.029103708 14.765457 -70.911957 -56.430492 -70.840309 -57.059372 -1.192555 -59.823887
68536000000 0.036044288 14.766567 -70.621452 -55.829842 -70.73484 -56.738888 -1.1759479 -59.959774
68584000000 0.040718187 14.802632 -71.104836 -56.359116 -70.450829 -57.42448 -1.195309 -59.966885
68632000000 0.050495129 14.774623 -70.489906 -57.114151 -70.595818 -55.653271 -1.1921645 -59.95969
68680000000 0.045907564 14.767334 -69.97747 -52.041416 -70.138054 -55.074959 -1.1834124 -59.954254
68728000000 0.039342403 14.780675 -69.531715 -55.653019 -69.355377 -54.504974 -1.1851254 -59.961895
68776000000 0.028145019 14.799716 -69.487236 -55.57373 -69.579163 -56.785721 -1.1794509 -60.001034
68824000000 0.030660098 14.761087 -69.033409 -56.119743 -69.209541 -56.147797 -1.1961681 -60.176815
68872000000 0.030810207 14.786255 -69.295479 -59.488003 -69.459137 -58.890457 -1.1855416 -60.309948
68920000000 0.039260317 14.802283 -69.267464 -62.01284 -69.207336 -59.293427 -1.2084519 -60.274734
68968000000 0.041485399 14.79775 -69.387672 -62.494461 -69.177696 -59.424934 -1.1931065 -60.401829
69016000000 0.048118494 14.828076 -68.817741 -61.77187 -69.099823 -61.019203 -1.2065574 -60.282009
69064000000 0.037675697 14.819065 -69.186806 -61.609844 -69.294052 -62.621704 -1.1804121 -60.320038
69112000000 0.040416598 14.833596 -69.144638 -65.27916 -69.120049 -64.758545 -1.1928405 -60.38567
69160000000 0.035563681 14.86229 -69.078018 -62.472038 -69.180336 -64.831757 -1.1822047 -60.536549
69208000000 0.037312303 14.848913 -69.273491 -65.334641 -69.310844 -64.397423 -1.1986127 -60.635048
69256000000 0.03778553 14.892126 -69.473122 -66.012863 -69.557434 -63.32354 -1.2026581 -60.348282
69304000000 0.036867768 14.887736 -68.949852 -69.532463 -69.511337 -65.61956 -1.1925416 -60.408966
69352000000 0.039193615 14.868969 -69.416702 -67.475426 -69.569672 -65.973206 -1.2152212 -60.38097
69400000000 0.027084762 14.899549 -69.481773 -67.608276 -69.25013 -66.016647 -1.2007388 -60.497829
69448000000 0.038301814 14.859923 -69.724991 -67.446999 -69.850922 -65.756096 -1.2134647 -60.472843
69496000000 0.032455914 14.943132 -69.344627 -64.800529 -70.046997 -70.140511 -1.1941601 -60.579788
69544000000 0.04459184 14.958099 -69.846107 -69.11055 -69.898766 -67.025627 -1.2153057 -60.575577
69592000000 0.043159876 14.954471 -69.511848 -64.173286 -70.088905 -65.40126 -1.2046307 -60.720692
69640000000 0.048539862 14.906934 -69.223869 -67.879311 -69.737686 -65.485458 -1.2158208 -60.68475
69688000000 0.042565729 14.927889 -69.825592 -67.721611 -69.702751 -65.487984 -1.2111638 -60.670589
69736000000 0.037872266 14.914864 -69.372269 -66.439529 -70.055443 -65.626389 -1.2083668 -60.704529
69784000000 0.030912504 14.944307 -69.639893 -66.661766 -69.590202 -65.901176 -1.2084844 -60.729698
69832000000 0.028565243 14.958876 -69.409012 -67.799324 -69.780083 -66.005913 -1.2046382 -60.820362
69880000000 0.031154098 15.000157 -69.572853 -69.164192 -69.967957 -67.435104 -1.2161413 -60.841965
69928000000 0.03407634 15.00458 -70.317429 -69.49762 -70.082932 -65.679245 -1.2123216 -60.920452
69976000000 0.037517101 15.049099 -70.001183 -67.928635 -69.755981 -66.597702 -1.2140731 -60.930096
70024000000 0.037210669 15.043983 -69.861977 -68.160805 -69.502831 -66.952339 -1.2092866 -60.946045
70072000000 0.037580229 15.05214 -69.769585 -67.069542 -69.440605 -65.516396 -1.2102394 -60.980717
70120000000 0.033453725 15.059422 -70.032188 -64.751839 -69.574577 -67.397888 -1.2117563 -61.031116
70168000000 0.032796077 15.064694 -69.875488 -66.371155 -69.759377 -65.741791 -1.2099029 -61.050224
70216000000 0.031879831 15.065398 -70.394432 -68.932465 -69.855812 -66.541611 -1.1929362 -61.1772
70264000000 0.032265265 15.092355 -69.91449 -69.167564 -69.870483 -67.930603 -1.217598 -61.28791
70312000000 0.028418656 15.087449 -70.173424 -68.784225 -70.132576 -68.336884 -1.2251736 -61.253719
70360000000 0.030287376 15.088229 -70.334259 -63.541252 -70.220306 -66.818161 -1.2277633 -61.295013
70408000000 0.026658734 15.068338 -70.744675 -64.839409 -70.336121 -63.527924 -1.2128199 -61.347099
70456000000 0.032035038 15.120952 -69.733833 -61.402916 -69.866295 -60.168034 -1.2101614 -61.282001
70504000000 0.02813576 15.130286 -69.09906 -61.07024 -69.990395 -61.731674 -1.215341 -61.343601
70552000000 0.03379124 15.159905 -69.181053 -61.749912 -69.380455 -61.683987 -1.2221718 -61.366703
70600000000 0.034174964 15.133567 -68.6278 -60.468662 -69.355118 -62.532406 -1.2185602 -61.426174
70648000000 0.031478945 15.142776 -69.019081 -64.911568 -69.231346 -62.31937 -1.2187494 -61.46917
70696000000 0.038270511 15.164748 -68.710144 -68.644112 -69.134674 -63.870239 -1.2351394 -61.467945
70744000000 0.035002906 15.165094 -68.757553 -66.626335 -68.967682 -64.2686 -1.2145729 -61.476254
70792000000 0.038870886 15.190445 -68.405151 -68.881454 -69.079453 -66.76445 -1.2222644 -61.50338
70840000000 0.036888301 15.159054 -68.915611 -66.349457 -69.392151 -64.362091 -1.1971802 -61.553215
70888000000 0.036386225 15.20867 -69.3554 -66.426399 -69.312035 -63.974224 -1.2249495 -61.584579
70936000000 0.037619751 15.186639 -69.284019 -67.434113 -69.201408 -64.898399 -1.1873324 -61.600014
70984000000 0.039524533 15.233142 -68.797646 -66.249008 -69.114235 -65.964279 -1.2114512 -61.661461
71032000000 0.041915104 15.235383 -69.364296 -68.36602 -69.215332 -66.119095 -1.2064962 -61.619884
71080000000 0.0476382 15.265029 -69.341812 -69.183113 -68.870514 -65.880936 -1.1957682 -61.654644
71128000000 0.04334338 15.219604 -69.618347 -69.551247 -69.237106 -67.722878 -1.2024136 -61.597092
71176000000 0.049881518 15.243441 -68.880035 -68.715218 -69.287186 -64.549408 -1.1882242 -61.664261
71224000000 0.042937912 15.228214 -69.021309 -67.708481 -69.210663 -66.3675 -1.2041422 -61.611012
71272000000 0.049253996 15.28429 -69.139511 -71.472977 -69.053871 -68.407227 -1.1883634 -61.663166
71320000000 0.039822079 15.29125 -69.423706 -70.746399 -69.045189 -67.954369 -1.2147325 -61.743202
71368000000 0.057688255 15.303267 -69.353371 -70.7826 -69.128792 -66.317978 -1.1927372 -61.79747
71416000000 0.043557122 15.320455 -69.422646 -69.354774 -69.238388 -68.462875 -1.231846 -61.765892
71464000000 0.045121152 15.301393 -69.09269 -69.500038 -69.266495 -70.185013 -1.2239437 -61.889896
71512000000 0.040576115 15.324368 -69.28215 -72.990486 -69.72879 -70.764984 -1.251611 -62.046341
71560000000 0.028133702 15.272522 -69.768188 -75.113304 -69.586136 -69.962624 -1.2395397 -62.057865
71608000000 0.028824454 15.363411 -70.471367 -77.364632 -70.063469 -66.27066 -1.2475758 -62.191387
71656000000 0.021308225 15.304043 -69.836906 -73.806519 -70.074608 -64.565346 -1.2317311 -62.295662
71704000000 0.030561909 15.368278 -70.369461 -72.093414 -69.81118 -65.225777 -1.2388432 -62.138241
71752000000 0.033133134 15.403542 -70.365891 -70.558624 -69.820877 -64.455421 -1.1830612 -61.707722
71800000000 0.035131298 15.449321 -69.244476 -73.379456 -69.587143 -62.878143 -1.1920362 -62.018925
71848000000 0.026806923 15.367243 -69.571274 -70.126274 -69.164528 -62.485756 -1.2462828 -62.278828
71896000000 0.02104135 15.304047 -68.999245 -70.443848 -69.527534 -64.573982 -1.2375137 -62.276764
71944000000 0.036365177 15.333085 -70.419334 -73.641342 -69.236565 -65.509796 -1.219622 -62.207832
71992000000 0.036570534 15.334971 -69.990959 -73.131721 -69.781242 -67.568428 -1.2364106 -62.323742
72040000000 0.029918736 15.429992 -69.796982 -72.2845 -69.542358 -66.27198 -1.2247641 -62.288551
72088000000 0.031607952 15.406834 -70.305061 -77.954712 -69.415146 -66.107834 -1.2124773 -62.217739
72136000000 0.027792143 15.370219 -70.97953 -72.95211 -69.571625 -64.153145 -1.2072198 -62.220196
72184000000 0.032142445 15.407598 -70.789803 -73.063873 -69.630714 -64.326767 -1.1975474 -62.315178
72232000000 0.04604844 15.372447 -71.376579 -64.928917 -69.226112 -63.302242 -1.2110891 -62.260155
72280000000 0.053818598 15.485904 -70.977943 -60.287239 -69.508965 -65.790039 -1.201359 -62.206863
72328000000 0.044938233 15.495838 -69.526398 -61.886822 -68.954788 -65.358566 -1.1984923 -62.335724
72376000000 0.054072216 15.553063 -69.535042 -64.18074 -69.086296 -66.564056 -1.1932608 -62.390221
72424000000 0.044761967 15.52223 -69.942963 -61.223274 -68.977448 -67.770622 -1.2087172 -62.475906
72472000000 0.047112271 15.643565 -69.523621 -61.469143 -69.183342 -66.831116 -1.2091279 -62.507988
72520000000 0.062370572 15.636396 -69.615982 -59.914852 -68.84639 -66.559669 -1.1968684 -62.494846
72568000000 0.040667925 15.566005 -69.348915 -64.533714 -68.919914 -66.97982 -1.2123216 -62.62587
72616000000 0.064968944 15.574476 -69.028885 -66.029724 -68.853432 -67.602287 -1.2122002 -62.63517
72664000000 0.036312811 15.635425 -68.715889 -63.931725 -68.753342 -65.87648 -1.2120988 -62.68499
72712000000 0.053284723 15.628812 -68.978271 -63.351612 -68.694893 -67.491692 -1.2194219 -62.714867
72760000000 0.033889361 15.642744 -68.517029 -61.778851 -68.690804 -66.863617 -1.2107152 -62.74905
72808000000 0.051678099 15.700957 -68.170113 -67.474678 -68.331329 -66.984749 -1.213868 -62.783222
72856000000 0.043256756 15.670609 -68.38932 -66.191689 -68.134277 -69.021034 -1.2129986 -62.828152
72904000000 0.056831412 15.709435 -68.718872 -66.930855 -68.243416 -68.977493 -1.2089125 -62.891678
72952000000 0.046684619 15.645432 -68.596085 -65.84185 -68.174232 -68.815437 -1.212864 -62.951027
73000000000 0.061054721 15.666117 -68.113983 -67.107193 -67.910805 -71.088303 -1.2054589 -62.951954
73048000000 0.050004348 15.5997 -67.810883 -67.86869 -68.144936 -72.996078 -1.2167257 -63.044224
73096000000 0.055329356 15.663665 -67.549744 -68.876534 -68.114052 -73.639069 -1.2143856 -63.019737
73144000000 0.042585213 15.573298 -67.309494 -73.272034 -68.188774 -73.61821 -1.2336757 -63.153679
73192000000 0.064697593 15.734282 -67.428459 -73.356567 -68.204674 -74.07988 -1.2236747 -63.098892
73240000000 0.050502807 15.652671 -67.932877 -75.547409 -68.181732 -74.718018 -1.2405798 -63.205944
73288000000 0.056099612 15.86216 -68.078346 -77.517395 -68.02726 -75.381287 -1.2438293 -63.015907
73336000000 0.044848051 15.726654 -68.124832 -72.560242 -68.12841 -76.651962 -1.2466747 -63.245949
73384000000 0.037888177 15.688803 -67.883865 -73.550056 -68.223564 -75.677269 -1.2498064 -63.294804
73432000000 0.031091388 15.69911 -67.824097 -77.829781 -68.000664 -75.098419 -1.2987781 -61.698338
73480000000 0.025306799 15.696518 -67.46727 -79.71656 -68.084381 -79.275505 -1.2758015 -63.423893
73528000000 0.0265409 15.725872 -67.842339 -82.076111 -68.563011 -78.649101 -1.2747526 -63.369614
73576000000 0.02167605 15.748007 -68.31031 -83.03231 -68.448433 -77.748009 -1.2718506 -63.401688
73624000000 0.031509783 15.763665 -68.370132 -85.489723 -68.368835 -77.801903 -1.2763214 -63.417652
73672000000 0.024844049 15.742637 -69.317337 -80.456993 -68.559898 -76.617767 -1.2787499 -63.41684
73720000000 0.044493455 15.74509 -68.416451 -79.585449 -68.184059 -73.926514 -1.3222775 -61.859768
73768000000 0.02385198 15.636537 -69.095154 -76.236206 -68.354057 -74.852348 -1.2780057 -63.500214
73816000000 0.042423718 15.699694 -68.450043 -77.264183 -67.926361 -75.882484 -1.2805629 -63.497864
73864000000 0.025090098 15.673911 -68.243439 -76.403854 -67.864693 -75.789436 -1.2976719 -62.717632
73912000000 0.025810672 15.770451 -67.808891 -77.332779 -67.601089 -77.764061 -1.2657671 -63.710838
73960000000 0.016026424 15.786565 -67.308983 -80.106209 -67.707153 -80.212288 -1.265923 -63.680347
74008000000 0.020418923 15.827405 -67.566391 -81.802536 -67.449699 -81.129761 -1.2523394 -63.511066
74056000000 0.018992364 15.807088 -67.659233 -86.112358 -67.72612 -82.479828 -1.2549986 -63.581112
74104000000 0.032305863 15.879715 -68.316864 -86.79277 -67.894035 -82.475441 -1.2502272 -63.57222
74152000000 0.014897164 15.90238 -68.469864 -87.17308 -67.730324 -82.949867 -1.2588792 -63.611275
74200000000 0.032008827 15.959526 -67.8834 -88.483818 -67.994789 -84.76799 -1.244998 -63.527332
74248000000 0.023980699 15.902624 -68.46756 -90.080223 -68.034233 -86.615974 -1.2564867 -63.700169
74296000000 0.032585919 16.004662 -69.026886 -88.598991 -68.428108 -84.908623 -1.2482355 -63.639477
74344000000 0.024009531 15.995667 -69.486168 -87.404289 -68.528336 -83.784027 -1.2577404 -63.731186
74392000000 0.026620142 16.003725 -69.413239 -78.494987 -68.615494 -82.649178 -1.2571117 -63.746334
74440000000 0.016693318 16.062479 -69.251228 -79.968407 -68.523849 -81.657425 -1.2595956 -63.789841
74488000000 0.016776865 16.084013 -68.891617 -78.555222 -68.243294 -79.583542 -1.2633564 -63.80275
74536000000 0.012373968 16.06974 -67.971756 -77.106674 -68.029472 -79.835152 -1.2646784 -63.871239
74584000000 0.0078735827 16.062391 -67.687675 -82.09964 -67.619255 -81.622246 -1.2652004 -63.934326
74632000000 0.010718567 16.10269 -67.770088 -84.255791 -67.65612 -83.689217 -1.2612044 -63.97459
74680000000 0.0086393859 16.101471 -67.843315 -84.567757 -67.487137 -85.384613 -1.2619925 -64.036255
74728000000 0.011429651 16.132809 -67.811241 -86.087952 -67.650421 -86.889275 -1.2659348 -64.072334
74776000000 0.00630952 16.148655 -67.804649 -85.72953 -67.702507 -86.47731 -1.2613978 -64.096291
74824000000 0.010556401 16.086931 -67.840134 -87.030746 -68.115707 -86.187645 -1.2673271 -64.152794
74872000000 0.0073329955 15.998907 -67.829346 -87.360184 -67.803146 -86.483047 -1.261548 -64.156425
74920000000 0.008487476 16.096083 -68.062416 -90.280762 -67.867516 -87.782005 -1.2631803 -64.229156
74968000000 0.00055961858 16.159626 -68.249977 -90.593178 -67.812164 -88.41864 -1.2579603 -64.228325
75016000000 -0.0011624355 16.239637 -68.54245 -89.83387 -67.987091 -89.033798 -1.2612618 -64.239693
75064000000 -0.0011313641 16.250973 -68.5839 -88.619576 -67.986565 -87.796127 -1.2612462 -64.269127
75112000000 0.0057485737 16.268253 -68.496468 -88.485413 -68.023743 -88.695076 -1.2546306 -64.22287
75160000000 0.0021386896 16.261787 -68.321976 -89.822815 -68.021431 -90.001434 -1.2544948 -64.362236
75208000000 0.0092201065 16.290964 -68.481621 -88.740219 -68.169868 -91.150383 -1.239378 -64.255112
75256000000 0.0097082863 16.283085 -68.303734 -93.106453 -68.437119 -92.043579 -1.2471949 -64.436317
75304000000 0.012827725 16.254866 -68.540916 -93.368774 -68.552582 -92.46804 -1.23265 -64.356674
75352000000 0.018318605 16.310362 -69.080978 -90.96489 -68.688652 -91.533211 -1.2467654 -64.511688
75400000000 0.014516379 16.275064 -69.046944 -92.377556 -69.026558 -93.150993 -1.2397571 -64.570915
75448000000 0.01804175 16.298853 -69.347824 -88.132469 -69.208344 -90.99752 -1.2505341 -64.668503
75496000000 0.008249267 16.295301 -69.308067 -87.084503 -69.202248 -89.716385 -1.2586005 -64.652
75544000000 0.014763531 16.39645 -68.864464 -85.18972 -69.203773 -89.525787 -1.2606683 -64.649292
75592000000 0.0049962234 16.287271 -68.824196 -86.108696 -69.20919 -86.946724 -1.2621188 -64.669647
75640000000 0.0083288429 16.389172 -68.721016 -87.874382 -69.130714 -86.125633 -1.2606019 -64.691429
75688000000 0.0010394561 16.385622 -68.883644 -87.851608 -69.004608 -86.989738 -1.2563424 -64.702614
75736000000 0.0050531067 16.445417 -68.598076 -88.711075 -69.075226 -87.991119 -1.2562681 -64.812378
75784000000 0.0045618173 16.485184 -68.500053 -91.223618 -68.92836 -87.674683 -1.2488199 -64.84594
75832000000 0.0084203035 16.509388 -68.888077 -93.144135 -68.980377 -88.932739 -1.2573611 -64.970871
75880000000 0.0081986263 16.509254 -69.182449 -92.956467 -69.150429 -89.441986 -1.2508372 -64.971992
75928000000 0.012481863 16.573339 -69.480576 -91.137718 -69.658325 -90.172249 -1.2664586 -65.107841
75976000000 0.0031227956 16.480591 -69.85096 -90.994347 -69.600899 -88.125214 -1.2694288 -65.062965
76024000000 0.011079029 16.49107 -69.808418 -87.294762 -69.554443 -87.98687 -1.2718817 -65.102081
76072000000 0.002225623 16.446281 -69.790161 -86.361389 -69.702721 -87.476265 -1.2643791 -65.06678
76120000000 0.0086404188 16.518549 -69.772156 -86.57428 -69.886032 -87.612701 -1.271932 -65.146751
76168000000 -0.0060242172 16.473059 -69.902939 -83.158241 -70.356735 -84.897209 -1.2626038 -65.152649
76216000000 0.007174321 16.552639 -69.938492 -79.877441 -70.332657 -78.771011 -1.2665502 -65.201447
76264000000 -0.0085541531 16.510265 -69.15847 -78.499542 -69.543015 -75.557251 -1.2628576 -65.223755
76312000000 0.0091911759 16.589705 -68.997101 -80.562653 -69.04847 -77.04583 -1.2568558 -65.280884
76360000000 0.0027466679 16.56197 -68.894531 -83.729721 -68.2752 -79.643944 -1.2551061 -65.329826
76408000000 0.01533518 16.589941 -69.34127 -85.288971 -68.539345 -83.53569 -1.2418522 -65.341583
76456000000 0.0083841328 16.562784 -68.995888 -85.3433 -68.970161 -84.269867 -1.2497487 -65.412849
76504000000 0.014222253 16.567947 -69.241394 -84.634956 -69.048241 -83.319328 -1.2423711 -65.438644
76552000000 0.015126754 16.569075 -68.853027 -84.222885 -69.238739 -83.50544 -1.2496504 -65.48436
76600000000 0.01539554 16.586914 -68.853073 -83.737167 -69.162209 -82.095398 -1.2427711 -65.537483
76648000000 0.015013251 16.557524 -68.790939 -85.658615 -68.838272 -81.645676 -1.2562491 -65.609985
76696000000 0.010181433 16.645075 -68.688248 -86.306511 -68.857269 -82.214951 -1.2461939 -65.622002
76744000000 0.016076973 16.673023 -69.046455 -85.340302 -68.56546 -82.961479 -1.2563113 -65.703651
76792000000 -0.00066350808 16.691551 -68.525688 -85.103096 -68.348267 -83.170265 -1.2464449 -65.616455
76840000000 0.021601355 16.705704 -68.98922 -85.47644 -68.729759 -83.139008 -1.2311609 -65.643723
76888000000 0.013129171 16.670776 -68.572548 -86.912773 -68.269066 -82.940804 -1.2483894 -65.77581
76936000000 0.014217093 16.70793 -68.637413 -86.029427 -68.309227 -85.280556 -1.2166579 -65.742081
76984000000 0.014828026 16.71903 -69.382698 -88.166519 -68.148911 -88.087173 -1.2147188 -65.860718
77032000000 0.015802555 16.747503 -69.566528 -88.15184 -68.443039 -91.864731 -1.2042631 -65.962799
77080000000 0.02203303 16.740694 -69.636734 -84.961647 -69.244308 -93.790237 -1.2180451 -66.107224
77128000000 0.018923806 16.747364 -69.312866 -81.920677 -70.08461 -88.464508 -1.2179228 -66.1875
77176000000 0.022132443 16.766502 -69.052414 -79.718956 -69.89283 -81.223892 -1.2301763 -66.28801
77224000000 0.023948262 16.758329 -68.466705 -79.713142 -69.042923 -79.618477 -1.2293974 -66.226624
77272000000 0.014880653 16.743757 -68.293121 -81.566681 -68.628502 -81.299118 -1.2463242 -66.192017
77320000000 0.024519734 16.814358 -67.732643 -83.124046 -68.249222 -84.011627 -1.2462229 -66.173561
77368000000 0.023678975 16.794975 -67.465958 -87.217979 -68.486404 -84.676544 -1.2500736 -66.148888
77416000000 0.025837433 16.806961 -67.826775 -88.799507 -68.354378 -86.906143 -1.2485518 -66.31424
77464000000 0.023960104 16.824877 -67.642769 -90.249008 -68.46566 -87.162109 -1.2543451 -66.325424
77512000000 0.025555396 16.85597 -67.842934 -93.438965 -68.446228 -88.490166 -1.2482386 -66.1866
77560000000 0.02578957 16.872858 -68.205696 -93.88063 -68.523987 -90.866127 -1.2501571 -66.36187
77608000000 0.027755104 16.890062 -68.742134 -95.250244 -68.584053 -92.209625 -1.2441261 -66.422714
77656000000 0.027371328 16.902164 -68.667717 -94.133018 -68.881279 -92.247826 -1.2167723 -66.414688
77704000000 0.02669218 16.831705 -68.952477 -95.379875 -69.311386 -91.711517 -1.287613 -66.615608
77752000000 0.01244934 16.957296 -68.903137 -93.642044 -69.353287 -88.635201 -1.2622794 -66.517357
77800000000 0.024486786 16.949373 -68.93998 -93.46167 -68.88623 -90.241928 -1.2485267 -66.574234
77848000000 0.023150137 16.959463 -69.254639 -93.084152 -69.091255 -92.068886 -1.2544584 -66.641396
77896000000 0.021661112 16.985901 -68.900116 -91.023834 -69.038376 -90.551987 -1.2565022 -66.719368
77944000000 0.024273649 17.008816 -68.900681 -93.184952 -68.915077 -91.024078 -1.2655447 -66.768517
77992000000 0.025300622 17.014202 -69.149872 -96.425682 -68.849586 -93.188164 -1.2600479 -66.778076
78040000000 0.024065137 17.02087 -69.046547 -96.125923 -68.881851 -93.927208 -1.2739767 -66.855339
78088000000 0.025975356 17.016357 -69.147697 -96.583092 -69.034531 -95.792076 -1.2699102 -66.813065
78136000000 0.023628514 17.018089 -69.583351 -95.935532 -69.629494 -96.499947 -1.2669858 -66.866005
78184000000 0.025717519 17.05669 -69.723091 -96.425377 -69.739235 -93.395348 -1.2704897 -66.920059
78232000000 0.028506609 17.070879 -69.760414 -94.139084 -69.639412 -93.315033 -1.2692538 -66.986816
78280000000 0.025215179 17.106634 -69.529327 -96.461533 -69.46611 -93.586769 -1.2751682 -66.856506
78328000000 0.038162228 17.074114 -69.486816 -95.558907 -69.499847 -96.300117 -1.2827945 -67.017731
78376000000 0.030263726 17.099899 -69.84758 -98.614647 -69.886887 -94.356186 -1.2868881 -67.095131
78424000000 0.039912879 17.112762 -69.92337 -96.415863 -69.711792 -93.73996 -1.2734724 -67.062622
78472000000 0.035032179 17.092932 -70.060875 -97.910233 -70.012177 -96.728531 -1.2806585 -67.191223
78520000000 0.026128199 17.175945 -70.567238 -98.493851 -70.469513 -97.23777 -1.2991045 -67.043274
78568000000 0.036001161 17.12569 -70.814461 -98.140343 -70.52565 -95.187592 -1.2791288 -67.171455
78616000000 0.039861068 17.167654 -71.06176 -90.41156 -70.733658 -91.8209 -1.2681541 -67.16748
78664000000 0.034402508 17.180496 -70.683067 -89.043571 -70.135345 -90.390442 -1.2804558 -67.229019
78712000000 0.036334887 17.221117 -70.119118 -88.37751 -70.338799 -90.309311 -1.270876 -67.209343
78760000000 0.033972062 17.209454 -69.976822 -87.994957 -70.136497 -90.026146 -1.2864175 -67.332001
78808000000 0.033739872 17.295336 -69.839294 -90.958244 -70.033188 -89.586319 -1.2948912 -67.253494
78856000000 0.034408674 17.225924 -69.496071 -90.527504 -69.798653 -89.519531 -1.2863019 -67.265465
78904000000 0.031441424 17.251173 -69.391823 -94.416214 -69.592987 -91.149261 -1.2711997 -67.374794
78952000000 0.037644386 17.263523 -69.648216 -97.431549 -69.595169 -93.237907 -1.2840906 -67.437584
79000000000 0.024934646 17.254677 -69.906212 -96.768211 -69.590485 -94.016258 -1.2759495 -67.444298
79048000000 0.035848152 17.315777 -69.864548 -96.92942 -69.739861 -93.565605 -1.2703562 -67.524025
79096000000 0.031850539 17.257368 -69.928032 -101.22822 -69.736519 -94.318497 -1.2744325 -67.609016
79144000000 0.042481139 17.322664 -70.575531 -101.75923 -69.945534 -96.746017 -1.27221 -67.681892
79192000000 0.035310008 17.222502 -70.915718 -99.003036 -70.169281 -97.549278 -1.2888175 -67.789284
79240000000 0.041832037 17.295879 -71.42807 -97.302727 -70.336205 -95.341927 -1.2951347 -67.780296
79288000000 0.033584729 17.260721 -71.81237 -88.822624 -70.766113 -94.714668 -1.3071301 -67.784027
79336000000 0.036829267 17.275503 -70.747612 -84.644226 -70.252831 -92.61293 -1.3122782 -67.70491
79384000000 0.027818892 17.241512 -69.90271 -88.197021 -70.213913 -90.692314 -1.3098238 -67.725029
79432000000 0.030408192 17.284441 -69.914894 -93.262894 -69.501755 -90.752777 -1.3059645 -67.685364
79480000000 0.023749001 17.324802 -70.020119 -94.029793 -69.5728 -97.575645 -1.3144691 -67.717812
79528000000 0.029327406 17.345512 -70.825386 -97.958626 -70.112953 -99.990463 -1.3140053 -67.692955
79576000000 0.028759139 17.385632 -71.010902 -93.649536 -71.142418 -99.746132 -1.3015975 -67.690094
79624000000 0.035228357 17.340048 -70.593201 -93.529152 -70.836411 -100.36916 -1.2908096 -67.670563
79672000000 0.034453873 17.417042 -70.855301 -96.631912 -71.437172 -98.573509 -1.2952135 -67.756508
79720000000 0.038790327 17.375799 -71.384254 -93.9664 -71.403557 -96.640297 -1.3005469 -67.613716
79768000000 0.038157094 17.415655 -70.682816 -91.730629 -71.470268 -93.529442 -1.3219062 -67.787636
79816000000 0.039971359 17.366844 -71.341843 -91.296295 -71.234833 -93.682961 -1.261448 -67.983528
79864000000 0.038822651 17.385777 -71.043434 -89.86911 -71.265259 -92.180092 -1.2864168 -68.031693
79912000000 0.039515812 17.490654 -70.908394 -88.781319 -71.296982 -91.703583 -1.3031383 -68.001366
79960000000 0.026957164 17.431677 -70.858536 -91.160866 -71.425041 -91.845253 -1.2996026 -68.045616
80008000000 0.029356716 17.519602 -71.279572 -92.479721 -71.856667 -90.565536 -1.3069968 -68.056396
80056000000 0.029564461 17.539455 -71.237862 -90.484718 -71.611832 -87.788834 -1.3315852 -68.134567
80104000000 0.025123557 17.46452 -70.760002 -89.960846 -71.49012 -85.502419 -1.3114234 -68.004181
80152000000 0.020581752 17.510309 -70.593285 -86.983101 -70.829605 -83.823952 -1.3195498 -68.102837
80200000000 0.026888732 17.543568 -70.57206 -92.226227 -70.346237 -87.273117 -1.3155694 -68.117447
80248000000 0.030673979 17.542217 -70.291229 -92.967361 -70.1605 -90.163589 -1.3186642 -68.186966
80296000000 0.034406617 17.527346 -70.484482 -94.09861 -70.48481 -92.086922 -1.3174731 -68.285896
80344000000 0.03744011 17.506357 -70.857719 -96.007996 -70.965736 -93.994469 -1.32039 -68.353249
80392000000 0.025720092 17.485212 -71.422707 -96.327766 -71.169243 -95.98304 -1.3182045 -68.284996
80440000000 0.036928855 17.527706 -71.622917 -90.981628 -71.496773 -93.957817 -1.343873 -68.424278
80488000000 0.027932577 17.501581 -71.052711 -95.77861 -71.36586 -94.168709 -1.3427846 -68.327705
80536000000 0.034431785 17.556681 -72.21785 -96.904404 -71.599304 -92.737129 -1.3241649 -68.353775
80584000000 0.023340156 17.527519 -72.632324 -90.280975 -71.601852 -93.958733 -1.3347615 -68.374832
80632000000 0.029166961 17.554338 -72.599892 -89.035576 -72.58744 -94.744362 -1.343552 -68.403893
80680000000 0.010890023 17.523247 -72.613243 -86.530357 -72.524696 -88.673538 -1.330099 -68.395271
80728000000 0.026407111 17.585327 -72.779961 -83.285042 -73.011238 -89.442017 -1.328873 -68.396935
80776000000 0.018585647 17.606226 -72.190102 -83.914879 -72.599808 -84.867699 -1.3254116 -68.463135
80824000000 0.029939815 17.669252 -72.539032 -87.07296 -72.657806 -82.31263 -1.3196453 -68.456429
80872000000 0.030182494 17.634279 -73.005005 -82.801682 -72.638916 -81.857124 -1.3285142 -68.571968
80920000000 0.045023799 17.713823 -72.152939 -75.740784 -72.405762 -81.311539 -1.3298947 -68.566765
80968000000 0.038778011 17.623529 -71.630234 -81.064018 -72.603195 -81.980576 -1.3396976 -68.650085
81016000000 0.039258264 17.62574 -71.89328 -83.846497 -72.542473 -79.563354 -1.3140665 -68.58432
81064000000 0.027995333 17.667946 -72.321808 -86.293495 -72.030708 -77.335648 -1.3152175 -68.658791
81112000000 0.027838441 17.658028 -72.171028 -83.654251 -72.156448 -76.880287 -1.3098406 -68.712715
81160000000 0.026596988 17.636055 -72.666756 -80.790878 -71.617943 -75.302467 -1.3402991 -68.771919
81208000000 0.025080319 17.649847 -72.108582 -75.716995 -71.29689 -80.586243 -1.3429779 -68.836067
81256000000 0.021462262 17.703466 -72.369759 -81.64299 -72.13324 -82.905899 -1.2898782 -68.884346
81304000000 0.015015313 17.688599 -73.464355 -78.485344 -72.860214 -84.388321 -1.290573 -68.986343
81352000000 0.01881968 17.791748 -75.030144 -77.652283 -73.621849 -82.235992 -1.3179531 -68.952126
81400000000 0.016478252 17.778809 -76.249397 -61.205181 -74.381546 -69.647156 -1.3404828 -68.853592
81448000000 0.030515127 17.740891 -74.41629 -39.466312 -74.153511 -62.642494 -1.3225124 -69.089272
81496000000 0.043875918 17.76598 -71.29525 -36.377918 -72.479195 -52.061184 -1.3145795 -69.253525
81544000000 -0.00060214935 17.532728 -69.76284 -40.199635 -70.908607 -53.130268 -1.3228458 -69.078369
81592000000 0.027184574 17.644199 -68.696373 -46.182034 -70.387688 -54.645996 -1.3711233 -69.040863
81640000000 0.022814881 17.668343 -67.807228 -54.847557 -69.863876 -62.616013 -1.3234265 -69.31768
81688000000 0.030665753 17.761787 -67.630302 -59.62635 -69.721855 -63.009235 -1.304293 -69.227928
81736000000 0.021851711 17.706091 -67.74929 -67.608177 -70.034721 -63.073547 -1.3556917 -69.166901
81784000000 0.02453981 17.741146 -68.324249 -69.408882 -69.985329 -62.274967 -1.3775877 -69.043282
81832000000 0.013802703 17.699501 -68.540649 -68.832985 -69.452667 -63.824368 -1.3810533 -69.126541
81880000000 0.019601079 17.742399 -68.117714 -71.318939 -69.426216 -66.153664 -1.339317 -69.183945
81928000000 0.018471202 17.758945 -68.545166 -72.783707 -69.79406 -66.414833 -1.3279086 -69.20591
81976000000 0.018242305 17.810139 -68.472626 -72.443573 -69.454643 -65.627724 -1.3240631 -69.187843
82024000000 0.024795659 17.872089 -69.199013 -72.764107 -69.513725 -64.303032 -1.3276236 -69.270645
82072000000 0.025651641 17.926453 -69.52494 -70.522568 -69.403755 -64.071564 -1.3310382 -69.218651
82120000000 0.024111474 17.952612 -69.333092 -68.251015 -69.234322 -66.007385 -1.334727 -69.269165
82168000000 0.034247905 17.898752 -68.997963 -64.89447 -69.2509 -67.102409 -1.3235631 -69.399132
82216000000 0.030137764 17.980165 -68.522614 -66.471626 -69.059494 -64.142723 -1.3326609 -69.455757
82264000000 0.035222705 17.954992 -68.270782 -65.484535 -69.295677 -65.483917 -1.3254825 -69.529015
82312000000 0.023562606 17.967743 -68.361237 -66.971245 -69.445686 -63.310902 -1.3335631 -69.608429
82360000000 0.016794916 17.979094 -67.992889 -68.766594 -69.020256 -59.791355 -1.336488 -69.574005
82408000000 0.014666529 17.961494 -67.813034 -70.051155 -68.758278 -63.025043 -1.335454 -69.545258
82456000000 0.007895804 17.933933 -67.426552 -73.585564 -68.454468 -62.83363 -1.340217 -69.520668
82504000000 0.0060706744 17.946609 -67.366348 -75.93679 -68.224594 -61.846783 -1.326847 -69.512512
82552000000 0.00076563947 17.954626 -68.123016 -80.738396 -68.036827 -64.257393 -1.3208437 -69.563324
82600000000 0.0049383049 18.00474 -68.984566 -76.461899 -68.02211 -66.413429 -1.3079416 -69.620865
82648000000 0.006353979 18.042505 -69.626335 -74.957909 -68.293037 -67.600517 -1.3122911 -69.789986
82696000000 0.022892646 18.067528 -69.830475 -67.935593 -68.71859 -66.416229 -1.3135867 -69.787018
82744000000 0.029111935 18.078861 -68.966179 -61.993053 -68.857895 -61.938648 -1.3180765 -69.808113
82792000000 0.036759965 18.064369 -68.436348 -58.394035 -68.331085 -57.936642 -1.3194857 -69.812088
82840000000 0.036430378 18.054131 -67.346413 -58.892712 -67.405083 -56.297455 -1.3206865 -69.832512
82888000000 0.03520114 17.983179 -66.449005 -63.041191 -66.979019 -60.112743 -1.3349625 -69.900085
82936000000 0.023469919 17.969263 -66.383011 -67.377342 -66.556259 -63.421722 -1.3469042 -69.902321
82984000000 0.01394617 18.000853 -66.06543 -72.674049 -66.606071 -67.475418 -1.3488202 -69.900414
83032000000 0.0074218921 18.036867 -66.542213 -77.000999 -66.665512 -68.464134 -1.3533943 -69.916359
83080000000 0.0069820429 18.108902 -67.093681 -76.15773 -67.048065 -69.826897 -1.3504523 -69.897919
83128000000 -0.00099853659 18.127438 -66.969551 -77.620895 -67.097755 -69.626984 -1.3582522 -69.917458
83176000000 0.0089173559 18.212368 -67.361275 -77.486 -67.28804 -71.033257 -1.3426788 -69.88987
83224000000 -0.00058713346 18.208143 -67.713287 -79.597481 -67.298836 -70.215195 -1.3398561 -69.961838
83272000000 0.015660698 18.24345 -67.900833 -78.09185 -67.471077 -69.001289 -1.3205054 -70.062241
83320000000 0.016586045 18.219362 -68.293037 -76.317566 -67.571678 -68.717896 -1.3118041 -70.044113
83368000000 0.027509719 18.231253 -68.804436 -74.428085 -67.49942 -66.822128 -1.3051579 -70.230659
83416000000 0.031354047 18.240246 -68.632278 -69.80629 -67.219749 -66.461571 -1.3021736 -70.286469
83464000000 0.038511183 18.271101 -67.968529 -66.53244 -66.930588 -66.630531 -1.306957 -70.276802
83512000000 0.035095863 18.276741 -67.023232 -67.458832 -66.973946 -66.66716 -1.3085903 -70.333275
83560000000 0.028738052 18.273016 -66.809219 -71.065056 -66.759789 -67.815422 -1.3169423 -70.435127
83608000000 0.022414701 18.265617 -67.335716 -72.335823 -67.080933 -68.425934 -1.3248743 -70.479568
83656000000 0.019000096 18.254744 -67.473663 -71.334038 -66.911392 -65.085052 -1.3302242 -70.516243
83704000000 0.014278499 18.250488 -67.78669 -72.847641 -66.509529 -67.025703 -1.3243549 -70.552757
83752000000 0.0082373815 18.260458 -68.022751 -69.342979 -66.444962 -66.410553 -1.3210425 -70.504684
83800000000 0.0062381779 18.300726 -67.418129 -66.062881 -66.422348 -67.265739 -1.3277624 -70.573082
83848000000 0.011730677 18.334162 -67.013359 -64.189102 -66.449097 -66.528862 -1.3238053 -70.603226
83896000000 0.018738234 18.38463 -66.359756 -63.713001 -66.337059 -65.846397 -1.3215069 -70.576767
83944000000 0.026165767 18.384289 -66.047409 -66.582314 -65.707764 -64.938385 -1.3075187 -70.589218
83992000000 0.037731126 18.390816 -65.721092 -70.130058 -65.488304 -67.130524 -1.3137891 -70.659142
84040000000 0.045098606 18.323784 -65.759247 -72.627007 -65.467567 -68.725624 -1.3128574 -70.696335
84088000000 0.058298722 18.373602 -66.185005 -73.24437 -65.266655 -70.820824 -1.3210808 -70.682442
84136000000 0.04465026 18.370975 -66.393028 -73.994209 -65.369331 -72.58857 -1.3351395 -70.68885
84184000000 0.038368013 18.42312 -66.472519 -72.928223 -65.508545 -74.433517 -1.332059 -70.680511
84232000000 0.026378294 18.381254 -66.329201 -73.307304 -65.610245 -75.269775 -1.35961 -70.782425
84280000000 0.014558174 18.485687 -66.209656 -74.073128 -65.761543 -75.992538 -1.335341 -70.65004
84328000000 0.010296612 18.480087 -66.357117 -74.154541 -65.975273 -75.284706 -1.3354892 -70.740631
84376000000 0.007215153 18.578182 -65.969604 -73.785072 -65.938118 -74.982521 -1.3367039 -70.801064
84424000000 0.0036395949 18.618244 -66.15583 -75.068291 -66.138107 -74.084824 -1.3336747 -70.847466
84472000000 0.0037404643 18.611822 -66.190315 -73.65004 -65.989304 -72.662407 -1.3264296 -70.902893
84520000000 0.010818239 18.653292 -65.812073 -71.280441 -65.848343 -70.681694 -1.3267612 -70.923187
84568000000 0.014929668 18.658018 -65.744125 -72.223381 -65.430847 -71.159081 -1.3229434 -70.999725
84616000000 0.0283019 18.680096 -65.343765 -72.373253 -65.340836 -71.301163 -1.3161728 -71.035973
84664000000 0.028339962 18.684166 -64.949509 -73.308022 -65.029045 -72.127197 -1.3141717 -71.086678
84712000000 0.025236282 18.668325 -64.675743 -75.220924 -64.783638 -74.588135 -1.3198304 -71.214378
84760000000 0.028560614 18.651583 -65.007584 -79.732361 -64.912277 -76.246887 -1.3231351 -71.312401
84808000000 0.028022595 18.640057 -65.536835 -79.980309 -64.922142 -77.512787 -1.3365676 -71.250069
84856000000 0.022223098 18.613886 -65.542198 -76.834877 -64.92942 -77.719398 -1.347244 -71.222717
84904000000 0.025774645 18.676641 -65.34214 -79.271019 -64.97139 -78.786377 -1.3615278 -71.265793
84952000000 0.027315766 18.705881 -65.458725 -80.858704 -64.927254 -79.84671 -1.3638802 -71.29892
85000000000 0.031312928 18.695629 -65.535706 -81.955696 -65.127495 -81.146812 -1.3412664 -71.362343
85048000000 0.025153926 18.716024 -65.455688 -80.076134 -65.188065 -81.648956 -1.3530345 -71.340019
85096000000 0.0078689316 18.615683 -65.564491 -80.740067 -65.497528 -81.742508 -1.3242517 -71.40934
85144000000 0.031940989 18.565092 -65.380066 -81.037849 -65.463852 -79.963455 -1.3422137 -71.114662
85192000000 0.035701297 18.728912 -65.322403 -81.873672 -65.518578 -79.999039 -1.3006293 -71.639236
85240000000 0.034614637 18.500345 -65.478317 -82.509407 -65.518143 -80.468552 -1.3122313 -71.437622
85288000000 0.042564191 18.517288 -65.601532 -81.951118 -65.28112 -79.464561 -1.3245666 -71.554398
85336000000 0.039532743 18.649771 -65.460037 -81.346428 -65.225594 -79.591476 -1.302212 -71.758224
85384000000 0.047399566 18.868221 -65.601372 -80.680222 -65.023506 -79.40554 -1.3435161 -71.584259
85432000000 0.045851726 18.754829 -65.451591 -81.215363 -65.01091 -80.167068 -1.3456135 -71.643204
85480000000 0.033394642 18.835556 -65.155464 -81.217255 -65.089653 -81.708038 -1.3456759 -71.668976
85528000000 0.044145491 18.751764 -65.293137 -83.582275 -65.234329 -82.225464 -1.3347294 -71.614517
85576000000 0.035316683 18.703941 -65.338936 -82.765388 -65.341301 -81.552048 -1.363107 -71.839897
85624000000 0.034669079 18.727226 -65.381721 -83.149246 -65.165688 -82.11306 -1.3453166 -71.761742
85672000000 0.021560658 18.722635 -65.386215 -83.708801 -65.127747 -81.483765 -1.3443613 -71.82074
85720000000 0.031391054 18.853308 -65.317268 -83.811691 -65.069824 -80.973015 -1.320924 -71.821945
85768000000 0.017623086 18.791685 -65.428314 -81.473495 -65.161171 -80.998817 -1.3513476 -71.980942
85816000000 0.040375564 18.975313 -65.008041 -81.927124 -64.935318 -80.028511 -1.3376305 -71.880356
85864000000 0.033449613 18.827377 -64.946045 -82.22216 -64.775246 -79.667091 -1.3463447 -72.010361
85912000000 0.043132707 18.98667 -64.750687 -83.906685 -64.512596 -82.140587 -1.3394319 -71.971306
85960000000 0.044947453 18.95026 -64.715172 -85.282845 -64.415054 -82.838737 -1.3385143 -72.019424
86008000000 0.049376845 18.879223 -64.900696 -85.944946 -64.460182 -84.235641 -1.3428717 -72.044617
86056000000 0.044408899 18.932779 -65.074234 -85.74884 -64.481285 -85.935265 -1.3336884 -72.239891
86104000000 0.029396312 18.936337 -64.947754 -86.582436 -64.796776 -85.645187 -1.3455725 -72.201302
86152000000 0.037441649 19.043768 -65.077423 -85.311546 -64.654312 -86.048119 -1.3510021 -72.161957
86200000000 0.027544187 18.947584 -64.852348 -85.926147 -64.881943 -85.178635 -1.3622437 -72.165871
86248000000 0.029523838 18.996811 -64.652519 -86.323463 -64.671448 -84.73774 -1.3511854 -73.690292
86296000000 0.01962891 18.951504 -64.891754 -86.3675 -64.508034 -85.2332 -1.3864437 -72.588058
86344000000 0.040863845 19.018003 -64.553673 -88.360672 -64.44416 -85.595436 -1.2912054 -72.516525
86392000000 0.026717393 18.983099 -64.930374 -87.84584 -64.253212 -87.096672 -1.364674 -72.430397
86440000000 0.019961322 19.037403 -64.5886 -89.433586 -64.446205 -87.719543 -1.3518426 -72.380493
86488000000 0.023754152 19.117962 -64.701912 -89.558449 -64.524033 -88.703316 -1.3371984 -72.572655
86536000000 0.028440259 19.084902 -64.672676 -89.276817 -64.681038 -89.202095 -1.3350061 -72.594513
86584000000 0.046617009 19.070755 -64.639587 -90.580414 -64.685745 -89.588821 -1.3064425 -72.758499
86632000000 0.035215516 19.034216 -64.959488 -89.761574 -64.678101 -88.831573 -1.3459451 -72.670105
86680000000 0.040237583 18.996082 -64.954666 -89.296776 -64.741272 -88.117424 -1.3691205 -72.759132
86728000000 0.049543712 19.311455 -64.906136 -87.918228 -64.732491 -89.804741 -1.3346982 -73.016281
86776000000 0.057446599 19.177237 -65.025475 -89.335678 -64.63839 -88.830688 -1.3108423 -72.906425
86824000000 0.039684594 19.062262 -64.986115 -88.163368 -64.753883 -88.832222 -1.3462956 -72.874413
86872000000 0.032632679 19.09594 -64.813354 -88.365196 -64.711914 -87.713173 -1.3308142 -72.873299
86920000000 0.030485308 19.113846 -64.967216 -86.394569 -64.615517 -88.074371 -1.3517557 -72.931862
86968000000 0.029083651 19.205235 -64.410072 -86.826515 -64.403557 -87.371071 -1.3657856 -72.822144
87016000000 0.015208784 19.128633 -64.104836 -88.152077 -64.187668 -88.071136 -1.3752801 -73.013695
87064000000 0.02164978 19.175611 -64.324409 -89.889427 -64.197365 -88.427437 -1.3682687 -73.003403
87112000000 0.033565205 19.079407 -63.866199 -89.80275 -63.969303 -90.392349 -1.3433168 -73.299355
87160000000 0.034434356 19.248304 -63.876129 -91.314835 -64.004738 -91.403854 -1.3482248 -73.199516
87208000000 0.041659236 19.251915 -63.816853 -94.032402 -63.967945 -92.801842 -1.3293927 -73.337624
87256000000 0.041230019 19.251949 -63.807377 -95.026726 -63.982525 -92.387444 -1.3294042 -73.238937
87304000000 0.043321341 19.21866 -64.171852 -94.352989 -64.064804 -92.951324 -1.344126 -73.204742
87352000000 0.040619712 19.229874 -64.145348 -94.470711 -64.190254 -93.662132 -1.3700001 -73.213844
87400000000 0.04114284 19.162804 -64.199623 -96.559769 -64.121704 -94.349609 -1.4023721 -73.222252
87448000000 0.039178226 19.282997 -64.406868 -98.357658 -64.191971 -94.584114 -1.3810195 -73.439842
87496000000 0.043055814 19.224541 -64.72506 -97.387901 -64.342491 -95.347572 -1.3984765 -73.503723
87544000000 0.028696394 19.308926 -64.451065 -95.153038 -64.303108 -94.436317 -1.3548104 -73.479462
87592000000 0.03461669 19.259962 -64.311028 -96.216934 -64.385895 -93.826408 -1.3704997 -73.44207
87640000000 0.014501414 19.35577 -64.331627 -95.019073 -64.347565 -93.5718 -1.3338932 -73.633537
87688000000 0.018816588 19.335962 -64.609703 -95.602333 -64.32386 -93.783142 -1.4150288 -73.484802
87736000000 0.019886594 19.405939 -63.957111 -94.871216 -64.132744 -93.310913 -1.3413802 -73.775536
87784000000 0.025801407 19.295572 -64.160721 -96.039978 -64.074257 -93.490349 -1.3368564 -73.736031
87832000000 0.036672182 19.368122 -64.005821 -95.542786 -63.928555 -93.783684 -1.3542315 -73.54171
87880000000 0.024911482 19.429802 -64.185631 -95.667175 -63.925396 -94.48111 -1.3423332 -73.683662
87928000000 0.038764156 19.309399 -63.965591 -98.245659 -63.675098 -94.623337 -1.34842 -73.765617
87976000000 0.031938933 19.525852 -64.036232 -98.100616 -63.658264 -96.879112 -1.3360116 -73.748497
88024000000 0.04088949 19.232645 -63.964432 -100.11137 -63.835667 -98.6502 -1.3424155 -74.037888
88072000000 0.028113127 19.529478 -64.24234 -98.722588 -63.792862 -98.095421 -1.3496805 -73.875336
88120000000 0.031896278 19.36009 -64.136757 -98.546837 -63.927273 -98.37574 -1.3205034 -74.235138
88168000000 0.044969998 19.51956 -64.084465 -100.3699 -63.882401 -98.811592 -1.3683059 -73.614548
88216000000 0.02060597 19.320389 -64.149643 -100.49872 -63.910416 -100.66099 -1.4064318 -73.915062
88264000000 0.03292967 19.478579 -64.394012 -101.05528 -63.910561 -101.57228 -1.3680499 -74.167252
88312000000 0.014763531 19.385193 -64.344093 -102.0303 -64.113647 -101.70947 -1.3598808 -74.242981
88360000000 0.025294445 19.54604 -64.389366 -102.00796 -64.385117 -100.79076 -1.3606913 -74.101044
88408000000 0.014549918 19.5788 -64.480537 -100.2341 -64.392662 -100.99192 -1.3551732 -74.177956
88456000000 0.034221195 19.59325 -64.238701 -102.05934 -64.343811 -99.396309 -1.3553129 -74.31118
88504000000 0.02058639 19.39893 -64.32888 -101.24753 -64.298744 -100.28396 -1.3668454 -74.078064
88552000000 0.050461356 19.667196 -64.293121 -100.70861 -64.274956 -99.469215 -1.3761965 -74.963425
88600000000 0.039055601 19.491182 -64.548424 -102.66539 -64.203613 -100.30736 -1.3539568 -75.825104
88648000000 0.010322437 19.13089 -64.367104 -101.83553 -64.236732 -100.80319 -1.3352772 -76.41571
88696000000 0.041769993 19.563675 -64.086411 -102.23354 -64.104042 -101.35933 -1.3829734 -77.016869
88744000000 0.030110516 19.552633 -64.295013 -99.633133 -64.337654 -101.11001 -1.3682361 -74.226608
88792000000 0.028593015 19.661684 -64.235718 -100.86623 -64.247772 -101.37309 -1.3905185 -74.358788
88840000000 0.031464554 19.601555 -64.233017 -101.95821 -64.302269 -100.33386 -1.3593143 -74.53344
88888000000 0.016691254 19.372252 -64.265358 -101.84734 -64.327156 -101.61636 -1.3437016 -75.399971
88936000000 0.013425951 19.820183 -64.118935 -101.43996 -64.224991 -100.69062 -1.3584939 -74.169113
88984000000 0.013807864 19.697735 -64.220146 -101.91037 -64.171364 -101.07164 -1.3803703 -74.207321
89032000000 0.017458599 19.831156 -64.170135 -103.22327 -64.03054 -102.40087 -1.3684772 -74.516441
89080000000 0.022812821 19.819651 -64.077667 -103.14113 -64.190483 -102.30952 -1.3911575 -74.64222
89128000000 0.024498627 19.817242 -64.307167 -103.22733 -64.22821 -102.20421 -1.3868057 -74.634117
89176000000 0.023543553 19.836592 -64.163597 -104.22974 -64.245567 -101.73732 -1.3703305 -74.512421
89224000000 0.026662337 19.813074 -64.328934 -103.81593 -64.291946 -101.3276 -1.373298 -74.695244
89272000000 0.035355709 19.909494 -64.54335 -102.58098 -64.258064 -101.2678 -1.3606827 -74.591057
89320000000 0.026442103 19.796036 -64.174095 -101.6112 -64.169189 -101.74152 -1.37319 -74.748672
89368000000 0.039169502 19.882656 -64.199554 -100.92168 -64.083305 -100.47433 -1.3768882 -74.613831
89416000000 0.0193341 19.850069 -64.094269 -102.78906 -63.885666 -100.28334 -1.3747692 -74.787079
89464000000 0.028314244 19.867451 -63.932095 -102.31493 -63.945061 -101.0635 -1.3743398 -74.731392
89512000000 0.0097795716 20.058514 -63.988712 -103.35406 -64.003242 -101.71799 -1.3662355 -74.728394
89560000000 0.013877017 19.762194 -63.952862 -103.61745 -63.93354 -102.28831 -1.3924614 -74.648613
89608000000 0.018914528 19.889997 -64.060425 -104.28221 -64.016464 -102.89656 -1.3654765 -74.925438
89656000000 0.016193544 19.891756 -64.141556 -103.82992 -63.995949 -102.86845 -1.3856025 -74.649139
89704000000 0.015551334 19.952314 -64.056717 -104.95422 -63.8311 -102.93723 -1.3497653 -74.992867
89752000000 0.023359209 20.008448 -64.058029 -104.45485 -63.913063 -102.84042 -1.3689442 -74.711266
89800000000 0.022819001 20.046843 -63.919693 -105.25198 -63.783421 -102.78895 -1.3635293 -74.922958
89848000000 0.033266202 20.247185 -63.949108 -105.09607 -63.798866 -103.81029 -1.3627328 -75.079185
89896000000 0.038733885 20.221216 -63.971581 -105.42037 -63.905605 -103.66618 -1.4214967 -75.082718
89944000000 0.067152351 20.141869 -63.940922 -104.97514 -63.868443 -103.14267 -1.376065 -74.926247
89992000000 0.06244814 19.992979 -63.995972 -106.21539 -63.858215 -103.81425 -1.3683662 -75.006416
90040000000 0.051135775 19.99968 -63.846184 -104.73653 -63.928795 -103.41823 -1.3528856 -75.124695
90088000000 0.031925574 20.004263 -64.097969 -106.27575 -63.881355 -104.62505 -1.3675344 -75.115402
90136000000 0.014241346 20.181234 -64.230713 -104.86199 -63.957573 -103.51364 -1.3593314 -75.115776
90184000000 0.032793511 20.293619 -64.194328 -104.6048 -63.958775 -102.76751 -1.4052804 -75.207878
90232000000 0.040775117 20.167776 -63.976063 -103.5936 -63.775383 -103.62273 -1.4000313 -75.605568
90280000000 0.030543916 20.207899 -63.794209 -103.7255 -63.610912 -103.10812 -1.4162438 -75.196709
90328000000 0.036223475 20.259794 -63.777878 -104.96415 -63.490616 -103.41277 -1.3825015 -75.190353
90376000000 0.039272115 20.233589 -63.715233 -105.29671 -63.477333 -104.61795 -1.3891789 -75.270813
90424000000 0.039842088 20.158194 -63.653877 -105.5552 -63.445534 -105.38945 -1.378826 -75.280464
90472000000 0.03737133 20.240543 -63.396122 -106.14098 -63.441013 -105.58901 -1.3949113 -75.290955
90520000000 0.045750294 20.384024 -63.524113 -108.52554 -63.428749 -106.67391 -1.3559835 -75.376266
90568000000 0.063263059 20.241076 -63.492619 -109.32896 -63.524834 -106.91631 -1.3592061 -75.799614
90616000000 0.064258918 20.331423 -63.685375 -109.73561 -63.556881 -107.62508 -1.426626 -75.703217
90664000000 0.067476049 20.238405 -63.666489 -109.8046 -63.614861 -107.74358 -1.3892031 -75.334831
90712000000 0.058096435 20.141932 -63.802731 -109.29103 -63.595757 -108.65396 -1.3836 -75.569336
90760000000 0.031780127 20.19729 -63.677444 -110.12026 -63.569321 -108.05269 -1.4041958 -75.686951
90808000000 0.047224939 20.371172 -63.889065 -110.35935 -63.657001 -108.87193 -1.3945051 -75.824631
90856000000 0.042416029 20.314249 -63.87228 -109.40934 -63.722683 -108.70443 -1.4277418 -75.917336
90904000000 0.045377839 20.326418 -63.902813 -110.93253 -63.837608 -109.24429 -1.436439 -75.810043
90952000000 0.037694171 20.276611 -63.860214 -110.98494 -63.66935 -109.07921 -1.4475766 -75.774513
91000000000 0.041145917 20.308624 -63.894459 -109.99354 -63.798656 -109.63199 -1.4324322 -75.546791
91048000000 0.042368859 20.346962 -64.065765 -112.0905 -63.836559 -109.20925 -1.4189827 -75.727707
91096000000 0.043975342 20.345551 -64.2519 -110.5631 -63.925377 -108.57738 -1.4144416 -75.680649
91144000000 0.051878128 20.433655 -64.186485 -109.67878 -63.908268 -108.97529 -1.404448 -75.686508
91192000000 0.059646048 20.41011 -64.222809 -109.13292 -63.963455 -108.64141 -1.4125376 -75.858124
91240000000 0.067760468 20.430273 -63.983463 -107.74863 -63.945518 -109.3339 -1.3976285 -75.917641
91288000000 0.070273608 20.369389 -63.946384 -110.13696 -63.9519 -109.73635 -1.4324027 -75.992088
91336000000 0.072315857 20.439529 -64.099968 -109.39996 -63.983028 -108.6474 -1.4130088 -75.916527
91384000000 0.069923118 20.438152 -64.050827 -108.86755 -64.133568 -109.37308 -1.4338894 -76.046509
91432000000 0.062809952 20.371534 -64.165726 -108.27657 -64.078781 -108.75343 -1.4271951 -76.056168
91480000000 0.059531145 20.392994 -64.073326 -109.33146 -63.913757 -109.194 -1.4427507 -76.095215
91528000000 0.049248364 20.412296 -64.290558 -108.99421 -64.035995 -108.59557 -1.4471496 -76.112534
91576000000 0.047605425 20.453199 -64.202095 -108.43684 -63.951118 -108.23316 -1.4418294 -76.102631
91624000000 0.047715522 20.412279 -63.992142 -108.52489 -63.8955 -108.03222 -1.449805 -76.094193
91672000000 0.043779049 20.458858 -63.862343 -107.7315 -63.88596 -108.12091 -1.4460671 -76.074203
91720000000 0.048425183 20.493191 -63.80481 -108.12044 -63.868454 -107.91743 -1.4328707 -76.181015
91768000000 0.062799744 20.558777 -63.601971 -107.91093 -63.872662 -108.87334 -1.4310032 -76.02272
91816000000 0.063944675 20.501728 -63.594585 -109.62697 -63.917011 -108.03713 -1.4218193 -76.149582
91864000000 0.075071625 20.509043 -63.705227 -108.94141 -63.902142 -107.70699 -1.413587 -76.182671
91912000000 0.076681323 20.460562 -63.690464 -109.36912 -63.82375 -108.3568 -1.4178671 -76.21833
91960000000 0.078647353 20.465084 -63.714314 -108.82484 -63.879498 -108.05898 -1.4137712 -76.32579
92008000000 0.07971441 20.522552 -63.795116 -109.00494 -63.845703 -107.03667 -1.4249017 -76.37587
92056000000 0.078292958 20.452311 -63.619179 -108.22498 -63.667957 -107.21736 -1.4270049 -76.282967
92104000000 0.075481229 20.496704 -63.55106 -107.99265 -63.523144 -107.30902 -1.4338778 -76.359123
92152000000 0.073391601 20.421852 -63.485222 -110.07925 -63.401108 -107.94771 -1.4242394 -76.368347
92200000000 0.072306186 20.490999 -63.414886 -110.62133 -63.372417 -108.98447 -1.4420311 -76.360558
92248000000 0.070808455 20.482176 -63.406498 -110.49597 -63.375267 -109.6459 -1.4404554 -76.256508
92296000000 0.064874582 20.552666 -63.352947 -112.20216 -63.541084 -109.98245 -1.442296 -76.378601
92344000000 0.067144193 20.555183 -63.661568 -112.73769 -63.534657 -109.8717 -1.4305779 -76.4394
92392000000 0.060895957 20.552803 -63.771919 -111.87771 -63.511616 -109.42603 -1.4311897 -76.42569
92440000000 0.062959462 20.599375 -63.733128 -110.30873 -63.502056 -109.6848 -1.4295355 -76.452736
92488000000 0.064388998 20.626566 -63.665634 -110.53745 -63.509254 -110.28105 -1.4163963 -76.445145
92536000000 0.069473252 20.614933 -63.574177 -110.64095 -63.53059 -110.41709 -1.4089519 -76.607826
92584000000 0.073539726 20.639919 -63.589832 -110.42535 -63.60297 -109.73643 -1.417312 -76.601929
92632000000 0.073821209 20.601589 -63.561314 -109.38452 -63.626602 -110.61422 -1.4223354 -76.694366
92680000000 0.079809971 20.658709 -63.305477 -110.32017 -63.600994 -110.66385 -1.4198492 -76.73877
92728000000 0.071203686 20.56522 -63.407509 -109.99574 -63.610588 -110.35745 -1.4303818 -76.787766
92776000000 0.07309176 20.626102 -63.22797 -110.61302 -63.619854 -110.3017 -1.4339099 -76.82177
92824000000 0.062004134 20.55031 -63.124119 -112.39042 -63.500698 -110.32608 -1.4370794 -76.849937
92872000000 0.06165655 20.620695 -63.391346 -113.6861 -63.407642 -110.45044 -1.4374369 -76.852226
92920000000 0.057694897 20.620525 -63.409779 -112.68585 -63.494297 -110.12868 -1.4319859 -76.837257
92968000000 0.052648999 20.668264 -63.469128 -112.92684 -63.439114 -109.99996 -1.4310806 -76.930092
93016000000 0.056327548 20.743418 -63.414074 -111.90443 -63.434326 -109.54485 -1.4275644 -76.869339
93064000000 0.046797808 20.678617 -63.491135 -112.7367 -63.389389 -110.17741 -1.4298687 -77.035675
93112000000 0.05837943 20.776682 -63.499405 -111.92115 -63.387314 -110.28445 -1.4217004 -76.977844
93160000000 0.058637891 20.720818 -63.411255 -112.2448 -63.386242 -110.45544 -1.4277964 -77.035744
93208000000 0.063097231 20.794342 -63.22459 -112.14526 -63.232445 -110.11549 -1.4235169 -77.139717
93256000000 0.064440519 20.775423 -63.28582 -112.63366 -63.371471 -110.80846 -1.4174527 -77.131371
93304000000 0.069790661 20.790487 -63.25909 -113.72716 -63.348068 -111.14244 -1.4192605 -77.220192
93352000000 0.073275536 20.774853 -63.391083 -111.9408 -63.260326 -110.71268 -1.4189336 -77.215881
93400000000 0.072526649 20.734003 -63.612385 -112.13986 -63.306576 -111.46613 -1.4247762 -77.322479
93448000000 0.062883943 20.762753 -63.428711 -111.45932 -63.406254 -111.03416 -1.428929 -77.333748
93496000000 0.073160484 20.862026 -63.33688 -111.61472 -63.335247 -110.62569 -1.4293567 -77.327843
93544000000 0.062795661 20.788191 -63.241024 -110.88451 -63.284634 -109.8275 -1.4306804 -77.407326
93592000000 0.056160942 20.813126 -62.974915 -110.649 -63.161148 -109.83134 -1.4592429 -77.415482
93640000000 0.053998075 20.839569 -63.019806 -112.52207 -63.142651 -109.93159 -1.4673635 -77.417397
93688000000 0.050664511 20.89119 -62.844635 -112.17519 -63.102039 -109.68072 -1.4529258 -77.334351
93736000000 0.051375736 20.974743 -62.761299 -112.63023 -63.016388 -110.2261 -1.4401006 -77.374092
93784000000 0.049665019 20.968193 -62.891212 -114.79867 -62.886322 -111.14333 -1.4329474 -77.415848
93832000000 0.059098586 21.050398 -63.065407 -116.37691 -62.883801 -110.95525 -1.4309082 -77.500053
93880000000 0.062522136 21.019922 -63.348705 -116.79884 -62.891064 -111.29333 -1.4219389 -77.574806
93928000000 0.066450842 21.018547 -63.476025 -114.73967 -62.876801 -111.36588 -1.4271125 -77.70752
93976000000 0.073056638 21.084274 -63.593418 -112.99993 -62.839886 -111.6342 -1.4376813 -77.688202
94024000000 0.069298998 21.040632 -63.261242 -110.81702 -62.810604 -111.8062 -1.4469343 -77.778793
94072000000 0.069385611 21.083128 -63.109718 -111.33279 -62.850327 -112.13 -1.4509366 -77.796448
94120000000 0.060835715 20.998068 -62.934719 -111.30724 -62.864616 -110.55458 -1.4615893 -77.798592
94168000000 0.06278035 21.041706 -62.772583 -111.73721 -62.661961 -110.83591 -1.4608407 -77.795326
94216000000 0.058368705 21.002563 -62.758984 -111.77416 -62.48856 -110.99728 -1.466375 -77.837799
94264000000 0.056321926 21.027679 -62.569359 -112.58081 -62.459332 -111.77487 -1.4643918 -77.772896
94312000000 0.047945432 21.025934 -62.625729 -113.24376 -62.407974 -111.83379 -1.4574007 -77.856216
94360000000 0.048292067 21.023279 -62.534348 -113.08524 -62.36224 -112.09669 -1.4604084 -77.825333
94408000000 0.048494812 21.120869 -62.496964 -113.31295 -62.218945 -112.7133 -1.4551661 -77.867073
94456000000 0.044466808 21.071669 -62.344421 -114.38741 -62.277199 -114.19228 -1.447021 -77.84523
94504000000 0.049584657 21.176813 -62.355579 -114.44845 -62.268158 -114.50178 -1.4558657 -77.919899
94552000000 0.051964071 21.211374 -62.260162 -115.7632 -62.328796 -115.2498 -1.4458891 -77.884972
94600000000 0.054344229 21.137548 -62.227478 -115.99384 -62.241108 -115.8974 -1.4541823 -77.989151
94648000000 0.058994908 21.294994 -62.303596 -116.87469 -62.262829 -116.24663 -1.4470947 -78.007973
94696000000 0.058297701 21.181095 -62.339092 -116.64416 -62.321102 -116.8869 -1.4569256 -78.067154
94744000000 0.064808279 21.294344 -62.310436 -117.26138 -62.303093 -117.05387 -1.4514651 -78.084023
94792000000 0.055070188 21.159496 -62.189064 -117.31906 -62.404026 -117.48949 -1.4591328 -78.07415
94840000000 0.049418308 21.249125 -62.357994 -118.52661 -62.402397 -117.841 -1.4653711 -78.236153
94888000000 0.04542651 21.439232 -62.376396 -118.96634 -62.540279 -117.78098 -1.4694383 -78.241455
94936000000 0.062829852 21.24777 -62.440388 -120.08875 -62.56036 -117.41643 -1.4926608 -78.014526
94984000000 0.051510803 21.256897 -62.526104 -119.87669 -62.475475 -117.1373 -1.4304346 -78.37545
95032000000 0.031673227 21.155561 -62.757473 -118.52203 -62.465763 -117.98135 -1.4778857 -78.38488
95080000000 0.043000966 21.355433 -62.556889 -117.84094 -62.411465 -117.89453 -1.4775314 -78.220383
95128000000 0.023062592 21.249796 -62.451454 -118.01733 -62.420025 -118.10157 -1.45939 -78.244568
95176000000 0.047249518 21.487535 -62.45702 -119.31737 -62.389061 -119.24969 -1.454217 -78.360016
95224000000 0.036200885 21.356209 -62.483131 -120.19556 -62.515781 -119.7217 -1.4447592 -78.348679
95272000000 0.053847745 21.52228 -62.493263 -119.81875 -62.543644 -119.92548 -1.444321 -78.474968
95320000000 0.055029292 21.457575 -62.495728 -120.18352 -62.56377 -119.52515 -1.4339495 -78.460846
95368000000 0.064725652 21.486368 -62.535278 -119.71342 -62.628292 -119.41798 -1.4447427 -78.591164
95416000000 0.059446886 21.456219 -62.324574 -119.17316 -62.600632 -118.89326 -1.4364737 -78.540428
95464000000 0.064811341 21.493685 -62.448975 -120.00336 -62.606373 -118.76386 -1.4569926 -78.66732
95512000000 0.059169065 21.47653 -62.403114 -120.39747 -62.600769 -119.74002 -1.4512229 -78.681656
95560000000 0.060386948 21.572218 -62.359398 -121.71031 -62.647053 -118.95862 -1.4606366 -78.690628
95608000000 0.047784649 21.494078 -62.523613 -121.5843 -62.600258 -118.40257 -1.4642911 -78.723213
95656000000 0.054718982 21.591362 -62.532253 -121.91691 -62.526833 -118.50567 -1.4666193 -78.697914
95704000000 0.035396278 21.471121 -62.601543 -120.87418 -62.536526 -118.52332 -1.4643462 -78.705734
95752000000 0.04166026 21.625441 -62.55788 -120.82816 -62.504623 -118.43172 -1.4575937 -78.731354
95800000000 0.020097885 21.552938 -62.532932 -120.6227 -62.501556 -119.13032 -1.4629925 -78.7295
95848000000 0.036571559 21.717297 -62.597656 -121.36558 -62.552406 -119.23617 -1.4590219 -78.743629
95896000000 0.033402864 21.666681 -62.531116 -122.54164 -62.666889 -119.13438 -1.4486009 -78.772583
95944000000 0.041387454 21.670731 -62.62606 -120.74951 -62.501598 -118.62868 -1.4510927 -78.846634
95992000000 0.047715522 21.707003 -62.553082 -120.7734 -62.490032 -118.48903 -1.4425764 -78.873772
96040000000 0.053232558 21.684406 -62.569183 -120.55431 -62.400093 -119.0099 -1.4375278 -78.968994
96088000000 0.062676251 21.720957 -62.699825 -121.11594 -62.440063 -119.40279 -1.4434832 -79.036331
96136000000 0.055099323 21.716682 -62.72773 -120.31473 -62.374016 -119.75623 -1.4362938 -79.103256
96184000000 0.065500364 21.769701 -62.648869 -118.50527 -62.274239 -119.70367 -1.445675 -79.192032
96232000000 0.059469867 21.769705 -62.431808 -119.20245 -62.42049 -119.73489 -1.4476221 -79.186188
96280000000 0.057193685 21.764244 -62.289196 -120.10273 -62.341568 -119.56405 -1.4532149 -79.224487
96328000000 0.051044188 21.768431 -62.244301 -121.79636 -62.291702 -120.02902 -1.4542155 -79.206932
96376000000 0.053923935 21.79924 -62.483482 -123.33463 -62.262989 -120.40402 -1.4606062 -79.259079
96424000000 0.048094943 21.81036 -62.524811 -123.25512 -62.230606 -120.13235 -1.4710007 -79.323219
96472000000 0.050342631 21.850672 -62.92894 -121.42716 -62.299828 -121.21441 -1.4657978 -79.383408
96520000000 0.046920214 21.815601 -62.800224 -119.8028 -62.319225 -120.98294 -1.4808713 -79.415138
96568000000 0.041700769 21.765835 -62.241768 -120.01544 -62.324673 -120.88123 -1.4102708 -79.239037
96616000000 0.029261583 21.955967 -62.301826 -119.92259 -62.307724 -121.55271 -1.4548668 -79.519577
96664000000 0.044044018 21.979259 -62.148315 -120.28929 -62.376499 -121.70755 -1.445546 -79.50721
96712000000 0.052538007 21.932842 -62.283375 -121.65936 -62.492085 -121.36705 -1.4439369 -79.607582
96760000000 0.052842334 21.949413 -62.116837 -121.0863 -62.5182 -120.39165 -1.4413735 -79.702164
96808000000 0.057635121 21.905167 -62.115688 -121.27016 -62.48283 -120.35056 -1.4491762 -79.718781
96856000000 0.059668515 22.016272 -61.971638 -121.86478 -62.397701 -121.10174 -1.4402946 -79.820526
96904000000 0.068818487 21.93578 -62.11536 -123.74133 -62.445999 -119.88307 -1.4382509 -79.696091
96952000000 0.069341794 21.946302 -62.268349 -124.28297 -62.389477 -120.52381 -1.4468776 -79.876488
97000000000 0.067784935 21.9233 -62.464764 -124.67811 -62.386845 -119.87796 -1.4466468 -79.801537
97048000000 0.081419945 21.977818 -62.611698 -124.9555 -62.327854 -119.9861 -1.4607559 -79.945557
97096000000 0.066735335 21.915573 -62.729393 -123.37972 -62.29525 -120.0489 -1.433665 -80.020752
97144000000 0.07478819 22.031906 -62.626068 -121.78442 -62.301888 -119.97459 -1.4409442 -79.891731
97192000000 0.074982576 22.006599 -62.80233 -120.48737 -62.228874 -118.57793 -1.4462087 -80.098602
97240000000 0.060688172 22.026035 -62.582867 -119.04061 -62.290604 -119.69385 -1.4806758 -80.165375
97288000000 0.076391883 22.082405 -62.042778 -119.51032 -62.179394 -118.83518 -1.4512193 -79.967705
97336000000 0.068373092 22.147842 -62.129391 -120.28713 -62.078072 -119.36529 -1.458378 -80.147888
97384000000 0.06280791 22.067366 -62.096008 -121.44825 -62.08252 -119.09339 -1.4555385 -80.130478
97432000000 0.06379316 22.182539 -62.363052 -121.03784 -61.98288 -118.21594 -1.456123 -80.215279
97480000000 0.062493049 22.104435 -62.266289 -118.30865 -61.909492 -118.29623 -1.4504359 -80.193413
97528000000 0.064377777 22.214025 -61.910492 -119.11976 -61.930206 -117.89938 -1.4472185 -80.361908
97576000000 0.063300818 22.143337 -61.836575 -119.606 -61.779911 -117.81219 -1.4594526 -80.319504
97624000000 0.063852847 22.037973 -61.709827 -119.11764 -61.838444 -118.64279 -1.4536095 -80.425476
97672000000 0.073657311 22.134974 -62.09391 -120.66917 -61.773846 -118.55917 -1.4515473 -80.45311
97720000000 0.06805405 22.049149 -61.717148 -118.77608 -61.546146 -118.59819 -1.4596422 -80.557251
97768000000 0.059869196 22.205912 -61.763981 -119.87137 -61.540932 -118.70084 -1.4752898 -80.476715
97816000000 0.079734743 22.209913 -61.513168 -118.75793 -61.354458 -119.60793 -1.5140289 -80.625931
97864000000 0.088162325 22.084639 -61.348988 -119.09152 -61.141354 -118.66547 -1.4686538 -80.382957
97912000000 0.071572408 22.008259 -61.368507 -118.63171 -61.098366 -119.94629 -1.4124318 -80.586166
97960000000 0.065174483 22.071878 -60.894615 -120.08099 -61.174339 -120.02664 -1.4765944 -80.693939
98008000000 0.072226748 22.185326 -61.001297 -122.29926 -61.099281 -121.54464 -1.4528596 -80.619965
98056000000 0.07091134 22.100107 -60.980743 -122.81466 -61.104141 -122.41166 -1.4826745 -80.728035
98104000000 0.076097347 22.226185 -61.021267 -123.45073 -61.010334 -121.52857 -1.4757483 -80.640083
98152000000 0.067237481 22.264353 -60.969654 -123.64243 -60.985516 -121.04873 -1.4739026 -80.781204
98200000000 0.075556025 22.216225 -60.804424 -122.89916 -60.905762 -121.60384 -1.4555668 -80.790298
98248000000 0.080979899 22.27973 -60.778217 -123.75788 -60.797367 -121.4706 -1.4510508 -80.864555
98296000000 0.078238554 22.261065 -60.73938 -123.55389 -60.677799 -122.22047 -1.4634657 -80.697159
98344000000 0.074043639 22.228863 -60.70874 -123.53214 -60.702061 -122.92849 -1.4794627 -80.978325
98392000000 0.074598372 22.350828 -60.587299 -123.17177 -60.585094 -123.71385 -1.4682523 -80.952103
98440000000 0.063740611 22.294941 -60.16394 -123.4986 -60.495094 -124.56342 -1.4699975 -80.914345
98488000000 0.07081151 22.318069 -60.254604 -127.52765 -60.542587 -125.96294 -1.4449488 -81.002457
98536000000 0.081344739 22.293308 -60.489017 -128.25992 -60.606071 -126.04488 -1.4484047 -81.097801
98584000000 0.085808247 22.223482 -60.658146 -129.3618 -60.586819 -126.68353 -1.4638621 -81.115501
98632000000 0.08283224 22.270384 -60.439274 -128.40091 -60.591606 -127.09666 -1.4865104 -81.263519
98680000000 0.079557851 22.242113 -60.404545 -129.77373 -60.72744 -127.69169 -1.4932982 -81.127266
98728000000 0.085913315 22.250904 -60.62944 -130.64781 -60.570278 -125.81128 -1.4991654 -81.070732
98776000000 0.085546322 22.244623 -60.882862 -130.91536 -60.536282 -127.43172 -1.4767615 -81.0112
98824000000 0.082865253 22.347908 -60.742996 -129.88844 -60.401665 -128.16876 -1.4531925 -81.212639
98872000000 0.078395672 22.37562 -60.841347 -129.18556 -60.521179 -128.84882 -1.4613984 -81.294548
98920000000 0.086025998 22.432579 -60.448044 -129.66196 -60.420376 -128.96291 -1.4831746 -81.32106
98968000000 0.086886741 22.36418 -60.331879 -130.76019 -60.331486 -129.87752 -1.4921246 -81.310242
99016000000 0.075299583 22.425465 -60.56559 -130.81865 -60.442829 -130.76709 -1.4778552 -81.331863
99064000000 0.073435888 22.319624 -60.679562 -132.66716 -60.539009 -130.90097 -1.4558976 -81.40963
99112000000 0.079283856 22.461626 -60.613247 -131.43694 -60.631241 -131.23019 -1.494031 -81.42762
99160000000 0.073999867 22.405451 -60.335068 -130.68279 -60.588428 -130.90276 -1.4691446 -81.500763
99208000000 0.074396335 22.422522 -60.199593 -131.86189 -60.555485 -131.06732 -1.4611773 -81.55603
99256000000 0.073522419 22.396984 -60.365547 -133.95781 -60.492641 -131.67789 -1.4766425 -81.542549
99304000000 0.071248502 22.36207 -60.455379 -134.6208 -60.524052 -132.72568 -1.4873484 -81.559677
99352000000 0.074181058 22.445684 -60.710743 -135.21008 -60.67094 -133.52153 -1.4509654 -81.467697
99400000000 0.081738509 22.375027 -60.620708 -135.94882 -60.611649 -133.44014 -1.4754658 -81.734703
99448000000 0.076013908 22.379755 -60.617733 -136.44554 -60.625542 -134.25414 -1.4669073 -81.599503
99496000000 0.070738673 22.433687 -60.600086 -138.26558 -60.783665 -135.37933 -1.5024723 -81.797989
99544000000 0.079612747 22.433315 -60.945156 -138.44063 -60.888649 -135.17686 -1.4952179 -81.669228
99592000000 0.082508162 22.454063 -61.464588 -139.64548 -60.910358 -135.71538 -1.5010372 -81.648689
99640000000 0.080076307 22.453926 -61.718861 -137.25502 -61.121067 -135.04582 -1.4719429 -81.776726
99688000000 0.081552558 22.489698 -61.878338 -134.5321 -61.118092 -134.71713 -1.4854563 -81.763077
99736000000 0.078222282 22.519753 -61.525848 -133.27219 -61.128738 -134.6768 -1.4926889 -81.898918
99784000000 0.08364334 22.519054 -61.417652 -132.62263 -61.203552 -133.92993 -1.5095651 -81.70018
99832000000 0.08939594 22.610287 -61.225086 -132.79076 -61.11039 -133.57225 -1.4872767 -81.847527
99880000000 0.078372791 22.575354 -61.438431 -133.11969 -61.234871 -133.42247 -1.525843 -81.79641
99928000000 0.07723318 22.597368 -61.207825 -134.50995 -61.199387 -133.44153 -1.5023153 -81.799965
99976000000 0.072633058 22.533722 -61.156967 -132.17317 -61.154068 -132.6498 -1.474847 -81.894279
100024000000 0.085274227 22.651857 -61.026417 -130.98283 -60.938435 -131.65807 -1.5128108 -81.889503
100072000000 0.056359742 22.587927 -60.625751 -132.13567 -60.925446 -131.78712 -1.4779472 -81.912918
100120000000 0.075254813 22.669044 -60.669724 -132.95853 -60.84433 -131.88048 -1.5070325 -82.101608
100168000000 0.077275395 22.605244 -60.808498 -133.30685 -60.690815 -133.22691 -1.5009407 -81.93132
100216000000 0.083111599 22.650635 -60.389061 -131.86736 -60.617588 -133.39758 -1.5172241 -82.119324
100264000000 0.078164823 22.703363 -60.572201 -132.85718 -60.687622 -133.5056 -1.5064121 -81.898102
100312000000 0.065139286 22.591824 -60.430607 -134.72401 -60.743698 -133.81987 -1.5140986 -82.075729
100360000000 0.089787461 22.642521 -60.664154 -134.14789 -60.567783 -134.10448 -1.4850034 -82.016151
100408000000 0.052299645 22.58016 -60.798283 -134.02083 -60.778393 -134.67186 -1.5102757 -82.18705
100456000000 0.066946395 22.634226 -60.3997 -134.50429 -60.559647 -134.65259 -1.4775013 -82.303886
100504000000 0.10285366 22.629211 -60.167622 -134.4554 -60.618038 -135.91795 -1.524533 -82.273933
100552000000 0.096079372 22.717396 -60.383533 -136.62343 -60.700443 -135.92995 -1.479308 -82.23764
100600000000 0.076926999 22.720055 -60.284958 -138.03937 -60.614857 -135.64453 -1.5180352 -82.36731
100648000000 0.098475464 22.745333 -60.534367 -138.03481 -60.685658 -137.03358 -1.5594324 -82.160675
100696000000 0.06107514 22.740707 -60.54805 -138.35765 -60.803322 -137.23053 -1.5219998 -82.504021
100744000000 0.097729892 22.660992 -60.786892 -137.039 -60.675339 -137.48175 -1.46612 -82.240364
100792000000 0.093256839 22.788525 -60.341248 -137.60027 -60.86108 -137.58485 -1.5453854 -82.387405
100840000000 0.08128529 22.845667 -60.287548 -139.476 -60.965153 -137.54189 -1.5135418 -82.299622
100888000000 0.074103691 22.795483 -60.563961 -141.34134 -60.941998 -137.43126 -1.5354272 -82.44046
100936000000 0.073972888 22.780174 -60.880714 -140.00911 -61.124329 -136.78572 -1.4966948 -82.360855
100984000000 0.075140834 22.806156 -60.849987 -139.46396 -60.988136 -137.35535 -1.5048254 -82.538322
101032000000 0.072102509 22.821203 -60.899593 -138.70563 -61.033146 -135.81326 -1.5173743 -82.440338
101080000000 0.075259902 22.874577 -60.903126 -138.13612 -61.041065 -134.6377 -1.5187395 -82.496346
101128000000 0.075004458 22.831047 -60.826241 -139.16522 -60.832241 -134.98264 -1.5164033 -82.574142
101176000000 0.092329443 22.912447 -60.82687 -137.79544 -60.632069 -136.02762 -1.5214258 -82.490952
101224000000 0.068341494 22.929111 -60.786755 -138.42953 -60.613117 -136.7477 -1.5162818 -82.701355
101272000000 0.081650615 22.886364 -60.689056 -139.23187 -60.614639 -137.71249 -1.5178167 -82.607796
101320000000 0.07842008 22.910198 -60.552544 -140.58286 -60.627739 -138.49144 -1.5273941 -82.611664
101368000000 0.072525121 22.983084 -60.76614 -141.15935 -60.741882 -138.99797 -1.5249608 -82.623375
101416000000 0.076983966 22.946873 -60.821175 -142.60883 -60.862644 -139.59137 -1.5362216 -82.616585
101464000000 0.074106239 23.019674 -61.198177 -142.80801 -60.940006 -139.82071 -1.5161623 -82.625877
101512000000 0.076182298 22.983776 -61.18676 -140.50861 -61.021027 -140.17845 -1.5142622 -82.779915
101560000000 0.068544328 23.136421 -61.293758 -142.1394 -61.182804 -140.19896 -1.5461602 -82.893509
101608000000 0.061850507 23.106993 -61.558228 -141.03468 -61.447384 -139.5826 -1.562252 -82.784706
101656000000 0.079949751 23.106131 -61.549644 -138.23216 -61.476536 -138.62477 -1.5525653 -82.833458
101704000000 0.069467641 23.153591 -61.381966 -138.02054 -61.591873 -137.44707 -1.5577842 -82.824615
101752000000 0.074213117 23.176466 -61.234348 -138.74672 -61.428246 -136.51323 -1.5023277 -82.618355
101800000000 0.080860481 23.221363 -61.30579 -138.17105 -61.42606 -136.32228 -1.4680116 -82.955528
101848000000 0.080027007 23.418528 -61.352116 -137.86665 -61.438465 -135.4633 -1.5073915 -83.096001
101896000000 0.083704285 23.639566 -61.404228 -137.51468 -61.473331 -135.22035 -1.5505664 -83.191551
101944000000 0.064461939 23.437357 -61.625187 -137.79155 -61.502346 -134.62376 -1.5318127 -82.638123
101992000000 0.086266577 23.730627 -61.738987 -136.26137 -61.565575 -133.65381 -1.4801084 -83.036636
102040000000 0.075343348 23.22785 -61.794044 -134.55817 -61.495861 -132.6967 -1.5343884 -83.33107
102088000000 0.075007007 23.26531 -61.507385 -131.85588 -61.476486 -131.49724 -1.5631008 -83.297859
102136000000 0.076931067 23.29244 -61.402054 -131.93988 -61.305885 -130.50943 -1.5796198 -83.043274
102184000000 0.081464656 23.230898 -61.073009 -131.9276 -61.130291 -130.70441 -1.5436857 -82.97554
102232000000 0.094643511 23.344933 -60.990608 -131.82994 -60.926804 -130.39401 -1.5273253 -83.015938
102280000000 0.093035907 23.265511 -61.057911 -131.44482 -60.859367 -130.60194 -1.5163164 -83.116928
102328000000 0.10101844 23.417423 -60.936848 -131.09312 -60.815987 -130.24519 -1.5130653 -82.986214
102376000000 0.096510798 23.501642 -60.757813 -131.05589 -60.67207 -129.75569 -1.5098814 -83.404205
102424000000 0.099540696 23.423735 -60.539215 -131.17967 -60.531815 -129.90291 -1.5402498 -83.317787
102472000000 0.088382997 23.369694 -60.447571 -130.8513 -60.549194 -130.26485 -1.5458502 -83.443245
102520000000 0.079711869 23.398163 -60.315327 -131.39478 -60.48127 -130.08333 -1.5304434 -83.272141
102568000000 0.077842437 23.417637 -60.487396 -131.27672 -60.449993 -130.00961 -1.5537964 -83.378059
102616000000 0.087251596 23.596674 -60.257717 -130.99478 -60.321396 -128.36963 -1.5178343 -83.222252
102664000000 0.084338523 23.490475 -60.109325 -130.72325 -60.187996 -129.08339 -1.5424913 -83.515732
102712000000 0.071077891 23.625057 -60.074993 -130.50763 -60.019577 -128.65576 -1.5055275 -83.614586
102760000000 0.081520543 23.566648 -59.974747 -130.46808 -59.900127 -128.36601 -1.5362725 -83.59079
102808000000 0.084419258 23.440783 -59.841568 -129.87357 -59.745796 -128.13025 -1.5324223 -83.57695
102856000000 0.080895036 23.519217 -59.707043 -129.84256 -59.56892 -128.44048 -1.5603563 -83.46492
102904000000 0.077424407 23.539003 -59.43169 -129.81422 -59.361023 -129.0592 -1.5453912 -83.717484
102952000000 0.086621329 23.475372 -59.218697 -130.98921 -59.243549 -129.40714 -1.5499325 -83.705132
103000000000 0.078543119 23.613213 -59.332603 -130.21634 -59.127327 -129.19554 -1.5480468 -83.509026
103048000000 0.084653832 23.642494 -59.111309 -132.57928 -58.991127 -129.78276 -1.5522773 -83.743698
103096000000 0.094621733 23.613493 -59.010979 -132.46332 -58.832336 -130.72583 -1.5335472 -83.570831
103144000000 0.093250759 23.642395 -58.889595 -132.69397 -58.682755 -131.66359 -1.5355831 -83.780899
103192000000 0.098906651 23.730143 -58.68227 -133.34033 -58.552128 -132.61383 -1.5237863 -83.601524
103240000000 0.089709364 23.618511 -58.61924 -134.74332 -58.53857 -134.33849 -1.5277945 -83.819023
103288000000 0.10304123 23.714788 -58.489471 -135.40564 -58.488773 -134.98868 -1.5211465 -83.793449
103336000000 0.094962634 23.59889 -58.503872 -136.54056 -58.429436 -135.61285 -1.5374006 -83.962883
103384000000 0.10477705 23.807791 -58.531147 -136.68015 -58.46629 -136.20825 -1.5389724 -83.893745
103432000000 0.081110492 23.658724 -58.460102 -138.21497 -58.413841 -137.30585 -1.5411943 -83.992928
103480000000 0.094089814 23.843845 -58.40226 -139.0892 -58.450554 -137.78462 -1.5484354 -83.971657
103528000000 0.084636569 23.735735 -58.431698 -139.93758 -58.445667 -138.66725 -1.5442452 -84.122398
103576000000 0.09155646 23.935764 -58.449409 -140.27962 -58.463501 -138.96045 -1.5511994 -84.07325
103624000000 0.080321282 23.787212 -58.567623 -140.95163 -58.484962 -139.70119 -1.5520232 -84.107712
103672000000 0.091836274 23.865602 -58.56572 -140.83966 -58.496056 -139.65318 -1.5534414 -84.156929
103720000000 0.089392386 23.765314 -58.495167 -140.9601 -58.48661 -140.24886 -1.5557774 -84.123093
103768000000 0.089459337 23.827673 -58.484455 -141.5459 -58.524113 -140.13187 -1.5518481 -84.202003
103816000000 0.090745822 23.813101 -58.469303 -142.05322 -58.502258 -140.39343 -1.5512971 -84.222008
103864000000 0.093107358 23.831499 -58.502296 -142.50598 -58.472946 -140.78264 -1.5433998 -84.216454
103912000000 0.085136145 23.897577 -58.459656 -142.37123 -58.391212 -140.95349 -1.5463288 -84.27256
103960000000 0.092410535 23.88015 -58.307232 -142.72522 -58.356026 -141.60701 -1.5365237 -84.287125
104008000000 0.10518082 24.190676 -58.393269 -143.59613 -58.453838 -142.16112 -1.5416359 -84.371147
104056000000 0.1038607 23.868771 -58.453907 -144.59225 -58.415417 -142.45442 -1.5335428 -84.425316
104104000000 0.10296135 23.868561 -58.404892 -144.68982 -58.413883 -142.5195 -1.5334797 -84.605606
104152000000 0.12501922 24.021812 -58.381012 -144.91786 -58.427357 -143.18246 -1.554087 -84.512184
104200000000 0.10578061 23.823709 -58.347305 -146.09738 -58.405647 -143.57947 -1.5407249 -84.604561
104248000000 0.11502766 24.041702 -58.422947 -146.18086 -58.386162 -143.91499 -1.5421413 -84.688667
104296000000 0.099629752 23.855877 -58.526989 -146.87894 -58.441219 -144.24739 -1.5547594 -84.73983
104344000000 0.099610522 23.967937 -58.603233 -146.80821 -58.457706 -144.38364 -1.5737962 -84.775169
104392000000 0.091071308 23.877464 -58.603119 -146.0018 -58.440376 -144.24945 -1.5725894 -84.677444
104440000000 0.094956048 23.962845 -58.498882 -146.6319 -58.475128 -144.66823 -1.5681088 -84.718338
104488000000 0.094903879 23.971153 -58.446693 -147.01511 -58.481613 -145.55754 -1.549904 -84.681664
104536000000 0.090054199 24.015827 -58.577198 -147.83049 -58.42757 -146 -1.5528344 -84.74057
104584000000 0.09679383 24.089512 -58.590622 -147.20509 -58.560822 -145.73955 -1.5460538 -84.968544
104632000000 0.099466316 24.020979 -58.692135 -147.62616 -58.664845 -145.36821 -1.5709672 -84.731438
104680000000 0.10025206 24.073364 -58.704525 -147.41075 -58.659374 -145.18402 -1.525562 -84.977905
104728000000 0.10974763 24.005333 -58.676594 -146.88571 -58.581009 -144.9599 -1.5498651 -84.988724
104776000000 0.11893839 24.044256 -58.566349 -148.48523 -58.518333 -145.92464 -1.5440258 -85.166092
104824000000 0.1209161 24.071455 -58.668598 -148.30818 -58.548107 -145.60062 -1.5187042 -84.885887
104872000000 0.11359755 24.006195 -58.758492 -148.19325 -58.63554 -146.11673 -1.5324001 -85.130783
104920000000 0.12374185 24.072195 -59.025894 -147.74614 -58.628315 -145.79501 -1.6179013 -85.161179
104968000000 0.10149388 24.14315 -58.696056 -146.87906 -58.640285 -145.36812 -1.5479418 -85.273201
105016000000 0.10742695 24.081896 -58.7971 -146.61137 -58.604187 -145.35933 -1.5712817 -85.250534
105064000000 0.10479221 24.176453 -58.736446 -146.13591 -58.540016 -145.19058 -1.545293 -85.243423
105112000000 0.11523941 24.216333 -58.723576 -146.50391 -58.549007 -145.29703 -1.5820057 -85.377144
105160000000 0.09796223 24.126333 -58.446556 -145.96494 -58.457535 -145.33847 -1.5727208 -85.346428
105208000000 0.11162357 24.206144 -58.447338 -147.35814 -58.457939 -146.33058 -1.5833056 -85.344772
105256000000 0.093949474 24.134804 -58.558109 -147.44901 -58.599701 -145.90253 -1.5639104 -85.348061
105304000000 0.10541125 24.225166 -58.585464 -147.20131 -58.615074 -145.42442 -1.5709003 -85.441383
105352000000 0.09685611 24.232073 -58.631542 -145.3176 -58.569653 -144.71957 -1.5564305 -85.527016
105400000000 0.11901496 24.257355 -58.415611 -145.61664 -58.253014 -144.12207 -1.5584142 -85.551392
105448000000 0.098952703 24.242285 -58.209915 -145.60306 -58.195499 -144.30415 -1.5668091 -85.663406
105496000000 0.12641893 24.330847 -58.087173 -145.13666 -58.058418 -145.08498 -1.5620825 -85.592186
105544000000 0.11352997 24.270964 -57.855679 -145.55661 -58.016434 -145.38631 -1.5517685 -85.675377
105592000000 0.12316467 24.291065 -57.961773 -147.44954 -57.927601 -146.48749 -1.6086382 -85.675331
105640000000 0.11644873 24.254856 -57.859268 -148.38586 -57.84893 -146.58788 -1.5541192 -85.892975
105688000000 0.11830213 24.154161 -57.957317 -148.88713 -57.945995 -147.57016 -1.5617465 -85.843552
105736000000 0.10982436 24.020191 -58.048027 -148.4679 -57.959888 -148.1557 -1.6159064 -85.812027
105784000000 0.10603475 24.298813 -58.168335 -149.84583 -58.010258 -148.1483 -1.5457463 -85.886795
105832000000 0.099668205 24.274807 -58.173256 -149.1611 -58.090733 -148.20341 -1.5732198 -85.958221
105880000000 0.11469791 24.306416 -58.26009 -149.00861 -58.131504 -148.08192 -1.5892828 -85.869431
105928000000 0.10406693 24.254513 -58.114563 -148.65848 -58.019783 -147.90862 -1.5921696 -85.974167
105976000000 0.10526067 24.223648 -58.127056 -147.7455 -58.119656 -147.7374 -1.6109487 -85.973602
106024000000 0.10971532 24.348129 -58.184982 -149.10947 -58.089291 -147.22816 -1.601867 -86.029739
106072000000 0.099520966 24.254341 -57.907276 -147.86972 -57.995117 -145.89688 -1.5723779 -85.993355
106120000000 0.10550776 24.393764 -57.896301 -146.63528 -57.884521 -145.1207 -1.5427834 -86.008919
106168000000 0.10234904 24.347086 -57.747349 -147.09973 -57.732517 -145.33598 -1.573052 -86.099129
106216000000 0.12819418 24.63862 -57.42017 -146.25557 -57.551922 -145.20818 -1.520371 -85.97789
106264000000 0.13697383 24.371178 -57.400551 -148.4632 -57.442398 -146.39505 -1.5836813 -86.525421
106312000000 0.13549623 24.439386 -57.29274 -149.1843 -57.364792 -147.23355 -1.5303285 -86.244606
106360000000 0.14145422 24.365461 -57.288002 -149.48199 -57.287014 -147.91388 -1.6078285 -86.576561
106408000000 0.10497313 24.252348 -57.355354 -150.16396 -57.360622 -148.22687 -1.6576154 -86.274834
106456000000 0.11530294 24.45112 -57.176353 -150.52594 -57.077431 -148.21754 -1.4522238 -86.019775
106504000000 0.10389709 24.297394 -57.459332 -150.83203 -57.124279 -149.20195 -1.6589165 -86.927116
106552000000 0.091523513 24.51185 -57.100937 -150.8273 -57.070202 -148.67044 -1.6127871 -86.458168
106600000000 0.09663637 24.243975 -56.958221 -151.52744 -56.988457 -150.13141 -1.5023519 -86.195709
106648000000 0.081823356 24.46464 -57.027157 -152.55394 -56.912666 -150.96254 -1.5730356 -86.538094
106696000000 0.14158651 24.41268 -57.098381 -152.1525 -57.07008 -152.04027 -1.6740556 -86.575989
106744000000 0.080519997 24.501822 -57.056892 -152.29776 -56.957096 -151.13132 -1.5221527 -86.741058
106792000000 0.089296535 24.759731 -57.047535 -153.05096 -56.993828 -151.62953 -1.5873016 -86.710991
106840000000 0.1073921 24.688522 -56.899773 -153.51378 -56.933273 -151.90302 -1.5793025 -86.711571
106888000000 0.13204838 24.660585 -57.046829 -153.27232 -56.866455 -151.62842 -1.5758674 -86.546387
106936000000 0.12331765 24.40332 -56.932373 -153.55067 -56.894741 -152.50798 -1.6611696 -86.955139
106984000000 0.12942553 24.560587 -56.83054 -153.4326 -56.830597 -152.77084 -1.5272101 -86.821335
107032000000 0.1323005 24.305895 -56.815964 -154.52469 -56.784081 -153.28346 -1.5745628 -87.069412
107080000000 0.12561628 24.232706 -56.687622 -153.99562 -56.759232 -152.79788 -1.5869685 -86.847046
107128000000 0.11957809 24.148579 -56.710163 -154.59142 -56.63168 -153.23915 -1.6060461 -86.956566
107176000000 0.10158592 24.59845 -56.599297 -155.53851 -56.542274 -153.63193 -1.608955 -87.059135
107224000000 0.10131231 24.538721 -56.631237 -155.45271 -56.495068 -153.85979 -1.580682 -86.910759
107272000000 0.093818761 24.663189 -56.507332 -156.27919 -56.533997 -154.64481 -1.5806973 -86.974815
107320000000 0.091156989 24.67156 -56.504047 -157.3933 -56.360878 -155.19496 -1.581439 -87.010201
107368000000 0.09264113 24.646204 -56.408924 -156.74306 -56.333538 -155.63095 -1.6002524 -86.937332
107416000000 0.089435495 24.601345 -56.412445 -157.91843 -56.327896 -156.46985 -1.6298623 -87.008789
107464000000 0.094265603 24.794994 -56.239227 -158.6674 -56.272194 -156.85503 -1.5948892 -86.812775
107512000000 0.099653535 24.851507 -56.282059 -159.20319 -56.191395 -157.84102 -1.533144 -86.817215
107560000000 0.11637262 24.806377 -56.222641 -159.70824 -56.182571 -158.52867 -1.6085182 -87.122375
107608000000 0.12860031 24.88307 -56.103539 -161.18372 -56.210079 -159.27827 -1.5806381 -86.996841
107656000000 0.13012749 24.867636 -56.243393 -162.29057 -56.25544 -160.25827 -1.5819123 -86.969917
107704000000 0.13342875 24.936672 -56.376724 -163.1655 -56.303776 -160.43007 -1.5699761 -86.952644
107752000000 0.13476603 24.875328 -56.443001 -163.09862 -56.387978 -161.3508 -1.5724311 -87.314247
107800000000 0.11958212 24.772209 -56.5816 -163.60582 -56.483822 -161.62633 -1.5717627 -87.544731
107848000000 0.11622091 24.803732 -56.543163 -162.75021 -56.475109 -161.24008 -1.5824771 -87.503174
107896000000 0.10808854 24.798609 -56.52718 -162.62251 -56.444378 -161.19127 -1.5945323 -87.53215
107944000000 0.09156508 24.678997 -56.638844 -162.98875 -56.46917 -161.61288 -1.6676821 -87.34066
107992000000 0.080800012 24.915482 -56.524754 -162.17059 -56.442215 -160.89 -1.5985446 -87.219994
108040000000 0.089438543 24.994358 -56.383648 -162.29997 -56.262989 -160.79956 -1.6108636 -87.24498
108088000000 0.092704482 24.980906 -56.165752 -162.68594 -56.178139 -161.504 -1.6422105 -87.535538
108136000000 0.10327885 25.029148 -56.05526 -164.63478 -55.964569 -162.54488 -1.616052 -87.380295
108184000000 0.10170478 24.853338 -56.036961 -165.85332 -56.041588 -164.61131 -1.5887655 -87.375252
108232000000 0.10955883 25.035179 -56.193214 -166.72273 -56.076855 -164.83827 -1.5728601 -87.354195
108280000000 0.10507926 24.885445 -56.127731 -167.94543 -56.130547 -165.45819 -1.5803591 -87.375069
108328000000 0.11103065 25.05682 -56.215958 -168.53012 -56.15406 -166.08553 -1.5919429 -87.284149
108376000000 0.11623401 25.198521 -56.25124 -168.22664 -56.235302 -166.56348 -1.5794355 -87.080444
108424000000 0.14318828 25.190176 -56.384884 -168.90363 -56.279411 -167.31645 -1.5519629 -87.27301
108472000000 0.13990647 24.942562 -56.400913 -169.35637 -56.271976 -168.20894 -1.5865746 -87.984367
108520000000 0.11836661 24.956049 -56.469524 -169.20544 -56.343624 -168.70752 -1.6371526 -87.75988
108568000000 0.1087571 24.994604 -56.565838 -170.19949 -56.4659 -169.39459 -1.6342816 -87.837143
108616000000 0.10292191 25.041651 -56.564362 -171.20424 -56.582493 -169.25468 -1.6456133 -87.630524
108664000000 0.098234549 25.040236 -56.668289 -171.6638 -56.604843 -169.09918 -1.6212903 -87.41497
108712000000 0.093766063 25.211683 -56.761532 -171.7917 -56.661407 -169.5457 -1.5899647 -87.554016
108760000000 0.088827871 25.137886 -56.92387 -170.81227 -56.74445 -169.83897 -1.5949396 -87.613655
108808000000 0.096370034 25.272261 -56.889912 -170.57451 -56.787437 -169.9279 -1.5991955 -87.663139
108856000000 0.095254384 25.242481 -56.929249 -169.832 -56.8316 -169.75494 -1.5861777 -87.553978
108904000000 0.11381543 25.331779 -56.837215 -169.90608 -56.827377 -169.02922 -1.5893365 -87.626396
108952000000 0.11518143 25.19158 -56.793125 -170.87086 -56.848755 -169.40936 -1.5874307 -87.821457
109000000000 0.12433506 25.254217 -56.841965 -171.7233 -56.876205 -169.19635 -1.6142895 -87.978638
109048000000 0.12012653 25.051512 -56.905769 -171.60568 -56.849514 -168.60291 -1.6295161 -88.241707
109096000000 0.13605522 25.096756 -56.88657 -171.14282 -56.898296 -168.47185 -1.6121792 -88.549095
109144000000 0.1344689 24.988392 -56.851353 -171.85844 -56.826477 -168.49632 -1.5802667 -88.68364
109192000000 0.13558254 25.17037 -56.800102 -171.38831 -56.76664 -168.58125 -1.5826474 -88.420349
109240000000 0.1261519 24.976109 -56.736275 -171.04913 -56.6917 -168.95537 -1.5851567 -88.052917
109288000000 0.11829356 25.025148 -56.831924 -170.65274 -56.609264 -169.67633 -1.5960138 -88.033699
109336000000 0.10769159 25.055109 -56.712696 -171.47342 -56.639847 -170.09874 -1.6175263 -88.146812
109384000000 0.10276771 25.124357 -56.757832 -171.80626 -56.637188 -169.80197 -1.6036518 -87.990677
109432000000 0.095076598 25.173607 -56.733913 -172.38318 -56.642933 -170.44359 -1.6163021 -87.909294
109480000000 0.097913139 25.247265 -56.734703 -172.36267 -56.65271 -169.44579 -1.632419 -86.869972
109528000000 0.10461027 25.287563 -56.665295 -173.06891 -56.557766 -171.02795 -1.6330965 -88.313873
109576000000 0.11139145 25.258406 -56.720146 -173.04393 -56.580505 -171.24693 -1.6433663 -88.232285
109624000000 0.12198692 25.31551 -56.611469 -173.23103 -56.589249 -172.58507 -1.5857817 -88.520088
109672000000 0.13503353 25.310801 -56.543053 -173.59132 -56.567272 -172.94377 -1.584175 -88.457161
109720000000 0.13151851 24.753754 -56.617199 -175.24309 -56.689587 -174.08611 -1.58639 -88.944504
109768000000 0.15034966 25.335575 -56.642632 -175.4799 -56.703354 -174.29883 -1.588748 -88.373558
109816000000 0.13450804 25.217455 -56.726707 -175.90118 -56.812958 -173.98872 -1.6124276 -88.37085
109864000000 0.14564113 25.413366 -56.815678 -176.27251 -56.867588 -174.71738 -1.6112154 -88.502083
109912000000 0.14299493 25.285427 -56.845051 -176.66306 -56.899834 -174.40518 -1.6045847 -88.46286
109960000000 0.13777088 25.358486 -56.949936 -177.41481 -57.012997 -175.05818 -1.6367347 -88.681244
110008000000 0.14319178 25.37925 -57.159771 -176.77499 -57.135563 -174.79175 -1.6136856 -88.450943
110056000000 0.13288298 25.399664 -57.259987 -177.21384 -57.173851 -175.12201 -1.6389859 -88.745918
110104000000 0.14179598 25.385601 -57.425682 -176.94037 -57.225063 -174.99065 -1.6412698 -88.477173
110152000000 0.14154893 25.331154 -57.503254 -176.62016 -57.389126 -175.28583 -1.6270629 -88.752808
110200000000 0.12885363 25.337749 -57.728729 -175.53217 -57.502144 -174.58772 -1.6706437 -88.543129
110248000000 0.11582924 25.358768 -57.795143 -173.67036 -57.611706 -173.58087 -1.6530386 -88.435783
110296000000 0.12050825 25.532846 -57.627918 -173.20192 -57.672733 -172.37112 -1.6149108 -88.359215
110344000000 0.11970853 25.431263 -57.655678 -172.31879 -57.621868 -171.4046 -1.6214975 -88.680832
110392000000 0.13550778 25.610119 -57.530678 -171.47514 -57.603054 -170.40833 -1.6092123 -88.607841
110440000000 0.1334388 25.414356 -57.373772 -171.34171 -57.441601 -169.17807 -1.6177382 -88.766891
110488000000 0.14786293 25.618465 -57.238796 -171.26656 -57.289948 -169.21143 -1.6243533 -88.671761
110536000000 0.14985402 25.531076 -57.201996 -170.61568 -57.167187 -169.14137 -1.619616 -88.638733
110584000000 0.15335374 25.431602 -57.19101 -171.05435 -57.082008 -169.62491 -1.6296487 -89.051758
110632000000 0.15571195 25.535995 -57.134022 -170.33482 -57.050594 -169.09731 -1.6192356 -88.887253
110680000000 0.1506042 25.531612 -57.098434 -170.68121 -56.999718 -169.31985 -1.6399955 -88.914055
110728000000 0.14910822 25.525772 -57.092037 -170.30954 -57.001141 -168.92744 -1.6338373 -88.962883
110776000000 0.14397967 25.495884 -56.972 -169.74028 -56.852341 -168.69612 -1.6599141 -89.09153
110824000000 0.13592626 25.480358 -56.955139 -169.54063 -56.717808 -168.37419 -1.65781 -88.90873
110872000000 0.13178472 25.498899 -56.744431 -169.12157 -56.580521 -168.27339 -1.6595948 -88.995636
110920000000 0.13222867 25.479481 -56.602566 -169.50291 -56.480484 -168.78302 -1.6573356 -89.079124
110968000000 0.1301069 25.558924 -56.513515 -168.93211 -56.393909 -168.76385 -1.662383 -88.910843
111016000000 0.1346792 25.623674 -56.312954 -169.16612 -56.257977 -169.06683 -1.6356086 -89.07798
111064000000 0.13918903 25.717966 -56.151402 -169.78003 -56.189213 -169.81282 -1.6423329 -89.128441
111112000000 0.14159052 25.634829 -56.058052 -171.35266 -56.113396 -170.48152 -1.6416131 -89.114388
111160000000 0.14818618 25.689089 -56.084984 -171.59969 -56.115524 -170.62294 -1.6407142 -89.096069
111208000000 0.1584328 25.707476 -55.987015 -171.79216 -56.108162 -170.90192 -1.6298138 -89.087837
111256000000 0.15498064 25.63809 -55.902866 -172.20027 -56.012875 -170.74907 -1.622584 -89.224709
111304000000 0.15597317 25.649927 -55.757111 -172.14166 -55.85545 -170.79118 -1.6310786 -89.251602
111352000000 0.15021062 25.666903 -55.628948 -173.6857 -55.776649 -171.73764 -1.6413639 -89.450111
111400000000 0.14673841 25.697777 -55.641361 -174.80034 -55.670681 -172.66386 -1.656745 -89.452393
111448000000 0.1468305 25.695129 -55.644104 -175.38466 -55.696796 -173.38951 -1.6632242 -89.339241
111496000000 0.1457693 25.761921 -55.697216 -175.8141 -55.699345 -173.56842 -1.6595647 -89.407532
111544000000 0.14377783 25.694992 -55.781425 -176.12164 -55.680347 -174.26961 -1.6614292 -89.432869
111592000000 0.14610521 25.782049 -55.826538 -175.61789 -55.693645 -174.41939 -1.6577448 -89.441345
111640000000 0.14396666 25.696381 -55.707405 -175.4297 -55.566032 -174.23878 -1.6611624 -89.387337
111688000000 0.14312166 25.718435 -55.587616 -175.77431 -55.522629 -175.15465 -1.6619453 -89.394554
111736000000 0.1319816 25.723885 -55.520756 -176.217 -55.507896 -174.88223 -1.6605417 -89.516808
111784000000 0.13865653 25.81329 -55.341 -176.4642 -55.404678 -175.19218 -1.6556309 -89.554817
111832000000 0.13489702 25.783735 -55.250053 -177.27618 -55.331215 -175.83302 -1.6556935 -89.555969
111880000000 0.14237069 25.847939 -55.132275 -178.31921 -55.177402 -176.71547 -1.6541888 -89.637718
111928000000 0.1474611 25.849764 -55.129395 179.66612 -55.1516 -178.85387 -1.6538318 -89.518875
111976000000 0.15157923 25.888264 -55.103687 178.24452 -55.226627 179.91399 -1.661422 -89.701294
112024000000 0.15713225 25.968765 -55.297726 177.06245 -55.354622 179.36154 -1.6463412 -89.578583
112072000000 0.15465491 25.858549 -55.588814 175.92567 -55.496693 178.94241 -1.6673082 -89.843666
112120000000 0.15913758 25.956179 -55.782066 177.20004 -55.544907 179.46918 -1.6627402 -89.765778
112168000000 0.15475883 25.893917 -55.752399 177.69708 -55.492565 179.3777 -1.6730931 -89.829666
112216000000 0.16283476 25.950262 -55.716969 178.68083 -55.450527 179.59901 -1.6708034 -89.812492
112264000000 0.15891048 25.882349 -55.571316 178.0824 -55.432411 179.03847 -1.6848361 -89.815659
112312000000 0.10898733 26.047161 -55.589775 178.10486 -55.503281 178.08525 -1.6680629 -89.734917
112360000000 0.16151708 26.066828 -55.459618 177.00754 -55.438763 178.6011 -1.6653546 -89.8134
112408000000 0.15360661 25.886099 -55.486073 176.5843 -55.433022 178.20047 -1.6630272 -89.96302
112456000000 0.15398438 26.023855 -55.517948 176.67578 -55.436966 177.76782 -1.6759151 -89.641846
112504000000 0.12802932 25.954758 -55.490665 175.43987 -55.420212 177.6319 -1.665249 -89.951523
112552000000 0.13848853 26.151814 -55.57214 175.16267 -55.377491 177.24641 -1.6540148 -89.88472
112600000000 0.15456198 26.185524 -55.816734 175.57994 -55.422535 176.7599 -1.6638051 -89.860397
112648000000 0.13823679 26.11993 -55.808517 176.33351 -55.493423 176.93423 -1.6580701 -89.919456
112696000000 0.14504883 26.223904 -55.595264 176.67155 -55.527027 175.70276 -1.6507088 -89.848503
112744000000 0.14597104 26.16194 -55.555954 176.2085 -55.550415 175.9608 -1.6325083 -89.96479
112792000000 0.15898883 26.14443 -55.505348 176.27626 -55.547337 176.17097 -1.6363604 -90.14267
112840000000 0.14698265 26.040073 -55.470272 175.88802 -55.472309 176.19302 -1.6477888 -90.291084
112888000000 0.14752166 26.105251 -55.428009 176.44623 -55.431129 175.49721 -1.6581951 -90.166267
112936000000 0.14362106 26.088524 -55.258514 175.19911 -55.363789 174.79094 -1.6593648 -90.39003
112984000000 0.14360303 26.216562 -55.245766 174.12753 -55.387623 175.09171 -1.6538414 -90.216957
113032000000 0.1351053 26.197418 -55.423824 172.50467 -55.526756 173.74487 -1.6630059 -90.285698
113080000000 0.14146675 26.279074 -55.55035 172.41629 -55.674923 174.58807 -1.6507958 -90.16906
113128000000 0.13000691 26.174393 -55.684162 172.91441 -55.56308 175.18806 -1.6513373 -90.389206
113176000000 0.15037316 26.239468 -55.652695 172.99448 -55.597485 174.51811 -1.6530042 -90.41394
113224000000 0.11700211 26.108915 -55.615513 173.25508 -55.64378 174.17233 -1.6530784 -90.57489
113272000000 0.1456116 26.447632 -55.51059 173.34778 -55.532413 174.71205 -1.6500782 -90.562439
113320000000 0.13628653 26.153528 -55.525616 173.55568 -55.544922 174.75916 -1.6604801 -90.570633
113368000000 0.14610872 26.248163 -55.512486 173.93231 -55.623646 174.98451 -1.6327206 -90.362968
113416000000 0.13817661 26.10984 -55.511787 173.2549 -55.536602 175.07837 -1.6343887 -90.54081
113464000000 0.14662328 26.334921 -55.44873 173.77731 -55.442326 175.5616 -1.6290705 -90.671745
113512000000 0.14473337 26.123756 -55.339985 174.04639 -55.344517 175.52945 -1.6351845 -90.796753
113560000000 0.15952136 26.457077 -55.210266 173.52225 -55.154915 175.46394 -1.6486931 -90.82074
113608000000 0.14426816 26.230648 -55.097279 172.69629 -55.128994 174.79074 -1.6479518 -90.87323
113656000000 0.15535331 26.471605 -55.075138 172.11618 -55.147938 174.11319 -1.6634406 -90.96981
113704000000 0.13665828 26.381161 -55.136795 172.16266 -55.023144 173.03365 -1.6567537 -91.03833
113752000000 0.14875254 26.359129 -55.061535 171.6196 -54.894627 172.93295 -1.663662 -90.980736
113800000000 0.13537328 26.425974 -55.011974 170.05769 -54.811913 171.76099 -1.6620213 -90.943298
113848000000 0.1376164 26.423254 -55.081638 169.95686 -54.811291 170.64981 -1.6704326 -91.028511
113896000000 0.12895414 26.383766 -54.932671 169.25304 -54.936077 169.23763 -1.677781 -91.047737
113944000000 0.13209711 26.456352 -55.033737 165.97523 -54.994293 168.34135 -1.6688905 -91.092178
113992000000 0.13507921 26.48908 -55.291592 165.70825 -55.197281 167.68707 -1.6708034 -91.129784
114040000000 0.13851711 26.522295 -55.512222 166.46053 -55.385792 167.62814 -1.6646831 -91.20282
114088000000 0.13721862 26.510794 -55.500156 167.64027 -55.516579 167.79878 -1.6595381 -91.157867
114136000000 0.15193619 26.518456 -55.524162 167.69009 -55.710541 168.84091 -1.6573774 -91.105492
114184000000 0.14849438 26.500566 -55.612019 168.24817 -55.695393 170.67339 -1.6549079 -91.244911
114232000000 0.15469238 26.457399 -55.536556 168.03214 -55.701435 170.44804 -1.6554005 -91.370071
114280000000 0.15454599 26.485754 -55.695499 168.03491 -55.646576 170.7829 -1.661104 -91.347588
114328000000 0.14933233 26.42399 -55.767357 168.62434 -55.584301 171.26352 -1.6668066 -91.423088
114376000000 0.15106824 26.560879 -55.829494 170.17342 -55.500458 172.00146 -1.678552 -91.461433
114424000000 0.14343423 26.426346 -55.632847 170.7189 -55.463264 171.8201 -1.6802329 -91.457222
114472000000 0.14360604 26.539951 -55.483177 171.01543 -55.230167 171.61469 -1.6868088 -91.591431
114520000000 0.1412663 26.581173 -55.345699 171.68556 -55.271324 172.24025 -1.6934447 -91.526299
114568000000 0.13339362 26.510414 -55.160603 170.76576 -55.119415 171.68057 -1.6944927 -91.595314
114616000000 0.14003329 26.633205 -55.152866 170.53647 -55.07827 171.64339 -1.6958095 -91.58815
114664000000 0.13261034 26.484533 -55.041759 170.10634 -54.960403 170.89853 -1.7004442 -91.672569
114712000000 0.13313253 26.591736 -55.036705 169.56493 -54.941189 170.36569 -1.6989928 -91.549988
114760000000 0.13245015 26.538763 -54.875431 169.59683 -54.881275 169.95453 -1.6816373 -91.642792
114808000000 0.14119263 26.614527 -54.886951 168.79051 -54.905556 169.74977 -1.6723135 -91.584312
114856000000 0.13868661 26.580059 -54.822731 168.66908 -54.90799 170.00186 -1.6662594 -91.618271
114904000000 0.14998856 26.690042 -54.761131 168.47357 -54.771946 169.84888 -1.6624695 -91.786354
114952000000 0.1470297 26.499851 -54.684296 167.74481 -54.725895 169.24911 -1.6288769 -91.903404
115000000000 0.15927781 26.815626 -54.660641 167.89139 -54.764484 168.82224 -1.6608804 -91.869652
