!Keysight Technologies,N5247B,MY61256062,A.16.20.04
!Date: Saturday, November 01, 2025 04:01:50
!Correction: S11(C  2-Port  ) 
!S21(C  2-Port  ) 
!S12(C  2-Port  ) 
!S22(C  2-Port  ) 
!S2P File: Measurements: S11, S21, S12, S22:
# Hz S  dB   R 50
67000000000 -0.67367893 -41.393002 -80.912689 115.33493 -85.744041 -143.95911 -0.018747419 13.119957
67048000000 -0.68498105 -41.409786 -85.046188 -142.08893 -80.046196 -134.38551 0.00060517178 13.038661
67096000000 -0.69235677 -41.401562 -79.465492 -148.66484 -85.074127 -141.14777 0.0032619599 13.040668
67144000000 -0.68621051 -41.479897 -79.487015 -172.43988 -84.940323 -148.72231 0.0027151068 13.047748
67192000000 -0.68791437 -41.616493 -84.860115 -57.572395 -82.385437 -152.20905 -0.013806459 13.055405
67240000000 -0.68661863 -41.623684 -76.564323 -129.86339 -86.237259 -155.97844 0.011727063 13.077101
67288000000 -0.68948144 -41.751019 -77.666901 -171.5015 -83.473129 -150.94284 -0.0077361776 13.150601
67336000000 -0.68993837 -41.715485 -81.351547 94.867996 -82.331726 -167.70383 -0.015858967 13.209458
67384000000 -0.68476403 -41.610477 -80.621223 -147.51303 -88.143631 -161.61377 0.0060980748 13.236172
67432000000 -0.6761784 -41.76136 -87.609322 -130.59837 -84.975006 -154.44112 -0.00061431748 13.087838
67480000000 -0.68490493 -41.835949 -79.486923 -157.9743 -84.205688 -158.55376 0.007057508 13.194968
67528000000 -0.68476796 -41.80846 -91.417252 156.86575 -84.663284 -142.72762 0.0076839197 13.237241
67576000000 -0.67960703 -41.732761 -89.611877 -129.38953 -82.854836 -164.62889 -0.012736953 13.316693
67624000000 -0.67284554 -41.65831 -96.628326 -170.30782 -85.735985 -136.40923 -0.0095437635 13.291265
67672000000 -0.67823511 -41.609978 -88.926308 -116.28536 -85.381805 -159.20042 -0.02013281 13.315147
67720000000 -0.68395913 -41.575687 -80.415024 -166.54997 -89.852325 -161.5984 -0.025651461 13.369282
67768000000 -0.67661762 -41.632538 -77.439125 -156.67625 -87.86071 166.8848 -0.018246466 13.408938
67816000000 -0.68187582 -41.658043 -87.126366 -175.37076 -86.418449 -166.10599 -0.0074076299 13.459435
67864000000 -0.67213202 -41.557682 -83.055779 179.26636 -84.973778 -175.52672 -0.0038545777 13.470351
67912000000 -0.67083824 -41.577133 -85.317162 161.3784 -88.021812 -161.07979 -0.015900016 13.425206
67960000000 -0.67031205 -41.527832 -96.959091 153.11737 -88.344261 166.17081 -0.0088309105 13.508963
68008000000 -0.67941755 -41.524174 -86.707413 -165.80452 -88.547646 -147.63445 -0.020301593 13.526203
68056000000 -0.68058461 -41.493843 -92.943642 -144.99503 -90.479187 177.71408 -0.019376874 13.547387
68104000000 -0.68563056 -41.448677 -88.650574 164.31197 -92.220642 -162.69485 -0.01999836 13.556585
68152000000 -0.67724144 -41.350124 -84.91114 -152.73282 -87.4645 -164.82224 -0.010205617 13.616634
68200000000 -0.66816372 -41.117134 -85.825363 154.52011 -90.485291 172.61237 -0.0087857768 13.658476
68248000000 -0.66919577 -41.10812 -89.260056 -171.31233 -94.867058 166.98473 -0.010347549 13.616407
68296000000 -0.66024816 -41.187397 -86.101349 150.54506 -89.107727 116.57095 -0.0071439282 13.65086
68344000000 -0.65540129 -41.13884 -89.978851 124.17551 -102.62363 91.350166 -0.0066951276 13.738955
68392000000 -0.64813042 -41.132549 -93.242722 94.952797 -97.744003 132.48128 -0.0060558417 13.79514
68440000000 -0.62587488 -40.998138 -95.980057 68.683861 -100.37318 80.217545 0.0017666168 13.833784
68488000000 -0.65004516 -41.082954 -91.0448 -3.5540085 -95.664635 59.28215 0.0022339022 13.82437
68536000000 -0.65383297 -41.289433 -99.674858 22.147331 -95.346062 83.157181 0.010586356 13.83623
68584000000 -0.6622659 -41.392563 -98.711037 -101.98121 -97.542786 47.621632 0.01314672 13.815988
68632000000 -0.66428584 -41.387047 -96.858101 66.765282 -96.281494 42.641647 0.014598937 13.831936
68680000000 -0.65949118 -41.321541 -94.911819 47.226398 -109.47449 -56.782089 0.011716736 13.835281
68728000000 -0.65917665 -41.227905 -111.76491 170.20874 -93.617767 10.163875 0.0069050258 13.839802
68776000000 -0.65812284 -41.362068 -104.41115 49.744465 -95.453171 6.9762707 0.0054936679 13.865689
68824000000 -0.65562439 -41.653519 -97.969414 -43.857086 -98.632484 -24.329443 0.0037585688 13.855395
68872000000 -0.66722965 -41.863506 -97.134087 -40.952549 -95.618546 -49.482384 0.010247028 13.863774
68920000000 -0.66851997 -41.931831 -91.698532 -67.447151 -93.437477 -49.833065 0.011873697 13.914225
68968000000 -0.68215328 -42.003212 -87.935127 -31.435474 -91.63002 -23.011749 0.013966297 13.896337
69016000000 -0.67399573 -41.979298 -87.786873 -73.959381 -95.752922 -30.634766 0.017396722 13.917966
69064000000 -0.69011408 -42.040741 -88.452957 -49.356869 -90.584534 -56.704029 0.013197303 13.923765
69112000000 -0.68675107 -42.083817 -93.293846 -84.88102 -89.832527 -53.93465 0.0098188296 13.905662
69160000000 -0.69120657 -42.10688 -85.627853 -42.052731 -91.884109 -58.705833 0.012063176 13.898102
69208000000 -0.68951178 -42.021576 -87.502937 -59.379536 -93.413727 -39.575329 0.0064961412 13.880527
69256000000 -0.67108297 -41.064034 -85.375526 -52.108818 -89.094002 -34.918411 -0.0026986739 14.218638
69304000000 -0.6784932 -41.166847 -86.636856 -69.019089 -86.689308 -62.695435 0.009804883 14.285359
69352000000 -0.67416018 -41.364239 -86.455368 -74.807922 -88.069435 -56.622395 0.0027207984 14.220942
69400000000 -0.67519188 -41.487415 -85.871712 -105.229 -87.065346 -63.203239 0.0017697219 14.220065
69448000000 -0.67645305 -41.649612 -90.084808 -67.234566 -85.575325 -92.438995 0.0047205873 14.274114
69496000000 -0.68406796 -41.669601 -87.152908 -104.03606 -88.773895 -98.438057 0.0065721315 14.320465
69544000000 -0.68634242 -41.752098 -84.254883 -103.05195 -86.971611 -75.724297 0.0068895188 14.326118
69592000000 -0.68971598 -41.883652 -91.619278 -61.641926 -84.989525 -78.413513 0.0026535364 14.320143
69640000000 -0.69560105 -41.89822 -97.883026 -61.497181 -86.460213 -83.372093 0.0036556306 14.306415
69688000000 -0.69474673 -41.895309 -88.404251 -77.132935 -92.552299 -86.077339 0.0039877142 14.298389
69736000000 -0.68707007 -41.836361 -84.501251 -58.956902 -89.731392 -63.756859 0.0023363566 14.316376
69784000000 -0.68252009 -41.810528 -85.012871 -57.328865 -87.506416 -89.1875 0.00039241355 14.297806
69832000000 -0.68239439 -41.916996 -86.283035 -80.502068 -87.000137 -97.48571 0.0013453442 14.280956
69880000000 -0.68550479 -42.027065 -87.109619 -120.41621 -87.103806 -122.32272 0.0034714737 14.272501
69928000000 -0.68471068 -42.098965 -87.453407 -106.66692 -90.883629 -77.550423 0.0032640293 14.295081
69976000000 -0.68028063 -42.094593 -88.070671 -110.17598 -88.566826 -56.11776 0.0058886879 14.317877
70024000000 -0.68756652 -41.997498 -90.090897 -98.351357 -89.642448 -77.42897 0.007082318 14.322747
70072000000 -0.69387561 -41.98093 -84.413162 -38.47348 -87.770935 -42.098984 0.010699458 14.290354
70120000000 -0.69189227 -42.027771 -88.220741 -118.67197 -86.411125 -54.108368 0.0037678797 14.260811
70168000000 -0.69260877 -42.025475 -89.891052 -50.253563 -86.363182 -58.927418 0.0026721628 14.294236
70216000000 -0.68532383 -42.034203 -84.292625 -43.486774 -84.641594 -68.578148 0.011629477 14.231892
70264000000 -0.68536597 -41.926647 -86.810577 -30.0916 -85.546478 -58.741608 0.0011952495 14.233165
70312000000 -0.67732644 -41.983791 -87.743225 -66.04493 -84.750175 -58.024658 -0.00077923754 14.23889
70360000000 -0.67749316 -42.16856 -80.715454 -52.884743 -84.828499 -47.321663 -9.5002542e-005 14.254723
70408000000 -0.68493438 -42.309452 -82.9534 -58.177174 -83.774384 -75.744835 0.0026949283 14.236321
70456000000 -0.68493891 -42.371681 -78.698174 -64.825607 -82.248276 -61.470657 0.0072766589 14.298678
70504000000 -0.69029766 -42.398335 -81.441284 -74.793953 -81.275101 -73.810768 0.0058349175 14.274963
70552000000 -0.68666077 -42.420208 -82.295265 -105.77104 -85.608185 -50.203609 0.0053111403 14.323632
70600000000 -0.69918156 -42.474491 -85.113617 -120.46407 -85.587807 -50.989777 0.0089938203 14.304174
70648000000 -0.70509869 -42.582119 -82.294327 -54.194077 -83.901352 -46.469322 0.00081947242 14.324638
70696000000 -0.70622665 -42.617359 -84.083633 -40.44453 -81.943298 -71.015511 -0.0013175368 14.300809
70744000000 -0.70034754 -42.595703 -94.617439 -110.69972 -83.915886 -66.302139 -0.0012494365 14.354435
70792000000 -0.69116682 -42.51276 -90.663124 -116.51897 -80.971985 -56.434368 0.0015684065 14.343947
70840000000 -0.68234378 -42.500076 -86.496628 -6.9262633 -82.079102 -45.772678 0.0030767515 14.319109
70888000000 -0.67901319 -42.546944 -80.216232 -14.614647 -79.639992 -54.893379 0.0046755946 14.27402
70936000000 -0.68964559 -42.630527 -75.290405 -33.2939 -77.804901 -63.389366 0.0038609875 14.252923
70984000000 -0.67928284 -42.627193 -76.442558 -46.001312 -78.590935 -79.895157 0.012504061 14.230311
71032000000 -0.68453461 -42.565048 -76.301933 -74.082039 -78.254478 -51.083199 0.009987222 14.284
71080000000 -0.67927438 -42.450962 -74.392166 -62.3955 -78.089935 -65.230629 0.023675887 14.253805
71128000000 -0.68725991 -42.544773 -77.950951 -77.207848 -77.83567 -67.379745 0.022097416 14.337752
71176000000 -0.66811174 -42.636749 -77.434464 -102.3333 -77.702095 -60.040806 0.030242134 14.318508
71224000000 -0.67860067 -42.7187 -77.107689 -75.559105 -77.328438 -70.305542 0.027069841 14.356035
71272000000 -0.66623884 -42.73193 -79.007233 -83.827744 -78.208038 -70.297867 0.030154217 14.404506
71320000000 -0.65672541 -42.69249 -78.440422 -83.388855 -76.467918 -76.703491 0.024793087 14.356426
71368000000 -0.67007822 -42.735928 -78.963943 -81.828583 -77.695099 -82.173256 0.020035015 14.373647
71416000000 -0.67762023 -42.796219 -78.080353 -59.91785 -77.161324 -68.652184 0.0084590567 14.434972
71464000000 -0.68636662 -42.89444 -77.071686 -48.020779 -77.624702 -71.30761 -0.012186075 14.279985
71512000000 -0.69496059 -42.996609 -77.648346 -66.128151 -76.623932 -65.14875 -0.024626674 14.195235
71560000000 -0.69637465 -42.87582 -77.585609 -74.933754 -75.926651 -74.296524 -0.023666676 14.177937
71608000000 -0.70966291 -42.850239 -73.961769 -69.484299 -75.393364 -71.025871 -0.025060669 14.196798
71656000000 -0.72135109 -42.906277 -73.837593 -92.785881 -74.030518 -87.661568 -0.017265528 14.072917
71704000000 -0.7102775 -42.959244 -73.667389 -101.12366 -75.090118 -82.771538 -0.0062932945 14.425556
71752000000 -0.7125718 -43.004486 -77.659393 -92.917641 -74.718956 -84.949631 0.046403933 14.789663
71800000000 -0.70699847 -42.905674 -72.721893 -100.4752 -75.20945 -95.118774 0.02751332 14.477411
71848000000 -0.71706551 -42.9207 -75.76442 -110.68695 -76.903374 -95.348152 -0.019482182 14.157675
71896000000 -0.709463 -42.987225 -74.908241 -102.10708 -76.106537 -96.111137 -0.0045093461 14.28443
71944000000 -0.70504993 -43.062847 -75.981934 -69.550224 -75.648224 -92.996513 0.0083278101 14.333577
71992000000 -0.70461488 -43.265213 -75.872681 -89.342758 -74.560112 -94.534561 0.001642413 14.270839
72040000000 -0.71137571 -43.25198 -76.260521 -118.98509 -73.820259 -94.186714 -0.0017890888 14.301161
72088000000 -0.70481795 -43.334187 -74.481461 -100.48592 -74.634705 -100.18757 0.017497787 14.356163
72136000000 -0.70915121 -43.369904 -79.444328 -112.43889 -73.745865 -94.214722 0.019663442 14.440917
72184000000 -0.71540815 -43.491909 -76.98024 -89.623871 -74.093315 -107.79536 0.032265779 14.324104
72232000000 -0.70067787 -43.405018 -81.296913 -84.897598 -75.109589 -107.57365 0.020297829 14.371121
72280000000 -0.6898067 -43.344803 -75.005447 -86.721741 -74.973549 -103.36929 0.013278854 14.441552
72328000000 -0.67275763 -43.203331 -76.679947 -90.740456 -74.22747 -111.14971 0.017429722 14.364578
72376000000 -0.66183239 -43.224808 -75.248856 -105.39291 -73.939667 -106.24306 0.02834202 14.368236
72424000000 -0.66626143 -43.293026 -75.487808 -113.34656 -74.344078 -105.68871 0.015452286 14.337031
72472000000 -0.64377558 -43.163544 -74.630394 -115.5141 -74.565613 -102.86242 0.028247893 14.390249
72520000000 -0.65774512 -43.227875 -75.805717 -116.68127 -76.522522 -105.93154 0.026698355 14.418188
72568000000 -0.66382527 -43.233868 -76.612083 -108.38851 -75.343002 -104.12891 0.028072491 14.33537
72616000000 -0.67476976 -43.334354 -74.017036 -91.695793 -74.757584 -111.22471 0.036881629 14.379507
72664000000 -0.6690768 -43.358913 -73.043266 -113.77539 -75.099571 -106.94608 0.021655446 14.391623
72712000000 -0.68051374 -43.477287 -73.975006 -107.21999 -74.405586 -112.47538 0.022442 14.455502
72760000000 -0.67008668 -43.448814 -73.465431 -124.26765 -74.304298 -107.76208 0.038784683 14.475384
72808000000 -0.67815852 -43.572803 -73.383492 -119.59764 -74.661888 -114.40381 0.037245061 14.439211
72856000000 -0.65987504 -43.614101 -74.846855 -109.94844 -74.43766 -115.2754 0.052077126 14.457209
72904000000 -0.67483592 -43.859982 -74.764397 -129.79816 -75.163628 -114.61781 0.054282364 14.415095
72952000000 -0.6633904 -43.907009 -75.823105 -125.93463 -74.624687 -111.25642 0.048647374 14.351167
73000000000 -0.67773038 -43.99918 -77.8424 -110.28642 -74.585457 -113.45733 0.055142775 14.385715
73048000000 -0.67942876 -44.052521 -81.180443 -124.42812 -74.942062 -113.54532 0.049826242 14.387418
73096000000 -0.68546146 -44.024525 -75.899178 -106.18182 -75.481316 -109.51199 0.044391476 14.433438
73144000000 -0.68444008 -44.182076 -74.028229 -106.08642 -75.32679 -118.69864 0.035799373 14.405236
73192000000 -0.68007231 -44.188328 -73.447243 -112.61166 -74.795959 -125.55606 0.039954431 14.451555
73240000000 -0.68081319 -44.240887 -75.733253 -111.95163 -74.687134 -117.02973 0.036004242 14.416173
73288000000 -0.68443704 -44.139019 -76.584679 -119.58045 -74.416801 -131.65475 0.041553088 14.525596
73336000000 -0.69295067 -44.167877 -75.825623 -120.3996 -76.355095 -130.67995 0.028696394 14.415698
73384000000 -0.68775725 -45.131306 -76.512657 -115.36576 -77.305771 -127.15326 0.022623293 15.277759
73432000000 -0.70668715 -44.355927 -76.556938 -113.53376 -80.360344 -121.94466 0.0081795063 14.381129
73480000000 -0.70917344 -44.400345 -77.813416 -108.54147 -79.081459 -99.185692 0.0060287975 14.439734
73528000000 -0.7073068 -44.431602 -76.218842 -95.488892 -76.315681 -101.38911 -0.0022319439 14.477838
73576000000 -0.71568716 -44.460892 -76.691322 -98.128998 -75.184807 -99.410789 0.001845795 14.515125
73624000000 -0.70457834 -44.440197 -76.904289 -101.51127 -73.892372 -101.13282 0.0011662651 14.540684
73672000000 -0.69752741 -44.552921 -74.19854 -102.05948 -73.915253 -109.21813 -0.0059614866 14.541295
73720000000 -0.70091695 -44.676231 -73.238884 -115.28741 -73.681168 -114.436 -0.0072103059 14.454803
73768000000 -0.69201249 -44.942249 -76.096382 -121.0327 -73.245087 -115.6661 -0.0054140585 14.602834
73816000000 -0.68908215 -45.561153 -78.35611 -111.54813 -73.916458 -120.47518 -0.013703366 15.185509
73864000000 -0.68026245 -45.397095 -77.446335 -124.70741 -73.274605 -134.4682 -0.0052012745 15.056732
73912000000 -0.69430846 -44.483952 -73.568954 -121.7733 -74.870285 -125.45939 0.017922651 14.206306
73960000000 -0.69786388 -44.506947 -74.973793 -118.34864 -74.259338 -125.82362 0.017485928 14.440295
74008000000 -0.70016444 -44.466709 -74.137352 -104.9085 -74.401466 -125.809 0.020181367 14.549075
74056000000 -0.69311947 -44.391407 -74.718575 -124.78535 -75.723045 -124.81223 0.019734047 14.570083
74104000000 -0.69482601 -44.310711 -74.136742 -105.95978 -75.247955 -126.92919 0.011049595 14.612462
74152000000 -0.69769973 -44.29142 -74.047852 -114.44549 -75.101761 -117.22277 0.012340928 14.702816
74200000000 -0.69990653 -44.366688 -73.141319 -124.34464 -75.172264 -120.72195 0.017731881 14.769704
74248000000 -0.69855124 -44.484043 -74.492104 -131.04617 -74.328018 -122.23248 0.015934093 14.687501
74296000000 -0.70834118 -44.538403 -75.123749 -125.62805 -75.06945 -127.92834 0.011469411 14.678724
74344000000 -0.707425 -44.495724 -75.777908 -115.99359 -75.572823 -128.67833 0.015115404 14.767263
74392000000 -0.71308124 -44.50806 -74.847214 -120.59972 -76.228607 -122.9472 0.0047986773 14.746384
74440000000 -0.7182439 -44.553745 -76.243317 -119.11319 -75.462982 -119.35571 0.012390488 14.831324
74488000000 -0.72901607 -44.758095 -73.896179 -114.57774 -73.859833 -107.11313 0.0020507199 14.842577
74536000000 -0.72802877 -44.785259 -74.76088 -114.15713 -72.982582 -117.09185 -0.0017525748 14.834596
74584000000 -0.7365787 -44.867477 -72.067802 -114.75484 -72.576828 -114.49149 0.0023508449 14.893455
74632000000 -0.73285502 -44.889633 -72.689812 -121.89539 -72.040916 -114.84106 0.0086641861 14.901153
74680000000 -0.73921901 -44.890953 -72.073074 -121.39298 -72.696854 -123.14319 0.01359988 14.924227
74728000000 -0.74097204 -44.975773 -71.576439 -131.23888 -72.540131 -127.58955 0.0076797851 14.95424
74776000000 -0.7492888 -45.048851 -73.188957 -130.13115 -72.484146 -127.74094 0.0071443426 14.93343
74824000000 -0.75626159 -45.131592 -73.51693 -135.20526 -73.263855 -130.36861 0.0043466669 14.945182
74872000000 -0.74841678 -45.029991 -73.305229 -134.98471 -73.981354 -126.37455 0.0064920057 14.994309
74920000000 -0.75308257 -45.015167 -73.721275 -131.49428 -73.815109 -131.27365 0.005178764 14.932535
74968000000 -0.75418401 -45.0131 -73.009468 -135.79967 -73.768311 -128.16605 0.0064470312 15.020952
75016000000 -0.75857544 -45.108612 -73.252762 -126.24081 -74.043488 -126.6776 0.0016237821 15.035463
75064000000 -0.74855614 -45.080406 -73.299843 -118.6963 -73.266441 -127.62408 0.0074291276 15.075508
75112000000 -0.74410874 -45.110722 -73.404243 -121.78002 -73.262947 -129.72226 0.0043994212 15.110544
75160000000 -0.73052269 -45.0742 -72.690201 -130.34657 -72.869949 -128.36218 0.012874698 15.076272
75208000000 -0.73685473 -45.189816 -71.869331 -129.73575 -72.726288 -128.94196 0.010930819 15.158542
75256000000 -0.73233628 -45.22617 -71.827507 -131.74699 -72.24572 -129.13976 0.011371818 15.129573
75304000000 -0.74037093 -45.30991 -72.128395 -130.93005 -72.104568 -132.93169 0.014706776 15.185859
75352000000 -0.74692053 -45.305233 -71.35836 -135.60001 -71.550171 -137.67313 0.013881662 15.167377
75400000000 -0.74896485 -45.205475 -72.054764 -138.31799 -71.944084 -143.57076 0.017566366 15.141005
75448000000 -0.74961209 -45.214302 -71.424782 -134.25325 -72.154236 -148.29979 0.015899532 15.14367
75496000000 -0.75306839 -45.261951 -72.738419 -136.80489 -74.492073 -153.02965 0.0030995149 15.170987
75544000000 -0.75273776 -45.302849 -73.716469 -130.4306 -75.17292 -142.25168 0.0026964806 15.231645
75592000000 -0.74336648 -45.337132 -72.715553 -134.99832 -74.706512 -131.94949 0.0035806238 15.233731
75640000000 -0.74246651 -45.305141 -71.902992 -127.9902 -73.519257 -127.04987 0.00081067288 15.297423
75688000000 -0.73459202 -45.220123 -70.972954 -139.31561 -73.348541 -134.60309 0.0043363227 15.357492
75736000000 -0.72763544 -45.21756 -71.717369 -133.78499 -72.30912 -135.80867 0.0054543712 15.340187
75784000000 -0.73647869 -45.326744 -72.122314 -136.25221 -72.747223 -136.49954 0.0068062977 15.35021
75832000000 -0.73909348 -45.348351 -71.374435 -140.7558 -73.303909 -136.76309 0.010897253 15.377157
75880000000 -0.74998337 -45.371632 -73.066841 -147.44679 -72.642365 -138.26509 0.010392163 15.359921
75928000000 -0.75519359 -45.296902 -72.159882 -142.54037 -72.372795 -138.63135 0.0043083937 15.338394
75976000000 -0.76353639 -45.325123 -71.913101 -145.70618 -72.157547 -139.13129 -0.0055776057 15.354546
76024000000 -0.75840777 -45.392281 -72.475815 -145.66481 -72.182594 -138.99153 0.0009623337 15.423948
76072000000 -0.75388038 -45.419445 -72.973122 -149.17786 -72.972939 -145.88878 -0.0075502479 15.415897
76120000000 -0.74921739 -45.487232 -73.394112 -149.71199 -72.676926 -145.327 -0.0042530755 15.461086
76168000000 -0.74386138 -45.458988 -73.469543 -138.81313 -73.536942 -142.64687 -0.0029245457 15.465046
76216000000 -0.74562794 -45.519932 -72.328827 -141.68617 -73.351974 -144.69608 -0.00068240776 15.491795
76264000000 -0.74064291 -45.595222 -72.39872 -140.10327 -73.488403 -138.75327 -0.0021894693 15.485439
76312000000 -0.74465561 -45.70768 -72.16095 -141.65714 -71.997917 -141.79462 0.00031786805 15.487919
76360000000 -0.74129689 -45.790897 -72.815155 -146.44122 -72.019295 -148.12903 0.0037544307 15.490929
76408000000 -0.74276078 -45.81036 -72.429031 -146.2695 -72.219635 -152.95441 0.0070135728 15.480911
76456000000 -0.74731809 -45.747501 -72.517235 -148.91463 -73.234825 -153.28076 0.0084430389 15.484348
76504000000 -0.7541039 -45.784859 -73.99321 -157.52573 -74.438622 -150.66525 0.0087788897 15.485967
76552000000 -0.74817383 -45.770695 -73.208649 -144.20242 -73.961662 -150.28107 0.0078523941 15.489995
76600000000 -0.75229144 -45.823444 -73.89653 -142.54538 -74.410027 -144.94397 0.0075014839 15.487733
76648000000 -0.74909192 -45.840168 -73.289276 -133.75447 -73.459023 -135.93039 0.0073696915 15.492215
76696000000 -0.74622118 -45.762321 -71.82888 -137.81909 -72.949142 -138.10048 0.0084203035 15.493726
76744000000 -0.7402122 -45.759434 -71.673203 -148.14034 -72.28595 -143.17531 0.0076343063 15.49422
76792000000 -0.74864405 -45.752922 -72.075554 -149.70093 -72.583961 -148.72375 0.0084001515 15.579335
76840000000 -0.733468 -45.825172 -72.491852 -150.37712 -72.435265 -151.73898 0.0079748705 15.559187
76888000000 -0.73606098 -45.831276 -73.25045 -147.33003 -72.897774 -154.30391 0.0057858001 15.562803
76936000000 -0.73935157 -45.878551 -73.2649 -145.27658 -73.289589 -152.59979 0.010757816 15.621751
76984000000 -0.73400867 -45.934284 -72.76413 -147.35258 -73.134224 -151.28423 0.014484387 15.600158
77032000000 -0.74206299 -46.012173 -72.755806 -151.55943 -73.54879 -147.54037 0.013735097 15.61488
77080000000 -0.7402764 -46.002357 -72.594482 -146.39079 -72.926743 -146.24193 0.012527807 15.620035
77128000000 -0.73857337 -45.97998 -72.217583 -146.52249 -72.703468 -150.60295 0.011290749 15.628393
77176000000 -0.73915428 -45.912609 -72.60006 -151.76385 -72.632629 -153.16174 0.0075376616 15.645291
77224000000 -0.73439795 -45.847046 -72.321457 -151.50264 -72.644447 -152.50005 0.0025288404 15.732741
77272000000 -0.73703909 -45.910835 -72.025604 -153.80334 -72.551468 -155.3768 0.0002164013 15.802117
77320000000 -0.73389065 -45.859127 -72.616234 -156.79637 -73.671555 -156.61436 -0.00076473883 15.826407
77368000000 -0.73129308 -45.901623 -72.693878 -150.88551 -73.739853 -154.76494 -5.1771967e-006 15.809999
77416000000 -0.72887129 -45.863155 -72.68148 -152.73595 -73.823219 -152.68791 0.0046512876 15.841593
77464000000 -0.72948545 -45.927879 -72.479507 -151.21648 -73.828194 -146.50778 0.0059796819 15.892817
77512000000 -0.73397183 -46.082737 -71.869804 -158.66922 -72.752632 -145.14259 0.013350081 15.887335
77560000000 -0.73519355 -46.150753 -70.652687 -154.51003 -71.341812 -145.37366 0.015730338 15.842921
77608000000 -0.74434221 -46.354561 -71.39399 -163.7449 -70.621979 -156.5804 0.02296217 15.754424
77656000000 -0.7251811 -46.167446 -71.731987 -166.80496 -71.085884 -167.12363 0.03854505 15.82547
77704000000 -0.73979354 -46.357094 -72.771065 -171.54988 -71.981049 -172.36633 -0.0033315073 15.727952
77752000000 -0.74655318 -46.372517 -72.696877 -178.64372 -73.394028 -178.02988 0.016773256 15.800104
77800000000 -0.73687744 -46.506073 -74.129013 -171.6124 -74.857323 -175.17241 0.020855352 15.796001
77848000000 -0.73931843 -46.614792 -74.16658 -169.23126 -75.064896 -165.95107 0.023543553 15.775193
77896000000 -0.7387501 -46.638805 -75.136284 -166.16106 -75.187119 -163.80449 0.021771867 15.767895
77944000000 -0.74473768 -46.648216 -75.548515 -159.1151 -75.823685 -155.8587 0.021183548 15.757576
77992000000 -0.7472443 -46.683311 -74.932396 -152.31516 -75.735207 -155.18311 0.020891935 15.78132
78040000000 -0.74817997 -46.691116 -75.239952 -149.85164 -75.134773 -151.23172 0.019574795 15.775684
78088000000 -0.74542946 -46.746048 -73.655914 -149.86362 -74.995659 -148.54846 0.020847108 15.801534
78136000000 -0.74977541 -46.775242 -73.520622 -151.01515 -74.488579 -143.41679 0.02158487 15.790533
78184000000 -0.74609792 -46.752907 -72.540588 -154.39308 -72.940964 -144.2184 0.023220172 15.794406
78232000000 -0.74036324 -46.768105 -71.167816 -155.95584 -71.599182 -149.88029 0.025633113 15.783797
78280000000 -0.74527544 -46.845497 -70.625504 -165.17654 -70.828278 -155.1571 0.022738658 15.840775
78328000000 -0.75051999 -46.994701 -70.950706 -177.88475 -70.386154 -161.18835 0.018202091 15.77156
78376000000 -0.75263375 -47.007599 -71.454758 -173.14957 -71.045662 -165.48441 0.022069087 15.762994
78424000000 -0.75043505 -47.024521 -71.829819 -179.34322 -71.522774 -172.05731 0.023190305 15.818394
78472000000 -0.75264108 -47.020939 -71.238846 175.30231 -70.678406 -179.7408 0.024328737 15.752973
78520000000 -0.76672465 -47.064293 -72.863892 171.3063 -72.100945 171.23561 0.0065881563 15.821642
78568000000 -0.75566459 -47.140533 -74.398941 169.13989 -72.637329 174.22713 0.024846623 15.792234
78616000000 -0.76012999 -47.201271 -74.694397 165.04539 -74.385109 171.49205 0.020682745 15.797239
78664000000 -0.75662857 -47.190197 -76.531693 171.21732 -75.712196 176.38942 0.018522754 15.810127
78712000000 -0.75447381 -47.153042 -76.450325 -176.50827 -75.95295 -175.44618 0.016992433 15.845402
78760000000 -0.75446516 -47.179268 -76.566696 -163.93683 -76.344765 -177.31451 0.01873978 15.836558
78808000000 -0.75521296 -47.147842 -75.959023 -179.03748 -75.58709 -167.43387 0.011558739 15.913546
78856000000 -0.75662547 -47.236153 -77.100365 -168.1012 -75.580429 -162.76027 0.022261728 15.920963
78904000000 -0.75508732 -47.204468 -78.377556 -160.39058 -75.931213 -164.61307 0.029412767 15.918077
78952000000 -0.75513506 -47.150379 -75.698692 -149.89737 -74.821426 -158.43044 0.023734584 15.921299
79000000000 -0.7656849 -47.1292 -73.773552 -152.27275 -74.239861 -160.35806 0.023035813 15.95454
79048000000 -0.77000856 -47.112232 -73.390877 -149.80211 -72.973282 -162.04317 0.02308834 15.940297
79096000000 -0.77073002 -47.132557 -72.943192 -162.36876 -73.053314 -164.85637 0.021229915 15.988903
79144000000 -0.77951252 -47.161751 -72.002342 -164.94421 -73.249252 -173.09554 0.01921246 15.970758
79192000000 -0.76879901 -47.121372 -72.264748 -168.6254 -73.771347 -169.42609 0.012977934 16.020746
79240000000 -0.76778626 -47.110199 -72.212822 -171.88686 -73.337967 -170.85156 0.014685621 16.03784
79288000000 -0.76533908 -47.202106 -72.396889 -174.07239 -73.976486 -169.09 0.015858267 16.022089
79336000000 -0.76732785 -47.34005 -72.211166 -175.30498 -73.460411 -169.02928 0.016276069 16.049175
79384000000 -0.76957214 -47.458576 -71.820381 -179.58775 -73.802208 -172.88066 0.021941341 16.02323
79432000000 -0.7673133 -47.533592 -72.9963 175.19366 -73.273682 -177.57576 0.019184627 15.992521
79480000000 -0.77343386 -47.537678 -73.811348 173.87268 -74.186569 -176.66754 0.014168586 15.990854
79528000000 -0.77169704 -47.549557 -75.277428 171.15517 -74.845909 -168.01079 0.012777138 15.94304
79576000000 -0.77145404 -47.598137 -76.026291 178.12527 -75.240189 -165.47157 0.014449815 15.974428
79624000000 -0.77400178 -47.586979 -75.797165 -172.20004 -74.062912 -162.59006 0.017162094 15.969378
79672000000 -0.77528614 -47.600712 -75.427391 -174.01979 -74.744186 -164.53682 0.010535225 15.981511
79720000000 -0.77141786 -47.523926 -75.839943 -162.15355 -74.233437 -164.69199 0.010975231 16.069454
79768000000 -0.77868247 -47.508709 -73.83255 -147.68327 -73.439034 -155.46582 -0.0055524642 16.048983
79816000000 -0.76827872 -47.445683 -72.633308 -160.06033 -71.591469 -158.28409 0.02887897 15.960088
79864000000 -0.76800865 -47.548607 -70.907494 -163.97212 -71.149529 -163.69867 0.016712399 15.97218
79912000000 -0.76239777 -47.507015 -71.161255 -170.41878 -71.252396 -168.82956 0.013108009 16.007212
79960000000 -0.76112181 -47.526226 -71.61602 176.94537 -71.923943 -169.98212 0.01811393 15.984523
80008000000 -0.75829619 -47.476151 -72.180832 178.33199 -72.360092 -171.51715 0.014442591 15.979928
80056000000 -0.75030982 -47.547375 -73.465599 174.99265 -71.629227 -170.6321 -0.00091879017 16.018829
80104000000 -0.76170945 -47.70438 -73.727501 179.63264 -72.00872 -170.48 0.021360258 16.138233
80152000000 -0.77008337 -47.730717 -74.990135 -171.13869 -72.226723 -174.3045 0.018833084 16.146589
80200000000 -0.76919794 -47.740414 -73.985313 -166.64948 -71.554565 -171.55389 0.025981532 16.17037
80248000000 -0.76934165 -47.748173 -71.277809 -158.72989 -71.116623 -168.67274 0.030497646 16.173368
80296000000 -0.76887006 -47.793194 -69.879013 -165.57076 -71.042946 -171.41577 0.03102662 16.097977
80344000000 -0.77131057 -47.882172 -70.410545 -178.27922 -71.469696 -172.19557 0.030814318 16.074602
80392000000 -0.78213382 -47.956524 -71.526634 -176.76427 -71.248825 -164.33176 0.025115836 16.0916
80440000000 -0.7742821 -47.986649 -69.563873 -174.61784 -69.070808 -171.7326 0.0089302724 16.052048
80488000000 -0.77918422 -47.980042 -70.396904 174.0479 -69.185402 -175.64543 0.0086192349 16.159647
80536000000 -0.77707762 -47.922451 -69.787239 174.40012 -69.011505 177.9554 0.031811479 16.136881
80584000000 -0.7726866 -47.882389 -71.131653 172.32973 -69.675369 173.29861 0.021118117 16.04545
80632000000 -0.77106327 -47.952324 -70.959068 165.77611 -69.470558 168.84525 0.0081919087 15.990288
80680000000 -0.76560736 -48.037544 -72.571831 159.12729 -70.203651 160.90681 0.0070952396 15.998026
80728000000 -0.76184797 -48.015472 -71.373848 171.92793 -71.292313 162.33842 0.00047213439 16.048914
80776000000 -0.7596209 -48.020367 -71.203079 168.3607 -70.682426 159.75761 0.00098459062 16.095356
80824000000 -0.75979513 -47.961819 -70.65226 151.74875 -71.546631 155.31418 0.0033566302 16.157297
80872000000 -0.76772201 -48.086525 -72.455742 149.32463 -72.236847 151.90446 0.0091296975 16.17552
80920000000 -0.76933819 -48.149559 -74.864372 159.39841 -73.350922 151.33109 0.0030415715 16.196487
80968000000 -0.77368194 -48.215511 -74.16217 160.95535 -73.790588 158.85951 0.010198994 16.22311
81016000000 -0.77592427 -48.2257 -75.566093 166.08434 -74.442322 165.78197 0.023507509 16.232571
81064000000 -0.78889519 -48.316322 -75.187263 176.22308 -74.87825 173.31122 0.029451849 16.261766
81112000000 -0.78344071 -48.365509 -73.708229 -174.38654 -74.55481 176.29872 0.029395284 16.22805
81160000000 -0.78149229 -48.358082 -72.755295 -179.45778 -73.456047 174.3792 0.017161578 16.27284
81208000000 -0.78026098 -48.310776 -72.914749 172.7543 -74.103813 176.20049 0.0065312935 16.187155
81256000000 -0.77823871 -48.35017 -72.100739 177.07895 -73.685608 172.69722 0.044686642 16.241999
81304000000 -0.78014201 -48.450195 -72.263695 171.90323 -73.773964 174.52158 0.038803667 16.225258
81352000000 -0.77542198 -48.415825 -72.472366 169.25125 -73.542381 179.50854 0.023670737 16.386463
81400000000 -0.77800554 -48.414005 -73.863747 169.97758 -73.995827 177.49352 0.0026318054 16.475637
81448000000 -0.77052474 -48.458611 -73.425316 178.00677 -73.515503 -170.68561 0.021659566 16.374998
81496000000 -0.76185226 -48.410236 -70.004784 173.82858 -71.292068 -178.2206 0.024131553 16.314331
81544000000 -0.78996563 -48.691441 -71.223778 170.99158 -71.711639 176.33653 0.032838725 16.566231
81592000000 -0.78960359 -48.660397 -73.420547 161.09154 -72.668411 176.39149 0.0018369975 16.491394
81640000000 -0.78580195 -48.712177 -75.492393 174.06378 -72.499718 172.62399 0.055425454 16.385397
81688000000 -0.79039913 -48.736824 -72.875244 -169.30432 -71.664291 176.97504 0.071637079 16.269947
81736000000 -0.78562081 -48.697701 -69.39238 -177.66106 -69.877647 175.7847 0.040874101 16.37418
81784000000 -0.79426879 -48.80291 -69.745811 173.83684 -69.871689 163.54565 0.015677204 16.385717
81832000000 -0.79437196 -48.862686 -69.720146 161.22919 -70.925133 152.95036 0.012904121 16.327579
81880000000 -0.7956605 -48.91098 -72.6474 156.52126 -71.949173 142.30063 0.031940475 16.219135
81928000000 -0.78921491 -48.914841 -72.162956 158.29254 -73.826027 141.87312 0.033124398 16.203367
81976000000 -0.7803266 -48.836796 -74.557709 156.77809 -77.008484 145.12856 0.027571453 16.31349
82024000000 -0.77813375 -48.854469 -75.349777 167.99953 -78.6549 173.64183 0.029748544 16.349115
82072000000 -0.77394366 -48.887527 -73.730751 174.58325 -77.673309 -170.15704 0.031504646 16.461281
82120000000 -0.78456134 -48.93388 -72.25721 170.50893 -76.287598 -169.68129 0.028925769 16.45406
82168000000 -0.78874242 -48.979649 -74.766228 173.68468 -77.77034 -160.61134 0.036396496 16.411879
82216000000 -0.80517066 -48.947479 -73.153809 -173.51987 -75.711014 -160.18517 0.026508482 16.447325
82264000000 -0.80208766 -48.930904 -71.234497 173.21703 -75.42878 -164.89378 0.043556094 16.389114
82312000000 -0.80832762 -48.945179 -71.388802 169.45337 -74.793533 -169.68419 0.040627405 16.34174
82360000000 -0.80788362 -48.993908 -72.148727 150.03365 -75.530243 -161.65776 0.038968373 16.374374
82408000000 -0.80697453 -49.092487 -74.949867 160.3364 -74.872772 -152.41927 0.029758314 16.392143
82456000000 -0.80890697 -49.119431 -76.09967 167.6562 -72.649529 -156.08018 0.022824666 16.455132
82504000000 -0.79484385 -49.059032 -76.01062 -167.65964 -71.986137 -165.31218 0.010731994 16.471056
82552000000 -0.79589367 -49.151512 -71.438499 -166.96405 -71.436745 -172.22348 0.0095682954 16.465353
82600000000 -0.77700859 -49.191292 -69.150688 179.86835 -72.363129 -177.92635 -0.0018553848 16.53664
82648000000 -0.78524113 -49.35397 -68.884514 171.98624 -72.853188 -174.84306 0.0034394006 16.595308
82696000000 -0.78444195 -49.380985 -68.623184 154.05022 -71.910233 -174.58897 0.010995371 16.665316
82744000000 -0.78789228 -49.335297 -70.149185 140.96959 -72.142433 -174.55807 0.014452911 16.693733
82792000000 -0.79586476 -49.35918 -70.983841 139.03639 -70.661194 179.14127 0.019665502 16.718454
82840000000 -0.80563402 -49.369591 -73.214691 128.39008 -70.57238 168.92622 0.028045742 16.781967
82888000000 -0.80564994 -49.422676 -75.983521 123.23038 -71.967285 162.73985 0.0265409 16.701523
82936000000 -0.81057167 -49.423298 -76.022217 119.53427 -72.344505 158.08731 0.024425523 16.683393
82984000000 -0.80378121 -49.298569 -77.893898 133.02652 -74.274231 151.92284 0.020381821 16.594025
83032000000 -0.79557627 -49.16909 -85.489532 165.57948 -75.820946 155.67268 0.022956505 16.622934
83080000000 -0.79043329 -49.141838 -81.057549 -165.32745 -79.157806 150.77135 0.016373552 16.582678
83128000000 -0.77755129 -49.122444 -77.78566 -155.67349 -80.96608 -179.23795 0.017699396 16.62845
83176000000 -0.77184391 -49.25095 -74.59771 -171.52771 -76.398849 -150.32954 0.024443541 16.689234
83224000000 -0.77430868 -49.183262 -73.322685 -177.46936 -75.354637 -159.00194 0.031082135 16.665133
83272000000 -0.77919656 -49.06604 -74.190018 175.81947 -73.914238 -159.50255 0.041024882 16.618109
83320000000 -0.77090341 -49.044384 -72.812859 173.03365 -73.603149 -166.25195 0.045085795 16.730009
83368000000 -0.7839095 -49.180599 -73.183151 151.86024 -73.59375 -168.1152 0.051599827 16.670296
83416000000 -0.80039787 -49.330425 -74.279442 150.60184 -73.559875 -168.32216 0.057835899 16.657507
83464000000 -0.80826396 -49.385761 -75.912834 136.05519 -74.073029 -169 0.051391598 16.699459
83512000000 -0.81152302 -49.305862 -78.975449 159.06609 -72.689102 -164.96776 0.045320459 16.737427
83560000000 -0.81184006 -49.314651 -79.265732 155.15233 -72.190399 -172.18062 0.03906586 16.662271
83608000000 -0.812787 -49.337917 -80.196976 179.54745 -71.644402 -172.86183 0.0335426 16.648062
83656000000 -0.81045908 -49.456696 -76.181664 -174.34674 -71.358429 176.83994 0.032834616 16.645393
83704000000 -0.80423164 -49.512444 -75.72023 154.49512 -72.413673 164.98438 0.035164677 16.693611
83752000000 -0.79707414 -49.567917 -77.146072 153.5094 -73.326653 164.2571 0.037033577 16.723991
83800000000 -0.78513634 -49.592037 -77.543945 134.60136 -75.079201 159.75816 0.038993515 16.737303
83848000000 -0.78391325 -49.643238 -83.448616 126.26371 -77.388351 160.13528 0.041886389 16.789543
83896000000 -0.78261769 -49.734619 -92.466248 86.514305 -79.259972 -173.5999 0.050763272 16.867645
83944000000 -0.79674697 -49.898426 -83.770088 -86.292084 -77.974083 -172.96613 0.055797048 16.794897
83992000000 -0.80729371 -49.989117 -79.338539 -92.826187 -79.183014 -171.10411 0.053244323 16.804499
84040000000 -0.82160002 -49.999893 -75.640327 -121.06092 -77.102127 -159.72348 0.049134213 16.839867
84088000000 -0.82470125 -49.921909 -73.917923 -138.42032 -77.21891 -159.11533 0.041707948 16.870266
84136000000 -0.83402878 -49.933685 -76.494385 -154.68077 -77.096222 -166.19521 0.033717781 16.896564
84184000000 -0.83565855 -50.020363 -74.753838 -139.28821 -77.630356 -149.2459 0.029573716 16.91498
84232000000 -0.8275404 -50.12207 -74.12146 -147.55415 -78.033134 -137.37666 0.0053561265 16.889984
84280000000 -0.82304335 -50.054451 -75.55777 -148.12366 -74.01667 -134.3429 0.024303509 17.030752
84328000000 -0.80921638 -50.062523 -74.474976 -147.41902 -73.401833 -143.82533 0.020034499 17.016895
84376000000 -0.80308199 -50.072681 -73.645226 -152.60359 -72.712479 -147.54968 0.015015829 17.028395
84424000000 -0.80226701 -50.205509 -72.879555 -157.44278 -72.045097 -153.17778 0.013055876 17.044514
84472000000 -0.79905444 -50.237625 -73.541512 -164.91774 -72.640755 -158.28539 0.022145836 17.093204
84520000000 -0.80097127 -50.255966 -73.835464 -166.50174 -72.968422 -161.38982 0.024141336 17.18129
84568000000 -0.81213713 -50.233429 -74.842888 -169.01736 -73.592087 -158.33835 0.028441288 17.196436
84616000000 -0.81506056 -50.140266 -75.478226 -165.81511 -74.149376 -155.71854 0.038217138 17.222729
84664000000 -0.82880062 -50.206314 -75.076439 -145.28415 -73.630112 -153.72649 0.047900371 17.261257
84712000000 -0.84281248 -50.231113 -74.573891 -152.61743 -72.522934 -155.22345 0.041871522 17.195433
84760000000 -0.84352911 -50.228767 -73.168068 -158.63153 -73.011269 -162.17233 0.039799508 17.173998
84808000000 -0.84287405 -50.168407 -73.738846 -149.44675 -73.139816 -163.11838 0.036036588 17.264856
84856000000 -0.84221911 -50.097057 -73.657433 -172.11128 -74.071808 -165.15094 0.025069511 17.308813
84904000000 -0.84716076 -50.103111 -75.745476 -169.73833 -74.27636 -156.74417 0.015942346 17.233753
84952000000 -0.84577918 -50.117615 -76.053192 -150.39249 -73.110245 -153.0312 0.016970774 17.236673
85000000000 -0.82653642 -50.249275 -74.786591 -149.59149 -73.229034 -151.47694 0.032184582 17.160175
85048000000 -0.81529599 -50.248367 -73.894043 -143.02582 -72.317741 -153.49207 0.016918171 17.212189
85096000000 -0.8155871 -50.368305 -73.62088 -146.24257 -71.818214 -153.16139 0.033992097 17.232368
85144000000 -0.80996495 -50.992241 -71.183868 -147.9261 -71.579124 -155.63681 -0.0023179303 17.48167
85192000000 -0.81114513 -50.982449 -70.61377 -156.68414 -70.883453 -163.48055 0.05540603 17.148096
85240000000 -0.83164966 -50.504059 -71.179649 -162.99612 -71.2314 -167.25403 0.037140347 17.378881
85288000000 -0.84247804 -50.460533 -71.234818 -160.26306 -71.794785 -166.43944 0.027972698 17.341593
85336000000 -0.84592831 -50.519215 -71.760841 -157.50656 -71.72477 -163.9285 0.04983443 17.253605
85384000000 -0.85202181 -50.46682 -69.933708 -159.17267 -70.891571 -163.24963 0.021299466 17.369307
85432000000 -0.84888583 -50.505154 -69.313957 -167.59671 -70.182983 -165.28665 0.026083428 17.387758
85480000000 -0.85942858 -50.36515 -70.168839 -179.05743 -69.950233 -172.79059 0.031549361 17.450268
85528000000 -0.84275496 -50.290508 -71.87339 -177.34659 -70.113426 -174.21863 0.035781398 17.447668
85576000000 -0.83732539 -50.334873 -72.257492 177.10738 -70.785812 -179.05133 0.015269661 17.401361
85624000000 -0.83187723 -50.629768 -72.526283 179.30569 -71.12606 178.43732 0.022399765 17.44252
85672000000 -0.83066034 -50.704739 -73.037064 177.58467 -71.482162 179.89677 0.031352505 17.45203
85720000000 -0.82025123 -50.646584 -73.150681 -174.47646 -71.819893 179.49567 0.043583773 17.455276
85768000000 -0.82913679 -50.62088 -72.243797 -177.47484 -71.821754 -177.93491 0.031946644 17.503088
85816000000 -0.82246488 -50.49527 -71.611122 -179.12225 -71.745117 178.89583 0.038408037 17.549356
85864000000 -0.83410436 -50.609684 -71.927979 172.78111 -71.571915 172.65938 0.039065346 17.527838
85912000000 -0.84015739 -50.596386 -73.19519 176.91122 -72.688446 169.34381 0.037567399 17.540424
85960000000 -0.84167355 -50.607506 -73.215508 170.15932 -74.083359 168.10086 0.040779222 17.607826
86008000000 -0.8386628 -50.577915 -74.592834 165.27347 -74.85952 172.87234 0.031723592 17.585306
86056000000 -0.83635962 -50.47403 -75.369789 179.91653 -76.168228 178.07722 0.041726921 17.551622
86104000000 -0.83953774 -50.343842 -75.483704 -177.95407 -75.178535 -168.67133 0.034401484 17.571365
86152000000 -0.83652532 -50.382019 -75.645073 -168.40965 -74.472534 -165.99127 0.029461104 17.614222
86200000000 -0.8341859 -50.476635 -74.119179 -173.76358 -73.820198 -166.99142 0.025639288 17.625036
86248000000 -0.82822794 -50.511452 -72.754471 -171.88133 -73.432877 -169.02716 0.040613558 17.490555
86296000000 -0.83057511 -50.780724 -73.50193 -178.13028 -73.422165 -167.48671 0.013920883 17.312689
86344000000 -0.80139059 -51.475063 -75.779716 172.47246 -72.94902 -170.04675 0.074065521 16.966793
86392000000 -0.84966552 -51.56152 -76.684158 175.61815 -73.365837 -173.25848 0.04132643 16.771942
86440000000 -0.80277115 -50.961689 -75.2967 -171.92427 -73.659882 -165.44659 0.0048545287 16.930033
86488000000 -0.82308811 -50.9259 -78.078064 -179.36227 -73.781555 -168.29485 0.036782041 16.911928
86536000000 -0.82123721 -51.043545 -76.528954 -156.38844 -73.198318 -161.54431 0.037980553 16.884682
86584000000 -0.81075448 -51.026558 -75.800873 -156.74237 -73.001411 -162.37735 0.052796304 17.528646
86632000000 -0.82611746 -51.095131 -75.637276 -154.87115 -72.680428 -166.53569 0.038426001 17.63043
86680000000 -0.83578032 -51.235603 -74.350555 -154.82088 -73.326393 -161.78026 0.027120776 17.650339
86728000000 -0.8311255 -51.154556 -73.368324 -155.64577 -72.82531 -168.59731 0.046215944 17.510805
86776000000 -0.80152535 -51.246151 -72.443352 -154.25307 -72.72699 -171.18977 0.05570709 17.566977
86824000000 -0.81555837 -51.375015 -72.21035 -158.88144 -72.283562 -172.30548 0.035256088 17.596724
86872000000 -0.80417871 -51.286812 -72.553604 -162.14833 -73.125542 -173.70807 0.048629969 17.679195
86920000000 -0.81512988 -51.345974 -72.245857 -175.70538 -73.850891 -176.95058 0.040584322 17.672176
86968000000 -0.83087599 -51.437988 -75.219528 -176.97733 -74.173103 -173.63945 0.032068443 17.709324
87016000000 -0.84094965 -51.463936 -75.804314 -154.23143 -74.303459 -167.95992 0.029050738 17.674732
87064000000 -0.83545744 -51.461811 -74.193886 -153.41473 -74.605721 -161.68605 0.032160945 17.689138
87112000000 -0.8280682 -51.640877 -73.66124 -151.91275 -74.623924 -159.6145 0.054791577 17.605198
87160000000 -0.82609367 -51.601074 -72.778893 -146.19339 -75.07061 -154.19225 0.045920372 17.647673
87208000000 -0.82389194 -51.736778 -72.296638 -139.98317 -74.721672 -146.65831 0.056934629 17.614586
87256000000 -0.8310594 -51.810207 -71.073837 -138.01622 -73.567154 -144.675 0.056408804 17.725838
87304000000 -0.8269034 -51.78191 -70.40712 -148.86201 -72.260452 -140.76564 0.047260787 17.748777
87352000000 -0.83666873 -51.760803 -70.914108 -150.23523 -71.711357 -142.8195 0.033309359 17.78787
87400000000 -0.83551359 -51.777733 -69.557541 -151.93689 -70.975563 -148.14212 0.017392596 17.76763
87448000000 -0.83589578 -51.756065 -69.70974 -150.61891 -69.855232 -143.79379 0.029523324 17.663347
87496000000 -0.83704978 -51.725517 -70.196838 -150.47765 -69.5662 -151.31136 0.027543671 17.664711
87544000000 -0.83109009 -51.515949 -69.4664 -151.33321 -68.892281 -156.47134 0.036489934 17.708908
87592000000 -0.83080548 -51.443592 -68.9757 -154.40631 -68.836052 -157.25922 0.028925769 17.746214
87640000000 -0.82510191 -51.398106 -68.771637 -162.33989 -68.292374 -160.21506 0.042887162 17.753614
87688000000 -0.83408177 -51.368496 -68.662949 -158.37735 -68.553299 -160.95317 0.0042163301 17.762506
87736000000 -0.82045102 -51.537369 -68.429771 -162.02536 -68.491249 -167.58907 0.037390836 17.730635
87784000000 -0.81256038 -51.599964 -68.194389 -165.22081 -68.604889 -167.15096 0.04510783 17.720446
87832000000 -0.81427985 -51.540863 -68.06192 -167.86943 -68.730057 -169.20898 0.035458926 17.789215
87880000000 -0.82295918 -51.331722 -68.010727 -173.23576 -68.7929 -170.34761 0.04224376 17.753365
87928000000 -0.81150556 -51.391781 -68.569435 -171.89069 -69.02462 -172.15196 0.040397108 17.762503
87976000000 -0.8187266 -51.234161 -68.833 -178.30769 -68.927811 -170.1058 0.042853329 17.843346
88024000000 -0.81924236 -51.643276 -68.798576 -178.04951 -68.623055 -174.49937 0.047467165 17.701372
88072000000 -0.83125842 -51.488621 -69.04554 -176.86752 -68.668907 -172.24252 0.03282588 17.772449
88120000000 -0.81933081 -51.553547 -69.325066 -177.03474 -68.376831 -174.34528 0.055836402 17.61717
88168000000 -0.81704283 -51.395245 -69.783203 178.98988 -69.227135 -175.82353 0.024416771 17.996449
88216000000 -0.83131546 -51.517235 -69.726303 179.556 -69.332382 -174.67314 0.0072058495 17.839676
88264000000 -0.82860732 -51.800869 -70.201942 -174.65718 -69.706947 -174.44879 0.023848375 17.753416
88312000000 -0.8249805 -51.895214 -69.945724 -174.82063 -69.384933 -171.34793 0.031889599 17.759214
88360000000 -0.82101423 -51.905968 -70.280815 -172.82808 -69.11647 -169.56276 0.027959324 17.867994
88408000000 -0.82291478 -51.824913 -69.464561 -166.06616 -68.715904 -168.66098 0.033304222 17.845007
88456000000 -0.82559091 -51.924835 -69.33017 -170.37791 -68.311897 -169.90234 0.035808101 17.762285
88504000000 -0.81745028 -52.108967 -68.200806 -169.06522 -67.983276 -169.78026 0.026282581 17.264275
88552000000 -0.82358468 -51.885143 -67.874733 -175.38937 -67.652519 -172.71733 0.03524068 18.005751
88600000000 -0.82875204 -51.934135 -68.388725 -176.00996 -67.635643 -175.44771 0.043507915 18.024969
88648000000 -0.82831907 -51.815556 -69.311096 -178.75972 -67.809105 -175.45592 0.03462388 18.085577
88696000000 -0.82441837 -51.675209 -69.083878 -173.46594 -67.702942 -176.61058 0.047121488 18.066914
88744000000 -0.83047795 -51.645832 -68.521614 -175.0377 -67.711739 -177.8094 0.039578915 18.10771
88792000000 -0.83209765 -51.678127 -68.069519 -177.33015 -67.402534 -178.41574 0.02789914 18.096039
88840000000 -0.82589489 -51.770287 -68.086678 -174.23248 -67.363235 -177.547 0.045476206 18.042479
88888000000 -0.82165319 -51.694984 -67.824013 -176.49966 -67.250221 178.23376 0.050055016 18.068939
88936000000 -0.81604129 -51.458481 -68.58976 -178.92822 -67.255074 178.56174 0.044692788 18.161509
88984000000 -0.80908787 -51.596519 -67.729492 179.14948 -67.112831 178.45979 0.034529377 18.138594
89032000000 -0.80876791 -51.730671 -67.83271 179.01871 -66.952545 177.43803 0.041803837 18.01899
89080000000 -0.80654502 -51.875923 -67.836456 178.19597 -66.98262 175.30888 0.032753944 18.06288
89128000000 -0.80913842 -51.991268 -67.198082 177.61571 -66.718864 172.54349 0.046596009 18.011419
89176000000 -0.81809962 -52.062164 -67.631966 173.00809 -67.358063 172.7614 0.050450098 18.044025
89224000000 -0.8124786 -51.906574 -67.201439 169.26131 -67.422813 170.28584 0.054360587 18.114231
89272000000 -0.81883347 -52.0779 -67.498192 170.29971 -67.436874 171.11086 0.055164758 18.137022
89320000000 -0.82203603 -52.203964 -67.579872 171.47568 -67.49617 170.63597 0.054808959 18.108871
89368000000 -0.82404655 -52.280338 -67.56076 170.64261 -67.64949 170.56924 0.048561364 18.194546
89416000000 -0.83229828 -52.262486 -68.312225 167.36224 -67.315262 168.95668 0.052748226 18.200066
89464000000 -0.82681012 -52.141869 -68.23484 166.97446 -67.75116 173.36708 0.047778506 18.173834
89512000000 -0.82832539 -51.899212 -68.369141 168.86337 -67.421989 170.99953 0.056381717 18.210899
89560000000 -0.825553 -52.182636 -68.953682 169.2202 -67.385704 171.39084 0.039017119 18.2533
89608000000 -0.81678915 -52.250057 -68.552025 168.45352 -67.259743 168.4894 0.064771555 18.158197
89656000000 -0.82503432 -52.293369 -68.650063 165.04854 -67.316544 165.01794 0.045853265 18.295141
89704000000 -0.81702095 -52.220741 -69.010895 166.93828 -67.52253 167.48279 0.068619236 18.090889
89752000000 -0.81611657 -52.243591 -69.210045 168.52655 -67.90107 167.08197 0.058764562 18.33322
89800000000 -0.82224876 -52.329174 -68.923126 174.4023 -68.121834 167.63956 0.066798553 18.218678
89848000000 -0.83404291 -52.392277 -69.353828 177.39859 -68.114235 169.58199 0.063071206 18.108313
89896000000 -0.84296393 -52.504707 -68.654907 175.664 -68.053391 173.8658 0.026964882 18.129276
89944000000 -0.83433336 -52.571548 -67.949226 175.84503 -67.610008 176.04878 0.051776323 18.328453
89992000000 -0.83120447 -52.629478 -67.314034 175.48761 -67.399162 176.43777 0.059616428 18.291815
90040000000 -0.83127785 -52.74157 -67.184914 173.29643 -67.341103 173.93642 0.063795708 18.196821
90088000000 -0.8443616 -52.872585 -67.35247 171.54791 -67.163559 172.07199 0.065141842 18.322851
90136000000 -0.86656427 -52.898499 -67.360069 169.10982 -67.318993 170.63339 0.061985761 18.309198
90184000000 -0.84390479 -52.808815 -67.491776 172.95161 -67.606804 170.57396 0.0361249 18.312336
90232000000 -0.82995772 -52.947678 -67.466156 171.6521 -67.176704 174.18703 0.037430871 18.08186
90280000000 -0.82575929 -52.853844 -67.345261 172.45778 -67.146034 172.10274 0.042157628 18.432276
90328000000 -0.82789248 -52.982857 -66.841919 173.07674 -66.86042 172.76961 0.068784349 18.462597
90376000000 -0.83142453 -53.044819 -66.572487 173.27452 -67.077919 171.60471 0.063038044 18.437735
90424000000 -0.84352535 -53.163467 -66.869186 169.05446 -67.252174 171.09473 0.066360086 18.426857
90472000000 -0.85086286 -53.108841 -66.84214 168.13927 -67.192947 171.27652 0.058927491 18.478445
90520000000 -0.85227501 -52.918648 -67.397484 168.69987 -67.588951 172.66086 0.082795158 18.368576
90568000000 -0.84395665 -52.995461 -67.255211 169.87904 -67.34623 174.24544 0.075340293 18.078033
90616000000 -0.85016292 -53.026443 -66.703674 169.09692 -66.372345 177.90894 0.024362715 18.282101
90664000000 -0.84827781 -53.113811 -66.697769 173.86749 -66.337334 175.56519 0.061216034 18.623703
90712000000 -0.85554552 -53.22633 -66.121689 172.73264 -65.820503 172.18036 0.064383388 18.529345
90760000000 -0.86959153 -53.090363 -65.950157 169.17082 -65.930717 171.18947 0.04701189 18.472654
90808000000 -0.85953522 -52.960434 -66.030891 164.00507 -65.704124 170.246 0.058482613 18.382616
90856000000 -0.85220575 -52.993843 -65.812057 164.52975 -65.543098 166.51074 0.03719373 18.318518
90904000000 -0.85142529 -53.162533 -66.313568 163.65677 -65.436554 164.45068 0.032942515 18.465523
90952000000 -0.84482068 -53.169891 -66.202118 165.5798 -65.700157 163.45497 0.037604354 18.571877
91000000000 -0.84323019 -53.148544 -66.003235 163.49033 -65.873405 162.89502 0.050112337 18.62384
91048000000 -0.84068328 -53.108582 -66.130028 166.85191 -65.764999 161.74203 0.067430682 18.505095
91096000000 -0.84264773 -53.06646 -66.126312 165.01944 -65.84771 164.41092 0.071642175 18.59313
91144000000 -0.84822559 -53.133797 -66.248718 160.5797 -65.677971 160.97762 0.080025479 18.588476
91192000000 -0.85175502 -53.139656 -66.327049 160.62746 -66.047562 160.70207 0.076253012 18.524473
91240000000 -0.85329163 -52.982265 -66.951286 160.72546 -65.814362 160.54718 0.08371444 18.469139
91288000000 -0.86306536 -53.088211 -66.90564 161.57437 -66.264816 162.62117 0.06222206 18.54933
91336000000 -0.86789495 -53.094929 -66.849617 159.72043 -66.230156 164.31622 0.074888438 18.584801
91384000000 -0.86871439 -53.119606 -67.239578 163.57173 -66.100143 163.50429 0.066796511 18.521286
91432000000 -0.86214155 -53.036114 -66.96814 165.50499 -65.680801 164.36444 0.070535943 18.484785
91480000000 -0.85847843 -53.114506 -67.177704 167.77859 -65.479813 165.90654 0.06309621 18.529137
91528000000 -0.85461473 -53.081501 -66.835403 172.02032 -65.3218 164.12711 0.058356956 18.490116
91576000000 -0.84877568 -53.195541 -66.466423 169.20863 -65.020706 163.04317 0.065110728 18.49749
91624000000 -0.8417421 -53.315224 -66.079948 169.08005 -64.914734 164.65285 0.061709635 18.598532
91672000000 -0.83624852 -53.244354 -65.84108 168.88675 -64.892509 160.68579 0.066782236 18.590382
91720000000 -0.83328009 -53.232098 -65.125717 173.24295 -65.06813 159.5574 0.078351438 18.480618
91768000000 -0.83187127 -53.17495 -65.248505 165.78563 -64.748672 158.57562 0.083380274 18.628515
91816000000 -0.83805966 -53.2089 -65.687447 161.72769 -65.008675 157.37744 0.08673095 18.522705
91864000000 -0.84764969 -53.299011 -64.846947 167.57793 -64.976318 156.40857 0.088826858 18.479095
91912000000 -0.85076588 -53.232216 -65.415756 164.6526 -65.189407 155.69395 0.087163307 18.502037
91960000000 -0.85117239 -53.126316 -64.820274 161.94504 -65.436562 155.09494 0.078735813 18.427618
92008000000 -0.84919935 -52.927292 -64.57177 160.13666 -65.607376 154.93967 0.072714008 18.466972
92056000000 -0.84822559 -52.895351 -64.822998 155.81894 -65.550407 156.16638 0.065191314 18.572445
92104000000 -0.85317159 -52.982967 -65.572014 155.51808 -65.644012 156.17677 0.072784774 18.563845
92152000000 -0.84737349 -53.027908 -65.762383 153.60765 -65.593109 155.73315 0.082377613 18.58919
92200000000 -0.84496027 -53.079132 -66.198784 157.56946 -65.800819 155.00879 0.076284043 18.677483
92248000000 -0.83979934 -52.973244 -65.925522 159.57515 -65.690742 155.3775 0.068597324 18.687346
92296000000 -0.83616817 -52.988491 -65.793617 162.42375 -65.661865 157.78471 0.069015183 18.730539
92344000000 -0.83294612 -53.123913 -65.419785 159.65088 -65.32193 158.11493 0.073953547 18.624054
92392000000 -0.84343827 -53.367199 -65.572456 157.43404 -65.513657 158.36134 0.072540395 18.692694
92440000000 -0.84016305 -53.360153 -66.145172 159.97191 -65.163269 158.7766 0.067686051 18.678305
92488000000 -0.84345114 -53.46801 -65.724564 163.03691 -65.349075 157.54802 0.081967644 18.747652
92536000000 -0.85517669 -53.591282 -65.555984 164.01857 -65.259476 156.47545 0.086635038 18.643789
92584000000 -0.85926169 -53.573696 -65.005432 161.58389 -65.047394 158.78975 0.08044529 18.727676
92632000000 -0.8656131 -53.560005 -64.515488 157.68053 -64.875816 158.99899 0.072935984 18.672768
92680000000 -0.86500335 -53.470543 -64.878815 157.8696 -65.000763 157.86708 0.077124342 18.689243
92728000000 -0.87100601 -53.580406 -65.262863 159.05708 -64.600052 156.65488 0.06886588 18.743612
92776000000 -0.87691724 -53.762569 -64.60215 157.40367 -64.700928 157.32069 0.062419564 18.659885
92824000000 -0.87302035 -53.772713 -64.852379 157.73764 -64.410339 158.05072 0.066331021 18.762136
92872000000 -0.86994833 -53.887318 -64.502243 159.64566 -64.376144 155.81555 0.064459391 18.781973
92920000000 -0.86270034 -53.921104 -64.072952 155.26883 -64.456963 157.65508 0.06222257 18.776686
92968000000 -0.85739625 -54.004452 -64.403702 156.32494 -64.127357 157.49078 0.064648122 18.795965
93016000000 -0.86460853 -54.305584 -64.14325 155.89197 -63.884613 156.08899 0.060862262 18.863276
93064000000 -0.86789775 -54.411278 -64.372635 155.94492 -64.017166 155.22887 0.065917499 18.823925
93112000000 -0.8763746 -54.544125 -64.033073 153.25797 -63.624893 153.68068 0.065131128 18.849552
93160000000 -0.8795476 -54.558174 -64.174026 151.2881 -63.552727 151.66754 0.063345715 18.918295
93208000000 -0.88054144 -54.510696 -64.109383 152.41743 -63.698601 153.41676 0.065894552 18.908453
93256000000 -0.88963455 -54.517078 -63.90543 156.69388 -63.263451 151.1432 0.067378178 18.889229
93304000000 -0.89323759 -54.479168 -63.153736 153.63066 -63.408672 149.68004 0.071518935 18.953154
93352000000 -0.8954404 -54.484245 -63.233883 153.83667 -63.285385 148.67261 0.065420806 18.934958
93400000000 -0.89714527 -54.492332 -63.425659 146.27243 -63.509476 145.78316 0.071106412 18.990519
93448000000 -0.90129226 -54.385468 -63.693417 144.53387 -63.737926 144.31514 0.067324139 18.988266
93496000000 -0.89122719 -54.365131 -63.798492 145.18759 -64.297592 145.09555 0.071186371 19.05398
93544000000 -0.89740849 -54.464211 -64.541367 143.54039 -64.733788 147.24667 0.075543307 19.026852
93592000000 -0.89888203 -54.528175 -64.545898 148.02235 -64.619896 146.01608 0.041124888 19.012791
93640000000 -0.89109689 -54.51239 -64.018219 149.31027 -64.504196 147.34303 0.045055054 19.105492
93688000000 -0.88305473 -54.451851 -63.6978 151.65289 -64.629295 147.93768 0.058127087 19.16983
93736000000 -0.87645632 -54.481686 -63.413849 151.43155 -64.669685 147.21629 0.074670129 19.220764
93784000000 -0.87150812 -54.554768 -63.163155 144.80663 -64.3834 146.98901 0.079093724 19.233427
93832000000 -0.87702113 -54.651089 -63.983135 142.01154 -64.131241 146.41957 0.081882797 19.239159
93880000000 -0.88251358 -54.742737 -64.046783 145.72734 -64.490242 146.72639 0.085050859 19.189129
93928000000 -0.89990485 -54.824501 -64.025787 145.49164 -64.491776 146.10982 0.080575392 19.142616
93976000000 -0.90481186 -54.7668 -63.820759 143.62209 -64.232597 146.11206 0.073928609 19.187744
94024000000 -0.91251564 -54.777027 -63.860928 143.72174 -64.190277 146.66058 0.071397729 19.277231
94072000000 -0.91832823 -54.799747 -64.258629 146.73433 -63.815666 146.80251 0.066753179 19.218542
94120000000 -0.92584622 -54.873177 -63.728062 148.23196 -63.487263 145.13602 0.064810321 19.274075
94168000000 -0.91766274 -54.786892 -63.077202 147.32399 -62.982868 143.71019 0.065208137 19.24855
94216000000 -0.90815568 -54.68486 -62.65913 140.52312 -63.225697 140.11772 0.061349776 19.248985
94264000000 -0.90401745 -54.696922 -63.343231 140.27307 -63.406269 137.16371 0.058497425 19.2707
94312000000 -0.89542001 -54.620472 -63.095501 137.69411 -63.480576 135.06116 0.069992915 19.310503
94360000000 -0.89078671 -54.646908 -64.10006 133.65187 -63.903145 134.00043 0.061811205 19.334431
94408000000 -0.8970409 -54.792416 -63.97942 133.31891 -64.274513 136.79926 0.067774229 19.320887
94456000000 -0.89165181 -54.6768 -64.395805 132.91469 -64.167099 136.78842 0.066661917 19.328806
94504000000 -0.89447403 -54.650009 -64.48748 134.03952 -64.182701 135.09851 0.067842528 19.394554
94552000000 -0.89708865 -54.642113 -64.624496 135.09456 -64.328568 133.64066 0.069644436 19.379618
94600000000 -0.90658361 -54.771584 -65.234093 134.27391 -65.293228 134.50592 0.067592777 19.40151
94648000000 -0.91541857 -54.823555 -65.782051 138.26054 -65.039085 136.49701 0.07161162 19.491156
94696000000 -0.92030066 -54.825817 -65.852074 141.65126 -65.197487 138.59958 0.067641705 19.435608
94744000000 -0.93112713 -54.909676 -65.230309 144.43225 -65.34549 141.78331 0.069878794 19.465284
94792000000 -0.93425435 -54.868126 -64.928978 146.26489 -64.965202 143.2932 0.063285507 19.472118
94840000000 -0.94008583 -54.919823 -65.062088 146.9976 -64.914703 143.483 0.060434941 19.404381
94888000000 -0.94297379 -54.835571 -64.957245 143.20778 -64.744225 141.61176 0.050193708 19.397665
94936000000 -0.9090153 -54.891796 -64.786293 149.52863 -64.430244 144.17528 0.041207969 19.772453
94984000000 -0.90506887 -54.945724 -64.691399 145.37628 -64.522652 143.81682 0.087766603 19.37512
95032000000 -0.90688598 -54.876114 -64.350876 144.31985 -64.39666 143.74159 0.050419394 19.472605
95080000000 -0.89907753 -54.892998 -64.433205 147.02356 -64.312759 144.07129 0.049008287 19.597633
95128000000 -0.89668864 -54.941097 -64.30143 144.91469 -64.114342 143.46918 0.059921283 19.625341
95176000000 -0.88733685 -54.941605 -64.510147 143.1886 -64.129837 144.49123 0.066480413 19.674765
95224000000 -0.88614875 -54.949024 -64.651672 145.74049 -64.111389 143.79915 0.068696186 19.641611
95272000000 -0.89372313 -54.805023 -64.354378 146.52267 -64.481476 145.11177 0.072717063 19.596134
95320000000 -0.88977498 -54.756798 -64.614342 146.35104 -64.30442 145.04539 0.076620281 19.649782
95368000000 -0.90045577 -54.870689 -64.676445 151.70378 -63.971077 146.4166 0.073028639 19.592119
95416000000 -0.90216583 -54.879238 -64.202423 152.12924 -63.843388 146.4711 0.075728498 19.665499
95464000000 -0.90563864 -54.894135 -63.825951 151.3187 -63.723049 147.08806 0.068965241 19.680592
95512000000 -0.90310556 -54.780804 -63.574135 151.69896 -63.629406 147.42621 0.068617709 19.653889
95560000000 -0.905653 -54.864239 -63.207333 152.38211 -63.268707 147.09319 0.061857142 19.610306
95608000000 -0.8980661 -54.843906 -62.812416 153.90831 -63.138805 146.67381 0.065416217 19.665588
95656000000 -0.89650756 -55.0215 -62.296879 149.39943 -62.832714 146.17267 0.060284831 19.647146
95704000000 -0.89919919 -55.141994 -62.19577 149.60962 -62.493717 146.91066 0.062402721 19.686865
95752000000 -0.89421642 -55.114838 -61.771572 146.05013 -62.362411 143.97211 0.065854266 19.667603
95800000000 -0.89828354 -55.136059 -61.853695 145.32497 -62.249584 142.42819 0.057178359 19.68816
95848000000 -0.89105046 -55.134754 -62.08028 143.46507 -62.373131 142.23785 0.061541192 19.7446
95896000000 -0.89515412 -55.352093 -61.812447 141.36618 -62.137596 140.60529 0.066457979 19.752691
95944000000 -0.89688402 -55.42292 -61.745281 141.40871 -62.242271 140.02428 0.068452597 19.752901
95992000000 -0.90255171 -55.518246 -61.786762 139.93448 -62.030067 139.37927 0.072148845 19.785135
96040000000 -0.91015351 -55.688148 -61.858585 139.82742 -62.083778 139.26729 0.07584399 19.768826
96088000000 -0.91830808 -55.841507 -61.530533 136.49942 -61.870575 138.44405 0.071570367 19.759714
96136000000 -0.92838103 -55.896637 -61.87141 133.55164 -61.919956 137.97998 0.07346236 19.79364
96184000000 -0.93015087 -55.919613 -62.193314 134.27936 -61.856758 137.30945 0.067086592 19.779001
96232000000 -0.92737174 -55.850605 -61.831104 138.19263 -61.800423 135.83403 0.067354217 19.816254
96280000000 -0.93033689 -55.957611 -61.829826 137.15312 -61.651875 134.49229 0.067433231 19.832764
96328000000 -0.93380344 -56.053055 -61.588177 136.16367 -61.653938 134.05144 0.061536089 19.857269
96376000000 -0.92926681 -56.043571 -61.277401 133.53197 -61.735817 133.50754 0.059415221 19.879156
96424000000 -0.92745829 -56.031254 -61.570469 133.46834 -61.792061 132.25012 0.054614175 19.892527
96472000000 -0.92364967 -56.099567 -61.867577 132.96901 -61.852146 132.20638 0.059285507 19.833237
96520000000 -0.9216789 -56.048164 -61.828938 131.70213 -62.150906 132.21617 0.046815734 19.870152
96568000000 -0.9157446 -56.143883 -61.870827 130.6396 -62.072773 132.49942 0.089732692 19.953382
96616000000 -0.93626583 -56.156982 -61.646618 129.92038 -61.970867 133.20972 0.057624392 19.861843
96664000000 -0.9194631 -56.170044 -61.890049 131.43196 -62.0285 133.80804 0.063598782 19.851635
96712000000 -0.91532463 -56.161411 -62.403812 132.17654 -61.817215 134.84706 0.069419242 19.835947
96760000000 -0.91157389 -56.118164 -61.698612 136.3857 -61.549995 134.69812 0.066460527 19.80714
96808000000 -0.91384131 -56.191322 -61.37468 134.98297 -61.453732 134.3287 0.066348866 19.834375
96856000000 -0.91078746 -56.19577 -60.723461 133.52573 -61.139786 131.78053 0.06987115 19.9436
96904000000 -0.9096961 -56.269123 -60.554253 130.36958 -61.148624 129.41 0.076264709 19.953638
96952000000 -0.91118848 -56.24419 -60.729225 127.04026 -61.025219 129.30077 0.077190965 20.008192
97000000000 -0.91300565 -56.297558 -60.742928 125.86772 -61.042343 127.20509 0.077942103 19.823309
97048000000 -0.90934819 -56.362946 -60.903625 124.72173 -61.223854 127.18884 0.07450372 19.789402
97096000000 -0.91072494 -56.396816 -61.297901 121.95859 -61.231697 125.35785 0.086254902 19.901243
97144000000 -0.91958141 -56.432068 -61.299549 124.0909 -61.237171 126.20352 0.085891999 19.822695
97192000000 -0.91641074 -56.40723 -61.600178 122.12044 -61.360176 125.0761 0.078641251 19.74748
97240000000 -0.92477888 -56.350716 -61.712715 124.85056 -61.261707 124.64294 0.059761964 19.789995
97288000000 -0.91240931 -56.347141 -62.11499 127.55417 -61.311092 124.96386 0.072701789 19.874327
97336000000 -0.91856426 -56.347775 -61.2686 131.53787 -61.258511 124.44318 0.072915107 19.840454
97384000000 -0.92000693 -56.395035 -60.980446 130.57339 -61.176285 124.71992 0.074475728 19.858856
97432000000 -0.91814625 -56.322971 -60.608093 127.28432 -61.164345 124.85471 0.072308727 19.88191
97480000000 -0.91191912 -56.371418 -60.30275 126.40025 -61.215508 124.24363 0.079223871 19.882381
97528000000 -0.91010594 -56.228264 -60.56176 123.42556 -61.038521 123.63409 0.080277577 19.799564
97576000000 -0.91125268 -56.337841 -60.660629 120.41614 -60.83131 122.39614 0.080378205 19.8906
97624000000 -0.90546995 -56.386524 -60.658787 124.08824 -60.942734 121.60519 0.08372663 19.867529
97672000000 -0.90906417 -56.415192 -60.860397 119.80331 -61.016872 121.16543 0.08599402 19.808477
97720000000 -0.9075262 -56.476978 -60.882305 120.81993 -61.109425 120.34985 0.085230067 19.834364
97768000000 -0.91333848 -56.331833 -60.878452 120.94653 -61.023441 120.5215 0.070493661 19.907597
97816000000 -0.89021474 -56.291367 -60.752064 119.9771 -60.944584 120.8156 0.051814184 19.853769
97864000000 -0.89660144 -56.559994 -61.066837 120.70924 -60.897793 119.42825 0.087956347 19.965996
97912000000 -0.90325665 -56.638638 -61.023132 123.53721 -60.820362 119.04434 0.1092423 19.890284
97960000000 -0.9131366 -56.70673 -60.4445 123.11464 -60.829796 117.39423 0.07594879 19.893545
98008000000 -0.90817004 -56.560593 -60.224743 120.67531 -60.997719 117.95106 0.087185629 19.951445
98056000000 -0.9023242 -56.542568 -59.922955 119.71412 -60.914539 117.46378 0.07651753 19.944487
98104000000 -0.90414083 -56.602146 -60.179279 116.98979 -60.795879 117.68832 0.07412456 19.951696
98152000000 -0.90850985 -56.49297 -59.997826 117.27135 -60.820747 117.93894 0.074976981 19.918941
98200000000 -0.90040737 -56.478828 -59.908665 114.57143 -60.698227 117.75401 0.091588393 19.919523
98248000000 -0.90443444 -56.409367 -60.209427 110.43198 -60.668503 116.55771 0.093222894 19.906693
98296000000 -0.89848727 -56.207619 -60.568008 112.46671 -60.692307 115.1226 0.085170157 20.055439
98344000000 -0.89498675 -56.072266 -60.474945 116.21407 -60.589188 116.204 0.076220453 19.954754
98392000000 -0.89681429 -56.053196 -60.683086 112.51352 -60.611553 115.13851 0.086433046 19.942266
98440000000 -0.89993286 -55.997509 -60.710747 116.87488 -60.634842 115.01391 0.090831503 20.021675
98488000000 -0.89203578 -55.876408 -60.505791 113.60495 -60.536564 114.20447 0.11180673 20.014412
98536000000 -0.86885667 -55.353016 -60.482674 115.20815 -60.478447 113.02767 0.11331208 19.980003
98584000000 -0.86691666 -55.412266 -60.027054 112.13997 -60.601006 111.29401 0.10622219 19.981987
98632000000 -0.87970132 -55.603699 -60.023712 107.03371 -60.555447 110.72046 0.093384027 19.917295
98680000000 -0.89147258 -55.757797 -60.201385 105.64621 -60.474731 111.06355 0.090183504 19.961845
98728000000 -0.89544928 -55.953518 -60.721352 104.53935 -60.621159 110.07237 0.086942568 20.046522
98776000000 -0.89509684 -55.978573 -61.019714 105.91773 -60.811943 111.66257 0.097555757 20.153992
98824000000 -0.90553695 -56.030766 -61.407539 106.24977 -60.679878 111.92947 0.12023934 19.999464
98872000000 -0.90579015 -56.064087 -61.633373 107.38431 -60.522629 110.33549 0.11435452 19.969978
98920000000 -0.90969515 -56.322487 -61.312996 107.66393 -60.545486 109.58704 0.098528095 19.970808
98968000000 -0.91223717 -56.546322 -61.57233 110.06145 -60.419086 110.05676 0.089998923 19.96043
99016000000 -0.92167383 -56.677532 -61.4744 111.14269 -60.382156 108.83753 0.10178367 20.008595
99064000000 -0.92016053 -56.6698 -61.197201 111.63322 -60.481373 108.75479 0.10480686 19.981054
99112000000 -0.91744274 -56.634018 -60.70623 114.61892 -60.722446 108.64642 0.086098582 19.973925
99160000000 -0.91672307 -56.718636 -60.749588 113.58025 -60.554344 109.12419 0.10260034 19.9949
99208000000 -0.92266709 -56.875664 -60.009892 112.85709 -60.493275 107.71075 0.10675617 19.928133
99256000000 -0.92634469 -56.989098 -59.223011 113.85937 -60.441444 108.5953 0.096441425 20.001978
99304000000 -0.92289054 -56.960056 -59.603905 106.17764 -60.507957 107.86315 0.10334659 20.069744
99352000000 -0.92932808 -57.031143 -59.438438 108.58826 -60.32896 107.91283 0.13008076 20.085665
99400000000 -0.92147022 -57.083691 -59.043159 106.23569 -60.462906 105.24897 0.11972465 20.039295
99448000000 -0.93197852 -57.143894 -59.493713 103.12199 -60.405487 104.10332 0.12375846 20.055363
99496000000 -0.9339931 -57.025204 -58.970734 100.99924 -60.541492 103.87252 0.10302354 19.939579
99544000000 -0.93305534 -56.968559 -58.931061 95.370834 -60.643951 103.40681 0.1161463 20.074774
99592000000 -0.93315417 -56.982906 -59.135483 95.332436 -60.721371 103.68661 0.1109817 20.092852
99640000000 -0.93283713 -56.78125 -59.463604 93.418694 -60.978794 103.86046 0.13879943 20.007738
99688000000 -0.9343943 -56.804504 -60.173882 86.157196 -60.975597 105.33096 0.12684232 20.063442
99736000000 -0.93540305 -56.734947 -61.247955 90.002419 -60.727692 104.83672 0.11625619 19.906977
99784000000 -0.93176842 -56.73885 -60.923222 92.08403 -60.669773 105.59209 0.10566642 20.149273
99832000000 -0.92804319 -56.710888 -61.156292 90.36779 -60.569164 103.72379 0.13470379 19.99666
99880000000 -0.92943805 -56.712437 -61.751945 97.199066 -60.608681 103.98803 0.079980753 20.052969
99928000000 -0.92955542 -56.676876 -61.847916 99.474571 -60.447105 103.41045 0.11072229 20.169981
99976000000 -0.9242565 -56.770718 -61.641827 103.35757 -60.521908 105.31796 0.14073655 20.04674
100024000000 -0.91784728 -56.851299 -61.139561 103.14724 -60.820522 106.80746 0.098646522 20.159277
100072000000 -0.93600732 -56.861523 -60.766907 99.873512 -60.522247 104.79687 0.13713786 20.12389
100120000000 -0.91398382 -56.718426 -60.452374 103.49265 -60.308594 104.10155 0.10735927 20.0165
100168000000 -0.91276413 -56.797729 -60.780037 99.98864 -59.988621 105.24674 0.11687108 20.214121
100216000000 -0.90867448 -56.853138 -60.1409 100.32423 -59.81234 105.0549 0.098839343 20.059811
100264000000 -0.91843057 -56.924744 -60.410751 97.756561 -59.822269 104.59092 0.10201478 20.183048
100312000000 -0.93294239 -57.062 -60.185917 96.049507 -59.687096 101.40888 0.10337439 20.173231
100360000000 -0.91904241 -56.985168 -60.549267 96.3685 -60.170292 99.092583 0.11941137 20.201082
100408000000 -0.94763964 -56.96862 -61.460464 89.261681 -60.078995 101.98573 0.10960628 20.131544
100456000000 -0.94705468 -56.980949 -61.889107 95.578712 -60.025131 100.76392 0.11961737 20.020838
100504000000 -0.91286957 -57.09761 -61.19725 96.287033 -59.987843 103.22736 0.10309381 20.341581
100552000000 -0.91793394 -57.159698 -61.739124 101.17316 -59.581303 101.20442 0.13244011 20.108517
100600000000 -0.93337786 -57.090424 -60.57111 103.05795 -59.492508 99.325005 0.10863895 20.205093
100648000000 -0.92186713 -57.078987 -59.985012 102.85748 -59.622875 100.70801 0.035320792 20.272726
100696000000 -0.95790553 -57.051121 -60.499798 92.829887 -59.673874 98.561028 0.12950443 20.092836
100744000000 -0.93272579 -57.254169 -60.012909 94.259346 -59.513432 98.982964 0.14423059 20.259315
100792000000 -0.9330582 -57.275955 -60.834652 92.921989 -59.528103 98.658432 0.082463458 20.198555
100840000000 -0.94472027 -57.333031 -61.971237 94.365753 -59.583622 97.071968 0.10348713 20.15151
100888000000 -0.94332856 -57.209618 -61.162876 104.62906 -59.469898 97.483063 0.088176526 20.204435
100936000000 -0.94463086 -57.21743 -60.567749 101.59925 -59.440174 96.024445 0.1280067 20.222513
100984000000 -0.94582087 -57.364429 -59.855236 104.05463 -59.432213 96.175728 0.12313598 20.119976
101032000000 -0.9410814 -57.366268 -59.240582 99.385841 -59.317608 94.23098 0.10346893 20.170174
101080000000 -0.94427305 -57.528259 -59.288979 96.047203 -59.205601 94.071243 0.11202621 20.240274
101128000000 -0.94597179 -57.579971 -59.292221 97.420876 -59.282394 92.421417 0.11770961 20.252975
101176000000 -0.92611468 -57.440723 -59.249546 99.154442 -59.352882 91.658836 0.10537537 20.376501
101224000000 -0.94548357 -57.412277 -59.166946 94.948792 -59.476032 92.572212 0.11809657 20.245134
101272000000 -0.9410978 -57.508945 -59.035854 91.045425 -59.218025 90.792313 0.11287072 20.373735
101320000000 -0.9496628 -57.650677 -59.692101 89.358849 -59.303417 90.531471 0.109005 20.447718
101368000000 -0.94957292 -57.607899 -59.629974 92.637283 -59.395298 88.556419 0.12057119 20.375317
101416000000 -0.93365031 -57.474163 -59.444447 95.542145 -59.531048 89.967476 0.10371259 20.546144
101464000000 -0.93189478 -57.324432 -59.266457 94.14563 -59.571514 88.330261 0.13480467 20.604527
101512000000 -0.92499888 -56.795166 -58.807579 92.536591 -59.780762 87.56588 0.13162299 20.38887
101560000000 -0.93300813 -56.638947 -58.636314 90.789001 -59.97718 89.242798 0.090150543 20.551231
101608000000 -0.93908346 -56.770142 -58.733521 86.255989 -59.982033 89.32383 0.057217702 20.732737
101656000000 -0.93401748 -56.820869 -59.793144 85.849602 -60.017345 89.29081 0.058706336 20.589098
101704000000 -0.94474059 -56.797611 -60.12315 86.904121 -59.880405 89.861237 0.058345716 20.586077
101752000000 -0.94270074 -56.614971 -59.62653 90.052559 -59.757923 88.628433 0.11802503 21.089863
101800000000 -0.94577128 -57.793087 -59.782616 89.132492 -59.985889 87.966301 0.17364687 20.54043
101848000000 -0.94334465 -57.984154 -59.095024 87.538475 -59.81443 87.543297 0.11019183 20.403282
101896000000 -0.94145435 -58.102501 -59.379124 88.125381 -59.948013 88.295433 0.061168049 20.377169
101944000000 -0.96090293 -58.23407 -59.333382 88.717987 -59.847542 89.229065 0.11551669 21.088017
101992000000 -0.93824416 -58.169415 -59.090538 87.232941 -59.709415 89.552452 0.17443621 20.611692
102040000000 -0.94913876 -58.273701 -58.618282 86.501968 -59.207363 89.469933 0.11227746 20.370035
102088000000 -0.96157181 -57.722584 -58.577236 83.814255 -58.891251 86.964172 0.063202851 20.754366
102136000000 -0.9631924 -57.566719 -58.936256 80.178886 -58.967621 85.209129 0.051923659 20.922638
102184000000 -0.95628148 -57.517052 -59.244678 81.233955 -59.016788 84.003311 0.11032306 20.979738
102232000000 -0.95398217 -57.485767 -59.126816 80.811302 -59.06908 81.888687 0.13565932 21.000168
102280000000 -0.95545661 -57.751434 -59.084827 77.312096 -59.065907 80.551613 0.14979601 21.1245
102328000000 -0.95845586 -58.386894 -59.467178 74.12014 -59.120739 79.161499 0.14458264 21.061502
102376000000 -0.95936555 -58.44371 -59.874283 75.498192 -59.390663 79.421844 0.15275398 20.617374
102424000000 -0.96069139 -57.956463 -60.063938 78.951561 -59.513607 79.802917 0.093311056 20.913929
102472000000 -0.96897483 -57.563072 -59.815659 79.44886 -59.744678 80.188004 0.10590895 21.082178
102520000000 -0.97194362 -57.539467 -60.035419 82.25618 -59.635929 80.402084 0.10169061 20.982115
102568000000 -0.97624594 -57.644897 -59.609554 81.483444 -59.470322 80.438766 0.092379622 21.124704
102616000000 -0.97441024 -57.703667 -59.694996 78.657745 -59.646412 81.201332 0.11316227 21.157154
102664000000 -0.98159897 -58.02903 -60.079048 79.546967 -59.561852 80.745132 0.11074349 21.030771
102712000000 -0.99259907 -58.438553 -59.859283 79.4944 -59.538799 79.820343 0.14406432 20.890606
102760000000 -0.98160154 -58.556202 -59.88969 79.444679 -59.572502 78.0494 0.12229598 21.017748
102808000000 -0.97256011 -58.749237 -59.832973 80.392189 -59.620583 77.714821 0.1209594 21.007849
102856000000 -0.97958845 -58.753418 -59.827061 79.471001 -59.889256 79.005264 0.088641711 21.195351
102904000000 -0.96741551 -58.724888 -59.695946 78.407173 -59.644024 77.707779 0.11131879 20.977266
102952000000 -0.95966065 -58.845474 -59.942459 78.566544 -59.712238 78.957497 0.11451034 21.039543
103000000000 -0.96580827 -58.650803 -59.716274 81.478561 -59.645863 78.580925 0.10006588 21.149033
103048000000 -0.95237535 -58.716351 -59.370754 78.079544 -59.63567 79.338402 0.10704257 21.03076
103096000000 -0.95846361 -58.790089 -59.346977 76.808113 -59.58717 77.20269 0.11314512 21.073503
103144000000 -0.96182638 -58.66037 -59.55217 77.514992 -59.681446 77.826401 0.12587631 21.112537
103192000000 -0.96954179 -58.692657 -59.613106 77.980095 -59.667381 77.269234 0.12024991 21.193371
103240000000 -0.97642779 -58.687378 -59.595882 76.772125 -59.832062 77.29776 0.12851588 21.15822
103288000000 -0.97441316 -58.510181 -59.771961 76.444328 -59.575134 77.647545 0.12457151 21.158003
103336000000 -0.97674346 -58.512375 -59.665791 79.153427 -59.410919 79.833733 0.11825326 21.177839
103384000000 -0.98927969 -58.583546 -59.488014 79.101921 -59.543247 76.866768 0.11490565 21.263449
103432000000 -0.99469048 -58.565388 -59.094631 78.450348 -59.370548 77.044334 0.11678842 21.28381
103480000000 -0.99372125 -58.570053 -58.957352 76.260643 -59.30777 76.269081 0.11080859 21.319357
103528000000 -0.98387665 -58.497784 -59.12027 73.841583 -59.046516 75.888626 0.1287526 21.292547
103576000000 -0.99012464 -58.527462 -59.035625 73.736656 -59.174931 73.986519 0.12119403 21.325407
103624000000 -0.98310006 -58.626896 -58.785442 71.861046 -59.000229 73.798973 0.12481147 21.349585
103672000000 -0.97847861 -58.778217 -59.168507 70.328842 -58.938004 73.229378 0.12604025 21.408533
103720000000 -0.97786254 -58.944637 -59.056747 70.328331 -59.08873 71.898277 0.11948037 21.336428
103768000000 -0.97147059 -58.956314 -59.470451 70.25592 -59.213364 71.981613 0.12182282 21.257225
103816000000 -0.97169787 -59.013683 -59.520943 69.38633 -59.206581 71.234322 0.1211759 21.289087
103864000000 -0.95875669 -58.858017 -59.404972 70.252144 -59.30563 70.80542 0.12560773 21.492867
103912000000 -0.98355973 -58.964329 -59.614655 68.843094 -59.185558 70.743248 0.11499338 21.438032
103960000000 -0.97897512 -58.432529 -59.611389 70.320351 -59.381329 70.344345 0.1174365 21.486401
104008000000 -0.98153567 -59.241119 -60.093739 69.857895 -59.491432 70.520462 0.11825326 21.404917
104056000000 -0.97962898 -59.05806 -59.940495 72.424629 -59.646023 71.717049 0.12226679 21.482592
104104000000 -0.97607678 -59.001854 -59.851902 72.448402 -59.464867 71.735397 0.1263264 21.38796
104152000000 -0.97271264 -58.935551 -59.602543 71.54071 -59.373547 72.29705 0.10660411 21.467405
104200000000 -0.97000098 -58.98708 -59.69315 70.389359 -59.086143 71.371422 0.1215696 21.502089
104248000000 -0.96653682 -58.945065 -59.583599 70.127213 -59.281975 71.423363 0.12082799 21.469566
104296000000 -0.96300238 -58.597958 -59.274067 70.298676 -59.286274 70.305283 0.11346894 21.439709
104344000000 -0.95239854 -58.231113 -59.465015 68.890221 -59.142467 68.888489 0.10659249 21.502102
104392000000 -0.94752568 -58.198082 -59.990524 69.643166 -59.419113 69.746613 0.10142408 21.511086
104440000000 -0.94691402 -58.367287 -59.84304 70.369331 -59.441025 69.413986 0.11035284 21.563053
104488000000 -0.94302106 -58.511562 -59.605732 72.186485 -59.369297 69.016525 0.11820943 21.627321
104536000000 -0.95024723 -58.633999 -59.522366 70.809723 -59.382454 71.118393 0.1171528 21.588015
104584000000 -0.94347298 -58.616924 -59.016453 70.64402 -59.149197 70.539742 0.12060845 21.412775
104632000000 -0.93758976 -58.594883 -59.068535 68.246933 -59.042984 69.793175 0.099784069 21.616962
104680000000 -0.95298946 -58.912212 -58.86969 66.490891 -58.841217 68.148102 0.13830951 21.554596
104728000000 -0.95700198 -59.107311 -58.98151 65.503662 -58.946762 66.930634 0.1223589 21.592497
104776000000 -0.96644628 -59.372009 -59.202728 63.847435 -58.945244 65.5597 0.12325475 21.499496
104824000000 -0.96715516 -59.343613 -59.072983 65.626816 -59.054695 64.949547 0.13818163 21.72451
104872000000 -0.96717715 -59.346886 -59.320442 63.367641 -59.254028 64.502296 0.13316818 21.604362
104920000000 -0.97881848 -59.398548 -58.923794 64.626244 -59.304382 63.42046 0.075441547 21.627789
104968000000 -0.98609376 -59.480053 -58.96439 60.991356 -59.450653 63.177269 0.11675668 21.616974
105016000000 -0.98655373 -59.61142 -59.275951 62.484581 -59.514065 62.205902 0.10986777 21.663719
105064000000 -0.98023885 -59.670105 -59.338463 61.542976 -59.555294 63.715946 0.12240068 21.701595
105112000000 -0.97889143 -59.704571 -59.513824 61.199799 -59.774811 64.183594 0.10479777 21.620777
105160000000 -0.97650909 -59.735126 -59.596684 62.752499 -59.680748 65.485298 0.10454255 21.649694
105208000000 -0.97523612 -59.908417 -59.330208 63.933487 -59.388538 65.566055 0.10183829 21.665848
105256000000 -0.98218083 -60.099319 -59.223045 61.821613 -59.266754 64.961479 0.10449959 21.684031
105304000000 -0.98702776 -60.269386 -59.104137 63.057381 -59.060711 63.377026 0.10717693 21.700907
105352000000 -0.99047649 -60.218174 -58.975212 60.97456 -58.955841 63.321098 0.11079496 21.610182
105400000000 -0.99290097 -60.254646 -59.035103 62.009716 -58.968674 62.323402 0.11694869 21.698841
105448000000 -1.0045261 -60.354851 -58.851059 61.203743 -58.931557 61.874172 0.11523236 21.633299
105496000000 -1.007971 -60.35873 -58.943947 58.932472 -58.77589 61.093319 0.11359906 21.731623
105544000000 -1.0073041 -60.297169 -58.68779 59.59761 -58.867245 60.790958 0.11415684 21.737028
105592000000 -1.0095509 -60.121906 -58.51442 57.802204 -58.846127 59.140301 0.095720835 21.742649
105640000000 -1.0048484 -60.1637 -59.162647 56.573311 -59.106266 58.412086 0.12167884 21.657761
105688000000 -1.0001734 -60.159576 -59.261517 53.818439 -59.161724 58.602226 0.12107772 21.674833
105736000000 -1.0092363 -60.334694 -59.495155 55.4734 -59.201321 58.827579 0.08535444 21.740866
105784000000 -1.0073615 -60.102661 -59.407211 58.199276 -59.20388 58.247013 0.12527324 21.707476
105832000000 -1.0024893 -60.131538 -59.55077 57.34734 -59.364616 57.214329 0.11035335 21.712753
105880000000 -0.99210721 -60.101322 -59.266117 57.291355 -59.335011 57.900784 0.10090463 21.709385
105928000000 -0.98566985 -60.057552 -59.341125 58.81308 -59.425564 58.468304 0.09897092 21.742313
105976000000 -0.99275196 -60.258797 -59.516666 58.0462 -59.353638 58.423553 0.086433046 21.705084
106024000000 -0.98703426 -60.165718 -59.45673 59.045879 -59.405735 58.984478 0.094891213 21.775795
106072000000 -0.99640805 -60.288631 -59.216106 58.864464 -59.250504 59.526657 0.11089085 21.814751
106120000000 -0.99708736 -60.242775 -59.342892 57.439842 -59.130726 58.66069 0.12663315 21.815845
106168000000 -1.0039765 -60.211117 -59.37579 58.164013 -59.195702 60.360344 0.11673803 21.844419
106216000000 -0.99397933 -60.060074 -59.259972 60.316532 -59.044701 58.453682 0.14551747 21.883324
106264000000 -0.99672818 -60.250908 -58.763329 56.369511 -59.031731 58.863651 0.10639699 21.576941
106312000000 -0.99293613 -60.301731 -58.926491 57.637665 -58.932625 57.886272 0.1389313 21.755362
106360000000 -0.98983401 -60.302929 -58.699593 55.841412 -58.801395 56.477741 0.092137858 21.592962
106408000000 -0.9996537 -60.234386 -58.732315 54.693741 -58.96175 57.182064 0.067266539 21.802137
106456000000 -0.9811359 -60.040745 -58.896282 57.005299 -58.848854 56.047657 0.18811876 21.927515
106504000000 -0.99248582 -60.229237 -58.808422 55.305363 -58.881386 55.994015 0.053333819 21.485117
106552000000 -0.99722379 -60.126976 -58.628899 55.135681 -58.762508 55.1334 0.084322788 21.842611
106600000000 -0.97634995 -60.270599 -58.413517 52.492733 -58.708202 53.277874 0.14112297 21.896442
106648000000 -0.97170562 -60.081684 -58.77739 51.256805 -58.869732 52.955395 0.10040889 21.764805
106696000000 -0.94371718 -60.062328 -58.965019 51.453358 -59.158672 51.78537 0.061567735 21.889702
106744000000 -0.97861969 -60.063385 -59.006912 51.283352 -59.258728 53.430233 0.13760887 21.774225
106792000000 -0.97925663 -60.132591 -59.241985 51.206291 -59.352661 53.032558 0.096377119 21.858397
106840000000 -0.97828573 -60.358757 -59.08857 52.114368 -59.311745 53.826221 0.12462987 21.830561
106888000000 -0.97409701 -60.789764 -59.374397 50.565865 -59.357143 53.652699 0.11825628 21.848957
106936000000 -0.9811343 -60.362911 -59.279533 51.641556 -59.400524 55.939327 0.068666629 21.757557
106984000000 -0.98423088 -60.229816 -59.409134 51.558582 -59.203632 55.705128 0.14710678 21.724295
107032000000 -0.97432017 -60.244713 -59.277325 51.287838 -58.999062 56.140083 0.11904165 21.655478
107080000000 -0.98101455 -60.421692 -59.217525 53.294212 -58.899609 54.692471 0.11118052 21.800415
107128000000 -0.98024857 -60.501122 -59.199005 52.77306 -58.779358 55.437359 0.098993182 21.654594
107176000000 -0.98230642 -60.389793 -58.718403 52.314255 -58.539135 54.727768 0.094434299 21.550888
107224000000 -0.97765148 -60.407505 -58.623219 50.935371 -58.397041 51.258228 0.11934539 21.645702
107272000000 -0.97464484 -60.28476 -58.704952 50.27541 -58.539364 51.295143 0.11577127 21.573833
107320000000 -0.9674437 -60.292465 -58.627441 49.583542 -58.80051 51.932777 0.11761841 21.71397
107368000000 -0.96618825 -60.337593 -58.811741 47.838802 -58.496754 51.178669 0.10436211 21.803598
107416000000 -0.96297586 -60.252945 -58.778442 49.63213 -58.618225 51.541138 0.085560031 21.866127
107464000000 -0.96569383 -60.200497 -58.97657 50.502728 -58.721958 51.280579 0.12189732 22.07889
107512000000 -0.95739466 -60.003799 -58.710278 50.630291 -58.574253 51.726952 0.16652882 22.037138
107560000000 -0.95774287 -60.159134 -58.878376 50.021656 -58.556149 50.615952 0.10496555 22.005499
107608000000 -0.96765751 -60.313652 -58.766483 51.864651 -58.522526 50.160748 0.13334943 22.161716
107656000000 -0.98108137 -60.440521 -58.378006 50.53046 -58.480778 49.988701 0.13591975 22.420246
107704000000 -0.97946131 -60.435959 -58.281342 49.253849 -58.448017 47.777969 0.14564013 21.206432
107752000000 -0.9871558 -60.339748 -58.313446 47.710602 -58.470482 47.665993 0.1364295 21.935999
107800000000 -0.98322535 -60.449894 -58.315121 45.088772 -58.818619 47.666264 0.13688102 21.772823
107848000000 -0.9806236 -60.593319 -58.283463 44.529175 -58.803608 46.716358 0.13381934 21.918474
107896000000 -0.97396123 -60.737507 -58.404037 43.566463 -58.731262 47.117142 0.12382286 21.887791
107944000000 -0.97976553 -60.847416 -58.677197 43.455585 -58.555038 46.804508 0.075755462 22.142675
107992000000 -0.9732765 -60.722622 -58.88628 44.444782 -58.556744 47.375637 0.1251993 22.21452
108040000000 -0.96485198 -60.921558 -58.574833 44.549934 -58.502396 47.430973 0.12020912 22.331203
108088000000 -0.95380676 -60.78212 -58.647121 43.391663 -58.563339 45.492741 0.10079183 22.132481
108136000000 -0.95634347 -60.7971 -58.719543 42.426548 -58.69405 45.18161 0.11991099 22.099659
108184000000 -0.95262289 -60.629883 -59.063374 41.962044 -58.822811 45.172523 0.1480861 22.186451
108232000000 -0.95552182 -60.617622 -59.235535 45.056595 -58.976227 45.2253 0.1495004 22.138245
108280000000 -0.96516365 -60.777874 -59.103283 46.743546 -58.877571 46.043846 0.14786343 22.218546
108328000000 -0.97020519 -60.728714 -59.004879 44.807953 -58.857922 47.418602 0.13678019 22.276285
108376000000 -0.98074269 -60.750061 -58.688347 48.06572 -58.920029 49.579082 0.15152773 22.031359
108424000000 -0.97109276 -60.610237 -58.430344 46.0765 -58.559402 48.837166 0.17607264 22.025473
108472000000 -0.95623571 -60.772034 -58.418915 47.041004 -58.476231 48.045727 0.13040583 21.894594
108520000000 -0.97001815 -60.961967 -58.325306 45.777855 -58.411743 46.762295 0.10501659 22.190332
108568000000 -0.97749233 -61.143314 -58.276447 43.145561 -58.280125 47.545315 0.10155609 22.049776
108616000000 -0.97823644 -61.206814 -58.507607 44.291512 -58.361786 47.538074 0.10316004 22.240355
108664000000 -0.97558612 -61.249435 -58.025497 43.63802 -57.99847 47.525692 0.13311145 22.424646
108712000000 -0.97090179 -61.280327 -57.870918 43.314034 -57.787136 46.522789 0.16201089 22.238708
108760000000 -0.96798259 -61.428768 -57.810841 41.315376 -57.642113 44.988457 0.15788516 22.237839
108808000000 -0.96642786 -61.553623 -57.633026 40.644073 -57.564659 42.561943 0.15387446 22.269396
108856000000 -0.97402054 -61.733524 -57.516659 38.095509 -57.466469 40.819717 0.15911411 22.273008
108904000000 -0.97338212 -61.688747 -57.571194 37.388847 -57.69635 38.884796 0.15796106 22.333595
108952000000 -0.97227257 -61.632957 -58.005337 35.588047 -57.992691 38.504326 0.14327894 22.185476
109000000000 -0.97726601 -61.621655 -58.501041 33.091 -58.415592 36.413754 0.11254232 22.130373
109048000000 -0.9899416 -61.762123 -58.727818 35.497765 -58.601532 37.384666 0.09376201 22.156343
109096000000 -0.99475652 -61.703636 -58.754704 35.412945 -58.840965 37.818043 0.115311 22.273401
109144000000 -1.001761 -61.714455 -58.699619 37.847118 -59.203457 39.98299 0.13377666 22.445337
109192000000 -1.0011683 -61.647179 -59.03157 38.172916 -59.028091 42.941479 0.14415997 22.488541
109240000000 -1.001356 -61.608452 -58.93671 40.61272 -58.857597 43.828068 0.16237997 21.448542
109288000000 -0.99699259 -61.729271 -58.943668 40.582375 -58.67812 44.121189 0.15031415 22.364271
109336000000 -0.99603528 -61.866154 -58.930256 44.033619 -58.366188 45.857094 0.13103481 22.304842
109384000000 -0.9838143 -61.916771 -58.259232 45.447002 -58.005821 46.207222 0.15121225 22.508841
109432000000 -0.97897285 -61.977139 -57.981831 42.47216 -57.705704 46.2113 0.14283411 22.635681
109480000000 -0.97232926 -62.057392 -57.777657 43.632969 -57.512531 45.465977 0.13522123 22.899088
109528000000 -0.9685908 -62.101521 -57.667419 40.816502 -57.228527 43.673084 0.13125531 23.380589
109576000000 -0.9853496 -62.299091 -57.460667 41.325794 -57.17083 40.83918 0.112846 22.168039
109624000000 -0.98605251 -62.252525 -57.257584 38.937119 -57.213539 39.796528 0.16846955 21.877136
109672000000 -0.98605865 -62.26923 -57.205334 38.949284 -57.106213 40.23415 0.15730701 21.90062
109720000000 -0.99874073 -62.16851 -57.103409 38.103954 -56.864071 38.44894 0.13550426 21.748281
109768000000 -1.0049114 -62.221569 -56.885674 36.027119 -57.037983 36.699242 0.1403546 21.264061
109816000000 -1.0143311 -62.17223 -56.955326 35.166542 -57.132164 35.257252 0.13182288 22.313787
109864000000 -1.021332 -62.20763 -56.868736 32.718769 -57.226227 34.100613 0.14192927 22.183018
109912000000 -1.0257522 -62.225368 -57.043415 30.926205 -57.181065 33.701942 0.16234306 22.254425
109960000000 -1.0342691 -62.102566 -57.616417 30.282036 -57.200768 32.848804 0.12840329 22.088383
110008000000 -1.0185444 -62.002033 -57.52182 29.432837 -57.27634 31.963322 0.18010812 21.529655
110056000000 -1.0149206 -61.836544 -57.816002 30.420662 -57.460793 31.695763 0.15099524 22.513563
110104000000 -1.0035374 -62.011787 -57.934227 30.337084 -57.632732 32.264347 0.16142979 22.646666
110152000000 -0.99759573 -62.176914 -58.084057 30.936966 -57.526836 31.26265 0.17712945 22.380136
110200000000 -1.0093837 -62.264961 -58.037003 31.250483 -57.630848 31.635992 0.1141291 22.608595
110248000000 -1.0014988 -62.150707 -57.89053 32.532421 -57.602928 31.98415 0.16018853 22.847065
110296000000 -0.99839121 -62.221931 -57.469219 31.39028 -57.486874 32.095341 0.189698 22.735678
110344000000 -1.0040394 -62.365494 -57.649036 30.778482 -57.634884 31.251709 0.19351833 22.616447
110392000000 -1.013963 -62.552879 -57.822456 31.005812 -57.566978 30.518444 0.19022429 22.577871
110440000000 -1.0271975 -62.683487 -57.882717 30.592957 -57.776546 30.00428 0.18497789 22.474661
110488000000 -1.0261259 -62.500523 -57.943462 31.727797 -57.710445 31.163612 0.16902679 22.638784
110536000000 -1.0320309 -62.530403 -57.8167 31.969637 -57.873985 30.905096 0.16723876 22.664557
110584000000 -1.0436817 -62.341488 -57.849922 31.033026 -57.885757 29.935272 0.19178295 22.211103
110632000000 -1.0443994 -62.655415 -58.24157 31.302753 -57.921761 31.15781 0.16725968 22.474213
110680000000 -1.053442 -62.579376 -57.828609 35.383121 -58.332737 31.986382 0.1579351 22.244955
110728000000 -1.0493433 -62.608109 -57.688656 35.047718 -58.054806 35.737465 0.15865892 22.483446
110776000000 -1.0386367 -62.533756 -57.203217 34.694077 -57.778984 36.602493 0.1486945 22.545904
110824000000 -1.0323956 -62.591663 -56.994427 33.907616 -57.627533 37.201973 0.14958844 22.574228
110872000000 -1.0270948 -62.720131 -56.897148 31.830772 -57.237846 35.61871 0.15606856 22.568989
110920000000 -1.0222553 -62.86916 -56.752441 30.616617 -56.830238 32.998592 0.15748326 22.405733
110968000000 -1.0229102 -62.896412 -56.738487 29.820377 -57.073303 32.48782 0.16045098 22.698746
111016000000 -1.0178165 -62.838825 -56.958385 29.175959 -56.992191 33.567879 0.18636733 22.427496
111064000000 -1.024893 -62.795532 -57.024834 28.918245 -57.01123 33.657623 0.18034999 22.405155
111112000000 -1.030376 -62.851803 -56.875645 30.016401 -56.816372 31.916258 0.17664433 22.478449
111160000000 -1.0452386 -62.889656 -56.839436 30.380337 -56.498924 31.90476 0.17264841 22.513233
111208000000 -1.0546014 -62.899944 -56.674355 29.627981 -56.123013 29.334522 0.19281515 22.662457
111256000000 -1.066595 -62.922237 -56.371784 27.751289 -56.057278 27.571007 0.19297858 22.467827
111304000000 -1.0679023 -62.705208 -56.207096 26.819881 -56.081951 23.354885 0.18575576 22.666096
111352000000 -1.0781436 -62.68829 -56.229431 23.163589 -56.513115 23.406685 0.17480224 22.472605
111400000000 -1.0775676 -62.607536 -56.469402 22.13628 -56.805122 21.985407 0.16329651 22.61293
111448000000 -1.0754369 -62.680798 -56.944244 21.900906 -56.766766 21.427458 0.15994354 22.824482
111496000000 -1.0660894 -62.653908 -56.87352 21.171614 -56.925152 20.677805 0.16444667 22.791197
111544000000 -1.0611644 -62.699497 -56.943932 20.070456 -57.151054 21.840595 0.16662498 22.68556
111592000000 -1.0459009 -62.690907 -57.343479 22.621237 -57.291538 22.391096 0.17062843 22.785418
111640000000 -1.0390917 -62.883915 -57.430416 25.105364 -57.395927 24.637728 0.16496256 22.832121
111688000000 -1.0539521 -63.147366 -57.396297 24.491499 -57.382195 24.300264 0.15614697 22.879789
111736000000 -1.0575835 -63.22237 -57.250832 25.380135 -57.303539 25.857721 0.17381251 22.828619
111784000000 -1.0603355 -63.278481 -57.162834 27.087805 -57.026585 26.448677 0.17232898 22.842724
111832000000 -1.06409 -63.273808 -56.74688 28.324938 -56.944675 28.65653 0.17170696 22.908958
111880000000 -1.0706811 -63.403465 -56.554359 26.174803 -56.407951 27.746965 0.17158155 22.888403
111928000000 -1.0780911 -63.46896 -56.383312 27.282782 -56.198227 26.895864 0.16886993 22.920769
111976000000 -1.0829939 -63.539173 -56.18306 26.247261 -56.115898 26.908354 0.1690975 22.975416
112024000000 -1.0827852 -63.507366 -55.905914 28.669046 -55.839413 26.399199 0.17600055 23.047039
112072000000 -1.0840423 -63.485168 -55.238918 28.118685 -55.294563 27.184683 0.16189817 22.877478
112120000000 -1.0873482 -63.518063 -54.575348 25.058105 -54.745827 23.514872 0.15515849 22.995209
112168000000 -1.0777603 -63.442608 -54.229603 22.252439 -54.575874 18.607937 0.15259553 23.056856
112216000000 -1.0666201 -63.446304 -53.979 15.365665 -54.526886 14.408126 0.15079123 22.996311
112264000000 -1.0673985 -63.61253 -54.258663 10.077544 -54.936783 11.625551 0.13940713 23.016098
112312000000 -1.1000105 -63.119335 -54.574791 7.0652561 -55.395821 8.3701534 0.17554663 23.067694
112360000000 -1.034566 -63.276329 -54.892185 3.6718688 -55.753708 6.5411396 0.16400099 23.063139
112408000000 -1.0469484 -63.594852 -55.700783 1.4819267 -56.063934 4.8617153 0.16041905 22.860325
112456000000 -1.0370883 -63.436783 -55.977577 0.74357677 -56.557411 4.4337945 0.16940522 23.339949
112504000000 -1.0748553 -63.710754 -56.730885 -0.42787656 -57.120472 5.0800629 0.15306287 22.97541
112552000000 -1.0595425 -63.572895 -57.214043 1.5953506 -57.433723 6.6573353 0.16190515 23.122005
112600000000 -1.0640742 -63.571644 -57.496727 5.8761888 -57.47641 9.379014 0.1551335 23.23642
112648000000 -1.0829341 -63.664768 -57.33836 8.0550108 -57.238281 10.218174 0.15572344 23.244741
112696000000 -1.0986031 -63.639843 -57.410114 10.171896 -57.410118 11.890366 0.17161539 23.307507
112744000000 -1.0984571 -63.577526 -56.8978 10.463593 -57.415169 11.37658 0.18204725 23.206842
112792000000 -1.1016499 -63.610672 -57.179947 9.0107126 -57.181076 11.921883 0.17637639 23.080217
112840000000 -1.1037611 -63.567436 -57.255764 9.1476831 -57.084618 11.294823 0.17495142 23.118284
112888000000 -1.0979555 -63.447773 -57.158176 10.300042 -57.037628 8.858449 0.14761274 23.196577
112936000000 -1.089697 -63.405685 -57.019791 8.7366009 -57.05846 9.1598969 0.16540314 23.210562
112984000000 -1.0811915 -63.372894 -56.946896 7.0885038 -57.148678 9.8142595 0.16037913 23.294352
113032000000 -1.0783207 -63.447521 -57.277222 7.5034676 -57.513489 8.6100388 0.1557654 23.267776
113080000000 -1.0633707 -63.266491 -57.672115 8.9093075 -57.857391 11.280602 0.16662298 23.362484
113128000000 -1.0578271 -63.249054 -57.894337 10.346729 -57.890118 12.84433 0.17104803 23.248102
113176000000 -1.0448372 -63.327137 -57.569878 10.431561 -57.549587 14.375125 0.16909152 23.15395
113224000000 -1.053378 -63.383835 -57.257923 9.5279932 -57.358105 14.555087 0.17017393 23.174721
113272000000 -1.0535673 -63.441448 -57.456375 8.536068 -57.066994 12.033412 0.17015451 23.113247
113320000000 -1.0518372 -63.287495 -57.912846 10.189752 -57.142071 13.484241 0.15415227 23.189861
113368000000 -1.050142 -63.075466 -57.857075 11.828219 -57.315613 13.039414 0.16231263 23.334082
113416000000 -1.0578334 -62.987324 -57.557476 14.138527 -56.978626 13.025025 0.16004133 23.293243
113464000000 -1.0665754 -63.068043 -57.501434 15.231809 -56.991665 14.387 0.14621684 23.19632
113512000000 -1.0640533 -63.218838 -56.934036 14.161926 -56.599945 12.339537 0.14548443 23.209692
113560000000 -1.0761293 -63.351543 -56.449074 12.385739 -56.357681 10.641513 0.14269584 23.38657
113608000000 -1.0749588 -63.334793 -56.84251 11.062657 -56.475159 10.104213 0.13641044 23.378672
113656000000 -1.0835882 -63.431061 -56.695145 9.9635239 -56.720909 9.504859 0.13487846 23.409204
113704000000 -1.0787425 -63.309052 -56.427673 7.9680586 -56.557514 10.803135 0.14098313 23.315145
113752000000 -1.0678599 -63.536434 -56.543949 5.2709541 -56.241901 8.5728674 0.1377794 23.415901
113800000000 -1.07954 -63.67345 -56.851448 5.1169438 -56.380604 7.2616539 0.14022729 23.492361
113848000000 -1.0638561 -63.474358 -56.930779 7.4170671 -56.160801 6.7068686 0.13933393 23.52663
113896000000 -1.0695548 -63.626457 -56.938034 6.1370964 -56.606152 5.2279997 0.13565932 23.474115
113944000000 -1.0593665 -63.504204 -57.138771 6.5643787 -56.971375 5.8929658 0.14295033 23.526125
113992000000 -1.0603954 -63.572334 -56.980049 6.7018604 -57.08297 6.6596036 0.14823121 23.500679
114040000000 -1.0621903 -63.446415 -57.123943 6.5856876 -57.2043 7.2938867 0.14984152 23.484406
114088000000 -1.0648917 -63.3531 -57.00668 7.7383552 -57.100784 8.1832466 0.14957292 23.571768
114136000000 -1.0618687 -63.386547 -56.996803 9.0822706 -57.07045 8.4554415 0.15474534 23.620136
114184000000 -1.0721421 -63.579273 -56.692062 9.3702822 -56.814682 8.8586102 0.14975099 23.573736
114232000000 -1.0800877 -63.820297 -56.428268 8.9310942 -56.686863 7.6432395 0.15628631 23.528322
114280000000 -1.0873103 -64.167595 -56.001728 6.4493504 -56.718475 7.9621196 0.14651768 23.600885
114328000000 -1.087543 -64.290535 -55.978146 3.9701538 -56.289005 7.1649656 0.15235861 23.683886
114376000000 -1.0931937 -64.52845 -56.067715 2.1495967 -56.183807 6.5784974 0.14540683 23.685692
114424000000 -1.090647 -64.602554 -55.875259 -0.026724925 -55.968517 3.7131538 0.14284614 23.711903
114472000000 -1.0891069 -64.548401 -56.226284 -1.2470903 -56.406879 1.3398514 0.14280155 23.720552
114520000000 -1.0897646 -64.660759 -56.197941 -1.2349716 -56.350525 1.2213645 0.13653737 23.650503
114568000000 -1.0811155 -64.609917 -56.625679 -3.4366794 -56.627808 0.71964008 0.14360103 23.699638
114616000000 -1.077763 -64.753212 -56.568558 -1.7845535 -56.389751 0.34677348 0.1375577 23.605556
114664000000 -1.0790491 -64.853508 -56.317684 -4.8294234 -56.414658 -1.7768134 0.13786666 23.655993
114712000000 -1.0760322 -64.813232 -56.517487 -7.2362876 -56.587486 -2.4194617 0.13446587 23.65468
114760000000 -1.0669838 -64.713448 -57.378067 -8.9093714 -56.801331 -3.7234819 0.14805408 23.682575
114808000000 -1.0689068 -64.776566 -57.608173 -5.3814282 -57.224972 -3.4897196 0.15097123 23.654716
114856000000 -1.0782593 -64.961983 -58.132027 -3.4755425 -57.426914 -3.6196203 0.15343319 23.593576
114904000000 -1.0819092 -64.962265 -58.062824 1.0261773 -57.724903 -2.9079289 0.14891863 23.541048
114952000000 -1.0785739 -64.979782 -57.421143 3.4753628 -57.337463 0.48923418 0.15764652 23.291204
115000000000 -1.082296 -64.90081 -56.71516 1.8211015 -57.336292 1.7665112 0.14834277 23.546204
