!Keysight Technologies,N5247B,MY61256062,A.16.20.04
!Date: Saturday, November 01, 2025 03:56:15
!Correction: S11(C  2-Port  ) 
!S21(C  2-Port  ) 
!S12(C  2-Port  ) 
!S22(C  2-Port  ) 
!S2P File: Measurements: S11, S21, S12, S22:
# Hz S  dB   R 50
67000000000 -0.7613371 -175.95175 -90.889496 98.591736 -82.034988 -148.88281 -0.018330952 13.122188
67048000000 -0.77202541 -176.14088 -85.015732 92.978783 -79.888771 175.89853 0.00065590092 13.050172
67096000000 -0.78713948 -176.11053 -80.333939 131.81233 -79.681519 -161.65891 0.0018245775 13.047772
67144000000 -0.76324999 -176.22755 -78.207008 -163.50552 -78.880341 -161.54526 0.0015715116 13.050513
67192000000 -0.76485562 -176.28545 -77.445045 -147.16478 -79.992386 -160.13892 -0.015467715 13.074327
67240000000 -0.7769767 -176.35208 -76.711281 -172.45894 -76.849846 -162.83754 0.0077691916 13.082344
67288000000 -0.76453704 -176.70232 -77.84848 165.92191 -79.53553 -166.02747 -0.0068244999 13.152968
67336000000 -0.76939541 -176.87267 -77.463112 -152.79402 -80.259399 -173.39375 -0.013571711 13.209989
67384000000 -0.76378697 -176.70592 -78.086472 137.51048 -78.056076 170.90523 0.0051896232 13.249512
67432000000 -0.7548843 -176.77925 -77.124954 156.65514 -77.636353 -169.95253 -0.0014912878 13.109175
67480000000 -0.76857126 -176.9277 -75.447701 -153.37813 -81.871948 -179.78679 0.0071350387 13.197462
67528000000 -0.78377807 -177.11986 -75.783211 178.06955 -78.794243 -176.99995 0.0064537516 13.248744
67576000000 -0.74843061 -177.41125 -74.638191 -172.67017 -77.589882 -175.41318 -0.012938683 13.316376
67624000000 -0.72022223 -177.55989 -86.079514 -152.15388 -78.403214 162.2814 -0.010699674 13.295269
67672000000 -0.72025585 -177.59822 -78.667313 170.71501 -79.497498 173.06604 -0.018219432 13.329007
67720000000 -0.70342612 -177.92398 -78.937599 -154.65785 -79.547203 170.79732 -0.024449391 13.377453
67768000000 -0.69756263 -178.20563 -80.010666 174.18495 -81.050369 165.50026 -0.018818913 13.419681
67816000000 -0.69973868 -178.73885 -86.062759 143.9646 -80.529411 174.07425 -0.0074387463 13.463872
67864000000 -0.70996505 -178.90576 -77.488297 167.35359 -82.521004 163.3644 -0.0045720558 13.479748
67912000000 -0.71177274 -179.09259 -78.032646 167.50732 -82.266502 173.41917 -0.017176906 13.436322
67960000000 -0.73931569 -178.90724 -83.354622 170.88808 -81.548843 -178.82141 -0.0095352018 13.509376
68008000000 -0.7511102 -178.78062 -80.62381 143.08839 -83.995125 148.96152 -0.021574575 13.526177
68056000000 -0.76008219 -178.72859 -78.904144 -171.32684 -82.170021 -178.56606 -0.020779114 13.546268
68104000000 -0.77372521 -178.97365 -86.371552 146.69058 -81.377281 174.05879 -0.022361858 13.550915
68152000000 -0.74787343 -178.89394 -79.638199 -177.37216 -83.130417 169.81232 -0.013642343 13.605221
68200000000 -0.72825593 -178.31059 -80.351486 151.61409 -83.763756 176.61781 -0.010362339 13.655525
68248000000 -0.72594351 -178.23375 -83.708092 171.91675 -85.626694 163.19693 -0.012701645 13.616396
68296000000 -0.70440662 -178.33353 -82.549461 -179.94225 -83.862221 -178.12318 -0.0099765128 13.653096
68344000000 -0.67659581 -178.62234 -91.215744 80.504868 -86.129753 -178.9906 -0.0086197751 13.738353
68392000000 -0.67389959 -178.94482 -83.757957 173.95129 -86.099983 161.55251 -0.0057250885 13.799013
68440000000 -0.6707561 -178.862 -81.989471 176.19279 -83.928406 -175.17424 0.0017340137 13.837807
68488000000 -0.73397923 -178.84935 -83.3312 -177.41441 -84.114464 -178.11696 0.0015109599 13.82957
68536000000 -0.7490387 -178.82645 -83.450264 -165.93063 -85.886749 163.61685 0.010320371 13.841158
68584000000 -0.75526166 -178.71071 -79.561539 170.72908 -89.03997 174.56737 0.012663056 13.82357
68632000000 -0.71922928 -178.61815 -85.18232 154.9808 -88.683083 166.65623 0.013904369 13.838586
68680000000 -0.68335044 -178.38506 -83.763039 -161.54451 -89.381973 146.79764 0.011054242 13.83914
68728000000 -0.6706422 -178.29202 -92.494652 149.35168 -88.163857 153.77386 0.006824906 13.842757
68776000000 -0.69570857 -178.32368 -88.848328 128.26187 -95.023819 161.2473 0.0055267601 13.870846
68824000000 -0.70633417 -178.72939 -93.176239 -151.72311 -91.579041 168.93546 0.0044919979 13.858984
68872000000 -0.75086093 -179.09239 -94.21772 -18.646482 -98.507599 -175.8004 0.0098115979 13.867403
68920000000 -0.76147503 -179.06825 -96.569481 -58.865746 -103.32326 -9.0953617 0.011955788 13.915864
68968000000 -0.79203683 -178.82355 -94.291725 -128.84206 -88.001274 -100.36435 0.014018418 13.899541
69016000000 -0.7752524 -178.23116 -89.226952 -146.21654 -95.900208 -117.77164 0.017021827 13.918732
69064000000 -0.77584594 -177.94052 -91.290016 -61.70266 -89.097198 -117.95367 0.012787462 13.92252
69112000000 -0.76553422 -178.05734 -86.872604 -142.41637 -90.338959 -128.99989 0.0097046709 13.909522
69160000000 -0.75439954 -178.33739 -82.770584 -130.81566 -83.152222 -122.26002 0.011906224 13.900973
69208000000 -0.77141291 -178.28676 -83.218491 -146.63264 -85.910751 -149.09453 0.0062516192 13.884528
69256000000 -0.74605119 -175.94342 -81.374336 -122.46685 -87.032326 -126.06603 -0.0026261488 14.226025
69304000000 -0.7799688 -175.67326 -80.908386 -150.01555 -85.740761 -145.20839 0.00885484 14.257222
69352000000 -0.73977542 -176.54849 -83.432648 -144.89297 -82.161385 -142.12177 0.0021117814 14.206006
69400000000 -0.75433767 -176.98813 -77.815071 -143.81606 -84.450401 -119.59294 0.00079255603 14.203088
69448000000 -0.73763144 -177.72104 -80.72908 -169.69229 -81.326218 -151.3004 0.0038759878 14.258529
69496000000 -0.74395078 -177.97325 -80.898712 -145.32254 -85.437096 -156.84261 0.0063467412 14.306074
69544000000 -0.76817548 -178.07227 -80.454292 -176.43468 -82.806351 -125.89196 0.0062392117 14.311705
69592000000 -0.76836491 -178.38916 -79.478653 -169.75989 -86.101616 -140.15205 0.0020600343 14.302895
69640000000 -0.77089262 -178.57491 -87.487534 -169.59857 -86.315193 -155.07497 0.0025728208 14.292371
69688000000 -0.78310096 -178.73711 -82.637001 -163.92786 -85.974113 -149.51089 0.0032867917 14.285595
69736000000 -0.75531739 -178.73711 -87.715233 155.29758 -85.049667 -147.24936 0.0020062169 14.297682
69784000000 -0.75863433 -178.6051 -82.240807 -177.2995 -86.060257 -148.82184 -0.00084448239 14.282454
69832000000 -0.76726639 -178.73932 -88.226944 -164.55504 -82.120331 -149.02118 0.00087382237 14.267159
69880000000 -0.75291234 -179.00572 -83.175804 -156.53719 -87.39222 -109.34731 0.0030203597 14.251781
69928000000 -0.76212776 -179.38889 -85.639679 -154.22675 -80.775932 -155.69377 0.0020657266 14.25857
69976000000 -0.75790566 -179.54482 -83.010864 -158.0164 -84.921921 -149.5835 0.0050189765 14.276436
70024000000 -0.7663886 -179.48061 -85.61097 -171.49646 -81.710838 -147.66841 0.0053556096 14.278917
70072000000 -0.78017265 -179.40474 -87.021484 -130.69891 -85.629417 -151.54904 0.010156641 14.261567
70120000000 -0.77225119 -179.35229 -83.320045 -101.84704 -83.231262 -132.40288 0.0041620219 14.230894
70168000000 -0.77986753 -179.43533 -82.163513 -117.40979 -82.563461 -118.53479 0.0020548597 14.260442
70216000000 -0.75200671 -179.71976 -82.715309 -95.872292 -83.085464 -120.92215 0.0099433167 14.194708
70264000000 -0.76238167 -179.6835 -80.691566 -114.82444 -81.3722 -156.58763 -0.00016826205 14.193478
70312000000 -0.77269185 -179.60461 -80.999359 -128.69916 -82.741959 -151.25067 -0.0011795249 14.209266
70360000000 -0.76336724 -179.62759 -78.318474 -147.13075 -82.997505 -128.1355 6.005503e-005 14.233523
70408000000 -0.76015776 -179.72588 -78.566238 -133.00679 -80.333221 -144.08058 0.0012030131 14.205493
70456000000 -0.76919764 -179.70222 -78.640411 -158.95946 -80.51355 -150.60056 0.006948445 14.276438
70504000000 -0.77227342 -179.77943 -79.000877 -108.42739 -85.444344 -155.08739 0.0046300837 14.244571
70552000000 -0.79659271 -179.62837 -80.58638 165.44623 -82.990807 -125.09347 0.0036613208 14.292575
70600000000 -0.7807858 -179.35085 -75.253799 -158.58931 -80.4963 -115.49609 0.0073789945 14.264569
70648000000 -0.79191196 -179.20911 -85.836998 -118.6614 -81.905533 -130.9863 -0.00083205471 14.28066
70696000000 -0.77982724 -179.34308 -77.591469 -153.76123 -84.441086 -117.68049 -0.0017453238 14.25002
70744000000 -0.75933844 -179.47685 -78.022469 154.52332 -81.986435 -142.58247 -0.00079813774 14.293019
70792000000 -0.76006615 -179.49208 -81.647552 -122.54209 -79.413239 -120.6396 0.0014240125 14.294051
70840000000 -0.74163771 -179.4689 -84.460976 -90.873909 -80.841377 -128.12369 0.0050624148 14.265368
70888000000 -0.76140743 -179.44656 -82.509949 -128.61522 -79.498833 -118.12811 0.005737199 14.221381
70936000000 -0.73495287 -179.71289 -80.760704 -97.043907 -78.929382 -142.52155 0.0046021566 14.217857
70984000000 -0.73642194 179.9196 -74.034424 -92.865608 -79.064339 -132.94345 0.014942567 14.171879
71032000000 -0.73374164 179.80379 -78.142082 -137.5244 -77.502663 -129.60045 0.011178694 14.229233
71080000000 -0.71205944 179.73337 -74.940979 -135.35298 -77.623665 -122.13993 0.023791224 14.205305
71128000000 -0.7195006 179.66043 -74.935707 -158.45967 -77.848083 -127.10306 0.023314409 14.280021
71176000000 -0.71300435 179.41258 -75.349129 -139.94217 -76.632645 -135.09235 0.02901114 14.271554
71224000000 -0.68484676 178.94933 -75.727592 -151.41022 -75.949448 -134.70775 0.026080854 14.301481
71272000000 -0.71522903 178.73174 -78.314804 -148.8573 -75.923775 -140.70729 0.030095091 14.353414
71320000000 -0.69690526 178.57903 -78.159851 -133.13385 -76.660446 -137.47478 0.023701632 14.30973
71368000000 -0.71793973 178.57999 -78.205032 -142.4077 -75.695007 -139.55551 0.02064616 14.321796
71416000000 -0.70878059 178.55254 -76.666458 -142.77177 -75.706993 -138.36572 0.0076105329 14.370508
71464000000 -0.71587241 178.28635 -75.679108 -133.37778 -77.07885 -132.21397 -0.0087326039 14.253304
71512000000 -0.71952534 177.92545 -74.012741 -139.11308 -76.357742 -124.64302 -0.0228344 14.165481
71560000000 -0.71923757 177.85706 -73.352089 -145.13289 -74.266769 -130.55495 -0.022953844 14.122776
71608000000 -0.71775132 177.78685 -72.457489 -131.72687 -74.175278 -135.62148 -0.025980089 14.144978
71656000000 -0.70953918 177.63474 -73.080971 -165.98198 -75.08181 -136.07135 -0.017419646 14.035686
71704000000 -0.70637834 177.51465 -76.683403 -139.3354 -75.198891 -139.98364 -0.0088044526 14.378036
71752000000 -0.69142151 177.63943 -77.827278 -158.7011 -74.449394 -149.39511 0.043024033 14.718652
71800000000 -0.70059699 177.63957 -74.878273 -149.34462 -75.328163 -145.30547 0.027425349 14.417771
71848000000 -0.70589131 177.58688 -73.248505 -143.62323 -74.89975 -143.28528 -0.01736117 14.103835
71896000000 -0.69498277 177.58972 -73.107063 -147.08978 -75.579475 -145.56606 -0.0042110994 14.238611
71944000000 -0.70815134 177.53123 -75.222725 -130.05959 -75.598541 -144.60388 0.0071298704 14.279995
71992000000 -0.71408284 177.36848 -72.966362 -146.43047 -76.217407 -148.83807 0.0016429304 14.227435
72040000000 -0.71028054 178.12967 -77.447601 -160.53355 -74.613579 -146.97832 -0.0040144389 14.248339
72088000000 -0.72584134 178.43256 -73.25898 -162.65558 -74.949951 -148.53462 0.015625102 14.277844
72136000000 -0.72738451 178.55603 -77.26445 -148.7282 -74.345329 -140.96552 0.017508615 14.382389
72184000000 -0.72629416 178.5233 -74.279793 -145.12059 -73.721306 -154.96916 0.029535666 14.25866
72232000000 -0.7264753 178.767 -76.013306 -137.50775 -74.965965 -151.68362 0.018145895 14.302203
72280000000 -0.74481541 179.8898 -74.269737 -122.40239 -74.441322 -151.6124 0.014846085 14.390487
72328000000 -0.7132194 -179.0229 -79.584938 -156.72792 -74.894966 -155.66557 0.015215491 14.301668
72376000000 -0.72174352 -178.17065 -75.993263 -152.03375 -74.005264 -156.74414 0.031133538 14.330533
72424000000 -0.70318353 -177.59116 -76.767677 -149.24069 -74.159157 -157.27402 0.014744957 14.304646
72472000000 -0.70556426 -176.93689 -74.5429 -162.88885 -75.171341 -155.76888 0.034338307 14.368461
72520000000 -0.73834783 -175.55495 -78.395706 -160.10551 -76.492722 -162.80112 0.028490664 14.387109
72568000000 -0.75143886 -173.49748 -77.602692 -140.34868 -74.468102 -154.90211 0.032934807 14.331827
72616000000 -0.7367667 -173.55481 -78.617073 -158.46739 -75.111649 -159.966 0.042308874 14.374533
72664000000 -0.72209078 -173.87001 -76.399231 -152.23305 -74.918961 -152.04477 0.024168622 14.385304
72712000000 -0.71016926 -174.57848 -75.197968 -150.89749 -74.207962 -156.6376 0.02554922 14.436039
72760000000 -0.70983392 -174.68875 -76.155884 -164.31793 -74.366318 -160.91907 0.039706141 14.468395
72808000000 -0.71079665 -174.41917 -76.477493 -149.43655 -73.622047 -161.00798 0.040046766 14.434026
72856000000 -0.72813714 -174.35973 -76.926567 -149.97124 -74.649796 -156.73926 0.049145989 14.423796
72904000000 -0.73191041 -174.07948 -77.353043 -165.50681 -74.274956 -159.03169 0.055185717 14.418447
72952000000 -0.74437726 -174.61861 -75.622124 -165.86972 -73.89817 -160.08939 0.052994236 14.363591
73000000000 -0.74176514 -174.76495 -76.734657 -148.87138 -73.882782 -158.35683 0.056006085 14.393721
73048000000 -0.7408784 -174.93489 -74.605827 -149.64069 -73.673462 -159.13303 0.043792889 14.35583
73096000000 -0.746279 -175.03317 -75.776657 -162.06244 -73.242462 -164.90819 0.036579262 14.377043
73144000000 -0.73409051 -175.50168 -77.121033 -151.22948 -73.608086 -160.08597 0.03299595 14.360669
73192000000 -0.73430139 -176.19458 -75.192955 -163.85704 -73.083458 -161.02055 0.03799903 14.417404
73240000000 -0.7347309 -177.1803 -76.739708 -150.07596 -73.078247 -161.88324 0.03109807 14.391625
73288000000 -0.74652213 -177.78836 -76.480812 -155.70242 -73.237625 -167.42406 0.0371424 14.505074
73336000000 -0.74540454 -178.49286 -75.616249 -163.55919 -73.872604 -163.35188 0.027287984 14.400611
73384000000 -0.72782248 179.79741 -75.0793 -152.29663 -74.357445 -164.18304 0.020069027 15.256207
73432000000 -0.72947568 179.52342 -75.196648 -156.73787 -74.062805 -161.22667 0.0038971954 14.350055
73480000000 -0.71660632 178.10027 -74.313995 -162.90388 -73.794479 -168.85121 0.0075314599 14.446202
73528000000 -0.7117703 177.4369 -73.817139 -166.23314 -73.734787 -166.80873 -0.0002567964 14.47674
73576000000 -0.71281278 177.15213 -74.419014 -169.40446 -74.089615 -166.15994 0.0042059855 14.509219
73624000000 -0.71308851 177.00664 -74.493713 -156.95514 -73.354927 -166.01065 0.0013494847 14.535722
73672000000 -0.70414203 176.91922 -73.952827 -169.04581 -72.933205 -166.21541 -0.0071810065 14.520052
73720000000 -0.71031648 176.75375 -73.355568 -162.51874 -73.767357 -166.12349 -0.011355734 14.398454
73768000000 -0.69643635 176.33665 -74.708229 -168.66501 -72.707718 -167.787 -0.0063384017 14.593319
73816000000 -0.69412136 175.75728 -74.522659 -165.99672 -73.311699 -168.25586 -0.013256224 15.195221
73864000000 -0.68730086 175.98027 -74.6409 -163.931 -73.430153 -166.89183 -0.0071654492 15.037065
73912000000 -0.70705974 177.12517 -75.692101 -147.00008 -74.163445 -166.23959 0.017460661 14.20565
73960000000 -0.70410949 177.08714 -73.276985 -161.38391 -73.126213 -164.2592 0.017238414 14.424865
74008000000 -0.70962512 176.98294 -74.491013 -169.12941 -72.999107 -162.33766 0.020017494 14.540219
74056000000 -0.71437144 176.88202 -72.565125 -160.82202 -72.5327 -173.64172 0.019067621 14.565408
74104000000 -0.71501535 176.77611 -72.699417 -159.5818 -72.909653 -167.35028 0.0092831338 14.598088
74152000000 -0.72186887 176.76025 -72.437637 -176.23077 -72.792007 -171.6239 0.010115319 14.67814
74200000000 -0.72770339 176.47554 -71.924149 -175.28645 -72.341492 -174.76007 0.016010949 14.751233
74248000000 -0.72468746 176.16327 -71.823822 -176.94778 -73.244469 -174.11745 0.015688037 14.666149
74296000000 -0.73099566 175.83859 -73.687531 175.13268 -72.806961 -178.24321 0.0093595926 14.665603
74344000000 -0.73101401 175.68884 -72.814842 -163.82874 -73.397911 -175.00377 0.012440047 14.756227
74392000000 -0.73496175 175.68871 -72.45903 -175.62917 -73.135681 -165.65024 0.0035356192 14.72362
74440000000 -0.73507547 175.63171 -73.293564 -175.19374 -73.077225 -166.27344 0.010780539 14.809578
74488000000 -0.72464341 175.53331 -73.083839 -166.09598 -72.117912 -167.37332 0.0025898954 14.839264
74536000000 -0.73284858 175.31953 -72.770363 -158.87842 -72.025124 -167.34334 -0.0038657184 14.812427
74584000000 -0.72906601 175.29883 -71.725487 -164.09189 -71.095535 -166.50504 0.0010963912 14.884362
74632000000 -0.74170554 175.36783 -71.143837 -167.34995 -70.717491 -169.42303 0.0078534279 14.885255
74680000000 -0.75663841 175.56384 -71.540741 -170.27934 -70.717613 -174.53612 0.011839104 14.892403
74728000000 -0.76214194 175.614 -71.278137 -173.05078 -70.933884 -174.16994 0.0051596314 14.912735
74776000000 -0.77775037 175.49467 -70.500351 -176.14484 -71.364838 -178.31169 0.0064061917 14.89434
74824000000 -0.77432972 175.42691 -70.7164 -179.52483 -70.442688 -177.48232 0.0033974983 14.896362
74872000000 -0.7725836 175.47057 -70.674576 178.63568 -70.614655 -178.92203 0.004105127 14.936736
74920000000 -0.77565688 175.56284 -70.711296 172.75392 -70.806168 175.37805 0.0034714737 14.893517
74968000000 -0.77789408 175.48251 -71.809601 175.67015 -70.73098 176.75264 0.00501122 14.98933
75016000000 -0.77794701 175.27379 -72.522224 174.95871 -70.890099 176.84616 0.0017402238 15.027687
75064000000 -0.78406858 175.07603 -72.616058 -179.90111 -71.591438 178.24167 0.006724108 15.053965
75112000000 -0.79169047 174.8846 -71.705849 175.0383 -71.270317 179.19209 0.0038470214 15.077951
75160000000 -0.79204494 174.91486 -72.808464 179.38312 -71.118851 -178.05252 0.012668218 15.058769
75208000000 -0.80257154 174.83504 -71.808525 -175.22417 -70.888748 -178.96028 0.010767628 15.13894
75256000000 -0.80263817 174.77042 -71.99128 -178.17398 -70.162178 -178.34749 0.010879694 15.108149
75304000000 -0.81830436 174.52797 -70.844498 176.77856 -69.997101 178.28519 0.01553689 15.179488
75352000000 -0.8192783 174.47392 -71.207329 -176.26753 -69.69693 174.97929 0.013858439 15.139665
75400000000 -0.82298142 174.56726 -70.701942 172.7047 -69.781212 169.23351 0.017498303 15.117142
75448000000 -0.8130576 174.7485 -70.46389 173.00012 -70.135422 165.74086 0.016587591 15.134651
75496000000 -0.80610806 174.83391 -71.073555 171.91348 -70.99511 162.84456 0.0034637142 15.164051
75544000000 -0.79097921 174.74507 -71.848076 177.91107 -72.14093 165.80807 0.0023818912 15.208528
75592000000 -0.78958935 174.65105 -71.853439 177.23938 -72.446342 168.18346 0.0036639071 15.2206
75640000000 -0.79567701 174.7399 -71.362549 175.09174 -72.370819 172.59137 0.00067919469 15.278234
75688000000 -0.80513513 174.95171 -71.7444 175.18909 -72.377724 174.25375 0.0048229834 15.360404
75736000000 -0.82239795 175.18292 -71.726616 174.30269 -72.546906 172.17404 0.0055195214 15.324754
75784000000 -0.83195156 175.00844 -71.77269 173.87006 -72.076202 172.61716 0.0070781829 15.357434
75832000000 -0.83974719 174.91071 -71.222946 172.27786 -72.67424 171.00125 0.010620958 15.353606
75880000000 -0.85135758 174.80226 -71.438393 165.14865 -72.508621 170.985 0.0097057037 15.333882
75928000000 -0.84970611 174.88707 -73.033203 164.76189 -72.444466 170.63037 0.0041423673 15.321764
75976000000 -0.85741806 174.9129 -72.238556 165.57378 -72.729065 170.73531 -0.0051064193 15.350237
76024000000 -0.84342158 174.90857 -71.996918 170.16055 -71.710457 169.14821 0.00077185099 15.428289
76072000000 -0.83428693 174.68587 -72.62384 168.48232 -72.175545 167.49065 -0.0074078892 15.405634
76120000000 -0.82934856 174.5842 -73.31855 171.30577 -73.183434 166.33064 -0.0043533538 15.449344
76168000000 -0.82773399 174.45432 -72.421127 -178.91969 -72.7416 167.62999 -0.0028380293 15.452256
76216000000 -0.8421663 174.65186 -71.969116 172.60649 -73.24926 165.7207 -0.00051516131 15.48305
76264000000 -0.84660017 174.77556 -70.963181 171.25655 -72.568161 174.39981 -0.0017538696 15.472525
76312000000 -0.85003257 174.55414 -70.930702 173.02991 -72.464302 172.2973 0.0010073651 15.480914
76360000000 -0.84998697 174.44742 -71.744492 161.20644 -71.956474 168.48962 0.0038242619 15.485581
76408000000 -0.84739357 174.28348 -71.883156 165.60649 -72.079849 164.75655 0.0074420488 15.479428
76456000000 -0.85881495 174.50043 -73.364059 166.15602 -72.971436 162.52396 0.0083221262 15.484415
76504000000 -0.85290062 174.65114 -73.886841 168.98659 -73.318085 169.2513 0.008958688 15.490401
76552000000 -0.83465302 174.53787 -73.158447 176.35788 -73.126205 170.45995 0.0077774604 15.482275
76600000000 -0.83276832 174.29008 -73.094345 175.83981 -73.681786 175.49713 0.0068977894 15.476974
76648000000 -0.82699424 174.03625 -72.676888 -177.17258 -72.853577 176.51904 0.0065100989 15.467688
76696000000 -0.8266626 173.82954 -70.941223 175.82478 -72.179047 -178.56546 0.0076813358 15.487758
76744000000 -0.82456326 173.88318 -70.73912 175.53363 -71.32917 170.29698 0.0071262522 15.482072
76792000000 -0.83866155 173.71219 -70.840675 173.2887 -71.214882 169.18843 0.0079138912 15.568785
76840000000 -0.83229989 172.89204 -71.1884 166.8709 -71.254051 166.88661 0.0069293198 15.549588
76888000000 -0.84002835 172.83752 -71.145958 164.77344 -71.052238 161.09343 0.005933668 15.557507
76936000000 -0.85051149 172.69952 -71.748962 164.33536 -72.434135 165.53593 0.010204676 15.600183
76984000000 -0.84994602 172.54459 -72.251953 164.36507 -72.608719 164.53555 0.013960104 15.589494
77032000000 -0.84817082 172.28758 -71.47303 165.28539 -72.355652 162.96284 0.013516787 15.614031
77080000000 -0.83638191 172.03836 -72.927391 169.78308 -72.207802 166.55298 0.012509739 15.61564
77128000000 -0.83638316 171.9288 -72.096825 166.28375 -71.67028 165.54362 0.011131185 15.630307
77176000000 -0.84151393 171.93814 -73.16568 172.75626 -71.574722 165.91898 0.0078430921 15.641317
77224000000 -0.84135467 171.92035 -72.19297 176.85654 -71.833755 171.11011 0.0018633899 15.714336
77272000000 -0.84019417 171.98164 -70.992607 176.23938 -71.827805 167.35622 0.00022313131 15.792641
77320000000 -0.82261819 172.04224 -70.532402 168.81531 -71.177666 168.53648 -0.0013012236 15.811958
77368000000 -0.82215518 172.0067 -70.672348 167.59044 -71.814224 164.70787 -0.0005265525 15.809075
77416000000 -0.80895251 171.97655 -69.989922 169.88336 -70.784782 166.34784 0.0042846021 15.842157
77464000000 -0.8156333 171.9809 -69.839119 161.88441 -71.472069 165.47948 0.0057403012 15.891475
77512000000 -0.80808032 172.01773 -69.970963 161.7439 -71.404579 162.16422 0.013215885 15.885633
77560000000 -0.80855459 171.97749 -69.462067 151.19005 -70.529663 162.27605 0.014921929 15.827623
77608000000 -0.8114509 171.74289 -70.343414 149.683 -70.511642 157.23949 0.022259153 15.742324
77656000000 -0.78920281 172.16618 -71.722267 150.39857 -71.615341 150.97411 0.037039734 15.811902
77704000000 -0.82703215 172.11438 -72.21904 147.56979 -72.631157 157.16476 -0.0029727262 15.709522
77752000000 -0.82765508 172.48486 -71.362556 150.26257 -72.524834 159.11691 0.015736528 15.776766
77800000000 -0.81536067 172.45726 -71.549576 152.68712 -72.671448 158.94223 0.019969052 15.774696
77848000000 -0.81748712 172.50076 -72.471207 159.50652 -72.464439 163.09119 0.023527076 15.762922
77896000000 -0.82424998 172.57315 -73.139297 156.35947 -71.94767 159.61971 0.020957883 15.744248
77944000000 -0.83867913 172.58284 -72.989517 161.46478 -72.463348 162.27806 0.020684291 15.737603
77992000000 -0.83889741 172.67484 -72.552223 158.86288 -72.692741 163.92075 0.020359665 15.755284
78040000000 -0.83715087 172.51054 -72.52594 164.34853 -72.771973 168.57541 0.019099062 15.75154
78088000000 -0.84125471 172.36139 -72.266487 162.21791 -72.009987 167.47012 0.020618852 15.781328
78136000000 -0.82967383 172.14136 -71.00872 165.67961 -71.902924 165.91515 0.021277314 15.775664
78184000000 -0.8357417 172.12967 -71.477455 161.87503 -70.920708 164.31354 0.022868956 15.778846
78232000000 -0.81713003 172.14456 -70.10141 157.24287 -70.556511 165.06468 0.024741093 15.773593
78280000000 -0.82621139 171.92795 -69.981743 149.44554 -70.001244 161.75986 0.02220507 15.825105
78328000000 -0.82122278 171.5002 -70.138634 148.78105 -69.344383 155.46822 0.01753182 15.755278
78376000000 -0.83595258 171.1476 -70.206505 148.18645 -69.805328 153.54842 0.021184063 15.743131
78424000000 -0.8172403 171.11127 -70.18486 138.83611 -69.627663 150.02304 0.022327656 15.789454
78472000000 -0.81512421 171.0771 -69.996216 134.8335 -69.070717 145.95627 0.023363844 15.732851
78520000000 -0.83093804 171.14954 -70.483994 128.32191 -69.580559 139.39931 0.0059900219 15.801471
78568000000 -0.79645121 170.96826 -73.726776 127.13452 -70.344978 138.18015 0.023201633 15.770402
78616000000 -0.7949996 170.72198 -74.008575 127.85717 -71.641624 129.66405 0.019801045 15.781326
78664000000 -0.80155617 170.59163 -75.773903 130.9337 -73.448311 138.57968 0.016378194 15.797322
78712000000 -0.79523522 170.77715 -74.099358 138.42935 -73.22821 137.09055 0.016699506 15.831921
78760000000 -0.79043049 170.85312 -73.84845 148.44893 -73.446915 141.41037 0.017324014 15.812955
78808000000 -0.79262865 171.00204 -75.179817 147.67699 -74.282959 147.56956 0.010790869 15.884227
78856000000 -0.79157495 170.731 -75.492378 148.41595 -73.91288 149.89653 0.02128092 15.901372
78904000000 -0.79012585 170.43796 -74.011688 161.45532 -73.225525 156.53479 0.028290585 15.889185
78952000000 -0.79850125 170.29143 -72.951591 162.1942 -72.126335 152.84744 0.022762865 15.899285
79000000000 -0.82192123 170.27106 -71.91037 156.96486 -71.676796 152.77522 0.022934875 15.924198
79048000000 -0.83281696 170.24854 -71.237534 152.78146 -70.835846 150.24498 0.022859171 15.918962
79096000000 -0.83394092 170.12604 -70.468987 147.53146 -71.088531 145.86847 0.020663681 15.968071
79144000000 -0.8233797 169.90039 -71.441734 143.79723 -71.175095 145.97798 0.018628433 15.943619
79192000000 -0.80494475 169.73367 -71.548134 140.93625 -71.493484 142.65526 0.012951094 16.000391
79240000000 -0.78462863 169.73013 -72.813118 140.09706 -72.090202 141.54211 0.014507091 16.014704
79288000000 -0.7704348 169.58609 -72.90609 135.32025 -72.463585 135.44177 0.015661729 16.000038
79336000000 -0.76816529 169.45935 -73.424255 138.38326 -73.288338 138.68231 0.016608221 16.028713
79384000000 -0.76737386 169.26288 -74.177444 138.47559 -74.587425 142.86121 0.022191163 16.018385
79432000000 -0.7794317 169.03683 -75.024315 140.7876 -74.62101 141.64641 0.017936056 15.968348
79480000000 -0.80200797 169.24174 -74.441986 144.77711 -75.661728 154.09679 0.013595751 15.96922
79528000000 -0.82086724 169.52124 -74.686852 165.216 -73.329506 158.4119 0.011471475 15.921948
79576000000 -0.81158322 169.98419 -72.704765 163.29471 -72.825363 163.681 0.013662844 15.959765
79624000000 -0.81374222 170.26801 -71.217926 166.11296 -72.610092 164.40947 0.016518481 15.956876
79672000000 -0.80655247 170.2139 -72.434944 160.11916 -70.723862 156.45966 0.0095961904 15.965511
79720000000 -0.81734902 170.50595 -71.127319 150.77481 -70.703255 156.36816 0.0094474144 16.051878
79768000000 -0.81871033 170.95041 -70.536606 156.1109 -70.674713 158.0163 -0.0065966104 16.026007
79816000000 -0.80192822 171.40744 -69.855682 146.94662 -69.977089 152.27309 0.026851172 15.948591
79864000000 -0.79207879 171.30864 -69.86306 142.3615 -70.072868 146.76472 0.015323315 15.953434
79912000000 -0.7849561 170.90816 -70.077545 140.53035 -70.244576 143.33803 0.01205853 15.987845
79960000000 -0.78458953 170.51138 -71.285446 135.98087 -70.540199 141.74167 0.016688161 15.965017
80008000000 -0.79087985 170.31523 -72.224075 127.94263 -70.937134 145.13641 0.013364532 15.95941
80056000000 -0.79570651 170.29851 -73.605766 141.09554 -70.608437 144.97565 -0.0008100475 16.001753
80104000000 -0.82114744 170.11641 -73.445084 142.77771 -71.343582 142.40292 0.020328747 16.121435
80152000000 -0.83225381 169.89003 -72.800034 143.91562 -70.9384 144.05223 0.018738234 16.107895
80200000000 -0.82980824 169.41554 -71.403435 157.99388 -70.30986 146.40099 0.025923893 16.151686
80248000000 -0.82442802 169.23454 -70.160522 150.9938 -70.120972 149.51642 0.02991925 16.134043
80296000000 -0.82225436 169.0602 -69.587791 148.93504 -69.365707 148.90504 0.03145222 16.053778
80344000000 -0.82544816 169.01457 -69.426208 138.49997 -69.342339 148.43755 0.029629765 16.039495
80392000000 -0.84075618 168.92209 -69.695808 141.35091 -68.779022 149.40916 0.025653699 16.053442
80440000000 -0.83257204 168.6795 -69.456757 136.61981 -67.543282 143.53062 0.0093957549 16.032377
80488000000 -0.82328993 168.40836 -68.290268 138.49139 -67.385063 139.64302 0.0088310735 16.146091
80536000000 -0.80466622 168.22275 -68.210838 128.36708 -67.173637 129.62579 0.030639021 16.124231
80584000000 -0.799187 168.14262 -68.431458 116.71876 -67.519875 124.87343 0.020166423 16.023319
80632000000 -0.80151105 167.95749 -69.301361 116.23243 -67.895576 118.74582 0.0081774397 15.989091
80680000000 -0.79309565 167.64621 -70.287117 109.03959 -68.77845 113.42713 0.0061642495 15.97725
80728000000 -0.80068862 167.48068 -70.846863 119.93127 -69.210159 110.31817 -0.00090765691 16.044598
80776000000 -0.80441296 167.44484 -70.435127 113.80831 -70.516037 107.30625 -6.3938809e-005 16.066191
80824000000 -0.81567359 167.54625 -73.045296 100.68546 -71.901787 105.27639 0.0029406857 16.148499
80872000000 -0.81730872 167.52058 -74.067024 107.58778 -74.03717 112.27986 0.0068734949 16.144632
80920000000 -0.81038421 167.6244 -76.491478 111.47428 -75.077736 119.88449 0.0026245618 16.179335
80968000000 -0.8072027 167.83372 -76.359261 133.0359 -73.841125 121.79432 0.010253226 16.209873
81016000000 -0.81363577 167.90445 -74.481941 140.405 -73.685242 136.50247 0.022908611 16.227816
81064000000 -0.81753963 168.16769 -74.48423 155.05498 -73.147469 140.82393 0.028774053 16.239143
81112000000 -0.80069268 168.15948 -71.203377 146.61165 -72.221481 142.0498 0.027795229 16.20673
81160000000 -0.79345894 168.06693 -71.340492 140.77707 -72.582306 141.43593 0.016941894 16.237356
81208000000 -0.79574728 168.30116 -71.082901 144.61652 -71.984612 144.40741 0.0064728786 16.158628
81256000000 -0.77989846 168.40247 -71.62587 135.01529 -72.593346 139.72383 0.04338285 16.204794
81304000000 -0.79027182 168.22887 -72.173599 140.56525 -72.050041 140.96614 0.037466798 16.167828
81352000000 -0.80208457 168.25038 -71.210251 131.77928 -71.427078 139.70152 0.023454472 16.341377
81400000000 -0.82648474 168.11305 -71.912621 129.71138 -71.485664 141.15036 0.0019058245 16.436159
81448000000 -0.83571351 168.21063 -72.489944 140.2941 -70.336456 144.26233 0.019262457 16.348625
81496000000 -0.8246277 168.18231 -70.073166 132.69621 -70.099609 130.42148 0.023551278 16.281668
81544000000 -0.84661967 167.9915 -72.094009 121.66182 -70.931976 120.58782 0.031424977 16.521248
81592000000 -0.84990478 167.97992 -72.676254 117.13422 -71.641289 120.81009 0.0039644381 16.439899
81640000000 -0.82853246 167.84851 -75.253235 140.94763 -73.230537 122.86006 0.053069416 16.345972
81688000000 -0.81806558 167.79445 -74.269302 147.94939 -72.857903 134.70551 0.069329053 16.247663
81736000000 -0.81463301 168.08826 -72.091743 154.23839 -72.990524 132.30998 0.039895438 16.341669
81784000000 -0.82698143 168.46631 -72.813187 154.1386 -74.143265 136.93437 0.017531304 16.374744
81832000000 -0.8356868 168.56432 -73.296799 151.64618 -74.529846 135.40395 0.011910871 16.276796
81880000000 -0.83370161 168.4825 -71.718781 154.55232 -74.038872 148.67775 0.029945472 16.183376
81928000000 -0.84920251 168.45952 -72.358337 147.14264 -73.467499 152.68979 0.030991152 16.175768
81976000000 -0.86225206 168.75961 -70.411301 145.04141 -73.692963 152.39586 0.024865154 16.27599
82024000000 -0.87521738 169.63983 -71.571831 139.85074 -73.113518 157.11145 0.027521037 16.339914
82072000000 -0.8787784 169.64091 -71.598961 140.96011 -71.722466 155.25717 0.030754687 16.440138
82120000000 -0.8888194 169.42252 -71.220467 137.6758 -72.333099 150.63123 0.02820057 16.439222
82168000000 -0.88267565 168.98247 -72.73085 145.81593 -72.4841 151.26741 0.034801587 16.380016
82216000000 -0.8867653 168.78532 -72.20311 146.20735 -71.979912 149.74773 0.024899127 16.408308
82264000000 -0.87285423 168.78236 -72.821678 139.54301 -72.194641 155.14751 0.041719228 16.361351
82312000000 -0.85759372 168.68164 -72.492203 143.56311 -72.184402 152.74141 0.040001623 16.322487
82360000000 -0.84096384 168.34781 -72.683372 147.8358 -72.306633 157.72687 0.03735901 16.363485
82408000000 -0.84320092 167.64565 -71.782776 150.37918 -71.342903 162.76567 0.028398598 16.37044
82456000000 -0.84295797 167.13031 -71.536156 154.48769 -70.378845 159.33965 0.023361783 16.443253
82504000000 -0.85984731 166.81105 -71.116882 163.24576 -69.826782 155.36247 0.0096111717 16.430529
82552000000 -0.87436032 166.63972 -68.366264 153.78641 -69.754906 153.1348 0.0087623559 16.428675
82600000000 -0.88686091 166.48987 -68.113785 143.23024 -69.805412 150.46704 -0.0012517669 16.501114
82648000000 -0.92257231 166.22923 -67.798721 137.26086 -69.782486 147.44179 0.0018633899 16.539633
82696000000 -0.92389721 166.03207 -68.30719 124.32496 -69.21199 145.65135 0.010160772 16.638704
82744000000 -0.92408901 165.88104 -70.412178 120.23812 -69.168671 142.11028 0.013997776 16.67901
82792000000 -0.90742761 165.93315 -71.089432 125.27452 -69.165977 143.84435 0.017416315 16.701191
82840000000 -0.89482552 165.88416 -71.03183 125.92471 -70.177734 137.52203 0.025125615 16.772421
82888000000 -0.86917317 165.76517 -70.093185 124.40436 -70.329216 136.66692 0.027800888 16.678999
82936000000 -0.85503173 165.53708 -72.036301 128.20845 -70.54908 136.83775 0.022374528 16.639858
82984000000 -0.83644056 165.32643 -71.233246 127.28607 -70.865059 135.36888 0.018460892 16.575657
83032000000 -0.8152979 165.24181 -71.118439 138.06042 -71.271286 141.53214 0.019216582 16.587032
83080000000 -0.81924266 165.13496 -70.748245 137.35162 -71.249901 136.49335 0.014982294 16.557098
83128000000 -0.82503402 165.10292 -69.832382 137.12196 -71.258835 141.56197 0.016409656 16.618889
83176000000 -0.85500681 165.04169 -69.227928 131.25316 -71.311905 140.04564 0.024301965 16.677282
83224000000 -0.88138992 164.98213 -69.483788 128.39536 -70.838051 142.60762 0.029626166 16.656136
83272000000 -0.90191412 165.08647 -70.177979 128.70518 -71.095612 139.30713 0.040143203 16.610598
83320000000 -0.91355765 165.30226 -69.655022 124.37268 -70.897209 140.38522 0.044040944 16.714157
83368000000 -0.92744225 165.38742 -69.695152 116.84133 -70.978439 143.58478 0.051036 16.657061
83416000000 -0.9241249 165.57016 -71.760239 111.74028 -70.673538 141.63193 0.056721546 16.633789
83464000000 -0.91400969 165.62411 -72.528664 113.39179 -70.323547 144.41603 0.050126664 16.682568
83512000000 -0.89271611 165.64047 -72.137825 121.03493 -70.018608 142.62622 0.044565707 16.716221
83560000000 -0.87059641 165.95187 -73.960732 118.31558 -70.035606 138.16562 0.03912589 16.634573
83608000000 -0.85468501 166.15132 -72.01593 123.65705 -70.176567 135.13931 0.033140328 16.626448
83656000000 -0.83967906 166.28693 -72.349182 122.91064 -70.747993 130.09192 0.033271853 16.651428
83704000000 -0.84458953 165.92195 -73.15834 115.75491 -71.368057 128.89175 0.033711102 16.689569
83752000000 -0.86563396 165.41898 -74.349297 117.5756 -71.034073 131.13133 0.03673327 16.699099
83800000000 -0.89188224 165.22395 -72.960709 121.17126 -71.349167 126.24392 0.038398288 16.722994
83848000000 -0.92864901 165.11826 -74.999504 124.37697 -73.67881 125.49198 0.039987262 16.759487
83896000000 -0.95373583 165.09166 -76.62999 111.33202 -73.983246 134.62363 0.051223781 16.835653
83944000000 -0.96264112 165.00192 -79.090126 138.34061 -73.724266 143.85872 0.054230209 16.7778
83992000000 -0.96034485 164.55095 -78.304199 154.79665 -73.928009 143.32593 0.05157885 16.774593
84040000000 -0.93703532 164.3112 -75.900887 147.16336 -74.101379 145.937 0.048175842 16.81307
84088000000 -0.90143341 164.24443 -74.627457 165.9834 -75.137238 158.12479 0.040658694 16.84973
84136000000 -0.87433785 164.1488 -75.588142 167.01894 -73.429085 159.85732 0.03277244 16.875694
84184000000 -0.84731179 163.96797 -74.095085 171.40799 -71.836662 168.72569 0.028782796 16.887625
84232000000 -0.83276427 163.68282 -71.170998 167.27888 -70.468742 167.13672 0.0055670906 16.871082
84280000000 -0.82272863 163.59402 -70.974052 164.58322 -69.856041 160.66127 0.024317926 17.012531
84328000000 -0.82148081 163.47589 -70.187325 160.29132 -69.185783 155.31393 0.01853925 16.997156
84376000000 -0.85037512 163.55412 -69.273224 151.51247 -68.955017 150.7384 0.014737218 17.0163
84424000000 -0.87905318 163.55896 -70.188187 145.96132 -69.013542 145.51868 0.013716518 17.043648
84472000000 -0.90995622 163.62236 -70.071892 143.07809 -69.149467 142.97397 0.022679947 17.091791
84520000000 -0.93526369 163.53297 -70.621223 142.27473 -69.78511 142.34332 0.024229888 17.173105
84568000000 -0.95080394 163.63788 -70.549133 134.41283 -70.174522 140.82419 0.0285745 17.197145
84616000000 -0.94973141 163.79144 -71.724716 129.45853 -70.293037 141.08824 0.038528118 17.214853
84664000000 -0.9545626 163.88559 -71.707634 136.62798 -70.941376 143.93134 0.046681032 17.243916
84712000000 -0.95055777 163.86996 -71.382347 149.73581 -70.972328 145.04483 0.04165462 17.17761
84760000000 -0.93428874 163.74651 -72.99057 142.92204 -71.516754 148.12398 0.039000697 17.151821
84808000000 -0.91327077 163.60216 -72.322182 150.16225 -71.11113 151.7137 0.03562941 17.239801
84856000000 -0.90344691 163.53401 -71.944397 141.76698 -70.493469 156.70872 0.024747271 17.282721
84904000000 -0.90548462 163.49895 -71.516304 152.0022 -70.346245 158.08516 0.017182721 17.203897
84952000000 -0.89381504 163.69505 -71.721466 168.07071 -69.207314 158.44849 0.016683003 17.219398
85000000000 -0.88397604 163.39703 -70.297958 157.07108 -68.531631 154.81126 0.030707907 17.147182
85048000000 -0.89840102 163.3364 -68.53746 153.47502 -67.879074 152.59235 0.016696928 17.188181
85096000000 -0.93083429 163.28737 -68.915215 151.03522 -67.601547 145.03163 0.032405555 17.213385
85144000000 -0.95545989 162.96069 -68.054024 146.27216 -67.595818 143.08955 -0.0013416181 17.466393
85192000000 -0.9526158 163.57285 -68.242836 139.27295 -67.910889 137.76347 0.054117724 17.151503
85240000000 -0.96537215 164.54851 -68.978539 138.00159 -68.214195 137.65962 0.036446806 17.363552
85288000000 -0.9576509 164.8082 -68.811371 139.71284 -68.35878 135.79411 0.027728355 17.324841
85336000000 -0.94667321 164.94821 -68.738411 135.57536 -68.49929 134.13881 0.048908975 17.236248
85384000000 -0.93549937 165.05675 -68.60659 135.05106 -68.858994 136.95297 0.020953247 17.353945
85432000000 -0.92097741 164.54155 -68.699326 123.9231 -68.147217 133.29283 0.025637744 17.372129
85480000000 -0.92410213 164.2411 -69.449814 125.62489 -68.436218 130.98689 0.030309483 17.420118
85528000000 -0.89026177 163.90218 -69.161987 126.60234 -68.905487 130.28128 0.034937683 17.414532
85576000000 -0.89897341 163.47882 -69.613068 124.5385 -68.37439 128.3163 0.015665339 17.378922
85624000000 -0.91109526 162.97382 -70.475838 125.70959 -68.896011 125.02172 0.022475993 17.419271
85672000000 -0.92316204 162.40144 -69.987022 129.10564 -69.18512 126.35084 0.030819459 17.421631
85720000000 -0.9250899 162.14923 -70.035507 125.73132 -69.162178 125.78978 0.042592902 17.437834
85768000000 -0.94763064 162.00789 -69.413109 127.93663 -68.986916 127.28216 0.031909641 17.482855
85816000000 -0.93792516 162.19844 -69.721207 122.5086 -69.294983 124.38319 0.038276155 17.539009
85864000000 -0.94076508 162.08788 -68.564514 120.15937 -69.277962 122.94292 0.038620993 17.503302
85912000000 -0.9381966 162.1048 -69.328636 119.01124 -69.697823 121.47688 0.037272777 17.516674
85960000000 -0.91736823 162.08913 -69.973137 113.43771 -70.598907 117.46037 0.040071387 17.567505
86008000000 -0.90554935 162.01276 -71.068268 111.98252 -70.081909 123.50729 0.031427033 17.546804
86056000000 -0.89876872 162.06718 -71.479889 112.5026 -70.41288 123.86779 0.040824868 17.534439
86104000000 -0.89802825 162.09422 -71.954788 112.62466 -70.137596 128.52589 0.033972576 17.556498
86152000000 -0.89153773 162.13824 -71.048965 120.52593 -69.456619 127.81133 0.029449277 17.605087
86200000000 -0.89159971 162.00577 -70.224632 123.95333 -69.778061 124.93134 0.025245547 17.603659
86248000000 -0.88118601 161.83618 -70.110069 122.29515 -70.203217 121.53777 0.039272629 17.478777
86296000000 -0.88362515 161.30603 -71.103889 112.33246 -69.996933 121.38059 0.01415775 17.304102
86344000000 -0.84067416 160.34607 -72.425354 107.75895 -70.403107 118.90384 0.072299562 16.952021
86392000000 -0.8825202 159.84735 -73.07914 116.74255 -70.294243 120.62019 0.041877672 16.748772
86440000000 -0.91598237 160.92773 -73.952568 121.09696 -71.332764 125.744 0.0055200383 16.906879
86488000000 -0.90382206 161.47775 -73.464935 131.68355 -71.081711 127.23502 0.03651252 16.892616
86536000000 -0.90834904 161.34398 -72.04818 131.60472 -70.618286 126.74963 0.037667997 17.420971
86584000000 -0.88229978 161.53183 -72.853027 129.76775 -70.604507 131.84276 0.051834133 17.521852
86632000000 -0.90465087 161.64784 -72.596603 137.61739 -70.807076 130.02393 0.038360313 17.627823
86680000000 -0.89881837 161.85057 -70.800568 138.96608 -70.375641 132.20506 0.028386254 17.642889
86728000000 -0.88159823 162.01233 -70.835182 134.27103 -70.260231 130.16435 0.045577135 17.522488
86776000000 -0.82736629 161.93918 -70.77916 136.39038 -69.775116 128.74252 0.054181639 17.56835
86824000000 -0.84523481 161.78612 -70.539398 131.83806 -70.220947 127.05486 0.034850888 17.590868
86872000000 -0.84911406 162.0134 -70.666885 132.25764 -70.200333 125.48734 0.047775943 17.670563
86920000000 -0.86118382 162.01384 -70.886398 126.14077 -70.779617 124.43075 0.04021091 17.660215
86968000000 -0.87346858 162.01237 -72.222572 127.20406 -70.689705 125.17729 0.032278113 17.703318
87016000000 -0.87943667 161.81297 -71.023865 135.59123 -70.839272 122.67225 0.029112451 17.65337
87064000000 -0.88162935 161.72507 -70.948235 139.7401 -71.241936 128.9061 0.031829979 17.689878
87112000000 -0.8826493 161.55603 -71.121521 140.18999 -71.463333 124.56215 0.053796612 17.604832
87160000000 -0.89815712 161.70444 -72.027687 139.73488 -71.38324 134.23442 0.045379378 17.65719
87208000000 -0.87858921 161.69092 -70.969315 141.84811 -71.258461 135.24652 0.055931978 17.609989
87256000000 -0.87555879 161.37645 -70.280251 145.51993 -70.926285 139.89359 0.054988906 17.712255
87304000000 -0.85998142 161.14374 -69.52935 135.67699 -70.108673 143.58687 0.047167581 17.738699
87352000000 -0.86240989 160.96161 -68.967239 136.66797 -69.860352 143.45718 0.033271339 17.777136
87400000000 -0.86372697 160.93613 -69.072739 135.29579 -69.383324 142.59488 0.017859749 17.776093
87448000000 -0.85456371 160.87346 -69.031219 135.97009 -68.87635 138.50749 0.029536694 17.67219
87496000000 -0.85048252 160.60347 -68.79377 138.94684 -68.254852 136.40413 0.027863132 17.656105
87544000000 -0.85685045 160.44373 -68.680481 132.45551 -68.534828 135.45366 0.036335401 17.696871
87592000000 -0.85522938 160.24063 -68.757301 132.44777 -68.283745 134.55984 0.02873908 17.743773
87640000000 -0.84957802 160.12041 -68.281113 131.9436 -68.1717 131.40707 0.042380653 17.747234
87688000000 -0.88527936 160.1694 -68.057747 131.69144 -68.275131 131.89531 0.0046947296 17.759802
87736000000 -0.87356037 159.84529 -68.177132 129.92133 -68.027237 131.29559 0.036209099 17.721966
87784000000 -0.87247288 159.66417 -67.897392 129.05295 -67.818253 129.2981 0.044035308 17.720289
87832000000 -0.87509167 159.48737 -68.021362 127.42737 -67.786926 127.26211 0.03558217 17.798063
87880000000 -0.88715583 159.28658 -67.728828 126.02636 -67.646736 127.81152 0.041644879 17.732655
87928000000 -0.88698757 159.15468 -67.423599 121.09361 -67.950188 125.17567 0.039998546 17.758057
87976000000 -0.88619006 159.38541 -67.685516 121.40881 -67.812996 126.71313 0.041748457 17.816595
88024000000 -0.88088131 158.89703 -67.679169 121.66281 -67.668434 123.47242 0.046689738 17.683775
88072000000 -0.8834281 158.9351 -67.297882 120.40838 -67.343826 126.41215 0.031901419 17.744461
88120000000 -0.85866922 158.47984 -67.508247 123.59244 -67.17997 123.72533 0.054000635 17.584326
88168000000 -0.87800169 158.78452 -67.659508 119.89993 -67.418777 122.08499 0.023924064 17.956306
88216000000 -0.90187114 158.61974 -67.545937 120.60173 -67.137009 118.50313 0.0069251847 17.805923
88264000000 -0.88932639 158.53247 -67.754028 117.25286 -67.511589 119.91974 0.023462195 17.730448
88312000000 -0.8958419 158.42827 -68.071289 116.40442 -67.449486 117.80604 0.031590991 17.750683
88360000000 -0.89916605 158.53493 -67.640968 116.07436 -67.278275 119.59604 0.026899537 17.868784
88408000000 -0.91631037 158.70288 -68.012009 117.01086 -67.333435 118.92855 0.033502016 17.851908
88456000000 -0.9240858 158.84537 -68.032913 116.0079 -67.37114 118.53366 0.035384469 17.776594
88504000000 -0.92790216 158.39626 -67.836174 113.08771 -67.566513 116.60066 0.025563631 17.288939
88552000000 -0.93019384 159.46454 -67.851234 111.92847 -67.298958 116.93275 0.035074294 17.988262
88600000000 -0.92759639 159.31825 -68.285789 115.55215 -67.539116 116.68752 0.042911768 17.998539
88648000000 -0.93539083 159.21159 -68.766083 115.80279 -67.536018 114.45369 0.033651512 18.069275
88696000000 -0.93089843 159.38513 -69.781311 115.91302 -67.794792 115.47705 0.045502849 18.00919
88744000000 -0.93710154 159.54337 -68.732376 117.2574 -67.678131 117.83814 0.038479879 18.068413
88792000000 -0.93266994 159.58971 -68.833977 118.77874 -67.709953 117.4612 0.026818756 18.037273
88840000000 -0.91709554 159.1889 -68.191948 119.06215 -67.647713 117.68076 0.043610428 17.987093
88888000000 -0.91998965 158.84811 -68.085831 118.38754 -66.967323 118.13587 0.048745669 18.016813
88936000000 -0.93361306 158.85974 -67.952255 120.45383 -66.884445 118.7697 0.04292151 18.114799
88984000000 -0.94885212 158.67009 -67.382507 115.12873 -66.998413 116.62645 0.033475816 18.085117
89032000000 -0.95422047 158.5952 -67.306084 114.10645 -66.62606 115.54441 0.039905183 17.959553
89080000000 -0.97785413 158.49582 -66.763718 114.8529 -66.753082 115.06272 0.031410072 18.005478
89128000000 -0.97514218 158.24689 -66.688362 111.83971 -66.631195 112.01825 0.045989528 17.983282
89176000000 -0.98082018 158.22797 -66.643341 113.00417 -66.844849 108.53879 0.049840573 17.996737
89224000000 -0.97229135 158.35954 -67.224442 112.59441 -66.511009 109.08602 0.052376371 18.032526
89272000000 -0.9661659 158.36389 -67.080292 110.54124 -66.655312 109.73676 0.054438304 18.098751
89320000000 -0.9717558 158.259 -67.453354 107.52686 -67.550957 107.04379 0.054235835 18.047237
89368000000 -0.95886809 158.14282 -67.540688 106.31203 -67.084023 107.77906 0.048013531 18.1341
89416000000 -0.96964663 158.01672 -67.516991 107.0281 -67.284515 109.38896 0.052006021 18.141848
89464000000 -0.97140127 157.9437 -66.888985 109.2153 -67.432518 108.91744 0.046529934 18.114389
89512000000 -0.96955603 158.17889 -67.101311 102.65884 -67.509674 107.60696 0.05523121 18.167669
89560000000 -0.97891933 157.8876 -67.533676 99.680138 -67.522789 106.87324 0.038177624 18.177483
89608000000 -0.97079498 157.60384 -68.042358 106.35122 -67.68438 106.05538 0.062347095 18.092607
89656000000 -0.98384219 157.45767 -68.35202 106.89509 -67.470215 106.91422 0.045015603 18.251478
89704000000 -0.98918116 157.25685 -68.601013 109.67602 -68.069847 106.98811 0.06690561 18.066097
89752000000 -0.99742901 157.33728 -68.952759 107.30018 -67.84037 108.36401 0.056191605 18.273556
89800000000 -1.009948 157.34518 -68.403938 112.39544 -67.87394 112.08544 0.064648628 18.155813
89848000000 -1.0202348 157.42787 -68.447472 117.08589 -67.470612 113.09816 0.061056763 18.048824
89896000000 -1.0215963 157.47644 -67.714058 113.66486 -67.4011 111.8232 0.026513115 18.072905
89944000000 -0.98677599 157.42128 -67.49057 113.41602 -67.010437 114.50048 0.050746895 18.267534
89992000000 -0.95884067 157.4222 -66.80265 112.58666 -67.240204 111.25823 0.057609066 18.216764
90040000000 -0.94732219 157.39207 -67.332413 108.68678 -67.12059 112.09315 0.062160816 18.163061
90088000000 -0.94747192 157.59529 -67.119942 110.57656 -66.985298 113.02178 0.063336529 18.287994
90136000000 -0.95648897 157.5462 -67.456764 110.59514 -66.937935 112.77927 0.060289938 18.253809
90184000000 -0.935072 157.54829 -67.081398 109.241 -67.298218 109.88331 0.03559706 18.274015
90232000000 -0.93926114 157.30853 -66.80275 108.1074 -66.877983 110.56318 0.03603556 18.037926
90280000000 -0.96656239 157.42326 -67.402184 108.50944 -67.08213 108.8353 0.041391559 18.337109
90328000000 -0.97421652 157.58318 -66.973717 112.34616 -66.94799 109.51731 0.065802254 18.373913
90376000000 -0.98626947 157.48941 -66.934853 109.46617 -67.102028 108.44037 0.061153755 18.339464
90424000000 -0.99230075 157.38495 -66.756126 107.18382 -67.059494 111.34763 0.064882748 18.377289
90472000000 -1.0077893 157.29088 -67.025726 105.27913 -66.79789 111.31474 0.057734232 18.42761
90520000000 -0.99052918 157.45354 -67.991684 106.29748 -66.886688 110.16371 0.080351271 18.324564
90568000000 -0.97615325 157.34789 -67.176712 109.59531 -66.692879 112.66747 0.073390074 18.049749
90616000000 -0.97430074 157.40189 -66.745949 112.394 -66.371811 111.5864 0.024809558 18.259447
90664000000 -0.93999487 157.25645 -66.927551 113.29699 -66.303711 111.5847 0.059917707 18.542387
90712000000 -0.95417434 156.95834 -66.666763 108.77794 -65.767769 108.28111 0.0625844 18.477676
90760000000 -0.95434654 157.00407 -66.176826 107.38548 -66.133331 106.93259 0.047412883 18.41283
90808000000 -0.93147933 157.14891 -66.225029 105.6963 -66.296684 105.50098 0.056871779 18.356874
90856000000 -0.93715096 157.18759 -66.248199 104.71897 -65.926262 107.61669 0.035806045 18.241846
90904000000 -0.93867087 157.06822 -66.349327 102.6072 -65.869019 105.43484 0.032227237 18.402266
90952000000 -0.95496702 156.98805 -67.126724 103.6709 -66.20932 102.76576 0.036343101 18.509581
91000000000 -0.97012788 156.99731 -66.572601 99.722397 -66.428391 104.55228 0.048920237 18.557507
91048000000 -0.97923005 156.93571 -66.797539 103.0799 -66.723 103.29002 0.065050542 18.442942
91096000000 -1.0006011 157.10493 -66.542336 102.88905 -66.514359 107.36182 0.069318354 18.545542
91144000000 -1.0055841 157.1201 -66.814819 99.105042 -66.448669 103.80996 0.078733273 18.555981
91192000000 -0.99837196 156.9711 -66.593262 99.251221 -66.464325 102.80724 0.07393828 18.464127
91240000000 -0.98737055 156.64441 -66.941681 97.577698 -66.111824 103.73417 0.081008866 18.423281
91288000000 -0.97489786 156.59061 -67.570793 103.06451 -66.118706 102.32204 0.06111598 18.508139
91336000000 -0.96184254 156.47484 -67.544647 101.30318 -66.429825 105.65771 0.072528683 18.512274
91384000000 -0.94230872 156.29411 -67.310707 105.83737 -66.055321 105.24029 0.06510257 18.481806
91432000000 -0.91842192 156.14265 -66.893227 102.95291 -66.153236 104.88442 0.069214925 18.467016
91480000000 -0.91349375 156.04369 -66.79184 105.82798 -65.97403 106.53465 0.061380405 18.476873
91528000000 -0.920228 156.01299 -66.879677 101.76499 -65.757019 105.32384 0.05742003 18.473978
91576000000 -0.92242151 155.96815 -66.574417 104.51746 -65.555107 103.311 0.062421095 18.443636
91624000000 -0.9333294 155.86908 -66.847305 102.41776 -65.472824 104.38171 0.061215013 18.539267
91672000000 -0.94773239 155.78761 -66.759857 104.57524 -65.158379 101.93065 0.066837296 18.561842
91720000000 -0.95785648 155.82562 -66.433037 106.55156 -65.473091 101.65339 0.077692419 18.451952
91768000000 -0.97351521 155.92815 -66.637749 103.88449 -65.541603 99.757896 0.081877209 18.609348
91816000000 -0.97423595 156.01183 -66.563095 104.53754 -65.64666 98.316917 0.085241236 18.481804
91864000000 -0.97830677 155.96434 -66.086746 103.03041 -65.78656 97.768517 0.087425642 18.467505
91912000000 -0.96824044 155.8325 -66.346947 104.14336 -65.815781 95.208649 0.084636062 18.457561
91960000000 -0.96046501 155.74449 -66.438644 109.44049 -66.195389 95.641602 0.077310994 18.390007
92008000000 -0.93986565 155.83112 -65.727867 104.16317 -66.022163 97.183426 0.070682645 18.437523
92056000000 -0.92925048 155.65508 -66.082527 99.923576 -66.270775 97.378212 0.063539088 18.538643
92104000000 -0.92113709 155.61844 -65.883255 99.31498 -66.182022 99.688377 0.069604702 18.55521
92152000000 -0.90910339 155.32016 -66.076424 96.749939 -66.342239 99.571747 0.08082898 18.552723
92200000000 -0.90863401 155.09793 -66.253738 101.39941 -66.442696 99.307121 0.074583106 18.680925
92248000000 -0.91563749 155.03102 -66.344727 103.11515 -66.478104 101.78598 0.067579523 18.666597
92296000000 -0.92592824 155.00157 -66.216026 104.18875 -66.252861 101.40023 0.067971483 18.690725
92344000000 -0.92980772 154.98685 -66.205795 100.79415 -65.888512 101.76867 0.073099911 18.618496
92392000000 -0.93961179 154.91321 -65.685089 100.7887 -65.860336 103.51714 0.071247995 18.66161
92440000000 -0.94786441 154.97604 -66.526688 99.602974 -65.617447 100.38148 0.066379458 18.628592
92488000000 -0.9555847 154.93381 -65.693527 104.37083 -65.856979 100.07853 0.079926372 18.69455
92536000000 -0.96018666 154.97971 -65.815338 103.24986 -65.473236 103.20749 0.083477274 18.610512
92584000000 -0.96309221 154.78313 -65.583916 101.55812 -65.27948 101.15352 0.07868091 18.683704
92632000000 -0.94772434 154.71838 -65.282333 102.4207 -65.388725 102.07468 0.070867538 18.626732
92680000000 -0.93661463 154.69817 -65.260941 98.727097 -65.504128 99.52771 0.076003231 18.635349
92728000000 -0.92350876 154.60599 -65.693718 99.649956 -65.359673 97.783501 0.067295082 18.694324
92776000000 -0.91002679 154.55714 -65.358452 99.607391 -65.465424 98.045631 0.060840819 18.622995
92824000000 -0.9027496 154.37003 -64.9048 96.771713 -65.711121 99.925652 0.064686373 18.725164
92872000000 -0.89770675 154.1499 -65.328346 100.33899 -65.837097 98.823853 0.062451713 18.718393
92920000000 -0.89728212 154.18282 -65.630219 98.638626 -65.408173 100.69148 0.060747907 18.742434
92968000000 -0.91205835 154.13213 -65.860428 99.995987 -65.385849 99.948235 0.063512556 18.76202
93016000000 -0.92179096 154.2569 -65.602211 101.86447 -65.152199 99.596405 0.059398882 18.827263
93064000000 -0.93887329 154.19911 -65.117744 99.80838 -64.884567 97.336792 0.064336963 18.794884
93112000000 -0.9479565 154.12636 -64.785881 100.82863 -64.648155 98.499199 0.062730342 18.812817
93160000000 -0.95300263 154.20526 -64.845207 102.70184 -64.820137 98.664314 0.062136829 18.851013
93208000000 -0.9509902 154.40051 -64.604385 99.169136 -64.551003 98.80452 0.064123228 18.838852
93256000000 -0.95602018 154.54774 -64.376823 97.607269 -64.602623 98.871002 0.06629125 18.839497
93304000000 -0.95383382 154.55785 -64.461525 98.822899 -64.439682 97.005997 0.069471717 18.881966
93352000000 -0.94229615 154.50768 -64.201973 93.319801 -64.325211 94.876801 0.063369185 18.877773
93400000000 -0.93150949 154.34538 -64.913826 90.317345 -64.128807 94.278557 0.069169573 18.933388
93448000000 -0.92637801 154.34906 -65.067589 92.378174 -64.14814 91.262756 0.064615987 18.907526
93496000000 -0.91159624 154.24332 -64.931305 94.048813 -64.444214 91.565689 0.068911739 18.993626
93544000000 -0.91216373 154.22523 -64.857147 91.574539 -64.479584 90.43647 0.07344047 18.986277
93592000000 -0.90954 153.90619 -65.017044 96.090569 -64.466667 91.283318 0.039092541 18.960358
93640000000 -0.91493315 153.68648 -64.869316 96.495064 -64.443542 90.309639 0.043744199 19.035801
93688000000 -0.92697048 153.59166 -64.265556 96.197906 -64.360535 90.326241 0.056245267 19.124847
93736000000 -0.94157457 153.55075 -64.27726 93.038208 -64.609573 90.429123 0.072324514 19.137787
93784000000 -0.95050883 153.64464 -64.116585 89.967255 -64.57003 88.180534 0.076868504 19.185228
93832000000 -0.96196496 153.55183 -64.652229 90.215042 -64.580193 88.237053 0.080565229 19.193266
93880000000 -0.96521759 153.47838 -64.586212 85.892845 -64.653687 88.276375 0.083897255 19.141369
93928000000 -0.97397357 153.43341 -64.960251 86.811844 -64.505272 89.435524 0.078922398 19.0672
93976000000 -0.97140515 153.49287 -65.015312 88.171707 -64.579292 88.820877 0.072197728 19.15259
94024000000 -0.95857275 153.6411 -65.16452 90.40976 -64.871262 90.225136 0.070505381 19.215849
94072000000 -0.95314902 153.70538 -64.713493 93.161491 -64.392693 90.467056 0.065864466 19.13299
94120000000 -0.94734991 153.49074 -64.355591 91.965744 -64.30851 88.158028 0.063906923 19.20677
94168000000 -0.93122113 153.47346 -63.837555 90.187996 -63.948364 87.277466 0.06368041 19.210657
94216000000 -0.93382329 153.26198 -63.572182 86.893196 -64.009209 84.833405 0.060358867 19.223467
94264000000 -0.93663615 153.21477 -63.973095 85.534447 -63.970055 84.99675 0.057826702 19.217007
94312000000 -0.95003229 153.15042 -63.84763 82.522354 -64.291908 82.415161 0.068496421 19.255461
94360000000 -0.95348239 152.99507 -64.051788 78.584526 -64.351051 81.581703 0.060862262 19.263283
94408000000 -0.96839023 152.70148 -64.528702 76.400146 -64.370811 80.901566 0.06620457 19.282125
94456000000 -0.97654253 152.59694 -64.880234 78.454216 -64.577713 81.275185 0.065257102 19.30105
94504000000 -0.98819762 152.5482 -65.588036 76.552322 -64.590317 77.740623 0.066861771 19.361427
94552000000 -0.99396664 152.56761 -65.658791 76.413834 -65.140915 78.183296 0.067134507 19.359533
94600000000 -0.99496228 152.48759 -66.780464 77.296028 -65.624184 81.466881 0.067315988 19.346252
94648000000 -1.0004818 152.31067 -66.34079 82.589584 -65.711014 82.694969 0.071166001 19.442476
94696000000 -0.99342287 152.25528 -66.17289 88.342163 -65.423378 84.97747 0.066839337 19.38562
94744000000 -0.98803705 152.18304 -65.550926 88.919319 -65.285622 84.839058 0.068788424 19.410856
94792000000 -0.97510231 152.21329 -65.789322 88.81926 -65.166206 85.494408 0.062675744 19.427816
94840000000 -0.95985407 152.32735 -65.608459 90.798599 -65.112419 86.040565 0.058964774 19.353035
94888000000 -0.93691361 152.27614 -65.134651 89.115974 -64.74189 86.930229 0.049184378 19.349487
94936000000 -0.925686 152.14926 -64.950104 88.092041 -64.891174 85.822868 0.039374214 19.68754
94984000000 -0.92646742 151.93645 -64.58213 86.28064 -64.769501 84.32151 0.084700547 19.289978
95032000000 -0.95076561 151.88713 -64.832527 84.325783 -64.875458 84.904099 0.049324125 19.404425
95080000000 -0.96466744 151.94623 -64.966179 87.709229 -64.768768 85.721001 0.048019677 19.531315
95128000000 -0.97522479 151.79366 -64.615486 86.224068 -64.579239 84.880501 0.058241509 19.564985
95176000000 -0.99083257 151.71696 -64.496216 82.740837 -64.655502 85.116913 0.06495823 19.609882
95224000000 -1.0060338 151.65392 -65.06646 82.831627 -64.595421 83.788277 0.067816541 19.591858
95272000000 -1.0154098 151.57796 -65.307831 84.511497 -64.723785 84.616798 0.071781702 19.542261
95320000000 -1.0124638 151.58701 -65.186455 85.977966 -64.999763 84.80114 0.075659305 19.584711
95368000000 -1.0082773 151.57407 -65.40033 89.786957 -64.402985 86.699486 0.072112694 19.540148
95416000000 -0.99430805 151.49106 -64.938889 90.056206 -64.510185 87.561958 0.074305743 19.604946
95464000000 -0.98590046 151.35219 -64.398392 91.530075 -64.085182 87.634834 0.068378694 19.611902
95512000000 -0.97434741 151.28166 -64.038162 92.235832 -63.754414 86.818756 0.067379706 19.602413
95560000000 -0.97009552 151.22093 -63.700165 90.292145 -63.673992 88.094681 0.061625924 19.604563
95608000000 -0.96299881 151.26877 -63.270557 92.134377 -63.451504 85.449463 0.06506075 19.652548
95656000000 -0.96602947 151.20665 -63.124977 86.861801 -63.307217 84.446404 0.059559233 19.620472
95704000000 -0.97490466 151.11841 -63.044193 85.994614 -63.304127 83.426987 0.061762717 19.674723
95752000000 -0.98562211 151.11108 -62.735798 82.656761 -63.109131 81.653 0.064842455 19.644995
95800000000 -1.0027964 151.08086 -63.389893 80.09037 -63.128956 80.757118 0.056936674 19.664381
95848000000 -1.0119762 151.24553 -63.114849 81.10302 -63.269066 79.002296 0.061038896 19.715691
95896000000 -1.0231081 151.17595 -63.067608 81.672783 -63.490482 78.443451 0.066759296 19.738331
95944000000 -1.0279065 151.10966 -62.961845 78.420074 -63.48476 78.340378 0.067226268 19.716648
95992000000 -1.0336927 150.98 -63.361744 76.885483 -63.438412 76.691315 0.070869572 19.748335
96040000000 -1.0336914 150.93968 -63.135868 76.882568 -63.395451 78.433922 0.074655883 19.750671
96088000000 -1.027329 150.94527 -62.825184 72.763916 -63.318279 77.793465 0.070314869 19.733496
96136000000 -1.0229266 150.84378 -63.394985 71.273193 -63.467293 77.195366 0.072426349 19.76486
96184000000 -1.0146799 150.78006 -64.265739 71.131889 -63.397137 76.868851 0.066482961 19.745619
96232000000 -1.002619 150.82355 -64.140465 76.746277 -63.423931 75.377632 0.06633357 19.775316
96280000000 -0.99453849 150.83595 -63.848717 76.961075 -63.529003 75.185036 0.066956595 19.805685
96328000000 -0.99333143 150.89084 -63.43681 76.258606 -63.505589 74.910263 0.060844395 19.831524
96376000000 -0.98648584 150.83495 -63.428719 74.951797 -63.627983 73.959015 0.058849856 19.837622
96424000000 -0.98789281 150.73456 -63.49202 73.081497 -63.771389 74.058662 0.05469751 19.86624
96472000000 -0.99250865 150.66878 -63.472462 73.167229 -63.626122 74.60408 0.05914966 19.79826
96520000000 -1.0040674 150.85162 -63.877384 75.52285 -63.614307 74.743721 0.047222376 19.84343
96568000000 -0.99395853 150.86382 -63.732536 75.012764 -63.681793 76.64621 0.087424621 19.905113
96616000000 -1.0246928 150.78308 -63.398525 73.657181 -63.461132 73.997932 0.056733299 19.82082
96664000000 -1.0173137 150.62306 -63.622818 72.547264 -63.579342 74.849861 0.062449671 19.816006
96712000000 -1.0145767 150.49377 -63.539902 75.629692 -63.324196 73.682938 0.067824185 19.812571
96760000000 -1.0146371 150.44412 -63.210293 75.373055 -63.408894 73.808266 0.06494344 19.780649
96808000000 -1.0137557 150.43361 -63.348797 75.478912 -63.402691 72.906136 0.065035246 19.804735
96856000000 -1.0049009 150.42284 -63.055855 70.737366 -63.33551 71.705826 0.068656951 19.926785
96904000000 -0.99773937 150.26158 -63.158966 68.086105 -63.274429 70.546494 0.074963242 19.914345
96952000000 -0.99326211 150.13612 -63.07692 68.183075 -63.285191 70.39782 0.076028667 19.985037
97000000000 -0.9949069 149.84962 -63.180889 65.784752 -63.255436 68.702576 0.077128917 19.799265
97048000000 -0.98566401 149.86636 -63.233627 64.222588 -63.256912 69.644554 0.073393129 19.754442
97096000000 -0.97551191 149.95299 -64.050804 66.97197 -63.347256 69.199158 0.083730184 19.856268
97144000000 -0.98128968 149.82675 -63.676594 66.656441 -63.401436 68.922462 0.084935613 19.797518
97192000000 -0.97521764 149.67877 -63.523636 65.903107 -63.233585 69.307816 0.078617863 19.748693
97240000000 -0.98695499 149.76981 -64.499809 66.176262 -63.156456 67.462975 0.059537273 19.769316
97288000000 -0.97296107 149.89026 -64.403954 72.104126 -63.301727 68.486382 0.071297906 19.844202
97336000000 -0.98014671 150.01227 -64.144341 78.389648 -63.330902 67.911972 0.07144662 19.827608
97384000000 -0.985843 150.03136 -63.324898 77.208572 -63.118706 69.040497 0.073663928 19.868929
97432000000 -0.97364771 150.02223 -62.593765 72.395279 -63.24614 66.949791 0.071563751 19.871784
97480000000 -0.97347021 149.80136 -62.637505 71.087265 -63.409779 67.446411 0.078380421 19.872652
97528000000 -0.97404194 149.78221 -62.933746 64.291718 -63.228554 67.840172 0.079106435 19.778219
97576000000 -0.98054379 149.82385 -62.977863 67.309395 -63.262028 67.33268 0.079337738 19.866827
97624000000 -0.98116285 149.75203 -62.992546 67.253571 -63.007824 67.466339 0.081816241 19.871222
97672000000 -0.98389417 149.62465 -63.026913 64.77211 -63.164257 66.331848 0.084903628 19.807795
97720000000 -0.98497808 149.47646 -62.797318 69.485847 -63.140209 66.994476 0.083711393 19.812136
97768000000 -0.99372745 149.53346 -63.350101 64.471458 -63.007534 66.690247 0.070148796 19.841671
97816000000 -0.97291213 149.63066 -63.091801 70.459465 -62.606731 66.205505 0.052335449 19.83074
97864000000 -0.97314954 149.56516 -62.574818 67.674911 -62.65506 66.002029 0.086761907 19.931477
97912000000 -0.97414136 149.39975 -62.105133 69.445129 -62.804829 62.723732 0.10645509 19.856047
97960000000 -0.99081695 149.31509 -62.429028 68.934761 -62.674652 61.409931 0.075090453 19.832176
98008000000 -0.99622017 149.3044 -61.903866 66.015182 -62.952015 60.885681 0.086002141 19.900295
98056000000 -0.99883097 149.31488 -61.549461 64.309631 -62.897667 61.772621 0.075519897 19.908857
98104000000 -0.99525166 149.46117 -62.012402 58.963261 -63.205616 62.399128 0.073819682 19.924892
98152000000 -1.0106748 149.45326 -62.454468 56.417583 -63.098991 62.462826 0.074667588 19.89082
98200000000 -0.98951864 149.29996 -63.19191 56.360344 -63.129684 62.644577 0.09190622 19.884987
98248000000 -0.9875353 149.19133 -62.980797 57.011551 -62.797478 63.004539 0.09193106 19.892353
98296000000 -0.99248582 149.0296 -63.123466 57.293732 -62.961006 62.226379 0.083924174 20.004229
98344000000 -0.98436302 149.01077 -63.353981 59.665657 -62.696274 59.871273 0.075607918 19.896879
98392000000 -0.97807592 148.97592 -63.141609 63.321217 -62.874809 60.667072 0.085820936 19.924898
98440000000 -0.98741215 148.72304 -62.479202 63.738697 -62.786255 59.088207 0.089751452 19.993999
98488000000 -0.9763636 148.51898 -62.16428 58.644878 -62.849854 58.977947 0.1108202 19.98521
98536000000 -0.97010165 148.26781 -62.367573 60.095463 -62.972221 58.154213 0.11221843 19.977945
98584000000 -0.98572153 148.09761 -61.939533 55.293648 -63.179726 57.762009 0.10477351 19.949205
98632000000 -0.99931616 148.05019 -62.269707 54.855587 -63.136871 57.875542 0.094018884 19.868946
98680000000 -1.0149952 147.99397 -62.627834 52.304333 -63.00729 57.746586 0.09155646 19.922449
98728000000 -1.0210413 147.9696 -63.208447 53.29932 -63.291508 57.331139 0.087485515 20.022173
98776000000 -1.0058981 147.97977 -63.077202 53.273136 -63.087166 59.57127 0.096885473 20.09548
98824000000 -1.0199254 147.99261 -63.615913 52.601376 -62.849411 58.509308 0.11941288 19.953985
98872000000 -1.0178326 148.16142 -63.588917 53.094124 -62.932896 58.584263 0.1139763 19.943794
98920000000 -1.0148519 148.2766 -63.104961 54.761959 -62.997543 57.681503 0.097804308 19.930576
98968000000 -1.0182246 148.19069 -63.476315 58.370224 -62.841293 57.941151 0.089691103 19.92922
99016000000 -1.0179842 148.20007 -64.353348 59.767422 -62.658714 56.419254 0.1010766 19.961508
99064000000 -1.0181648 148.19487 -64.078194 67.134712 -62.813736 57.955742 0.10278388 19.928122
99112000000 -1.044403 148.20944 -63.055458 63.175884 -62.868229 56.799881 0.086946622 19.891687
99160000000 -1.0391934 148.36035 -61.906086 64.999237 -62.880146 58.278954 0.10195056 19.926407
99208000000 -1.0426239 148.4384 -61.950409 59.760857 -62.902954 57.802273 0.10455872 19.892384
99256000000 -1.0490731 148.34259 -61.502892 59.274384 -62.666111 56.742992 0.096001893 19.914377
99304000000 -1.0575525 148.34494 -61.671421 51.670807 -62.847523 55.943703 0.10237937 19.981342
99352000000 -1.0596248 148.34903 -61.788235 55.6646 -62.533665 54.721729 0.12834699 20.023161
99400000000 -1.0569322 148.3676 -62.417137 54.083447 -62.66647 53.810978 0.11860239 19.975519
99448000000 -1.0870669 148.26262 -61.394688 53.325218 -63.306297 52.464027 0.12179412 19.96962
99496000000 -1.0859921 148.33063 -61.177505 50.663605 -62.80912 54.919754 0.10255079 19.878538
99544000000 -1.0860716 148.23183 -61.215405 44.936104 -63.203617 52.367664 0.1152984 19.973686
99592000000 -1.0835713 148.17725 -62.592323 44.296497 -63.326839 51.096775 0.11110129 19.995853
99640000000 -1.0841161 148.36205 -62.282234 43.053398 -63.511841 54.396629 0.13851461 19.883101
99688000000 -1.0785072 148.38452 -63.642509 40.197254 -63.055664 57.223419 0.12597689 19.933596
99736000000 -1.0735277 148.53142 -63.716431 42.378185 -63.228683 56.354614 0.1160218 19.797298
99784000000 -1.0589231 148.32999 -63.758945 45.791328 -62.904854 53.970676 0.10604435 20.049862
99832000000 -1.0343364 148.19508 -63.569496 48.161846 -63.153088 55.032715 0.13219956 19.949039
99880000000 -1.0442022 147.99142 -64.673447 50.89756 -63.093239 58.166447 0.081366591 19.963652
99928000000 -1.043239 147.91731 -63.257889 57.596294 -62.957905 55.741138 0.11018679 20.102015
99976000000 -1.0250868 147.83052 -63.536358 56.210369 -63.202209 56.477905 0.13941616 19.970091
100024000000 -1.021749 147.5289 -62.766872 58.063499 -62.900562 55.907349 0.097699523 20.062513
100072000000 -1.0431439 147.30705 -62.437851 55.56694 -62.595867 56.342533 0.13677467 20.079418
100120000000 -1.027063 147.19974 -62.012466 51.842529 -62.753765 53.305767 0.10746988 19.997478
100168000000 -1.042819 147.05685 -62.155407 49.178223 -62.78022 53.628906 0.11586705 20.167168
100216000000 -1.0308121 147.05222 -62.521774 50.669357 -62.797276 54.748856 0.099841751 20.055525
100264000000 -1.0463992 147.04599 -62.902576 48.467365 -62.492493 55.437305 0.10258973 20.179457
100312000000 -1.0580435 146.93427 -63.221066 49.519749 -62.733528 56.279644 0.10430854 20.135492
100360000000 -1.0378026 146.94174 -62.986893 50.71912 -62.497021 55.157726 0.11780232 20.171879
100408000000 -1.0718558 146.94232 -64.206322 49.826748 -62.502403 54.988857 0.10826024 20.097805
100456000000 -1.0721093 146.97662 -62.733265 55.702988 -62.877747 57.233852 0.11923911 19.969881
100504000000 -1.017099 146.97037 -63.068638 56.718281 -62.186985 55.604359 0.10193134 20.246008
100552000000 -1.0240278 146.98613 -62.589153 55.400833 -61.989517 53.605217 0.12960091 20.0492
100600000000 -1.0361894 146.8679 -62.31385 52.245983 -62.265388 53.689762 0.10636668 20.16432
100648000000 -1.0211067 146.85841 -61.96347 44.589626 -62.036083 53.831318 0.035902064 20.190172
100696000000 -1.0597285 146.95937 -62.564819 42.859123 -62.125256 53.720695 0.1257903 20.005531
100744000000 -1.0256299 146.96141 -63.300858 45.465054 -61.718834 55.624977 0.14209361 20.220631
100792000000 -1.026957 147.01378 -63.478653 47.883385 -61.671013 50.740765 0.080848798 20.187988
100840000000 -1.0337374 146.90849 -64.199638 56.138451 -62.026783 50.011597 0.10047971 20.117666
100888000000 -1.0423876 146.89877 -63.042519 57.358555 -61.873173 50.94746 0.0883343 20.167086
100936000000 -1.0377342 146.899 -62.940655 58.32914 -61.863819 51.824974 0.12542012 20.198782
100984000000 -1.0473849 147.03065 -62.431568 53.770378 -62.131641 50.928616 0.11979768 20.110506
101032000000 -1.0485556 147.0829 -61.802818 54.386181 -61.617523 49.136818 0.10358318 20.169254
101080000000 -1.0524645 146.98186 -61.764816 48.631779 -61.89249 48.747578 0.10931247 20.208225
101128000000 -1.0498803 146.95885 -61.456821 48.143318 -61.791855 47.822819 0.11719714 20.19338
101176000000 -1.0376776 146.92093 -61.830315 54.937595 -61.488743 48.87009 0.10567501 20.286253
101224000000 -1.0533116 147.07156 -61.975243 47.610729 -61.285732 47.686134 0.11704092 20.212896
101272000000 -1.0387534 147.28445 -62.012409 52.570713 -61.592476 45.648041 0.11149692 20.31065
101320000000 -1.0427746 147.21506 -61.714104 52.106712 -61.633907 47.922165 0.10715976 20.380627
101368000000 -1.0407001 147.08749 -61.702946 52.598244 -61.51482 47.01247 0.11740223 20.322016
101416000000 -1.025764 146.85329 -61.517262 50.795887 -61.707649 43.874138 0.10264181 20.485184
101464000000 -1.0335705 146.89644 -61.315571 50.900539 -61.677132 47.064285 0.1323939 20.533781
101512000000 -1.0394071 147.01352 -61.118916 50.18055 -61.709549 46.314297 0.12895717 20.349823
101560000000 -1.054147 147.4165 -60.687141 48.988293 -61.920277 45.736546 0.089019604 20.517832
101608000000 -1.0572708 147.06245 -60.918415 44.658447 -61.620617 49.036781 0.057804734 20.672077
101656000000 -1.0527357 146.92596 -61.35788 47.320641 -61.588554 46.876751 0.05964043 20.519871
101704000000 -1.0627848 146.99287 -61.207733 47.399254 -61.450073 47.852135 0.060216412 20.545229
101752000000 -1.0753686 146.52072 -61.171806 47.119877 -61.267914 45.56303 0.11679447 21.025541
101800000000 -1.0688239 145.86035 -60.876064 41.602196 -61.449905 43.863892 0.1689287 20.459671
101848000000 -1.0582486 145.6689 -60.959164 43.605183 -61.661507 44.677608 0.10854402 20.351454
101896000000 -1.0443118 145.32896 -61.18325 43.81546 -61.419521 45.479252 0.062723711 20.303406
101944000000 -1.0666347 144.99255 -60.796005 41.390293 -61.129944 48.110039 0.11441402 21.027645
101992000000 -1.0568501 145.0457 -60.523815 43.676743 -60.85762 46.856956 0.16885002 20.570772
102040000000 -1.0618931 145.00623 -60.503036 39.01189 -60.51786 44.493034 0.109892 20.372946
102088000000 -1.0714278 145.44177 -60.142834 38.888798 -60.295422 42.606956 0.065131128 20.720753
102136000000 -1.0754811 145.72911 -60.73521 35.938408 -60.454475 39.944248 0.05337166 20.869568
102184000000 -1.0768418 145.66499 -60.475834 35.420048 -60.41597 39.290222 0.10716885 20.914795
102232000000 -1.0755464 145.5242 -60.600105 34.455048 -60.564541 36.450089 0.13374706 20.951767
102280000000 -1.0643215 145.16322 -60.894894 33.972004 -60.868713 37.517216 0.14593101 21.070179
102328000000 -1.067101 144.87068 -61.14642 34.024529 -60.790684 35.732937 0.14042328 20.997919
102376000000 -1.0627617 144.88559 -61.281124 33.700874 -61.022079 35.893967 0.14899516 20.577667
102424000000 -1.0508617 145.10165 -61.264778 36.567596 -60.929497 35.726227 0.092234664 20.844223
102472000000 -1.0497534 145.1662 -61.181122 38.065491 -61.010059 34.589672 0.10364132 21.032505
102520000000 -1.0754349 145.4068 -61.266563 37.119762 -61.251911 36.226036 0.099012412 20.930004
102568000000 -1.0751079 145.63649 -61.044563 33.734909 -61.207733 34.908451 0.091776967 21.07896
102616000000 -1.0736854 145.75879 -60.886429 36.22261 -61.186859 35.556034 0.11072734 21.141211
102664000000 -1.0784333 145.22592 -61.149109 40.063393 -61.309723 35.405502 0.10909992 20.991699
102712000000 -1.0952277 145.18803 -61.328957 38.047573 -61.309551 35.86475 0.14056914 20.833046
102760000000 -1.0797296 145.19691 -61.121166 36.158569 -61.13829 35.614109 0.12006963 20.975723
102808000000 -1.0826617 145.14842 -61.140133 34.997864 -61.070671 35.328217 0.11920536 20.961756
102856000000 -1.0828553 145.3858 -61.131123 34.354675 -61.275074 35.853764 0.088266321 21.164709
102904000000 -1.0912496 145.16565 -61.464508 33.510895 -61.135971 34.9547 0.11001617 20.93927
102952000000 -1.0917767 145.15034 -61.303146 36.095387 -60.997738 36.148781 0.11309266 21.011763
103000000000 -1.106233 145.17355 -60.859741 37.64254 -60.88168 35.309818 0.1002642 21.128202
103048000000 -1.1181297 145.31346 -61.208824 36.681705 -60.941425 35.24004 0.10741381 20.992828
103096000000 -1.1255933 145.68532 -61.076103 37.119305 -60.60717 35.466534 0.11171994 21.041479
103144000000 -1.1245741 145.70206 -60.674515 34.721775 -60.530365 33.272499 0.12398689 21.092228
103192000000 -1.1262375 145.43314 -60.66468 33.523361 -60.525707 32.519279 0.11838929 21.155293
103240000000 -1.1176823 145.24661 -60.603493 33.121731 -60.418907 32.214996 0.12747985 21.105545
103288000000 -1.1097395 145.1012 -60.718479 34.821671 -60.364731 32.891335 0.12337904 21.15995
103336000000 -1.1002036 145.07201 -60.676414 32.687786 -60.446053 31.487131 0.11649107 21.157049
103384000000 -1.0975331 144.90489 -60.558571 28.868429 -60.194386 30.214876 0.11331157 21.235355
103432000000 -1.0917847 144.79602 -60.681137 29.471745 -60.40966 29.280718 0.11533016 21.24758
103480000000 -1.081257 144.49471 -60.473579 28.746939 -60.265816 28.006744 0.10992986 21.254065
103528000000 -1.0747433 144.23798 -60.263863 28.031469 -60.509743 25.942726 0.12679406 21.286581
103576000000 -1.0813074 144.17572 -60.507328 25.459999 -60.707092 25.10438 0.11856158 21.288002
103624000000 -1.0674284 144.07188 -60.803207 24.455622 -60.78746 26.461405 0.12280836 21.32271
103672000000 -1.0660437 144.02347 -61.19323 25.231405 -60.883327 26.811935 0.12436926 21.364374
103720000000 -1.0694762 143.82538 -61.03278 24.370327 -61.000343 26.567993 0.11856762 21.329601
103768000000 -1.0699121 143.69241 -61.057785 24.508444 -60.792164 26.733437 0.12110139 21.239988
103816000000 -1.0747612 143.59901 -60.771862 24.930696 -60.837311 26.953453 0.12083101 21.280247
103864000000 -1.0717906 143.63522 -60.84169 22.995817 -60.918674 26.365229 0.12497748 21.491478
103912000000 -1.0907131 143.7253 -61.103859 24.247129 -60.869537 27.06072 0.11447907 21.407774
103960000000 -1.0908017 143.99594 -61.190727 26.138927 -60.932739 26.207722 0.11732917 21.462341
104008000000 -1.0827295 143.42822 -61.065479 24.831429 -60.808781 26.485718 0.11759674 21.369129
104056000000 -1.0734631 143.42749 -61.053673 24.190859 -60.788387 27.152683 0.12184799 21.44562
104104000000 -1.0645216 143.40938 -60.806606 24.069576 -60.742496 25.807558 0.12487083 21.363628
104152000000 -1.045289 143.5441 -60.883667 23.834452 -60.529678 25.416481 0.10555778 21.434849
104200000000 -1.0349425 143.46689 -60.790562 22.625059 -60.568249 24.566362 0.12028567 21.480671
104248000000 -1.0300618 143.34692 -60.765713 22.523848 -60.397312 23.785072 0.11904669 21.436701
104296000000 -1.0298926 143.1747 -60.644829 22.241529 -60.514458 23.015732 0.11239097 21.423023
104344000000 -1.0352957 143.13144 -60.934048 22.744165 -60.6264 22.366121 0.10579981 21.461164
104392000000 -1.0369227 143.15163 -60.847919 22.430534 -60.740562 22.525478 0.10074377 21.478519
104440000000 -1.0414577 143.07469 -60.888115 22.001526 -60.822388 22.893927 0.11006565 21.537922
104488000000 -1.0454454 143.03951 -60.802979 23.016445 -60.744381 23.107027 0.1170641 21.601753
104536000000 -1.0611627 143.00816 -60.524681 20.315874 -60.59478 22.870228 0.11597845 21.558514
104584000000 -1.0682917 142.91856 -60.540367 20.160069 -60.661045 21.59058 0.11997394 21.384604
104632000000 -1.0739205 143.07513 -60.650234 18.965517 -60.596798 20.674427 0.10008764 21.598707
104680000000 -1.0712144 143.17041 -61.031136 19.513186 -60.756397 20.717733 0.13634773 21.535469
104728000000 -1.0656632 143.13097 -61.319084 18.066658 -60.691475 19.705517 0.12083906 21.547897
104776000000 -1.0543605 142.95441 -61.168381 20.045549 -60.789604 18.479544 0.12209313 21.46599
104824000000 -1.0426811 142.91974 -60.831463 19.364744 -60.810093 18.515392 0.13531256 21.68152
104872000000 -1.0320536 142.72205 -60.878239 18.354158 -60.916821 19.101452 0.13101923 21.58329
104920000000 -1.0387264 142.64546 -61.038982 18.023506 -61.010437 18.645365 0.076830864 21.619236
104968000000 -1.0264505 142.55836 -61.317333 17.847994 -61.156811 18.116665 0.11593308 21.625536
105016000000 -1.0222888 142.36108 -61.212757 19.011576 -60.998226 18.704039 0.10834406 21.659037
105064000000 -1.0132444 142.15762 -60.983063 18.780806 -60.965374 19.909845 0.12139138 21.686779
105112000000 -1.0176039 141.88899 -61.057575 19.450747 -60.708061 20.137463 0.10435099 21.61026
105160000000 -1.0261879 141.82553 -60.834839 18.546082 -60.5938 20.576395 0.10356852 21.630379
105208000000 -1.040428 141.77695 -60.679012 17.989573 -60.396976 18.1248 0.10143875 21.650354
105256000000 -1.0438795 141.69781 -60.169773 16.900183 -60.311993 17.382765 0.10403761 21.664753
105304000000 -1.0492748 141.61441 -60.386284 15.789213 -60.513912 16.420279 0.10650964 21.690788
105352000000 -1.059597 141.55978 -60.508652 13.010198 -60.454311 16.049088 0.11079749 21.610258
105400000000 -1.0552437 141.51825 -60.629688 12.955386 -60.459343 15.721608 0.11666697 21.677366
105448000000 -1.0631875 141.48923 -60.714554 15.286135 -60.404591 15.103812 0.11476094 21.632175
105496000000 -1.0623527 141.51984 -60.483986 14.958681 -60.417568 14.13823 0.11291612 21.718277
105544000000 -1.0547731 141.4994 -60.620335 14.067002 -60.532089 13.196046 0.11339933 21.742006
105592000000 -1.0626582 141.44298 -60.495934 9.7703199 -60.634438 12.949539 0.096007466 21.758326
105640000000 -1.0454497 141.27335 -60.707527 12.396297 -60.683563 12.478555 0.12104449 21.664783
105688000000 -1.0419775 141.30537 -60.863464 11.409927 -60.987953 12.549929 0.12021315 21.689741
105736000000 -1.0596776 141.26129 -61.063591 12.505374 -60.960899 13.474886 0.085843273 21.745646
105784000000 -1.0338714 141.28455 -61.487358 13.333428 -60.969303 13.419658 0.12365329 21.709316
105832000000 -1.0344682 141.18732 -61.193886 14.171562 -61.286938 13.507847 0.109005 21.717503
105880000000 -1.0354406 141.02324 -61.209183 12.521065 -61.151024 14.645474 0.1009021 21.696707
105928000000 -1.0459368 141.00812 -61.421558 13.3549 -61.064613 15.735793 0.098931447 21.734751
105976000000 -1.0653476 141.08339 -61.065868 16.230967 -61.113213 15.840295 0.087096833 21.718666
106024000000 -1.0582806 141.21643 -60.913715 16.83675 -60.748512 17.7061 0.094344631 21.769745
106072000000 -1.0620029 141.16258 -60.687767 16.705019 -60.721161 16.183516 0.1103266 21.799009
106120000000 -1.0606412 141.07449 -60.620731 15.718786 -60.489204 14.764362 0.12517819 21.801666
106168000000 -1.0691167 141.10385 -60.214062 15.230074 -60.33353 15.134354 0.11570372 21.80805
106216000000 -1.0491047 141.36647 -60.422272 13.831931 -60.225822 15.605869 0.14369069 21.858095
106264000000 -1.0586555 141.29535 -60.174221 14.917274 -60.172363 14.371995 0.10595644 21.56905
106312000000 -1.0313921 141.50398 -60.354023 14.511135 -60.24332 13.55968 0.13734202 21.717258
106360000000 -1.0377036 141.38074 -60.103802 12.293083 -60.215492 11.98953 0.092467301 21.584251
106408000000 -1.0647064 141.3777 -60.2952 11.517306 -60.223537 12.307218 0.068378188 21.77483
106456000000 -1.0305692 141.72733 -60.29705 12.102781 -60.142067 11.114589 0.18316266 21.924793
106504000000 -1.084257 141.65399 -60.22192 12.04249 -60.305241 11.170574 0.05448534 21.478586
106552000000 -1.0911857 142.05313 -60.237766 11.780097 -60.392567 11.924024 0.083791628 21.808662
106600000000 -1.0582895 141.75768 -60.399353 9.9325018 -60.32391 11.758923 0.13858531 21.866949
106648000000 -1.074685 141.49406 -60.617401 11.780147 -60.311726 10.437799 0.099047333 21.729219
106696000000 -1.0670259 141.40849 -60.437531 10.755695 -60.332378 10.011101 0.062113862 21.838049
106744000000 -1.0585772 141.40605 -60.205772 9.4493036 -60.21196 11.72943 0.13502249 21.739954
106792000000 -1.0837852 141.31786 -60.452259 10.398585 -60.128357 11.999149 0.095610425 21.823088
106840000000 -1.0767874 141.13033 -60.318871 10.29973 -60.169277 11.919632 0.12279225 21.787222
106888000000 -1.0769044 140.55896 -60.255688 9.8441334 -60.118179 10.644679 0.11708728 21.784143
106936000000 -1.0589446 140.64439 -59.853771 8.3379049 -59.910664 10.50339 0.069742255 21.715277
106984000000 -1.0279963 140.80154 -59.948956 8.8850613 -59.923717 9.7000217 0.14458014 21.684916
107032000000 -1.0218424 140.67012 -59.998608 8.2824335 -59.767315 9.4294348 0.11633936 21.592529
107080000000 -1.0242673 140.64886 -59.917225 9.1190367 -59.737953 8.7295113 0.10930439 21.749975
107128000000 -1.0262511 140.48853 -59.719021 5.5721645 -59.65012 9.3658533 0.098553404 21.63414
107176000000 -1.0384213 140.40446 -59.780922 5.6246834 -59.665062 8.3125944 0.092868172 21.485205
107224000000 -1.0399352 140.36369 -59.573124 5.73383 -59.534218 7.5713401 0.11683983 21.629229
107272000000 -1.0528623 140.40477 -59.797405 4.4191151 -59.658249 6.6104188 0.11422391 21.536077
107320000000 -1.0660279 140.39493 -59.850906 5.1810832 -59.59576 6.7428808 0.11572338 21.671556
107368000000 -1.0819782 140.40181 -59.884335 4.7422757 -59.470806 6.4157758 0.10370298 21.770515
107416000000 -1.0958 140.30408 -59.893906 5.7816095 -59.494591 6.2656679 0.085721448 21.847364
107464000000 -1.1043693 140.33693 -59.54879 5.0618181 -59.414257 4.6927609 0.12005905 22.007475
107512000000 -1.0924538 140.4574 -59.515499 4.3521056 -59.383766 3.9779668 0.16353284 22.000095
107560000000 -1.0982615 140.38464 -59.835007 2.0113709 -59.580528 3.8382542 0.10523389 21.961102
107608000000 -1.0892097 140.35992 -59.59568 4.909246 -59.436459 3.5877852 0.13324098 22.115192
107656000000 -1.0745119 140.26962 -59.137306 1.523086 -59.634178 2.4671054 0.1359373 22.44994
107704000000 -1.0506673 139.94571 -59.323196 -0.61505109 -59.579502 0.71453977 0.1442406 21.161974
107752000000 -1.0377231 140.05626 -59.203735 -1.7132039 -59.781845 1.0216349 0.13514243 21.87219
107800000000 -1.0197463 140.04315 -59.603519 -1.8531042 -59.972073 0.7847178 0.13564627 21.704882
107848000000 -1.0112427 139.99429 -60.041851 -1.6143694 -59.924374 1.1518545 0.13270272 21.849392
107896000000 -1.0082157 139.93164 -59.976727 -2.1864321 -59.738064 2.5326889 0.12162498 21.804615
107944000000 -1.0487738 139.80896 -60.003929 -1.671808 -59.935585 1.6102904 0.076752536 22.049913
107992000000 -1.0454992 139.99199 -60.102692 -0.70424604 -59.775448 0.96463692 0.12415846 22.149942
108040000000 -1.0710727 139.90958 -59.760101 0.28683728 -59.780766 1.2778863 0.11748084 22.188778
108088000000 -1.0825123 139.89221 -59.716782 -0.81394142 -59.829594 -0.50784546 0.099324636 22.045626
108136000000 -1.0951126 139.75687 -59.93993 -2.7622778 -59.9174 -0.30850768 0.11850264 22.036329
108184000000 -1.0823395 139.70116 -60.01635 -1.9662378 -60.058823 0.93998235 0.14511092 22.101042
108232000000 -1.0802995 139.73529 -60.192211 -0.81620228 -59.983322 1.9626867 0.14685903 22.102659
108280000000 -1.0791945 139.51918 -59.786446 1.3940696 -59.793171 3.3397117 0.14633048 22.18688
108328000000 -1.0764786 139.37625 -59.674362 0.56576079 -59.901485 2.4715989 0.13792384 22.479624
108376000000 -1.0601944 139.28389 -59.514099 -0.65606898 -59.509735 2.8321939 0.15062721 21.972036
108424000000 -1.0283171 139.13879 -59.247913 -0.94888723 -59.171104 1.2880759 0.1740433 22.136709
108472000000 -1.0190219 138.7986 -59.652363 -0.17350185 -59.192249 0.74010319 0.12714249 21.802988
108520000000 -1.0320125 138.80394 -59.21043 -1.5637532 -59.330589 -0.7971763 0.10347247 22.060017
108568000000 -1.0338024 138.84657 -59.343231 -3.4584231 -59.272663 -1.5027877 0.1007114 21.980526
108616000000 -1.0326275 138.84744 -59.042252 -3.7670598 -59.196163 -1.6151381 0.10211036 22.152683
108664000000 -1.0377678 138.88889 -58.907406 -5.5722566 -58.995251 -1.1422082 0.12947729 22.291378
108712000000 -1.0477045 138.87965 -58.984322 -5.1425982 -58.921597 -2.8858237 0.15762706 22.156025
108760000000 -1.0592234 138.87933 -59.124428 -7.7721858 -58.996635 -3.6437659 0.15493667 22.15259
108808000000 -1.071031 138.87175 -59.011845 -6.9192781 -58.948711 -5.2535987 0.15221864 22.216841
108856000000 -1.0870191 138.75403 -59.224716 -7.6140704 -59.123009 -6.0711021 0.15692553 22.200689
108904000000 -1.0851469 138.73386 -59.649548 -9.8018627 -59.221188 -6.9033446 0.15716571 22.306149
108952000000 -1.0855837 138.67171 -59.448051 -9.3749819 -59.409836 -8.4648275 0.14327794 22.118816
109000000000 -1.0884949 138.73669 -59.834358 -9.6599064 -59.756054 -7.5020118 0.11386082 22.082201
109048000000 -1.0947684 138.72224 -59.927425 -5.4028134 -59.705975 -6.0634675 0.094786867 22.078981
109096000000 -1.0920607 138.66307 -59.535786 -8.1230927 -59.590244 -5.5554104 0.11581866 22.178844
109144000000 -1.0785762 138.58951 -59.498856 -6.8398604 -59.560509 -4.5568991 0.13271376 22.312202
109192000000 -1.0637156 138.485 -59.569187 -5.978282 -59.297321 -2.6385467 0.14293931 22.390394
109240000000 -1.0460041 138.46184 -59.554325 -3.6306918 -59.165928 -1.7638059 0.16063359 21.370317
109288000000 -1.0249759 138.29074 -59.212627 -3.0457904 -59.076519 -2.2582908 0.14904068 22.326426
109336000000 -1.0242699 138.13567 -58.939911 -3.8053553 -58.721447 -2.4540033 0.13153408 22.296762
109384000000 -1.0292521 137.98878 -58.732487 -6.5211072 -58.567749 -3.270565 0.14879456 22.468313
109432000000 -1.0583298 137.93903 -58.739685 -6.7072701 -58.573978 -4.8813696 0.14088641 22.579945
109480000000 -1.0883206 138.01221 -58.695412 -7.5117884 -58.347843 -5.971384 0.13260832 22.866867
109528000000 -1.1102009 138.04333 -58.656509 -7.0282726 -58.347359 -6.6867843 0.13006771 23.34535
109576000000 -1.1169558 138.18484 -58.438446 -7.958138 -58.316002 -9.3246431 0.11290098 22.174271
109624000000 -1.1189947 138.24336 -58.216869 -8.0497084 -58.487869 -8.2566824 0.16546194 21.865295
109672000000 -1.1127192 138.20375 -58.488182 -11.885431 -58.334885 -10.694147 0.15512452 21.877151
109720000000 -1.1084577 138.32327 -57.943153 -13.481027 -58.256863 -13.17823 0.13407937 21.797958
109768000000 -1.1050075 138.38165 -58.187389 -13.983918 -58.495007 -12.552386 0.13515398 20.969631
109816000000 -1.1042004 138.42639 -58.600388 -16.811142 -58.772724 -14.445308 0.1302129 22.245335
109864000000 -1.0906513 138.38364 -58.963272 -17.589972 -59.040977 -12.889757 0.1392156 22.1008
109912000000 -1.0726153 138.17282 -58.96566 -16.921543 -58.959751 -14.098913 0.16068099 22.17654
109960000000 -1.0624412 137.96997 -59.074005 -16.340918 -59.114151 -12.999764 0.12873352 22.059834
110008000000 -1.0502169 137.78828 -59.131748 -17.521854 -59.084217 -14.223956 0.18202789 22.101807
110056000000 -1.0596651 137.76031 -59.15588 -16.430443 -59.120106 -12.998357 0.14943387 22.404789
110104000000 -1.0539742 137.63751 -59.294777 -14.332201 -59.141071 -13.653585 0.16020799 22.539587
110152000000 -1.0631187 137.37045 -59.310448 -14.185443 -59.176041 -12.949237 0.17555855 22.316488
110200000000 -1.0904423 137.01236 -59.075668 -13.178758 -58.972683 -12.884897 0.11614177 22.50095
110248000000 -1.1014735 136.95265 -58.925911 -13.929948 -59.074619 -14.322922 0.15961617 22.805527
110296000000 -1.1127045 136.8985 -59.012432 -14.611262 -58.882759 -13.46441 0.18862243 22.663881
110344000000 -1.1193006 136.85025 -59.090008 -13.419785 -58.880699 -15.176149 0.19005778 22.521389
110392000000 -1.1343036 136.75038 -59.077873 -14.383037 -58.975246 -15.271408 0.18861996 22.528166
110440000000 -1.1498679 136.66397 -59.211124 -15.592887 -58.959507 -15.144391 0.18422322 22.414207
110488000000 -1.139775 136.72662 -58.88316 -14.455813 -58.98037 -14.455284 0.16829324 22.561855
110536000000 -1.1363763 136.69 -58.982811 -14.158797 -58.856674 -14.443047 0.16690946 22.576977
110584000000 -1.2286646 136.44266 -58.859467 -15.811497 -59.195774 -15.165416 0.18943086 22.119781
110632000000 -1.1128162 136.68965 -58.929771 -14.068566 -58.825874 -13.845124 0.16524068 22.425028
110680000000 -1.0930204 137.23692 -58.621738 -12.083087 -59.01796 -13.482464 0.15615298 22.166058
110728000000 -1.0892227 136.4827 -58.42794 -13.229639 -58.711601 -12.825084 0.15594071 22.391617
110776000000 -1.0784627 136.30809 -58.373905 -14.127081 -58.728321 -13.22039 0.14572324 22.458176
110824000000 -1.0868392 136.16826 -58.176456 -14.920755 -58.345573 -13.661074 0.148697 22.536348
110872000000 -1.0983545 136.05435 -58.026218 -16.744728 -58.074062 -13.562001 0.15342021 22.529123
110920000000 -1.112548 135.92262 -57.866383 -18.2768 -58.029701 -16.423254 0.15596068 22.368568
110968000000 -1.1359764 135.81593 -58.085129 -19.572187 -58.137272 -17.552725 0.15775636 22.634594
111016000000 -1.1514614 135.80635 -58.175713 -19.397844 -58.383163 -17.226484 0.18360488 22.355478
111064000000 -1.1677631 135.85706 -58.030552 -19.700693 -58.207336 -16.974184 0.17790078 22.313486
111112000000 -1.1758301 135.95306 -58.060955 -19.041075 -58.083305 -17.380819 0.17558292 22.413631
111160000000 -1.1808776 136.04625 -57.808853 -18.741438 -57.561638 -16.978588 0.1713347 22.407078
111208000000 -1.1813712 136.00629 -57.832973 -20.844082 -57.54977 -19.82756 0.18952058 22.513361
111256000000 -1.177219 135.96487 -57.649082 -20.528431 -57.646091 -20.019131 0.19090955 22.45425
111304000000 -1.1637264 136.01506 -57.444771 -21.301662 -57.608768 -23.167032 0.18356468 22.564222
111352000000 -1.152372 136.12663 -57.543777 -25.322275 -57.993698 -25.93902 0.17193189 22.38376
111400000000 -1.1359818 136.11888 -57.672211 -26.894865 -57.921677 -24.314478 0.16157445 22.526571
111448000000 -1.1208614 135.96214 -57.949619 -26.395876 -58.208462 -25.474506 0.15755166 22.728252
111496000000 -1.1175942 135.85951 -58.099926 -26.085369 -58.252075 -23.17034 0.16265774 22.708158
111544000000 -1.1177477 135.69402 -58.266788 -27.450626 -58.020554 -23.49081 0.16539069 22.66118
111592000000 -1.1266317 135.59943 -58.493206 -25.747858 -58.053593 -24.305582 0.16953269 22.725185
111640000000 -1.1425928 135.58142 -58.306019 -24.539322 -58.035187 -24.315369 0.16406979 22.715479
111688000000 -1.1583847 135.41353 -58.126709 -24.756506 -57.961952 -24.838579 0.15610553 22.796053
111736000000 -1.1743231 135.40666 -58.254044 -26.883753 -58.001522 -25.719486 0.17354937 22.776306
111784000000 -1.1801974 135.35031 -58.176308 -24.531273 -58.031666 -25.836327 0.17228122 22.784512
111832000000 -1.1877257 135.30341 -57.881107 -25.022797 -58.017971 -25.256098 0.17086585 22.86727
111880000000 -1.1839659 135.3774 -58.239929 -25.431875 -58.132027 -26.515717 0.17083301 22.847322
111928000000 -1.1782742 135.43097 -58.156052 -24.414499 -57.993294 -24.202501 0.16919659 22.852285
111976000000 -1.1699431 135.27461 -57.835297 -23.096876 -58.104675 -24.595659 0.16777325 22.935371
112024000000 -1.1585639 135.29443 -57.490932 -23.681084 -57.76189 -24.228317 0.17527513 22.967987
112072000000 -1.1408248 135.24268 -57.171059 -24.557325 -57.451279 -25.640545 0.16163531 22.825859
112120000000 -1.1270736 135.32622 -56.843449 -26.888588 -57.111191 -26.953955 0.1539709 22.896591
112168000000 -1.1172066 135.28716 -56.964222 -30.127928 -57.04224 -28.875828 0.15120925 22.950432
112216000000 -1.0972736 135.21227 -57.139374 -31.403427 -57.263966 -32.577873 0.14903769 22.899626
112264000000 -1.0963959 135.03841 -57.101425 -32.520245 -57.362175 -33.722828 0.13786416 22.928867
112312000000 -1.1173177 135.14378 -57.212837 -33.939976 -57.468971 -34.174313 0.17053434 22.968721
112360000000 -1.0862863 134.99467 -57.281086 -36.647659 -57.769817 -35.685398 0.16046096 22.955509
112408000000 -1.0975858 134.81255 -57.577625 -38.287041 -57.939861 -34.528397 0.15567499 22.766748
112456000000 -1.1143898 134.77469 -57.862938 -37.483894 -57.964127 -34.579144 0.1649162 23.238224
112504000000 -1.1368121 134.7162 -58.073097 -37.945114 -58.041218 -33.542431 0.14859644 22.870455
112552000000 -1.1244107 134.68872 -58.114777 -36.820084 -57.959751 -34.594543 0.15806888 23.001867
112600000000 -1.1254102 134.60953 -58.219246 -38.230915 -57.928543 -35.807983 0.15199918 23.110493
112648000000 -1.1321523 134.51028 -58.570168 -36.817425 -58.137749 -35.103523 0.1529884 23.108494
112696000000 -1.1397535 134.49721 -58.396606 -33.638325 -58.307819 -35.648571 0.16845609 23.208378
112744000000 -1.1355071 134.5954 -58.087814 -34.017086 -58.09531 -34.277966 0.17940128 23.142933
112792000000 -1.1259953 134.49506 -57.87981 -35.195515 -58.125984 -35.208752 0.1745327 23.018723
112840000000 -1.1168476 134.4265 -58.021507 -36.226219 -58.078861 -35.453495 0.17221703 23.06731
112888000000 -1.1031157 134.47414 -58.148602 -35.502007 -58.046188 -35.800156 0.14657524 23.130522
112936000000 -1.0884795 134.37662 -58.130753 -36.562267 -58.325336 -36.423656 0.16487981 23.136198
112984000000 -1.0914786 134.34677 -58.22578 -36.868298 -58.225258 -35.850727 0.15987466 23.245832
113032000000 -1.0892705 134.24184 -58.604259 -35.702667 -58.376057 -34.553516 0.15540875 23.215143
113080000000 -1.0897598 134.14813 -58.319958 -34.436321 -58.578621 -31.227001 0.16662449 23.306274
113128000000 -1.0975461 133.98999 -58.332497 -32.173565 -58.135128 -31.177696 0.17045221 23.233234
113176000000 -1.1057187 133.92494 -57.888176 -34.331306 -57.912632 -32.458981 0.16816126 23.151823
113224000000 -1.1330917 133.94272 -57.886589 -35.490597 -57.82896 -32.900558 0.16961534 23.175661
113272000000 -1.1381431 133.9753 -57.990414 -35.775814 -57.927086 -34.631996 0.17102961 23.119587
113320000000 -1.1421355 133.89992 -57.814083 -34.72364 -57.904446 -33.655277 0.15449654 23.156309
113368000000 -1.1342713 133.74309 -57.784847 -35.867462 -57.721066 -32.590401 0.16188569 23.312147
113416000000 -1.1335676 133.69086 -57.909313 -34.955582 -57.77953 -32.639427 0.15942404 23.281782
113464000000 -1.1324164 133.614 -57.626282 -32.728931 -57.366764 -32.723148 0.14607517 23.178358
113512000000 -1.1215843 133.59856 -57.257504 -33.812313 -57.282192 -33.970238 0.14450002 23.172718
113560000000 -1.1211671 133.62442 -56.966347 -35.421185 -57.019394 -35.338112 0.14032052 23.317436
113608000000 -1.1153823 133.51732 -56.838135 -37.514526 -56.785954 -36.411873 0.13392475 23.316423
113656000000 -1.1053027 133.56917 -56.634121 -40.302246 -56.748848 -37.772568 0.13229749 23.343821
113704000000 -1.0918969 133.59337 -56.710667 -42.049034 -56.806648 -38.488594 0.13808031 23.269846
113752000000 -1.0915304 133.67139 -56.913013 -44.931843 -56.885986 -39.575287 0.13443376 23.362141
113800000000 -1.0893823 133.56302 -57.161133 -44.416504 -57.016296 -41.374947 0.13722865 23.439081
113848000000 -1.0951471 133.49411 -57.25695 -43.484898 -57.030731 -43.073071 0.1372101 23.462458
113896000000 -1.1039788 133.34563 -57.361221 -44.956989 -57.214966 -44.304066 0.13309237 23.426342
113944000000 -1.1162478 133.28156 -57.327415 -44.750607 -57.409081 -43.50486 0.14066789 23.489523
113992000000 -1.1176753 133.18954 -57.388512 -45.652111 -57.450756 -43.381107 0.14528015 23.441576
114040000000 -1.1324576 133.11745 -57.397808 -45.432606 -57.624535 -44.027142 0.14805508 23.451403
114088000000 -1.13371 133.08997 -57.375656 -46.137341 -57.491394 -44.660854 0.14726242 23.515732
114136000000 -1.1335602 133.04636 -57.506851 -46.38612 -57.57991 -43.266758 0.15307786 23.560698
114184000000 -1.1390178 132.99347 -57.374622 -46.721901 -57.388126 -44.430717 0.14826122 23.534233
114232000000 -1.129174 132.87007 -57.355797 -46.396305 -57.396957 -43.961014 0.15443407 23.513891
114280000000 -1.1176144 132.89206 -57.229935 -46.062542 -57.355724 -44.835613 0.14511493 23.563305
114328000000 -1.0968989 132.82782 -56.928619 -47.147373 -57.140549 -45.26149 0.15118074 23.637701
114376000000 -1.0920337 132.72371 -56.843704 -49.786129 -57.04797 -46.777081 0.14515097 23.634842
114424000000 -1.0843962 132.56343 -56.914429 -52.168266 -56.947018 -48.944275 0.14181201 23.691172
114472000000 -1.085032 132.50357 -57.283875 -53.905495 -57.231445 -50.404579 0.14132893 23.673449
114520000000 -1.0929406 132.41174 -57.497025 -52.800667 -57.560699 -51.070576 0.13483328 23.610168
114568000000 -1.0886326 132.37878 -57.583973 -52.102829 -57.631001 -49.849178 0.14203399 23.682693
114616000000 -1.1001612 132.26067 -57.497505 -51.638832 -57.484604 -49.249332 0.13420336 23.54191
114664000000 -1.1005734 132.17157 -57.558521 -53.058208 -57.340126 -50.567703 0.13520868 23.600496
114712000000 -1.1107678 132.13109 -57.630287 -54.706226 -57.554455 -51.583176 0.12957026 23.571157
114760000000 -1.1108394 132.22427 -58.067635 -53.492081 -57.782478 -50.514473 0.14359051 23.621862
114808000000 -1.1141663 132.18118 -57.980854 -51.682209 -57.527752 -50.519566 0.14775784 23.598856
114856000000 -1.1119634 132.17592 -58.026272 -49.845043 -57.693226 -50.278236 0.1480746 23.515915
114904000000 -1.1053855 132.09721 -57.667187 -49.074009 -57.583988 -50.249771 0.14486557 23.48288
114952000000 -1.0949993 131.93852 -57.360313 -48.661278 -57.48101 -49.776218 0.15365557 23.261929
115000000000 -1.0974462 131.92767 -56.872879 -51.235916 -57.091904 -50.900684 0.14426313 23.498692
