!Keysight Technologies,N5247B,MY61256062,A.16.20.04
!Date: Saturday, November 29, 2025 06:30:45
!Correction: S11(C  2-Port  ) 
!S21(C  2-Port  ) 
!S12(C  2-Port  ) 
!S22(C  2-Port  ) 
!S2P File: Measurements: S11, S21, S12, S22:
# Hz S  dB   R 50
10000000 -6.3677974 168.20499 -96.052666 -95.224823 -89.566238 97.137299 -0.0077623692 0.27795976
51868750 -0.99705577 171.20583 -107.29302 52.471951 -110.92381 35.90416 0.0015885902 0.022796709
93737500 0.015300615 -178.39452 -119.30357 154.80962 -111.15389 7.7369142 0.0007304406 0.018182142
135606250 -0.42650419 -178.50696 -109.84101 -164.90903 -108.27012 -72.678902 0.0013298175 0.035695937
177475000 0.12188373 -178.24277 -134.08212 164.97313 -110.0191 125.69785 0.0012118119 0.045552716
219343750 0.15892895 179.65886 -110.35075 60.981434 -104.60529 -24.909466 0.0013810557 0.054451864
261212500 0.095403284 -179.24013 -108.2382 169.76109 -111.43864 36.388481 0.0021852613 0.065462865
303081250 0.063637555 179.81459 -104.20824 0.78863776 -104.81461 147.27423 0.00126978 0.076128431
344950000 -0.084660351 -178.93042 -112.4565 98.576828 -108.41988 91.943268 0.0014959513 0.088401608
386818750 -0.087566674 178.70645 -116.18634 10.17355 -119.30675 -148.22639 0.0012951407 0.097068176
428687500 -0.17161705 178.80908 -108.29124 -100.38342 -102.64677 -47.580456 0.0013857137 0.10595354
470556250 -0.15216945 179.2753 -108.38777 153.4938 -106.83389 151.29774 0.0025598854 0.1177571
512425000 -0.2493234 178.82304 -128.79272 -29.389666 -107.57205 -43.418137 0.001681227 0.12875669
554293750 -0.24872112 179.47668 -119.19968 43.94936 -107.61949 -18.020512 0.002277368 0.14129509
596162500 -0.1167619 179.10022 -107.43015 -7.2931104 -105.57314 119.60371 0.0019684406 0.15241887
638031250 -0.12233557 178.87773 -108.12166 75.968948 -114.95576 35.533081 0.0016113614 0.16236894
679900000 -0.063562781 179.45422 -106.65926 111.69305 -108.32047 -37.40897 0.0021428294 0.17238586
721768750 -0.10131297 178.76448 -104.69124 76.738525 -108.90552 81.782547 0.0020450277 0.18211685
763637500 -0.091822609 179.11951 -112.51292 140.04715 -115.59341 90.697479 0.0016393078 0.19253609
805506250 -0.10760313 178.89647 -111.09917 -175.31276 -112.07061 -81.509178 0.0019389439 0.20182672
847375000 -0.1912725 179.05624 -105.99117 -107.29392 -105.47997 -113.028 0.0025702338 0.21396458
889243750 -0.13014226 178.82626 -110.72778 -14.659266 -108.63181 4.904716 0.0022742634 0.22323892
931112500 -0.15759255 178.98701 -107.00779 27.147995 -108.60934 112.97335 0.0024134547 0.23264566
972981250 -0.17038816 179.04175 -107.98833 19.623463 -116.04641 -73.57933 0.0015616785 0.24283433
1014850000 -0.13638352 178.80249 -106.36067 73.271408 -117.7024 137.79469 0.0023974143 0.25394377
1056718750 -0.16436619 179.11795 -114.92552 -139.01006 -110.88033 96.864983 0.0024879642 0.26561582
1098587500 -0.095027149 178.87219 -111.2399 -0.65299422 -113.75903 148.1702 0.0021076417 0.27371934
1140456250 -0.15073246 179.01395 -105.46916 -0.30457768 -112.2561 -22.880375 0.001935839 0.28490853
1182325000 -0.088637337 178.97658 -106.56491 176.86208 -118.81305 162.76633 0.0021661152 0.29670247
1224193750 -0.085283592 178.48039 -106.95457 -8.7601824 -108.18581 -31.155472 0.00225667 0.30826345
1266062500 -0.12911253 178.51863 -110.11305 119.20802 -112.80905 -85.335037 0.0023798214 0.31799471
1307931250 -0.16319525 178.18614 -106.36018 53.882248 -105.43778 -12.975341 0.0022835773 0.33058232
1349800000 -0.20620245 178.4097 -113.97244 -40.439899 -115.71836 -94.934715 0.0021930232 0.3395662
1391668750 -0.18803862 178.27705 -117.66294 2.7227442 -112.3233 -136.77524 0.0025241836 0.34842879
1433537500 -0.20949036 178.51208 -107.5619 -20.855812 -109.81164 -111.976 0.002454849 0.35900661
1475406250 -0.19400746 178.51663 -106.63197 30.900425 -104.80216 -85.046448 0.0026783717 0.36771363
1517275000 -0.17186238 178.48756 -112.55772 137.49043 -114.74828 -66.99913 0.0019311815 0.37865084
1559143750 -0.20797345 178.7348 -112.26062 174.34979 -111.11238 171.21532 0.0017117605 0.38896453
1601012500 -0.21068825 178.49306 -105.60242 -43.272091 -112.84345 159.79535 0.0016294748 0.39961043
1642881250 -0.20715207 178.53329 -111.61009 14.451316 -116.12008 -82.101784 0.0021568011 0.41450852
1684750000 -0.18606605 178.39145 -109.77512 -146.85339 -103.99994 -42.501976 0.0015891077 0.42708072
1726618750 -0.18002148 178.46794 -104.00103 76.058525 -113.49915 -111.89545 0.0017081379 0.43783531
1768487500 -0.18266135 178.48952 -106.64719 25.068668 -108.36492 -93.793297 0.0022877168 0.44831228
1810356250 -0.178893 178.23518 -120.9232 -41.451706 -118.73931 -87.721512 0.0024072456 0.45718959
1852225000 -0.19185388 178.3443 -107.39581 -175.84433 -103.76934 -57.089394 0.0026690585 0.47133476
1894093750 -0.16205607 178.21724 -104.86362 -163.84633 -109.83401 -130.21181 0.00248279 0.47975585
1935962500 -0.19041803 178.26642 -115.95039 126.38152 -108.62376 165.2213 0.0020507199 0.49318129
1977831250 -0.20668076 178.23766 -107.55792 173.08884 -110.76387 -63.840893 0.0020072518 0.50025839
2019700000 -0.1888718 178.10641 -121.91505 -28.888529 -105.32788 -62.311359 0.0024434656 0.51294637
2061568750 -0.19021817 178.21889 -113.35542 89.400841 -115.46488 -94.734856 0.0035247558 0.52183801
2103437500 -0.1931925 177.89188 -110.76192 124.61059 -108.79687 162.07608 0.0031765995 0.53190017
2145306250 -0.20089863 178.18748 -115.97141 -150.0554 -108.64494 -70.73793 0.0032319545 0.54668671
2187175000 -0.21628863 178.15271 -116.21738 10.202644 -114.20364 122.82328 0.0033136925 0.55369836
2229043750 -0.21173696 178.11021 -103.5657 -163.90358 -102.98308 -146.35509 0.0025138352 0.56676388
2270912500 -0.21953355 178.0468 -107.61767 -140.254 -107.29449 -164.83897 0.0024372565 0.57474881
2312781250 -0.18322024 177.98459 -103.3643 -152.27379 -118.41187 95.61013 0.0030684739 0.58468562
2354650000 -0.1895037 178.13916 -106.79719 -112.3269 -104.95329 137.04527 0.0036235589 0.59615195
2396518750 -0.17805633 178.00801 -103.27622 -178.96303 -107.15781 -179.84613 0.003409914 0.60441101
2438387500 -0.19103986 177.83116 -107.09019 138.15863 -104.71897 100.46053 0.002884292 0.61793208
2480256250 -0.18588935 177.92159 -111.52834 104.62509 -118.09419 -113.79701 0.0036339047 0.62310869
2522125000 -0.19795071 177.69008 -105.44959 154.82594 -114.96539 -78.906059 0.0034569891 0.63628733
2563993750 -0.21013857 177.9102 -106.09429 53.976772 -103.53703 150.51669 0.0036814949 0.64841187
2605862500 -0.20289639 177.57706 -112.82001 173.06387 -103.18369 92.559921 0.0039980588 0.65745378
2647731250 -0.22630037 177.64006 -113.43739 116.86331 -108.81701 -157.24561 0.0039944383 0.66647857
2689600000 -0.21718711 177.62836 -115.10027 84.051086 -103.93271 93.407593 0.0033540437 0.67570609
2731468750 -0.25807282 177.56139 -107.01832 -47.688984 -107.12859 -156.96329 0.0039690933 0.68807328
2773337500 -0.24644819 177.65007 -108.42657 -90.113464 -105.43085 -120.88284 0.0038252964 0.6938566
2815206250 -0.25904596 177.66835 -108.53471 29.212145 -107.79878 -83.147949 0.0036716664 0.70807159
2857075000 -0.24288799 177.81728 -107.1198 155.27621 -106.80804 -86.778938 0.0032547172 0.71792704
2898943750 -0.2317571 177.52675 -102.48173 -132.54878 -103.55207 -134.94394 0.0032107439 0.72861087
2940812500 -0.235532 177.63286 -105.0946 -111.20757 -105.67655 160.3739 0.003643733 0.73768038
2982681250 -0.21065183 177.47673 -105.15553 140.57712 -102.0853 171.64812 0.002663367 0.74847609
3024550000 -0.22720695 177.50926 -104.54527 139.87004 -105.31068 -159.15431 0.0038521939 0.76158708
3066418750 -0.24385087 177.5051 -106.42409 72.162865 -105.73497 -131.94087 0.0036204553 0.77060753
3108287500 -0.24055025 177.25653 -107.85907 -129.92021 -104.61696 -104.92821 0.0037332226 0.78525615
3150156250 -0.24620189 177.33572 -104.52972 -176.75156 -112.0759 117.28009 0.0035780373 0.79411286
3192025000 -0.23865241 177.22736 -104.07917 82.362396 -101.86729 174.96959 0.0030224291 0.80103272
3233893750 -0.260804 177.36897 -109.09998 159.66624 -110.71426 -157.03899 0.0041816765 0.81387639
3275762500 -0.24650024 177.2867 -109.52213 23.797335 -113.88679 169.53415 0.0034109484 0.82355207
3317631250 -0.26893848 177.2012 -103.86611 129.33525 -107.0842 -85.820129 0.0046176719 0.83655673
3359500000 -0.27186364 177.33696 -119.6222 -84.968903 -102.39333 -164.87544 0.0035418267 0.84423065
3401368750 -0.27729708 177.12173 -107.17243 159.20448 -109.19361 -157.94394 0.0040037488 0.85747004
3443237500 -0.27931708 177.33583 -112.09068 81.892784 -104.24158 0.99319363 0.0040477142 0.86538506
3485106250 -0.26534796 177.2429 -101.99955 -136.62068 -105.65555 -130.99265 0.0035190657 0.87706643
3526975000 -0.28984559 177.30823 -109.65002 126.8047 -99.234779 -164.01877 0.0046057771 0.88965189
3568843750 -0.27290103 177.28279 -108.41531 -110.79739 -106.81587 -122.82433 0.0040487484 0.89809144
3610712500 -0.2776227 177.17572 -106.50759 -172.30127 -101.91161 -133.3354 0.0047955746 0.91257548
3652581250 -0.2722525 177.34404 -103.81701 -123.96549 -105.8767 -166.31726 0.0043694237 0.92003387
3694450000 -0.2752113 177.11783 -107.57919 -177.83876 -99.988663 -151.91344 0.004674043 0.9333384
3736318750 -0.2702066 177.26228 -108.81032 -141.03586 -109.36122 150.6981 0.0055355499 0.94386023
3778187500 -0.26618731 177.17764 -103.479 -139.00264 -102.98087 -164.35844 0.0053773271 0.95251644
3820056250 -0.26934057 177.14171 -104.76609 -135.99036 -102.7537 -172.8681 0.0059512462 0.96548396
3861925000 -0.2598305 177.17351 -104.8157 -175.21878 -107.65581 -146.11017 0.0050200108 0.97153699
3903793750 -0.28299153 176.95375 -106.19216 109.06969 -106.48866 178.30421 0.005868007 0.98285997
3945662500 -0.26686415 177.14368 -106.07105 -152.42473 -102.8033 171.34462 0.0056208642 0.99207973
3987531250 -0.28263181 177.06883 -103.62693 172.76228 -102.9516 179.0806 0.0059677907 1.0007828
4029400000 -0.28140897 177.04959 -100.34364 177.5025 -100.05199 -140.63736 0.0056782565 1.0106556
4071268750 -0.2741259 177.00412 -108.47878 179.27759 -103.31903 -163.51706 0.0056053526 1.0220317
4113137500 -0.29133075 176.95453 -104.23251 -146.93803 -107.91193 153.42395 0.0063782758 1.0299557
4155006250 -0.27992636 177.02103 -103.37969 147.51222 -98.777428 -166.0784 0.0057914872 1.0382307
4196875000 -0.2793974 176.8562 -100.4351 -169.38972 -100.83444 159.72664 0.0061368491 1.049421
4238743750 -0.28062907 176.99431 -97.445992 158.2095 -104.12904 157.30298 0.0057113469 1.0579305
4280612500 -0.28389177 176.85748 -99.051964 174.53796 -104.11971 170.25209 0.0060298312 1.0677003
4322481250 -0.28417891 176.93718 -100.59877 -177.15457 -98.52449 154.02715 0.0064490987 1.0785929
4364350000 -0.27869821 176.94258 -108.73393 -140.92921 -100.32398 -169.96663 0.0059016133 1.0887663
4406218750 -0.28471372 176.88486 -102.18855 132.94153 -108.71261 177.39217 0.0061678686 1.0988566
4448087500 -0.27748996 176.95085 -99.876183 -153.4077 -103.5467 -146.29575 0.0056699836 1.1080731
4489956250 -0.27767208 176.81415 -100.14701 157.83138 -97.782928 -172.74922 0.0060432735 1.116397
4531825000 -0.27454337 176.85724 -100.90416 155.36366 -97.215599 153.95753 0.0058245771 1.1291981
4573693750 -0.27995205 176.78888 -100.71101 -173.74115 -103.1483 143.00667 0.0053949077 1.1393328
4615562500 -0.27695578 176.7234 -99.863708 171.71355 -99.57032 144.31007 0.0051265364 1.149353
4657431250 -0.27488038 176.75407 -101.22241 164.26454 -100.18705 167.08861 0.0047955746 1.1588428
4699300000 -0.28394458 176.6413 -105.36762 -164.13579 -107.93705 -154.66907 0.0059646885 1.1697929
4741168750 -0.2906656 176.7106 -98.513206 158.9716 -106.43941 179.84338 0.004937788 1.1834353
4783037500 -0.27835789 176.60663 -102.91417 176.06642 -94.973183 153.77054 0.0051963455 1.1916574
4824906250 -0.28744927 176.62189 -103.92352 166.82498 -97.174179 -179.4612 0.0052423673 1.2031392
4866775000 -0.27553704 176.56563 -104.82739 -155.99237 -96.821014 174.69745 0.0048762485 1.2138356
4908643750 -0.28774992 176.57751 -99.892517 -168.56844 -98.808769 -152.698 0.0052320254 1.225673
4950512500 -0.27953571 176.63528 -97.33564 -170.91966 -96.89743 178.69841 0.0050763767 1.2359774
4992381250 -0.29113033 176.55383 -105.34267 -157.76643 -99.351288 171.83131 0.0050505209 1.2442148
5034250000 -0.28244177 176.65187 -99.450668 -171.58112 -96.57769 -175.20325 0.004859183 1.2571495
5076118750 -0.28294346 176.49956 -99.410469 -159.6851 -100.30902 142.1837 0.005050004 1.2661794
5117987500 -0.2724534 176.50829 -100.13024 164.13698 -101.24252 -171.44785 0.0052268542 1.2796756
5159856250 -0.28261083 176.52849 -97.129242 161.47452 -100.68425 143.04871 0.0049801925 1.2902588
5201725000 -0.28590876 176.39763 -99.896111 144.12538 -96.708244 152.27708 0.0047686826 1.3009874
5243593750 -0.28583217 176.40408 -103.02832 -171.2036 -95.738594 154.47966 0.0051461868 1.31284
5285462500 -0.2851651 176.3206 -97.66687 -175.95087 -98.036133 146.25658 0.0048845229 1.3214817
5327331250 -0.28156722 176.42505 -96.044785 146.16414 -96.126305 175.1268 0.0055138338 1.3345129
5369200000 -0.27420366 176.33693 -98.826149 160.0894 -99.485703 162.82988 0.0051761786 1.3431571
5411068750 -0.27691191 176.334 -98.25238 132.14221 -97.229797 158.68091 0.0050567263 1.3567595
5452937500 -0.27066308 176.25816 -98.447044 170.67867 -102.33778 -177.85907 0.0051115402 1.3646858
5494806250 -0.2784909 176.1608 -96.577133 164.69313 -101.25272 139.85477 0.0052402988 1.3794396
5536675000 -0.26744911 176.19753 -96.540573 157.77834 -97.867836 156.51013 0.0050008772 1.3913828
5578543750 -0.27283433 176.07152 -109.38548 160.97794 -98.172646 159.0067 0.0050282846 1.3960876
5620412500 -0.28185531 176.09325 -102.9397 -177.26909 -98.035873 156.29066 0.0056973868 1.4131917
5662281250 -0.28487512 175.99278 -100.3858 -162.77974 -100.89343 178.19472 0.0056105233 1.4201488
5704150000 -0.29035813 175.96788 -99.226715 -160.19269 -98.786705 155.29228 0.0054941853 1.433468
5746018750 -0.28163379 175.96172 -99.912956 161.88591 -101.13498 150.81093 0.0054548881 1.4408017
5787887500 -0.29701927 175.86426 -97.578415 165.27422 -99.065002 149.97253 0.0054523028 1.4519908
5829756250 -0.29897854 175.9353 -95.370445 162.74362 -97.336929 -178.38728 0.005696353 1.4621501
5871625000 -0.30142483 175.83533 -100.69705 167.00424 -95.900681 156.57491 0.0058214748 1.4704257
5913493750 -0.30980623 175.87724 -93.738129 160.32471 -97.898689 145.56332 0.0058080321 1.4863319
5955362500 -0.30195147 175.85506 -97.137451 154.49696 -97.098633 159.20314 0.0057428861 1.4930824
5997231250 -0.3142117 175.82387 -96.687202 164.12732 -96.766373 173.87251 0.0062066419 1.5063984
6039100000 -0.30379611 175.81546 -97.162399 162.52412 -96.715508 170.21393 0.005841122 1.5152153
6080968750 -0.31085384 175.72289 -93.902679 165.69785 -96.126396 176.04794 0.0061047957 1.5266621
6122837500 -0.30953017 175.77002 -95.61145 161.48366 -96.337303 146.21451 0.0067008468 1.5364758
6164706250 -0.30989155 175.71933 -99.622757 136.92824 -98.091415 147.54218 0.0061818268 1.5451655
6206575000 -0.31524676 175.70412 -96.981407 162.4975 -95.503319 168.07785 0.0068073315 1.5591203
6248443750 -0.31138387 175.70282 -96.776184 165.58855 -97.779816 142.10484 0.0062728152 1.5649884
6290312500 -0.32924852 175.67981 -96.980324 146.50169 -97.638512 152.571 0.0061549437 1.5779663
6332181250 -0.31604207 175.66515 -97.895935 146.2765 -98.114914 140.47122 0.0064061917 1.5850208
6374050000 -0.32270873 175.5932 -95.302467 161.11082 -98.199158 162.59596 0.0065488694 1.5961144
6415918750 -0.32513967 175.63667 -102.17643 154.50223 -99.088036 174.05101 0.0066563915 1.6087956
6457787500 -0.32618681 175.57808 -95.459938 164.2558 -95.213737 159.59956 0.0063022822 1.6157439
6499656250 -0.33183652 175.59924 -95.760277 166.60992 -95.304832 149.30069 0.0071939616 1.6303071
6541525000 -0.32177755 175.54877 -94.087051 166.05695 -96.328247 154.2126 0.0067127361 1.635408
6583393750 -0.32818779 175.49983 -97.020287 161.21362 -96.573036 151.55321 0.0069903131 1.6487991
6625262500 -0.32725126 175.50446 -94.649559 174.19594 -99.050987 150.81537 0.0066837883 1.6568167
6667131250 -0.32737407 175.46149 -96.049355 145.90204 -98.283043 151.67067 0.0063327835 1.6683105
6709000000 -0.33134812 175.44543 -98.44017 162.72647 -98.549362 149.55516 0.0074007018 1.6770389
6750868750 -0.33324611 175.38531 -95.471649 163.47369 -98.438789 173.57867 0.0061409851 1.6852525
6792737500 -0.33889437 175.36423 -98.269318 175.65457 -100.88305 144.64104 0.0072632208 1.6986777
6834606250 -0.34207234 175.40613 -97.146553 153.74844 -98.155174 175.51364 0.0067365142 1.7035671
6876475000 -0.36076313 175.3356 -94.18042 148.81584 -95.893372 124.49614 0.0066098678 1.719928
6918343750 -0.35702875 175.3535 -98.684799 149.08125 -102.07494 166.10854 0.0068073315 1.7250956
6960212500 -0.36035979 175.35823 -97.115547 134.57097 -98.488075 148.28296 0.006290392 1.7380729
7002081250 -0.36145571 175.3907 -94.721718 151.99051 -97.6493 152.2928 0.0070900712 1.7507333
7043950000 -0.35843053 175.4091 -93.875443 171.88602 -95.974777 160.95367 0.0063818949 1.7638656
7085818750 -0.35963786 175.38748 -96.727188 151.58405 -95.52359 157.9006 0.0067266929 1.7760053
7127687500 -0.34983954 175.41844 -99.237984 167.52307 -94.883957 169.09579 0.0065648942 1.7839003
7169556250 -0.35659823 175.34587 -96.033401 152.9594 -94.578346 160.20996 0.0069608502 1.7951295
7211425000 -0.35289243 175.38995 -95.496056 179.84637 -99.036125 -170.97963 0.0071846582 1.8062897
7253293750 -0.3504602 175.36049 -94.723839 171.80638 -95.61998 161.03789 0.0071681184 1.8181251
7295162500 -0.34996831 175.35478 -94.559937 157.052 -96.637955 143.91605 0.0078141522 1.8218533
7337031250 -0.34327793 175.30228 -96.384392 -178.90109 -96.244804 151.38905 0.0071717366 1.834977
7378900000 -0.34612912 175.25127 -93.7854 162.93454 -95.064529 169.29837 0.0074554863 1.846239
7420768750 -0.3396557 175.24997 -94.98085 160.03371 -94.631714 -175.58162 0.0075087193 1.8525016
7462637500 -0.3433418 175.20641 -93.556931 160.05504 -95.5653 166.80963 0.0074787433 1.8669976
7504506250 -0.33916473 175.18144 -97.328041 178.64566 -93.81884 165.0495 0.007991924 1.8718292
7546375000 -0.3396526 175.11577 -96.584618 160.07565 -95.673088 171.79318 0.0078813341 1.884931
7588243750 -0.34373122 175.04633 -97.348221 147.06186 -94.473854 -176.92448 0.0084952265 1.8902341
7630112500 -0.34017748 175.06519 -99.335823 177.65891 -93.609894 178.23601 0.0076141506 1.9036958
7671981250 -0.34239611 174.95624 -96.604233 162.98297 -95.248131 -169.04277 0.0083867162 1.912164
7713850000 -0.34543732 174.95326 -93.235115 166.78308 -92.08976 179.63861 0.0083164414 1.9230428
7755718750 -0.34985581 174.89064 -93.388084 178.60037 -93.704216 169.81979 0.0085494807 1.9307414
7797587500 -0.36066833 174.89542 -94.547546 158.8183 -93.335831 161.10153 0.0088269403 1.9385469
7839456250 -0.36024082 174.85809 -91.986267 170.71471 -93.425522 177.2749 0.0086993212 1.9531182
7881325000 -0.3659077 174.87221 -92.101784 160.41492 -93.505196 152.31557 0.0089359554 1.9603403
7923193750 -0.36996514 174.86179 -95.434242 166.08804 -94.456978 151.65868 0.0085076271 1.9749223
7965062500 -0.37587789 174.85016 -93.701393 169.76228 -93.460258 172.86945 0.0088408897 1.9806439
8006931250 -0.37889066 174.88522 -94.629692 166.60818 -91.853966 174.4754 0.0089189056 1.9941508
8048800000 -0.37247938 174.87376 -96.443649 -172.35963 -93.503998 166.84232 0.0088765398 2.0009675
8090668750 -0.37305138 174.84053 -92.943092 162.64058 -93.530869 163.17801 0.0092247566 2.0113161
8132537500 -0.36998966 174.85153 -93.515442 156.85098 -93.910492 170.11873 0.0091736102 2.0232155
8174406250 -0.37470552 174.7718 -93.270325 175.29031 -92.153572 164.8654 0.0092366384 2.027277
8216275000 -0.36733094 174.76439 -95.048592 167.54796 -95.275337 166.56525 0.0090434188 2.0431287
8258143750 -0.37641817 174.73955 -93.659645 164.57384 -94.605804 170.14473 0.009260403 2.0465016
8300012500 -0.37998334 174.73457 -93.663811 158.50323 -94.589897 178.20096 0.0089049563 2.0603192
8341881250 -0.37865001 174.71118 -93.208946 154.37593 -92.999832 174.96333 0.0086982874 2.0682061
8383750000 -0.38585657 174.69537 -92.817772 163.5558 -93.683952 159.59616 0.0084616402 2.0753486
8425618750 -0.37894291 174.70816 -91.217987 167.87251 -91.249405 171.27573 0.0083030071 2.0926371
8467487500 -0.37678939 174.68491 -92.556862 166.20464 -92.491142 164.86198 0.0086182011 2.0962217
8509356250 -0.38143438 174.69995 -92.783958 163.95169 -90.701797 163.52867 0.0078570452 2.1112986
8551225000 -0.38270184 174.62881 -91.428062 156.08197 -92.301109 166.28625 0.0080146622 2.1179795
8593093750 -0.38581839 174.68808 -92.7136 168.43941 -90.904266 161.54915 0.0080379164 2.1346228
8634962500 -0.38153076 174.65472 -93.759346 158.81381 -90.282677 178.005 0.0082316976 2.1428404
8676831250 -0.38467953 174.59988 -91.148796 174.41718 -92.916054 176.19412 0.0080358488 2.1547396
8718700000 -0.39003974 174.64172 -94.100822 161.97357 -91.978897 171.64558 0.008195526 2.1690078
8760568750 -0.38506901 174.57524 -91.990631 171.13937 -91.270027 149.17377 0.0082926722 2.1731822
8802437500 -0.38128573 174.59088 -91.772903 160.65834 -91.405724 176.88742 0.0082999067 2.1908793
8844306250 -0.37504557 174.58983 -91.077965 172.47836 -92.552734 175.93642 0.0084890258 2.1919796
8886175000 -0.37503541 174.50632 -92.806625 150.42615 -90.629677 158.68835 0.0083805155 2.2057779
8928043750 -0.36882848 174.4277 -91.875786 164.74873 -91.881294 168.77042 0.0082012098 2.2138715
8969912500 -0.38107771 174.38243 -92.613785 -178.15898 -90.613426 164.50922 0.007192411 2.2242279
9011781250 -0.38353309 174.35489 -90.96521 161.3739 -93.239799 157.24071 0.0071174651 2.2419837
9053650000 -0.39207345 174.32904 -91.150734 162.18459 -90.490623 161.32375 0.0066455361 2.2526448
9095518750 -0.39969739 174.34801 -90.723351 165.70111 -94.421631 153.67676 0.0074492842 2.2717285
9137387500 -0.40497074 174.34682 -92.668503 166.34137 -91.176315 163.46436 0.0077939974 2.2756932
9179256250 -0.40347376 174.38402 -93.051582 170.73851 -91.439743 161.27412 0.0081598703 2.2937508
9221125000 -0.40521201 174.35542 -90.791595 165.73631 -89.481171 153.6788 0.0085939169 2.3022716
9262993750 -0.3985464 174.34479 -89.951393 171.45828 -89.300644 173.94826 0.00838775 2.3125687
9304862500 -0.39835206 174.36658 -90.593575 162.76031 -89.53064 152.73044 0.0090341186 2.3264987
9346731250 -0.4005529 174.3243 -90.911026 159.85411 -88.842033 164.90045 0.0086352518 2.3314731
9388600000 -0.39313236 174.31012 -92.15818 161.85707 -90.507622 172.89217 0.0090320529 2.3487475
9430468750 -0.3943817 174.24644 -91.34687 164.36551 -90.293648 169.9425 0.0095223198 2.3550968
9472337500 -0.40636277 174.20663 -89.815102 166.54591 -91.453514 169.6842 0.0097299824 2.3715312
9514206250 -0.40032184 174.24721 -89.766022 166.01065 -89.477859 162.2117 0.010173685 2.3774977
9556075000 -0.40732166 174.23232 -89.892372 172.98787 -89.731613 167.68768 0.009720684 2.3834064
9597943750 -0.40357745 174.24171 -90.794449 163.74411 -90.433395 165.83478 0.010710304 2.3964248
9639812500 -0.40529782 174.22981 -89.595848 157.31151 -90.235748 163.12701 0.0098771993 2.4029064
9681681250 -0.41049433 174.19048 -89.302826 166.03545 -90.602448 162.814 0.010391646 2.4192693
9723550000 -0.40894908 174.21318 -92.014214 167.59341 -90.436897 175.20818 0.010514051 2.4207475
9765418750 -0.41179591 174.23151 -89.62394 170.95837 -89.250557 166.98631 0.010637484 2.4372051
9807287500 -0.40899715 174.27078 -89.868172 171.04207 -90.075531 168.92998 0.011288166 2.4431627
9849156250 -0.40295169 174.2372 -89.376617 161.43121 -90.62606 163.21581 0.011149259 2.4529622
9891025000 -0.39751995 174.28427 -91.27713 168.10155 -89.481323 173.88139 0.011680078 2.4616106
9932893750 -0.40002435 174.2196 -88.283813 172.64252 -89.146545 166.96956 0.010874013 2.4669604
9974762500 -0.3953127 174.19693 -90.046661 166.16562 -89.419258 160.62415 0.011651163 2.4769874
10016631250 -0.39230579 174.20663 -87.858665 175.39445 -89.081001 161.21803 0.011258217 2.4807668
10058500000 -0.39177004 174.2001 -89.415894 164.70674 -89.636345 170.08789 0.01079345 2.4892752
10100368750 -0.37072319 174.24989 -88.469444 159.22858 -88.15406 169.46346 0.010290931 2.4959521
10142237500 -0.35746327 174.17628 -88.023666 174.04207 -89.822899 167.21437 0.0086357687 2.5085175
10184106250 -0.35043046 174.08321 -88.677834 150.22223 -88.59362 163.76389 0.008684854 2.5226789
10225975000 -0.34780052 173.9382 -88.894249 160.74335 -88.292747 155.91277 0.0076777181 2.5408719
10267843750 -0.36277869 173.78903 -87.90448 166.97893 -88.611366 162.28032 0.0081397174 2.5555897
10309712500 -0.36816233 173.73703 -88.376534 172.06656 -89.063217 172.03435 0.0078653144 2.5653412
10351581250 -0.38201803 173.69469 -89.606247 168.86285 -88.106636 162.33778 0.0084823091 2.5873108
10393450000 -0.39003521 173.70511 -88.897644 160.84746 -89.318764 165.40962 0.0092521375 2.5942466
10435318750 -0.39617443 173.65454 -88.356834 168.59882 -89.580696 174.67987 0.0098735839 2.6115136
10477187500 -0.40308037 173.66502 -89.463646 166.29169 -88.383842 178.17859 0.010691196 2.6187041
10519056250 -0.40585402 173.6003 -87.664337 175.90427 -87.874893 171.83768 0.010679834 2.6255085
10560925000 -0.41364995 173.61217 -89.402519 165.29495 -88.896057 174.16101 0.011313985 2.6340461
10602793750 -0.41714612 173.6759 -87.76046 163.93033 -89.81041 172.40414 0.011212259 2.6370277
10644662500 -0.42064536 173.6734 -90.718536 166.06093 -88.283806 165.2816 0.011002085 2.6429906
10686531250 -0.41546661 173.73129 -87.364868 176.01065 -89.227623 161.39449 0.010619925 2.657974
10728400000 -0.41042492 173.71259 -88.080269 167.22047 -89.652588 172.46466 0.0094050532 2.6699557
10770268750 -0.40800777 173.70432 -88.831306 164.09578 -87.74794 170.76274 0.010191763 2.6801393
10812137500 -0.39763004 173.70641 -87.997658 168.82953 -87.888855 170.4809 0.009765625 2.6945798
10854006250 -0.39721331 173.65359 -87.747864 168.73224 -87.913315 166.39134 0.010364273 2.7066762
10895875000 -0.38683641 173.61789 -90.843689 166.2384 -88.195427 167.95732 0.0098270942 2.7164955
10937743750 -0.38909033 173.53531 -88.102371 170.05832 -87.667793 174.30313 0.010707205 2.7311442
10979612500 -0.38697535 173.48706 -88.321617 170.37372 -87.794502 168.18002 0.011207611 2.7327862
11021481250 -0.39128563 173.39142 -87.7285 165.54317 -88.484253 178.87939 0.010954059 2.7508819
11063350000 -0.40167347 173.39009 -87.447235 169.92491 -86.455101 170.2113 0.011682659 2.7554381
11105218750 -0.4041746 173.36703 -87.585068 170.95367 -87.334084 173.56343 0.011143579 2.7649195
11147087500 -0.41477677 173.35754 -86.662216 168.14774 -87.278328 173.35683 0.011862854 2.7724051
11188956250 -0.41793752 173.3781 -86.512009 169.32915 -86.751511 169.98259 0.010602365 2.7821903
11230825000 -0.41651526 173.35617 -87.214592 169.64676 -86.006752 164.86748 0.011596432 2.7929881
11272693750 -0.41714439 173.40262 -86.535149 168.17249 -88.106804 170.94995 0.011009831 2.8026624
11314562500 -0.41634545 173.42688 -86.425339 175.10475 -87.52491 169.45084 0.010692229 2.8159528
11356431250 -0.41816011 173.36613 -86.617889 174.24886 -86.143394 176.58131 0.010665373 2.8209577
11398300000 -0.4133248 173.38037 -86.786629 169.53381 -86.952782 170.44154 0.010234117 2.8390038
11440168750 -0.41230425 173.32773 -87.279335 170.23737 -87.082909 168.47324 0.011093489 2.8454604
11482037500 -0.40177968 173.30318 -86.96431 169.70911 -85.861496 171.67551 0.010663307 2.8566582
11523906250 -0.39651248 173.22195 -85.736481 170.89035 -86.645752 167.04327 0.011269061 2.8714724
11565775000 -0.40333486 173.13852 -86.060135 172.38428 -85.134354 170.85286 0.01120916 2.8818755
11607643750 -0.41262591 173.05066 -86.144005 171.20662 -85.058708 170.29453 0.012023939 2.8964949
11649512500 -0.42374018 173.06418 -85.432541 169.64284 -86.01767 163.90854 0.012233547 2.8993359
11691381250 -0.42049307 173.11235 -85.671158 174.93079 -86.120636 168.61842 0.012232514 2.913379
11733250000 -0.42796457 173.07921 -86.127113 172.02823 -85.87719 168.99396 0.012576848 2.9171801
11775118750 -0.43183309 173.06848 -85.638939 173.69791 -85.818619 170.60724 0.012498898 2.9280972
11816987500 -0.43705115 173.03482 -85.517693 169.4008 -86.416542 174.83029 0.012929413 2.9339802
11858856250 -0.44593218 173.05357 -85.874779 168.3307 -84.97879 175.31572 0.012193278 2.9434166
11900725000 -0.4439849 173.09073 -85.442612 169.47516 -85.241089 174.67445 0.012521096 2.9576387
11942593750 -0.44386503 173.0468 -84.780746 174.60808 -85.195671 169.83496 0.012035297 2.9625337
11984462500 -0.4446989 173.05064 -85.194855 171.78563 -85.246628 175.23097 0.012393585 2.9828048
12026331250 -0.44513652 173.03951 -85.729805 169.09195 -85.086975 167.46767 0.012664089 2.9887013
12068200000 -0.4489176 173.08151 -84.875504 168.49802 -85.63578 173.86093 0.012447274 3.0048189
12110068750 -0.44876489 173.06657 -84.893227 161.11551 -85.609718 168.73529 0.013237046 3.0148201
12151937500 -0.45214552 173.08046 -84.553833 175.69609 -83.885002 175.13342 0.013545689 3.0242856
12193806250 -0.44954744 173.09584 -84.534073 170.46362 -85.007294 172.98293 0.014896648 3.0358474
12235675000 -0.45478168 173.10765 -83.996826 172.53392 -83.706474 173.29202 0.014599453 3.0410078
12277543750 -0.4468829 173.1698 -83.469887 174.90851 -84.527725 171.04597 0.016009402 3.0520704
12319412500 -0.44621044 173.14484 -84.33036 177.55331 -84.899132 173.70665 0.016556647 3.055475
12361281250 -0.43788883 173.17416 -84.374069 171.82491 -83.657768 175.38155 0.016850613 3.0635643
12403150000 -0.43362704 173.16571 -84.415947 170.1817 -84.369606 169.63501 0.017714866 3.06457
12445018750 -0.42587626 173.1922 -83.900772 171.38081 -83.956589 174.38161 0.017359594 3.0672007
12486887500 -0.41319072 173.174 -83.664474 173.92299 -83.110626 169.40405 0.017562756 3.0719821
12528756250 -0.4018518 173.13971 -82.986366 171.92233 -82.744118 172.72842 0.016210049 3.0687828
12570625000 -0.3900148 173.06091 -83.894279 167.0004 -84.527969 173.18019 0.014992096 3.0844338
12612493750 -0.38069284 172.9736 -83.390472 168.00034 -83.694214 169.79842 0.013336661 3.0913122
12654362500 -0.38105538 172.8587 -83.716019 168.42226 -84.28183 173.92258 0.01267751 3.1108186
12696231250 -0.38475987 172.74327 -83.348434 166.0144 -83.581139 167.98534 0.012584075 3.1303377
12738100000 -0.39314625 172.69601 -83.687263 163.85942 -83.387695 171.2365 0.012320794 3.1423848
12779968750 -0.39485851 172.67938 -83.600311 169.39873 -83.852592 174.86475 0.013255112 3.1562803
12821837500 -0.39850724 172.60492 -82.815865 171.26674 -82.362648 167.51932 0.013708776 3.1684055
12863706250 -0.39967215 172.56099 -83.093399 170.82187 -83.257301 172.30869 0.014823383 3.180156
12905575000 -0.39979106 172.49767 -82.346504 164.57013 -82.927513 165.55229 0.015132429 3.1841648
12947443750 -0.4063662 172.44431 -82.09819 168.96808 -82.582474 167.87445 0.015383674 3.1954362
12989312500 -0.409574 172.38477 -82.639832 168.81544 -82.722969 165.13847 0.015457446 3.1969209
13031181250 -0.41733164 172.34889 -82.465591 166.89803 -82.654266 170.65453 0.015175766 3.2075453
13073050000 -0.42246667 172.27013 -82.253166 167.11115 -82.948463 171.93929 0.015649348 3.2199931
13114918750 -0.44075528 172.2346 -82.836639 175.38916 -82.335884 171.66322 0.015548755 3.2251861
13156787500 -0.45233282 172.21724 -81.844986 167.12842 -81.506439 171.23006 0.015831959 3.237474
13198656250 -0.46246102 172.2654 -81.96624 170.99315 -81.88974 173.11719 0.015118499 3.2409286
13240525000 -0.47484303 172.31357 -81.282158 166.25453 -81.35862 168.24214 0.01469594 3.2521966
13282393750 -0.4846983 172.32581 -81.643173 172.67319 -80.740845 171.43529 0.014211416 3.2611361
13324262500 -0.48537821 172.39735 -81.015274 166.46086 -80.902557 169.04527 0.01372271 3.272718
13366131250 -0.48489308 172.47874 -81.321068 166.79691 -80.548561 167.12762 0.0136871 3.2860222
13408000000 -0.48274454 172.50171 -80.604149 170.40408 -81.024719 167.60483 0.012440047 3.2941477
13449868750 -0.47494093 172.52184 -80.991562 163.1445 -81.254486 164.14938 0.013367629 3.3131428
13491737500 -0.47730115 172.53372 -81.282837 166.84648 -80.896515 163.65584 0.012580978 3.3198574
13533606250 -0.47484159 172.59509 -80.692078 162.99077 -80.159935 167.87854 0.013155495 3.3338101
13575475000 -0.46237665 172.63208 -80.71656 167.69142 -80.222984 167.31915 0.012802948 3.3463264
13617343750 -0.45652992 172.62251 -80.064865 161.93045 -79.790848 164.78548 0.012070404 3.3595579
13659212500 -0.44536769 172.62257 -80.528175 160.63362 -80.767509 160.74557 0.012736358 3.372725
13701081250 -0.436517 172.6033 -79.978256 160.94249 -80.412315 162.20139 0.012237677 3.3845561
13742950000 -0.42269492 172.56131 -80.341629 163.3401 -80.250244 160.84343 0.013148785 3.4006722
13784818750 -0.40696514 172.50375 -79.776779 161.69714 -80.080154 163.38536 0.012276913 3.4098368
13826687500 -0.40124673 172.40833 -80.175941 159.91605 -79.959038 162.06801 0.013128139 3.425998
13868556250 -0.39855632 172.25771 -79.881088 159.9418 -80.136208 160.82475 0.013214852 3.4338923
13910425000 -0.40822503 172.15321 -79.802315 161.22801 -80.350616 162.04088 0.013886306 3.4519978
13952293750 -0.42258334 172.11156 -80.029907 162.72127 -80.023148 163.44579 0.015133977 3.4593251
13994162500 -0.4256807 172.10883 -79.726181 157.75206 -79.568298 160.45267 0.015055557 3.4728043
14036031250 -0.42784488 172.13594 -79.611404 156.80374 -79.966759 156.57478 0.016539628 3.4815776
14077900000 -0.42626974 172.10249 -79.395157 159.16682 -79.592377 159.62317 0.015407921 3.4865117
14119768750 -0.42676806 172.0511 -79.931976 158.24124 -79.264053 156.57886 0.015730338 3.4971938
14161637500 -0.42896366 171.97906 -79.783257 159.35023 -79.930855 161.61052 0.015620977 3.5019476
14203506250 -0.43834412 171.9417 -79.517784 156.15674 -79.831963 158.23708 0.01548685 3.5194464
14245375000 -0.4481217 171.9325 -79.286995 159.24904 -79.595619 160.78104 0.016302891 3.5256312
14287243750 -0.45976669 171.96536 -79.377495 159.57552 -79.836594 160.88353 0.015862392 3.5414169
14329112500 -0.46471334 171.98831 -79.402046 161.06175 -79.769272 157.07587 0.016344668 3.5490921
14370981250 -0.46750876 172.05997 -79.519684 156.07837 -79.601517 155.7271 0.01509683 3.555042
14412850000 -0.45974424 172.10907 -79.395576 158.49022 -79.149254 158.82973 0.015871678 3.5668511
14454718750 -0.45183444 172.16795 -79.574509 154.90706 -78.950699 155.86688 0.014825447 3.5703249
14496587500 -0.43934876 172.18575 -78.945892 156.74788 -79.210121 155.60513 0.014588617 3.5881286
14538456250 -0.42433581 172.1774 -79.136581 154.82076 -78.903679 154.89574 0.014263535 3.5941155
14580325000 -0.40619394 172.09354 -78.976326 155.88133 -79.060448 153.97823 0.013453822 3.6193745
14622193750 -0.39502522 171.98593 -79.010483 159.76598 -78.800819 157.20084 0.014903355 3.6273205
14664062500 -0.40136257 171.89558 -78.550156 156.18124 -79.109055 154.06935 0.013527109 3.6426318
14705931250 -0.39858952 171.80403 -78.590767 152.8976 -79.155472 157.73534 0.015924292 3.6564505
14747800000 -0.4036749 171.73439 -79.089073 156.48047 -79.187912 157.75047 0.01562923 3.6671383
14789668750 -0.40720111 171.66756 -78.703606 155.98174 -78.542397 154.84343 0.016980572 3.6839962
14831537500 -0.41180873 171.61404 -78.676201 156.13701 -78.924316 155.50101 0.017926777 3.6885259
14873406250 -0.41844144 171.5804 -78.318352 157.6552 -78.836327 157.00313 0.018664002 3.7060244
14915275000 -0.42474145 171.50603 -78.545914 156.95668 -78.35714 154.74709 0.020028315 3.7010238
14957143750 -0.42831138 171.46251 -78.31263 153.13091 -78.130585 153.67802 0.019512432 3.7121699
14999012500 -0.43587247 171.43153 -78.297302 156.00453 -78.459854 159.60919 0.020601332 3.7158949
15040881250 -0.45473826 171.44498 -78.258446 153.9843 -78.541519 155.23611 0.019330492 3.7145288
15082750000 -0.4668276 171.50797 -78.018623 152.61661 -78.168388 153.46841 0.020211255 3.7274115
15124618750 -0.47239873 171.60176 -78.60495 154.32718 -77.68264 151.77776 0.018903188 3.7206402
15166487500 -0.4604381 171.73138 -77.912224 155.35593 -78.075211 148.71182 0.017861297 3.7414978
15208356250 -0.43757448 171.76636 -77.540215 155.35248 -77.870705 155.44644 0.018064952 3.7443771
15250225000 -0.41624546 171.72755 -77.523849 155.08128 -77.459015 156.44174 0.016601 3.7610407
15292093750 -0.39881396 171.59399 -77.645607 152.82155 -77.728439 154.38174 0.017459115 3.7682624
15333962500 -0.39105478 171.45865 -77.742516 153.14459 -77.785614 150.57686 0.016269365 3.7815223
15375831250 -0.39058149 171.29085 -77.459679 151.94804 -77.223396 151.75159 0.017567914 3.7922509
15417700000 -0.4000732 171.15083 -77.045067 152.87222 -77.5793 152.73961 0.017150234 3.7936177
15459568750 -0.41543072 171.06688 -77.72303 152.27966 -77.857719 152.44685 0.017584413 3.8134296
15501437500 -0.43239695 170.9902 -77.466621 149.54961 -77.32148 153.23943 0.017518928 3.80866
15543306250 -0.44337478 170.9873 -77.20636 150.82982 -77.430809 146.67961 0.016913015 3.8253582
15585175000 -0.45865259 170.9615 -77.331078 149.86064 -77.050339 149.49985 0.017441582 3.8280249
15627043750 -0.46721357 170.92554 -77.808929 146.14676 -77.16571 149.21034 0.015627682 3.8401484
15668912500 -0.48088363 170.95143 -77.130234 147.04199 -76.877762 147.87839 0.016618021 3.860482
15710781250 -0.49859694 170.99016 -77.357178 146.40749 -77.080986 148.7206 0.015215491 3.8706963
15752650000 -0.50547266 171.033 -76.988663 151.93253 -77.162064 145.63403 0.016647417 3.8898909
15794518750 -0.51133096 171.1022 -77.142944 147.36812 -76.97007 147.31526 0.016720653 3.894932
15836387500 -0.51531357 171.18327 -77.074005 148.22408 -76.989532 145.50212 0.017069787 3.9163904
15878256250 -0.50892043 171.2556 -77.124039 146.73163 -77.228889 148.40411 0.018202091 3.9148216
15920125000 -0.50731623 171.3172 -77.216522 146.35728 -76.379311 145.26686 0.018069591 3.9326284
15961993750 -0.49842623 171.33339 -76.877625 146.54965 -76.810379 147.46814 0.019981934 3.9378057
16003862500 -0.49376354 171.34372 -76.768532 146.55951 -76.493973 146.4278 0.019771669 3.9383323
16045731250 -0.48345512 171.39117 -76.714844 147.54855 -76.423721 148.28879 0.020249905 3.9491231
16087600000 -0.47625765 171.34732 -76.752777 150.66789 -76.706955 145.05742 0.018860403 3.9447911
16129468750 -0.46477959 171.36943 -76.798294 147.44926 -76.570038 145.60245 0.01822426 3.966465
16171337500 -0.45801684 171.29984 -76.659096 147.0592 -76.584 147.91148 0.018440271 3.9727595
16213206250 -0.44955376 171.25981 -76.771843 146.89246 -76.294922 148.89876 0.017857172 3.9878979
16255075000 -0.44574258 171.20897 -76.655037 147.74403 -76.564728 147.77403 0.019533563 3.9967501
16296943750 -0.44644654 171.17009 -76.539589 147.48297 -75.997391 146.87219 0.019192873 4.0085983
16338812500 -0.44158196 171.118 -75.913651 145.89499 -76.2883 145.13858 0.020558564 4.0221658
16380681250 -0.44477001 171.06862 -75.704559 147.62671 -76.403862 145.32394 0.020184459 4.0261321
16422550000 -0.44649819 171.04156 -75.715851 146.1223 -75.660294 145.24251 0.020787342 4.0425305
16464418750 -0.44357547 170.99223 -75.982384 145.56148 -75.937889 144.00958 0.021124814 4.041728
16506287500 -0.4436824 170.94826 -75.744125 143.4973 -75.625954 142.58899 0.021326255 4.0581126
16548156250 -0.4393439 170.91638 -75.433495 144.72191 -75.702469 144.39011 0.022649046 4.0607395
16590025000 -0.44627643 170.87361 -75.463112 143.41838 -75.491714 144.06393 0.022152016 4.0682521
16631893750 -0.44605666 170.84009 -75.676842 140.34637 -75.08284 143.9852 0.022783466 4.0792646
16673762500 -0.45191428 170.7923 -75.100037 142.39888 -75.104134 142.4995 0.021362318 4.0764441
16715631250 -0.45105436 170.80756 -75.329346 141.68764 -75.283089 143.33347 0.021692535 4.097095
16757500000 -0.44733196 170.7851 -75.198036 140.21591 -75.118164 141.82715 0.021798138 4.0980639
16799368750 -0.4448483 170.79124 -75.149208 141.63603 -75.09063 140.99165 0.021121724 4.1142392
16841237500 -0.43941492 170.71344 -74.744698 140.46144 -74.818039 138.40382 0.022243185 4.1195059
16883106250 -0.43816286 170.61717 -74.834953 138.87547 -74.828415 140.86752 0.021082053 4.1302385
16924975000 -0.43548298 170.54973 -75.07283 138.88249 -74.995941 137.77707 0.022159228 4.1377225
16966843750 -0.44223478 170.42786 -74.64959 137.91643 -75.087769 138.36234 0.021214975 4.1482048
17008712500 -0.45180917 170.34799 -74.599899 138.83447 -74.776237 135.96574 0.021932585 4.1612301
17050581250 -0.45870379 170.25526 -75.288521 137.02092 -74.590271 138.20581 0.021851195 4.1625462
17092450000 -0.47458285 170.20145 -74.969994 133.40263 -74.59436 132.95073 0.021276282 4.1818242
17134318750 -0.48807836 170.18495 -75.339355 134.04529 -74.740875 134.66695 0.022418307 4.180923
17176187500 -0.51077801 170.18152 -75.254578 136.2182 -75.008301 134.07286 0.020986222 4.2018819
17218056250 -0.52520978 170.26938 -75.022842 134.76105 -74.799843 138.4446 0.022364227 4.2103868
17259925000 -0.54025716 170.34976 -74.686813 132.96358 -74.898727 135.10181 0.021248978 4.2224278
17301793750 -0.54168594 170.47627 -74.674232 134.22118 -74.75341 133.66548 0.023027059 4.2383289
17343662500 -0.53299576 170.55464 -75.274551 134.85011 -74.614265 134.55519 0.023233561 4.2353964
17385531250 -0.52090579 170.62848 -74.970978 133.02313 -74.97403 133.0547 0.024013652 4.2449174
17427400000 -0.5086844 170.60231 -75.255424 132.24234 -74.82354 131.47389 0.024972737 4.2405543
17469268750 -0.50397205 170.52722 -74.732635 136.84596 -74.816696 133.32922 0.022794794 4.2542019
17511137500 -0.49343958 170.50615 -74.906395 132.52473 -74.837006 130.58189 0.023580628 4.253396
17553006250 -0.50219387 170.43925 -74.657005 129.63446 -74.336555 132.49994 0.021252584 4.2609863
17594875000 -0.50434828 170.45445 -74.423157 133.28696 -74.444046 132.03455 0.021154182 4.2766018
17636743750 -0.50080591 170.43315 -74.158302 129.40193 -74.415367 129.51962 0.019457284 4.2798352
17678612500 -0.5054884 170.47264 -74.880424 131.34702 -74.292061 129.97386 0.019411413 4.3081226
17720481250 -0.49742988 170.46724 -74.18055 129.43098 -74.237221 128.25624 0.018867621 4.3084278
17762350000 -0.49548608 170.4348 -74.500084 130.66307 -74.989784 128.87697 0.018302623 4.3347311
17804218750 -0.49050194 170.41472 -74.127159 127.49108 -74.241241 129.7327 0.019675294 4.3416371
17846087500 -0.49222606 170.34978 -74.778763 128.78377 -74.672958 127.90977 0.017829845 4.3597536
17887956250 -0.49683282 170.34119 -74.456337 130.1283 -74.714264 128.41664 0.019771155 4.3710999
17929825000 -0.50204045 170.27829 -75.085358 128.28983 -74.651772 127.98087 0.018751636 4.3747873
17971693750 -0.50628817 170.30138 -74.758232 130.00845 -74.838669 128.20833 0.020024192 4.392024
18013562500 -0.50233132 170.29552 -74.65744 129.97716 -74.611595 127.62045 0.019538201 4.3846574
18055431250 -0.50780123 170.31091 -75.021286 129.69704 -74.63739 129.64023 0.018191781 4.4106874
18097300000 -0.50317788 170.34462 -74.281952 129.04819 -75.026772 128.92741 0.019302659 4.4084134
18139168750 -0.49892998 170.3298 -74.498566 128.58971 -74.676025 127.00224 0.016825344 4.4296551
18181037500 -0.49376759 170.34174 -74.985962 130.26981 -74.882652 130.65048 0.018059796 4.434845
18222906250 -0.48842362 170.29082 -74.563652 129.79797 -74.715904 128.49626 0.016182711 4.4446411
18264775000 -0.4834713 170.28139 -74.09539 127.44755 -74.535812 127.45129 0.016761394 4.4709072
18306643750 -0.47474775 170.22736 -74.329498 129.4496 -74.540611 128.33414 0.015194855 4.4722924
18348512500 -0.47495162 170.15445 -74.506157 128.39835 -74.394409 129.12643 0.014865691 4.5062451
18390381250 -0.46613532 170.04872 -74.271904 129.83127 -74.171608 128.80295 0.015555462 4.5079379
18432250000 -0.47435763 169.94991 -74.359001 129.35263 -74.269844 129.4657 0.014558174 4.5427485
18474118750 -0.47976005 169.8611 -74.265282 127.24522 -74.072998 130.07138 0.018112384 4.5478916
18515987500 -0.49512455 169.78944 -73.939079 130.02948 -74.127426 129.40149 0.0185243 4.5610137
18557856250 -0.5079034 169.80324 -74.101974 129.30374 -73.940208 127.11301 0.021920221 4.5769882
18599725000 -0.51880854 169.80557 -74.263741 129.92133 -74.258636 127.5882 0.021832136 4.5664048
18641593750 -0.53154057 169.85802 -74.135452 128.51913 -73.856766 125.92995 0.02283548 4.5873098
18683462500 -0.53163886 169.92896 -73.831955 127.73056 -74.094727 127.53903 0.023019332 4.5769877
18725331250 -0.53243828 169.95145 -74.185822 126.57682 -73.841064 126.5619 0.022233915 4.597899
18767200000 -0.52360421 169.96194 -74.038414 127.27633 -74.106255 126.05893 0.023592986 4.5954738
18809068750 -0.51782763 169.92194 -74.286072 124.62164 -73.955116 127.57642 0.021724474 4.6028976
18850937500 -0.52252322 169.85358 -73.868568 126.27479 -74.224121 128.50493 0.023023453 4.6141324
18892806250 -0.5307411 169.81252 -73.96431 127.72803 -74.142586 126.22761 0.022423457 4.6142392
18934675000 -0.54590839 169.8378 -73.702248 129.47652 -73.819305 127.95248 0.023588866 4.639854
18976543750 -0.560148 169.89191 -73.937279 127.72354 -73.658691 125.72895 0.023858674 4.6279197
19018412500 -0.56345969 169.99075 -73.206467 129.75656 -73.535347 127.80377 0.023780411 4.6411695
19060281250 -0.55949253 170.08554 -73.500496 126.36489 -73.460915 128.20174 0.025202826 4.6337924
19102150000 -0.54978412 170.13297 -73.459808 127.85191 -73.526726 127.34638 0.022632563 4.6337199
19144018750 -0.53866595 170.16928 -73.620323 127.76272 -72.892601 126.37631 0.022498654 4.638227
19185887500 -0.53782117 170.21567 -73.477264 127.59377 -73.29702 126.1666 0.01882329 4.6368976
19227756250 -0.52404749 170.27188 -73.315346 125.95533 -73.136574 126.78407 0.018363457 4.6555905
19269625000 -0.51363558 170.3091 -73.152863 125.55203 -72.977455 127.36839 0.015661214 4.6593022
19311493750 -0.49037066 170.34006 -72.856224 128.19249 -72.761414 128.32066 0.014495223 4.6854334
19353362500 -0.46900058 170.25079 -72.849388 127.33627 -72.776039 128.38641 0.014610288 4.6962967
19395231250 -0.46162432 170.15143 -72.719345 126.09949 -72.674919 127.19872 0.013565302 4.7121553
19437100000 -0.4562628 170.04573 -72.827026 124.97163 -72.430336 124.81894 0.014192839 4.7306004
19478968750 -0.45728078 170.008 -72.676666 124.06056 -72.296303 123.56859 0.012532969 4.74404
19520837500 -0.45073071 169.96243 -72.450432 123.30725 -72.393791 124.4875 0.013115751 4.7684855
19562706250 -0.44809642 169.90562 -72.093147 123.65302 -72.665581 123.93584 0.01260937 4.7766042
19604575000 -0.43909013 169.85631 -72.283112 123.89749 -72.152168 123.06229 0.012949029 4.806334
19646443750 -0.43740898 169.7552 -72.163895 122.32116 -72.456009 122.55338 0.01423309 4.8133078
19688312500 -0.44093037 169.67618 -72.007477 120.30258 -72.046379 121.00475 0.01402719 4.8238778
19730181250 -0.43631607 169.65186 -72.054222 120.53252 -71.968948 118.29806 0.015619945 4.8278365
19772050000 -0.44028601 169.61029 -72.567154 119.13599 -72.11924 119.89909 0.014303269 4.8325195
19813918750 -0.4399474 169.52397 -72.163681 120.05334 -71.644974 119.20258 0.015339823 4.852036
19855787500 -0.44141746 169.48325 -72.017128 116.74289 -72.105637 118.49467 0.013404273 4.8561497
19897656250 -0.43321201 169.43459 -72.049858 116.92496 -72.188316 119.15829 0.013305177 4.8805423
19939525000 -0.43002385 169.3232 -71.864403 116.77601 -72.227501 118.98846 0.013735613 4.8886499
19981393750 -0.43753782 169.23622 -71.936478 117.38504 -71.996468 118.22586 0.012616081 4.9113951
20023262500 -0.44208205 169.11385 -72.030548 116.22223 -71.968193 118.88901 0.014222253 4.9253159
20065131250 -0.46020353 169.06058 -71.853676 116.68265 -71.76902 116.89703 0.01324066 4.936399
20107000000 -0.46970111 169.02763 -71.793106 116.12836 -72.019638 114.37045 0.016259564 4.95297
20148868750 -0.49098191 169.02202 -71.719276 113.56713 -71.549339 116.63041 0.014852276 4.957128
20190737500 -0.49779508 169.08542 -71.657463 114.35677 -71.954399 114.2524 0.016071815 4.9822607
20232606250 -0.51000267 169.10754 -71.867577 111.76756 -71.69825 113.27212 0.016084194 4.9881525
20274475000 -0.51176196 169.21649 -71.440735 115.02182 -71.850922 113.53095 0.01608729 5.0088277
20316343750 -0.50769389 169.23065 -71.919205 112.03259 -72.005058 111.60386 0.018305201 5.0203748
20358212500 -0.49692485 169.28159 -71.823303 109.8101 -71.777458 111.33684 0.018010302 5.0370235
20400081250 -0.48321989 169.25401 -72.040977 111.58511 -71.845558 111.01006 0.021033622 5.0490394
20441950000 -0.47281635 169.22627 -71.961426 109.78539 -71.923119 110.54469 0.021242796 5.0507145
20483818750 -0.46752951 169.14482 -72.046219 108.41791 -72.291046 110.84319 0.023866912 5.0622678
20525687500 -0.46696278 169.0332 -72.091515 109.27621 -71.983948 107.98866 0.023996145 5.0625639
20567556250 -0.47461519 168.99863 -71.870827 108.8081 -72.032661 110.07774 0.025110688 5.0721078
20609425000 -0.4799957 168.89752 -72.213959 109.55271 -72.153053 107.66788 0.025999544 5.0704303
20651293750 -0.48515156 168.93338 -71.865379 108.84872 -72.033119 107.41145 0.025223929 5.0764279
20693162500 -0.48755845 168.87791 -72.038902 107.61176 -72.367447 109.76691 0.026225461 5.0788445
20735031250 -0.49563926 168.867 -72.285042 108.88439 -71.952789 109.13901 0.02491457 5.0890536
20776900000 -0.49737009 168.86636 -72.197556 108.84295 -72.185646 108.20774 0.026293902 5.1014924
20818768750 -0.50348544 168.81021 -72.354309 106.12296 -72.174065 108.89723 0.025388122 5.1064806
20860637500 -0.50878251 168.81955 -72.245506 107.95602 -72.41156 106.91257 0.026877413 5.1141782
20902506250 -0.51262057 168.79008 -72.460159 108.41881 -72.185936 106.98526 0.027814262 5.1165185
20944375000 -0.5167166 168.80746 -72.25692 109.034 -72.070435 108.65308 0.026407111 5.1246767
20986243750 -0.51459366 168.80998 -72.108681 108.31933 -71.822617 106.36049 0.026995238 5.115603
21028112500 -0.52329141 168.83304 -71.984932 107.41091 -72.402252 107.80878 0.024800807 5.1325121
21069981250 -0.52301288 168.84647 -72.445442 109.53358 -72.252556 106.23277 0.024908908 5.1350942
21111850000 -0.52444386 168.84581 -72.133545 108.99933 -72.232834 108.28728 0.023037357 5.1484618
21153718750 -0.52692729 168.86545 -71.915771 108.24567 -72.045189 106.81902 0.023225836 5.1677985
21195587500 -0.5275799 168.86227 -72.386299 106.08425 -72.024002 106.87623 0.022441484 5.1655459
21237456250 -0.52578938 168.89355 -72.181877 106.34541 -71.899666 107.83676 0.021941856 5.1934843
21279325000 -0.52151817 168.90674 -71.943817 106.20548 -72.03698 108.90052 0.021564264 5.1986585
21321193750 -0.51654637 168.8744 -71.905251 104.99674 -71.684822 104.15933 0.01987938 5.2231579
21363062500 -0.51470441 168.8588 -72.020599 102.44128 -72.097031 103.53825 0.021481838 5.2356281
21404931250 -0.52030671 168.83099 -72.284042 101.81612 -72.125748 105.25618 0.020066965 5.2494488
21446800000 -0.53070772 168.82271 -72.486656 102.96704 -72.367844 103.3562 0.022298299 5.2720203
21488668750 -0.52638286 168.89719 -72.304153 103.49325 -72.479004 103.59881 0.021921767 5.2779512
21530537500 -0.52969581 168.95197 -72.302155 106.22267 -72.427399 103.25347 0.022268424 5.2995119
21572406250 -0.51207507 169.04482 -72.182732 103.58581 -72.575569 102.78304 0.023254674 5.2925949
21614275000 -0.49507642 169.04623 -72.770935 103.96098 -72.49662 102.75112 0.022707243 5.3175936
21656143750 -0.48139724 169.00363 -72.36161 104.704 -72.265038 103.20499 0.023824692 5.3268781
21698012500 -0.46817675 168.88362 -72.573669 104.88309 -72.615814 104.27332 0.023266518 5.3398633
21739881250 -0.4689135 168.81908 -72.633232 105.28872 -72.80204 104.15404 0.025459664 5.3645539
21781750000 -0.46337044 168.69679 -72.749695 103.23666 -72.660744 104.63869 0.025987707 5.3687987
21823618750 -0.47160831 168.6534 -72.982796 105.56233 -72.500069 104.08739 0.027707778 5.3974557
21865487500 -0.46942854 168.65009 -72.741272 104.71315 -72.819069 104.29428 0.028246349 5.4097643
21907356250 -0.46736664 168.59831 -72.766838 107.23814 -72.565331 105.7252 0.027406313 5.4268584
21949225000 -0.45914832 168.59541 -72.920425 107.40549 -72.623558 108.86484 0.029539779 5.4189115
21991093750 -0.45131168 168.5546 -72.773308 109.01766 -72.780472 108.40267 0.029938273 5.4316502
22032962500 -0.44530115 168.43857 -72.846657 110.87763 -72.807846 107.95375 0.032412235 5.4466577
22074831250 -0.44393557 168.33421 -72.542145 112.50601 -72.547455 112.19322 0.032260127 5.4462595
22116700000 -0.45839569 168.12988 -72.525063 109.87926 -72.298187 109.78795 0.033889361 5.4655962
22158568750 -0.47328886 168.07793 -72.342949 110.78374 -72.471405 112.30422 0.034520131 5.4587827
22200437500 -0.48930663 168.00726 -72.029488 111.30145 -72.571533 112.36726 0.035219625 5.4745831
22242306250 -0.51470762 168.08234 -72.128967 111.81575 -72.053535 110.60736 0.037152667 5.4724565
22284175000 -0.51724905 168.10162 -71.886513 112.47903 -71.707245 110.41374 0.036255307 5.4852529
22326043750 -0.52791786 168.18033 -71.834175 111.96535 -71.884064 112.69003 0.038820602 5.4955521
22367912500 -0.520096 168.26358 -71.565155 112.36346 -71.687492 113.87989 0.03844858 5.4945426
22409781250 -0.51645333 168.25768 -71.33905 112.34389 -71.427887 110.63043 0.040561754 5.5094857
22451650000 -0.51124561 168.31795 -71.47654 111.29709 -71.149414 111.30013 0.041021805 5.4967704
22493518750 -0.49566683 168.23708 -71.292839 111.14662 -71.175781 113.54933 0.043211646 5.5120044
22535387500 -0.49968532 168.15529 -71.147072 111.53098 -71.048706 110.86494 0.044417612 5.5077844
22577256250 -0.49375108 168.11227 -71.185928 112.85052 -71.075645 110.08955 0.044641037 5.5065875
22619125000 -0.51048362 168.04718 -70.898064 109.48935 -70.758301 107.94863 0.045830723 5.5028977
22660993750 -0.51514155 168.07008 -70.786926 109.40488 -70.665886 110.40549 0.044588257 5.4914684
22702862500 -0.51923764 168.06689 -70.464584 108.82754 -70.514946 109.03065 0.045033533 5.4964452
22744731250 -0.52190435 168.13141 -70.50058 108.24908 -70.366669 108.92126 0.04319473 5.4822021
22786600000 -0.51966596 168.07095 -70.296509 106.96779 -70.587997 106.1263 0.043605812 5.4999881
22828468750 -0.52210516 168.06221 -70.664536 106.48486 -70.43605 105.54929 0.041399762 5.485949
22870337500 -0.51468956 168.11005 -70.444191 105.71761 -70.700005 104.19978 0.039642014 5.4894381
22912206250 -0.52866566 168.05638 -70.37336 105.35312 -70.409355 106.70509 0.037938472 5.4897804
22954075000 -0.5181464 168.10007 -70.486153 105.08832 -70.405746 106.52892 0.034417406 5.4893236
22995943750 -0.51941413 168.05653 -70.156166 104.62865 -70.342926 105.85497 0.033852372 5.5084386
23037812500 -0.52835578 168.13487 -70.002365 103.85637 -70.097435 105.51463 0.029465219 5.5080371
23079681250 -0.51718986 168.08876 -70.125206 104.77528 -69.864929 103.72246 0.028070947 5.5305429
23121550000 -0.52666777 168.18489 -69.98307 103.08478 -69.860069 104.92059 0.026678286 5.5401754
23163418750 -0.50633621 168.16373 -70.218224 103.08338 -70.217194 101.91157 0.024797719 5.5619721
23205287500 -0.50310087 168.12532 -69.99118 101.84947 -70.082108 100.28129 0.024665935 5.5854812
23247156250 -0.4943184 168.12828 -69.875587 101.45687 -69.8461 100.48624 0.023262912 5.6034284
23289025000 -0.49046659 168.01117 -70.113152 100.97854 -69.96209 100.62384 0.023863822 5.641439
23330893750 -0.4956944 168.01079 -70.169167 101.49744 -70.060287 99.987175 0.023069287 5.6484036
23372762500 -0.49205792 168.00081 -70.096802 100.83366 -70.148109 100.22116 0.024535177 5.6872711
23414631250 -0.49563664 167.98044 -69.905869 100.15036 -70.168625 99.646866 0.025049435 5.6875596
23456500000 -0.48266643 167.98227 -69.827049 99.977753 -69.818512 99.852432 0.025990281 5.7089148
23498368750 -0.47773167 167.94783 -69.782089 100.01071 -69.864281 98.932228 0.027369272 5.7188354
23540237500 -0.46344417 167.89853 -69.6129 98.825577 -69.723991 99.532425 0.026822872 5.727047
23582106250 -0.45508894 167.74619 -69.650154 97.045631 -69.564857 97.41124 0.029999973 5.7420025
23623975000 -0.46860522 167.6738 -69.773232 95.54528 -69.724617 96.800789 0.029904854 5.7391949
23665843750 -0.46990934 167.55331 -69.553413 97.824562 -69.684097 97.285271 0.032155804 5.7506275
23707712500 -0.49041209 167.54839 -69.686676 95.934349 -69.850662 95.001205 0.03232282 5.7451754
23749581250 -0.49788854 167.53494 -69.729416 95.206688 -69.606361 95.41217 0.031916834 5.76753
23791450000 -0.50913465 167.53983 -69.694237 93.191879 -69.644493 94.322014 0.031980563 5.7697258
23833318750 -0.50818998 167.61864 -69.70137 93.949219 -70.222832 94.687759 0.029712036 5.7854371
23875187500 -0.50892252 167.62434 -69.852028 91.755875 -69.935226 92.670624 0.031019937 5.792521
23917056250 -0.5059371 167.68816 -69.805855 93.296921 -69.764511 92.423317 0.030122854 5.8000832
23958925000 -0.49645525 167.68585 -69.693901 93.908852 -69.810516 91.956329 0.031192649 5.8129177
24000793750 -0.49054134 167.69426 -69.634796 92.994255 -69.611465 91.772362 0.031345308 5.8198905
24042662500 -0.47761697 167.6973 -69.898315 90.924126 -69.534019 94.321632 0.03230432 5.8392429
24084531250 -0.46821538 167.61142 -69.48954 92.618599 -69.83223 92.46785 0.033813331 5.8358941
24126400000 -0.45867044 167.56464 -69.443649 90.220963 -69.461922 89.789726 0.034677811 5.8484874
24168268750 -0.45466614 167.42664 -69.874382 87.871979 -69.592072 88.726143 0.036798466 5.8506947
24210137500 -0.46251312 167.32771 -69.534912 87.386833 -70.040932 87.615341 0.035817858 5.8566198
24252006250 -0.46631312 167.24554 -69.705467 88.629082 -70.071411 87.749596 0.037330266 5.8626623
24293875000 -0.48064998 167.16403 -69.926178 87.019722 -69.89547 88.559608 0.035318226 5.8592505
24335743750 -0.48418605 167.1371 -69.854218 88.401398 -70.085861 86.905983 0.036144409 5.8715167
24377612500 -0.4899838 167.07977 -70.060806 87.048836 -69.796097 87.064293 0.035883579 5.8666406
24419481250 -0.50283611 167.0965 -70.14341 86.9617 -70.055313 86.882545 0.035748024 5.8785548
24461350000 -0.51057911 167.08144 -69.95005 85.802757 -70.535797 87.038399 0.037807085 5.8754926
24503218750 -0.52438456 167.1329 -70.182884 86.757584 -70.108009 86.360199 0.03583942 5.8870254
24545087500 -0.53463906 167.18594 -70.510941 85.601173 -70.401497 85.822433 0.037072074 5.89083
24586956250 -0.53149319 167.22533 -70.438698 86.877686 -70.614525 86.752235 0.0354122 5.8899894
24628825000 -0.53120881 167.30386 -70.606606 86.134911 -70.557121 86.392288 0.03656232 5.9040384
24670693750 -0.51027197 167.36371 -70.878914 86.553566 -70.75724 88.804916 0.035589356 5.8926301
24712562500 -0.50057673 167.39163 -70.596725 87.961639 -70.644577 87.972275 0.034910977 5.9095607
24754431250 -0.47305679 167.37613 -70.504272 88.226158 -70.611725 89.11512 0.0344662 5.9009047
24796300000 -0.46577308 167.24094 -70.513466 86.329437 -70.660538 88.527672 0.032019105 5.9157453
24838168750 -0.44931778 167.13339 -70.284798 87.858139 -70.489487 87.546349 0.032534018 5.9163356
24880037500 -0.45239201 166.95576 -70.778908 87.431473 -70.413124 87.485924 0.029377799 5.9214292
24921906250 -0.45976007 166.85918 -70.423317 85.027039 -70.517548 85.506416 0.02939117 5.934689
24963775000 -0.46171156 166.73312 -70.651024 85.276413 -70.588104 86.545723 0.027301876 5.9295616
25005643750 -0.4810479 166.6241 -70.322983 87.61557 -70.710876 86.95063 0.026163192 5.9618955
25047512500 -0.48690513 166.55533 -70.60128 86.458344 -70.777321 88.050713 0.025913086 5.9606709
25089381250 -0.5099209 166.47763 -70.82122 87.173508 -70.679588 88.530365 0.023680005 5.9870348
25131250000 -0.53314704 166.48863 -70.826744 89.244827 -70.809494 88.30629 0.025632083 5.994772
25173118750 -0.54861879 166.48224 -70.958992 88.728996 -71.27549 88.372139 0.022991525 6.0110965
25214987500 -0.57424778 166.58035 -70.932236 89.539177 -70.735718 89.794067 0.023268063 6.0317745
25256856250 -0.57431281 166.67831 -70.820869 90.055626 -70.68486 89.650322 0.022088146 6.0268874
25298725000 -0.58365101 166.77487 -70.695068 89.870445 -71.002182 89.077911 0.021594143 6.0577464
25340593750 -0.57475954 166.91681 -70.68586 89.696915 -70.621826 89.257355 0.021926403 6.0517526
25382462500 -0.57176256 166.88812 -70.791573 92.475357 -70.873878 90.2584 0.020293191 6.0828114
25424331250 -0.56660348 166.96588 -70.690987 91.21994 -70.555412 90.648186 0.022661921 6.0883713
25466200000 -0.56135678 166.93077 -70.311005 90.503304 -70.538521 92.586708 0.020214347 6.1009541
25508068750 -0.56681848 166.95441 -70.530663 92.219818 -70.35051 91.615631 0.023404524 6.122098
25549937500 -0.55787921 167.02718 -70.095924 91.392281 -70.462425 91.08728 0.021884678 6.1261101
25591806250 -0.56377625 167.03571 -70.259888 90.817482 -70.430771 92.107735 0.02249196 6.1675339
25633675000 -0.54995364 167.09126 -70.283104 88.753311 -70.429916 91.569168 0.022955475 6.1588335
25675543750 -0.53929073 167.07246 -69.96627 90.077232 -70.172318 92.407402 0.021545717 6.1941648
25717412500 -0.53231651 167.11665 -70.003723 89.257408 -69.992363 89.507156 0.024707632 6.1881599
25759281250 -0.51823479 167.06097 -70.166138 89.975624 -70.305344 91.168045 0.021970702 6.1994219
25801150000 -0.5172047 167.06303 -70.279976 89.227341 -70.043098 88.910408 0.025984105 6.2070622
25843018750 -0.50457036 167.084 -70.036774 89.306503 -70.104279 89.518158 0.022904491 6.199873
25884887500 -0.50695229 167.03427 -70.055595 90.016075 -69.744331 90.35244 0.024682408 6.2237506
25926756250 -0.49857777 167.06306 -69.895973 89.246765 -69.995033 90.859077 0.023479188 6.2090139
25968625000 -0.48730823 167.0099 -70.101639 88.533401 -69.940483 90.387451 0.022943115 6.2425666
26010493750 -0.48086253 167.01131 -69.977043 87.720062 -69.78363 89.661346 0.023769083 6.2361693
26052362500 -0.46324342 166.9817 -69.889252 89.323196 -70.202934 90.347206 0.020111799 6.2611613
26094231250 -0.45592439 166.91998 -69.962921 89.525894 -69.753983 88.914589 0.021569416 6.2775512
26136100000 -0.43567815 166.90276 -69.938118 90.611183 -69.938957 89.226257 0.017971117 6.2795749
26177968750 -0.42851508 166.8064 -69.582802 89.821915 -69.776688 91.478638 0.019370696 6.315711
26219837500 -0.41623265 166.75046 -69.6082 91.348122 -69.603676 88.37619 0.019059889 6.3157172
26261706250 -0.40577728 166.57555 -69.738472 90.111717 -69.582176 88.467087 0.019730439 6.3556352
26303575000 -0.40210396 166.44109 -69.457314 91.70681 -69.413559 88.434547 0.022003669 6.3690944
26345443750 -0.39457163 166.25342 -69.392181 88.657875 -69.413002 86.291862 0.020893995 6.3879519
26387312500 -0.40307015 166.06392 -69.222771 86.379135 -69.462059 87.994225 0.024329767 6.4018469
26429181250 -0.41167128 165.95125 -69.074081 85.752113 -69.033745 86.40773 0.023710899 6.3998685
26471050000 -0.42556962 165.78642 -69.165558 87.287521 -69.009598 87.509552 0.026709674 6.4168305
26512918750 -0.44164929 165.75148 -69.269852 84.519112 -69.286201 89.39093 0.027148046 6.4099817
26554787500 -0.44833294 165.69479 -68.594368 85.086792 -68.896027 85.286903 0.028868169 6.4241538
26596656250 -0.47709224 165.64192 -69.542953 78.634666 -69.352348 86.865715 0.028857369 6.4272141
26638525000 -0.48990816 165.64006 -69.226715 85.224907 -69.078987 80.349419 0.027672796 6.4302831
26680393750 -0.5154357 165.57887 -69.409683 83.257744 -69.427635 81.816299 0.028499922 6.4456534
26722262500 -0.5270173 165.55994 -69.179092 81.171677 -69.39164 80.216026 0.026278464 6.4633675
26764131250 -0.53093386 165.59956 -68.957207 83.298058 -69.264854 79.06028 0.027143929 6.4728675
26806000000 -0.55889159 165.62363 -69.207878 80.41497 -69.263588 80.436607 0.027434608 6.4828463
26847868750 -0.55362397 165.66217 -68.67347 82.903397 -68.513535 79.448418 0.028065288 6.5043082
26889737500 -0.5757525 165.7533 -68.797157 84.807739 -69.211212 79.882858 0.027208755 6.5169511
26931606250 -0.56740457 165.84108 -68.697517 80.758438 -68.633682 83.853165 0.027605405 6.5421391
26973475000 -0.56811291 165.80574 -69.170815 79.619064 -68.526169 82.984077 0.02828544 6.5341668
27015343750 -0.57210511 165.99553 -69.036858 75.132866 -68.75032 77.417099 0.0269124 6.5476861
27057212500 -0.5606823 165.98907 -69.456139 80.745094 -69.397034 82.555283 0.031224005 6.5640373
27099081250 -0.56368756 166.01768 -69.800865 85.72821 -69.434341 79.77935 0.029214786 6.5677443
27140950000 -0.55161631 166.03331 -69.114807 72.85144 -69.467888 75.411507 0.031713828 6.5738859
27182818750 -0.55203253 166.01837 -69.104424 78.362457 -69.163887 76.088066 0.03151441 6.5606818
27224687500 -0.54160792 166.06987 -69.534782 79.334816 -69.358566 80.449852 0.032437414 6.590034
27266556250 -0.53579068 165.95314 -69.411636 75.499184 -70.108017 80.805138 0.033029348 6.6010981
27308425000 -0.53766358 165.97385 -69.740868 77.47303 -69.36956 79.613747 0.032730822 6.6334662
27350293750 -0.51923442 165.85956 -70.193481 78.215256 -70.01506 77.872269 0.037288178 6.6477776
27392162500 -0.52688664 165.87744 -71.300331 78.130806 -70.505569 77.593613 0.035526711 6.6370931
27434031250 -0.51456714 165.91991 -70.562393 84.085373 -70.004623 79.888199 0.041034628 6.6428428
27475900000 -0.52984524 165.78087 -70.435661 79.17141 -71.023773 82.110298 0.039707169 6.6299148
27517768750 -0.51768297 165.79321 -70.203613 83.947136 -70.01516 81.991653 0.040074978 6.6340299
27559637500 -0.52378786 165.70493 -70.23204 84.345863 -69.425911 86.629272 0.041130017 6.6140733
27601506250 -0.53002977 165.76102 -70.107368 88.342545 -70.130791 86.162308 0.039147954 6.6237383
27643375000 -0.5409869 165.73915 -69.251724 84.948235 -69.430191 87.785271 0.039556853 6.6268082
27685243750 -0.55251992 165.70906 -69.279915 86.603035 -68.775085 84.33139 0.035920549 6.6284604
27727112500 -0.54947299 165.73108 -69.642471 80.73143 -69.088036 90.774673 0.034622855 6.6330924
27768981250 -0.56229162 165.71567 -68.577782 84.497772 -70.068672 80.447113 0.031354561 6.6366429
27810850000 -0.5514673 165.84872 -68.590256 86.72065 -69.068237 79.697311 0.031397738 6.6450114
27852718750 -0.55056453 165.80939 -69.088127 83.056885 -69.117165 83.399933 0.029014224 6.6615815
27894587500 -0.53946894 165.93616 -69.484848 81.706322 -69.264732 81.472557 0.028901083 6.6726146
27936456250 -0.52774799 165.907 -68.925934 86.936295 -68.680107 83.817039 0.029904854 6.6939812
27978325000 -0.51614195 165.87524 -68.931648 86.002602 -68.143196 86.31456 0.02879771 6.738348
28020193750 -0.50187564 165.85562 -68.904861 86.344078 -68.817101 83.336037 0.029048681 6.7574267
28062062500 -0.49480137 165.67567 -69.409096 83.286476 -68.843178 83.52169 0.027675368 6.7570157
28103931250 -0.48226696 165.72276 -68.38604 83.206917 -67.611183 84.159691 0.029757285 6.7619977
28145800000 -0.49096507 165.64709 -68.534866 78.966743 -68.606911 77.633392 0.030302286 6.769074
28187668750 -0.48558488 165.68553 -69.054161 79.260498 -68.814499 75.15834 0.030562423 6.7862287
28229537500 -0.49192166 165.59471 -68.45488 81.606071 -68.827965 82.660019 0.030442638 6.7837896
28271406250 -0.49045759 165.61346 -68.000626 81.151283 -68.248512 87.88475 0.030141877 6.8018975
28313275000 -0.48080352 165.56483 -68.742378 80.153282 -69.029022 81.465866 0.032264236 6.8038788
28355143750 -0.4716011 165.53136 -68.812233 78.779732 -68.255249 78.741379 0.031519551 6.8312182
28397012500 -0.4663111 165.45239 -68.764992 81.290901 -68.858208 84.206627 0.032836158 6.8404169
28438881250 -0.46488675 165.3131 -68.778839 80.583382 -68.480431 77.05127 0.03291066 6.8551598
28480750000 -0.45851564 165.33968 -68.779991 78.082977 -68.237396 78.742065 0.033712644 6.8894114
28522618750 -0.46321982 165.16095 -68.122696 79.218285 -68.616287 79.783066 0.034250472 6.8893347
28564487500 -0.46351877 165.18291 -67.862747 78.783264 -68.700027 78.201035 0.035581656 6.9083805
28606356250 -0.45434391 165.11365 -68.323196 80.863152 -67.930893 80.093124 0.037869185 6.9012461
28648225000 -0.46754506 165.06316 -68.05349 78.090004 -68.365089 82.448311 0.037174225 6.9141178
28690093750 -0.45553914 165.0336 -68.428017 81.158363 -68.327393 81.2799 0.040798198 6.9241481
28731962500 -0.45486704 164.94794 -68.00473 81.299751 -67.153809 76.949715 0.039187461 6.8992324
28773831250 -0.44264352 164.8647 -68.173294 79.927155 -68.524307 78.913902 0.042306311 6.9159422
28815700000 -0.444655 164.75851 -67.356285 77.125725 -67.552132 75.157166 0.041189507 6.8998408
28857568750 -0.44702637 164.59085 -68.354317 80.098167 -68.416763 82.377228 0.041398223 6.9099054
28899437500 -0.44681865 164.49838 -68.110771 77.137024 -67.744164 76.649521 0.042794887 6.8981028
28941306250 -0.46290794 164.42697 -68.041573 78.255692 -67.645805 75.660255 0.041684873 6.9066935
28983175000 -0.4775317 164.29875 -67.863129 70.888741 -67.951424 76.133263 0.043333642 6.9186625
29025043750 -0.49558154 164.20828 -67.903526 73.642738 -67.615501 77.493675 0.040829483 6.9183016
29066912500 -0.50398517 164.14859 -67.377029 77.084549 -68.306671 74.485252 0.043857466 6.9456177
29108781250 -0.5202387 164.16505 -67.732574 73.64447 -67.573067 77.076439 0.040705878 6.9322848
29150650000 -0.52771002 164.15894 -68.806908 77.057434 -67.699608 71.365517 0.040405829 6.9472332
29192518750 -0.54124755 164.14122 -68.307884 74.60833 -67.571472 74.824387 0.042705689 6.9240913
29234387500 -0.53960317 164.14192 -67.868645 69.626541 -68.149628 72.730103 0.0388324 6.9329395
29276256250 -0.56896031 164.04019 -68.60862 75.501472 -68.010399 77.198952 0.039977513 6.9258127
29318125000 -0.58059639 164.06007 -68.106827 68.622581 -68.238533 73.752342 0.035263278 6.9238729
29359993750 -0.59978491 164.0023 -67.582123 75.040443 -68.113319 77.419601 0.036079716 6.9490032
29401862500 -0.61685938 164.13217 -68.445816 71.478142 -68.368988 71.190918 0.033453211 6.9417801
29443731250 -0.61982644 164.09029 -68.144974 73.202812 -68.291847 72.969063 0.032894216 6.9711022
29485600000 -0.6368655 164.15623 -67.687981 70.83004 -67.778175 68.038445 0.034009561 6.977654
29527468750 -0.64170277 164.25441 -68.08532 71.155273 -67.360512 75.27076 0.031063629 7.0122008
29569337500 -0.64588153 164.26744 -67.636154 71.684105 -68.372482 71.339691 0.033194788 7.0092096
29611206250 -0.65515327 164.38989 -67.424934 70.533035 -68.798073 71.369484 0.028923713 7.0205908
29653075000 -0.64570254 164.39893 -68.427063 72.030609 -68.438271 72.243561 0.032424051 7.0253792
29694943750 -0.65376616 164.51855 -67.442345 72.556702 -68.211067 71.737602 0.030799411 7.0294514
29736812500 -0.64670342 164.53722 -68.334862 69.041725 -68.338303 69.598526 0.030437497 7.0515614
29778681250 -0.64692789 164.57355 -68.643066 66.426468 -67.997581 69.447159 0.02753184 7.0442605
29820550000 -0.63056076 164.61337 -68.5326 72.574509 -68.3536 70.173058 0.026822358 7.0665956
29862418750 -0.63155097 164.59406 -68.067902 71.404716 -68.276772 73.438362 0.027938234 7.0735564
29904287500 -0.62833178 164.66699 -68.317123 76.873566 -68.254936 68.525658 0.025589366 7.0900226
29946156250 -0.61718875 164.59486 -67.891121 68.275406 -68.245499 73.228157 0.027742758 7.1047339
29988025000 -0.615394 164.6245 -68.672363 65.585205 -68.300774 71.873512 0.026550677 7.1135297
30029893750 -0.60262406 164.53944 -67.630608 73.022255 -68.619347 72.863167 0.028578615 7.1412778
30071762500 -0.60967076 164.5696 -68.404541 66.212166 -67.859764 70.439079 0.027288498 7.1341901
30113631250 -0.59844267 164.53201 -67.527931 69.016861 -68.972649 72.495155 0.026877413 7.1659136
30155500000 -0.61368442 164.3741 -68.348465 72.764038 -68.006218 69.065659 0.027121807 7.1704264
30197368750 -0.60965919 164.47118 -69.301826 65.431877 -68.31176 71.328461 0.022208676 7.1921816
30239237500 -0.62138581 164.379 -68.691109 65.895798 -67.959991 68.69178 0.024729254 7.1943297
30281106250 -0.6243605 164.44624 -68.292625 66.138916 -67.339638 65.8246 0.023587322 7.1908865
30322975000 -0.61411256 164.40251 -68.362762 69.628387 -68.511276 60.848133 0.024782276 7.2159944
30364843750 -0.62046927 164.45692 -68.572014 71.2771 -68.043465 69.247292 0.024485242 7.2202315
30406712500 -0.6099627 164.46335 -68.597946 72.211456 -68.421486 69.437386 0.023844257 7.2400179
30448581250 -0.61621583 164.47165 -68.239822 66.552078 -67.402946 70.984406 0.026898509 7.2340274
30490450000 -0.60895061 164.5611 -68.265747 68.689903 -68.053467 70.226563 0.025435988 7.2514324
30532318750 -0.60877788 164.52629 -68.138519 70.738403 -67.378487 69.297379 0.027284384 7.2606902
30574187500 -0.60416573 164.52678 -68.193756 68.274811 -67.448746 60.945377 0.028078148 7.2818961
30616056250 -0.59510899 164.4971 -67.281792 71.523018 -67.689117 65.318588 0.02718406 7.2872133
30657925000 -0.59281647 164.46799 -67.501984 70.580353 -67.839844 65.180748 0.028997768 7.2966022
30699793750 -0.587547 164.41541 -67.620918 66.465881 -67.60762 71.619835 0.02938397 7.3122239
30741662500 -0.588893 164.29532 -67.139175 69.030464 -68.274269 63.535294 0.028779712 7.3064737
30783531250 -0.58420473 164.45212 -67.539337 72.390556 -68.014465 66.022217 0.029305294 7.3085656
30825400000 -0.58505827 164.27394 -68.348198 65.261856 -67.358025 66.610275 0.029215815 7.3028283
30867268750 -0.58723259 164.39972 -67.130379 72.531876 -68.569862 68.801811 0.028203143 7.3204508
30909137500 -0.5805313 164.25737 -66.883186 68.707161 -68.660393 61.261902 0.027257631 7.3108621
30951006250 -0.57536268 164.19269 -67.099861 62.364456 -68.54744 71.018738 0.026852202 7.3196006
30992875000 -0.57310897 164.15822 -67.77964 69.177444 -67.762207 67.840202 0.025056126 7.3455243
31034743750 -0.57928139 164.16908 -68.6315 64.742935 -68.145866 69.054993 0.02592029 7.3450961
31076612500 -0.58471799 164.12216 -67.072998 63.558109 -68.044373 68.957344 0.025710313 7.3740201
31118481250 -0.58462173 164.00459 -67.387733 65.179977 -67.69194 63.741592 0.023216568 7.3727531
31160350000 -0.59574789 163.96014 -67.509918 60.406738 -67.376709 62.543133 0.022758229 7.3938756
31202218750 -0.59729421 163.94981 -67.606651 63.7789 -68.313622 64.597641 0.020703355 7.3973427
31244087500 -0.61287737 163.92445 -68.365906 61.583233 -67.27343 61.381157 0.02100477 7.4035339
31285956250 -0.61991841 163.95171 -67.669815 61.289822 -67.393181 61.987724 0.020562688 7.4042873
31327825000 -0.61831981 163.97047 -67.970444 63.46838 -67.605858 64.581795 0.019103702 7.4218469
31369693750 -0.6263575 163.99806 -67.80619 66.523895 -68.0047 58.165344 0.019051641 7.4449234
31411562500 -0.62290221 163.95163 -68.531906 61.136532 -68.825089 57.519886 0.017458599 7.4611988
31453431250 -0.62620741 163.98991 -68.755707 59.90498 -67.939278 68.751335 0.015666371 7.4685659
31495300000 -0.63371634 163.99237 -68.077576 60.486122 -68.715416 61.409294 0.017808706 7.4838724
31537168750 -0.62872517 163.95226 -69.189522 61.921177 -69.377838 56.032986 0.015166479 7.5184188
31579037500 -0.62754327 163.9975 -69.191818 65.989166 -68.672363 61.950363 0.014809968 7.5341606
31620906250 -0.63001782 164.0063 -69.198006 66.789223 -68.96743 66.886177 0.013650974 7.5367613
31662775000 -0.63477767 163.98328 -68.308739 68.326782 -69.760887 63.355976 0.014879106 7.5946965
31704643750 -0.63016629 164.06725 -69.220787 63.196812 -68.82412 66.408989 0.013727356 7.5809097
31746512500 -0.63237047 164.03146 -68.954002 70.279465 -69.299927 70.134354 0.014567978 7.6166215
31788381250 -0.62964404 164.18062 -70.336021 65.658447 -69.621605 71.994637 0.01643957 7.627368
31830250000 -0.62186706 164.12778 -69.226494 64.867668 -68.873474 67.867401 0.014990033 7.6478114
31872118750 -0.62295002 164.19746 -69.47081 72.136452 -68.505257 71.100731 0.019268125 7.6667399
31913987500 -0.61082041 164.26036 -68.906006 76.016891 -68.922737 71.795509 0.019205758 7.6703272
31955856250 -0.61854756 164.2063 -68.442146 71.134071 -68.162735 76.389755 0.022713423 7.6893325
31997725000 -0.60426301 164.26793 -68.449783 72.372459 -67.736176 73.857269 0.024147514 7.6817498
32039593750 -0.59872937 164.21744 -67.883789 74.48542 -68.240791 66.770348 0.024368893 7.7139344
32081462500 -0.59273994 164.2641 -68.009689 77.913086 -68.434555 70.263992 0.028130615 7.6969008
32123331250 -0.572927 164.18239 -67.941208 63.20993 -67.615959 72.965004 0.029260039 7.7178311
32165200000 -0.55768466 164.23363 -67.523811 71.454048 -67.279175 68.394623 0.03120807 7.7051816
32207068750 -0.54614264 164.10876 -67.063828 70.504288 -67.473549 77.935143 0.028688679 7.7142162
32248937500 -0.53227174 164.07181 -67.900238 70.819641 -68.090973 70.543129 0.030971618 7.7412453
32290806250 -0.53131092 164.02411 -67.787605 71.209259 -67.376183 77.252899 0.029611768 7.694459
32332675000 -0.52694893 163.90813 -67.142517 71.79187 -67.728828 71.171608 0.030710477 7.7415142
32374543750 -0.52758604 163.89029 -66.623291 71.231598 -67.235306 70.061607 0.029730547 7.7184973
32416412500 -0.52172947 163.73099 -67.279022 72.188423 -67.547096 72.368401 0.028351791 7.7341514
32458281250 -0.53442681 163.69269 -66.572968 71.71344 -66.475044 70.444954 0.029213758 7.7494493
32500150000 -0.52628613 163.58566 -66.692604 74.333641 -66.983109 73.841469 0.022899341 7.7511044
32542018750 -0.53862256 163.5399 -67.020485 70.095688 -66.84465 70.677948 0.025801407 7.7721953
32583887500 -0.53097773 163.53336 -66.90873 77.944527 -67.052681 73.162758 0.021634839 7.7702923
32625756250 -0.53782558 163.47337 -67.345467 70.424049 -67.423096 71.066681 0.021970702 7.8004756
32667625000 -0.53762138 163.42795 -66.703674 68.113571 -66.456635 70.097321 0.022378134 7.7920794
32709493750 -0.53651786 163.41539 -66.838127 72.501457 -66.761322 70.327789 0.019126896 7.821938
32751362500 -0.55303532 163.38052 -66.827339 69.286293 -67.367409 64.504631 0.024795145 7.8260112
32793231250 -0.55531687 163.36226 -67.199471 67.81369 -66.732513 70.585693 0.018871229 7.8502841
32835100000 -0.55382568 163.25778 -66.349083 67.834396 -66.899101 68.014336 0.024022918 7.8617315
32876968750 -0.56065518 163.26733 -66.046272 66.866348 -66.612885 65.985321 0.022656256 7.8534122
32918837500 -0.55800581 163.17474 -66.710342 68.015648 -66.557159 70.186523 0.0234761 7.8968172
32960706250 -0.55386567 163.2211 -66.544891 67.480186 -66.987587 71.216049 0.024463618 7.885632
33002575000 -0.56376654 163.2318 -66.532516 68.228874 -67.028831 59.53191 0.023686184 7.9220524
33044443750 -0.56006646 163.26375 -66.875641 65.938087 -66.740395 69.825386 0.026950989 7.9209447
33086312500 -0.56624246 163.2404 -67.019234 64.932343 -67.34864 65.878731 0.022009335 7.9435682
33128181250 -0.57743865 163.16783 -66.398796 68.884422 -67.052208 63.643635 0.026967969 7.9421902
33170050000 -0.58163595 163.1918 -66.524628 68.005417 -66.90358 69.600761 0.026512085 7.9615693
33211918750 -0.57239127 163.09537 -66.687767 66.527695 -66.41124 67.142807 0.029692497 7.9623117
33253787500 -0.57064831 163.11826 -66.765121 66.880455 -65.918961 67.399536 0.03033776 7.9584599
33295656250 -0.57831895 163.07317 -66.154114 60.056263 -65.886276 64.306229 0.031481516 7.9865942
33337525000 -0.57930893 163.04391 -66.690323 67.847763 -66.000229 67.657486 0.031990327 7.9755716
33379393750 -0.58008218 163.0659 -66.879181 65.170296 -66.108612 66.000664 0.030654443 8.0005083
33421262500 -0.58787507 163.02719 -66.10508 71.493126 -65.772095 62.75761 0.033201981 8.0090485
33463131250 -0.57666528 162.98132 -65.568932 65.661728 -65.708099 58.78701 0.030916614 8.0029383
33505000000 -0.58259648 162.98232 -65.569626 64.179123 -65.950668 62.395267 0.03333813 8.0092506
33546868750 -0.5735296 162.89375 -65.828979 63.138325 -65.497337 62.05233 0.030474512 8.0164108
33588737500 -0.58290905 162.92116 -66.059662 62.94915 -66.145691 63.435307 0.03073464 8.0095825
33630606250 -0.5765571 162.83484 -65.942604 57.794151 -65.784821 58.036556 0.034399427 8.0063934
33672475000 -0.58846104 162.83725 -65.429642 60.614918 -65.515083 56.629704 0.032272458 8.0296602
33714343750 -0.58216959 162.90674 -65.154167 57.819244 -66.157722 58.335983 0.033486605 8.019289
33756212500 -0.60604805 162.81454 -65.942062 61.505814 -65.617905 63.21048 0.0317128 8.0373001
33798081250 -0.60396844 162.92632 -65.608398 60.147705 -65.672325 61.333263 0.032460023 8.0417299
33839950000 -0.61023498 162.84912 -65.827927 56.807755 -65.61692 61.293564 0.029382428 8.04212
33881818750 -0.61751491 162.92499 -65.901573 57.646454 -65.988274 60.252357 0.03108779 8.0453634
33923687500 -0.60805988 162.87129 -65.570908 57.918556 -66.060463 57.666946 0.027145473 8.0643349
33965556250 -0.62418324 162.92941 -66.17514 52.097694 -65.586937 50.723545 0.024797719 8.0850086
34007425000 -0.62165344 162.9845 -65.612572 52.56105 -66.205986 57.272839 0.024299391 8.0811119
34049293750 -0.62051827 162.87846 -66.01429 51.205353 -65.792336 57.735344 0.02296835 8.1066809
34091162500 -0.60208881 163.03476 -65.323036 48.539337 -66.147461 55.229126 0.022337442 8.1208973
34133031250 -0.61155522 162.9881 -66.166115 51.033344 -65.600586 48.439785 0.019791253 8.1380281
34174900000 -0.60075033 163.0513 -66.288406 50.122082 -65.793274 52.229805 0.022621749 8.1519194
34216768750 -0.58582342 163.03406 -66.138954 54.138203 -65.695518 53.488628 0.021926917 8.1749859
34258637500 -0.59236819 163.06242 -66.122963 56.085308 -67.408661 55.344318 0.023601739 8.2145672
34300506250 -0.56826395 163.05734 -66.135475 54.714649 -65.705864 55.059608 0.022318386 8.2164955
34342375000 -0.57385749 162.94591 -65.901718 50.535534 -65.751068 55.074802 0.026903139 8.2409487
34384243750 -0.55152547 163.07306 -66.068878 53.845577 -65.766266 55.442539 0.025796775 8.2625389
34426112500 -0.5515849 162.87755 -67.516129 51.571014 -65.702003 49.686943 0.02665822 8.2760153
34467981250 -0.54251295 162.9444 -66.123466 53.313919 -65.941452 56.146622 0.030775251 8.2771912
34509850000 -0.52509439 162.81468 -66.077377 52.659374 -65.790276 50.749371 0.030682718 8.2994404
34551718750 -0.53473508 162.68034 -67.173584 51.312332 -66.536575 53.750156 0.033094086 8.3216
34593587500 -0.517515 162.68542 -66.874138 55.012337 -66.632904 49.775593 0.032785289 8.3099403
34635456250 -0.53725398 162.43073 -66.986748 46.833817 -66.367004 52.509396 0.035155434 8.3216972
34677325000 -0.52394676 162.56035 -65.574242 49.538372 -66.662987 51.459141 0.033772748 8.3147144
34719193750 -0.52025151 162.27489 -66.438087 50.771942 -66.705994 52.770008 0.037149586 8.3208694
34761062500 -0.5306583 162.36287 -66.298019 49.314892 -66.249268 52.404392 0.038269483 8.3341656
34802931250 -0.53750855 162.21954 -66.989594 52.370144 -67.201775 50.393337 0.036941178 8.3437033
34844800000 -0.54909348 162.22028 -66.641655 49.843975 -66.643753 49.328476 0.038749792 8.3516722
34886668750 -0.54001939 162.15027 -67.610764 53.854412 -66.904419 51.002434 0.040683825 8.3459005
34928537500 -0.56509864 161.93561 -66.439575 48.488312 -67.261139 56.852467 0.04236681 8.3618116
34970406250 -0.55676174 162.07082 -67.137886 54.57933 -66.659988 54.667492 0.042611357 8.3417511
35012275000 -0.57794547 161.86279 -67.634552 52.847458 -66.802238 53.531029 0.041453607 8.3527517
35054143750 -0.58394712 161.94461 -66.891891 55.048553 -66.466011 52.394966 0.043294173 8.3384686
35096012500 -0.5868687 161.94363 -66.448692 55.784 -67.346359 53.663914 0.04259444 8.3294153
35137881250 -0.61329651 161.9702 -66.505699 52.328785 -67.224808 54.727329 0.041551039 8.3365355
35179750000 -0.61130643 161.9787 -66.409195 53.803616 -66.081062 51.69487 0.039618418 8.3218384
35221618750 -0.62330168 162.00659 -66.776871 53.488533 -66.962967 52.045559 0.039355744 8.3357983
35263487500 -0.62360317 162.13451 -66.189278 56.616207 -67.117714 55.320728 0.039925702 8.321909
35305356250 -0.633811 162.02989 -67.07576 53.631424 -66.235191 50.309513 0.036778446 8.3490667
35347225000 -0.62834436 162.15376 -66.861771 50.349499 -66.223351 56.762299 0.037191678 8.3377304
35389093750 -0.61538804 162.12257 -66.429199 60.045158 -66.658676 49.119217 0.033733193 8.3648949
35430962500 -0.64000106 162.11554 -66.705681 48.137177 -67.303375 51.559616 0.032946113 8.3956413
35472831250 -0.61308306 162.10233 -66.320313 47.946869 -66.104042 53.467697 0.03167117 8.4101496
35514700000 -0.63373816 162.0442 -67.089874 54.845394 -66.890564 55.08791 0.030058587 8.4518661
35556568750 -0.61324704 162.09978 -67.554367 48.814354 -67.000908 54.304893 0.029041482 8.4267063
35598437500 -0.62008083 162.00641 -66.608368 51.238312 -67.730972 52.636787 0.027669195 8.4622097
35640306250 -0.63006151 162.07861 -66.912636 58.051132 -68.707542 60.981548 0.029786592 8.4780817
35682175000 -0.61569262 161.98038 -67.574875 53.041348 -67.263863 57.665001 0.024410592 8.4788237
35724043750 -0.61859322 162.04974 -67.786705 58.706448 -67.840889 66.028954 0.029196788 8.4960489
35765912500 -0.60528207 162.08902 -68.245636 60.290417 -66.665688 66.031136 0.026912915 8.4807186
35807781250 -0.60896993 162.02472 -66.75042 62.953602 -67.319382 65.664833 0.028874855 8.5294266
35849650000 -0.6096788 162.09991 -65.886642 66.320244 -66.867928 69.386978 0.027890909 8.5178423
35891518750 -0.61577463 162.04062 -66.391304 64.135132 -66.171478 68.777054 0.030045733 8.5331755
35933387500 -0.61288601 162.06023 -66.489792 65.558014 -65.721138 66.640785 0.03376453 8.559885
35975256250 -0.61844575 161.97862 -66.42865 63.930504 -65.793289 70.244293 0.031559639 8.5642309
36017125000 -0.61530334 161.97598 -65.224609 64.850937 -64.89357 62.320435 0.03522322 8.5869493
36058993750 -0.61897886 161.99089 -65.177307 65.269234 -65.123344 63.964081 0.035634544 8.5903244
36100862500 -0.61276203 161.97087 -64.65274 64.099106 -65.462151 63.081127 0.035441469 8.6057587
36142731250 -0.61787003 161.96991 -65.12471 63.663437 -64.92527 64.740059 0.034279749 8.5980825
36184600000 -0.599406 161.92201 -64.638016 63.246208 -64.79538 61.805855 0.034724034 8.6196651
36226468750 -0.61416471 161.98181 -63.878521 57.706043 -64.370003 60.372173 0.037395455 8.6138353
36268337500 -0.60400206 161.97452 -63.748642 60.940655 -64.405975 57.14431 0.03395357 8.6143408
36310206250 -0.61124861 161.99181 -64.401001 58.7271 -63.765591 59.97937 0.035093293 8.6219349
36352075000 -0.60742003 161.93913 -63.896496 59.989376 -64.149101 59.278931 0.035728 8.6164055
36393943750 -0.60125685 161.95325 -63.974838 57.344536 -63.559502 60.371086 0.034297213 8.6390495
36435812500 -0.5990904 161.89003 -63.738762 58.492546 -63.330593 60.905796 0.035407063 8.6414194
36477681250 -0.60254288 161.89311 -62.658352 56.173492 -63.749031 56.855217 0.032710269 8.6600132
36519550000 -0.58842105 161.84599 -63.283897 51.852436 -63.211567 55.563122 0.035286386 8.6549301
36561418750 -0.58898193 161.94571 -63.419464 56.955185 -64.159615 51.395218 0.033651512 8.6643019
36603287500 -0.59100008 161.78551 -64.241539 47.908127 -63.223946 52.90921 0.034772824 8.6956749
36645156250 -0.58211219 161.75732 -63.500389 51.393253 -63.383812 51.792797 0.032049429 8.705965
36687025000 -0.56695092 161.73267 -63.791683 51.269753 -63.081211 49.994709 0.031797603 8.7130604
36728893750 -0.56917661 161.62152 -63.595131 53.936035 -63.712463 49.632801 0.032655288 8.7075596
36770762500 -0.55075437 161.60577 -63.177826 50.218533 -63.854546 52.936008 0.031698924 8.7364397
36812631250 -0.5500024 161.54926 -63.420956 49.178799 -63.774117 48.521622 0.032529395 8.7337399
36854500000 -0.55603468 161.55144 -63.602444 46.450134 -63.153 43.742775 0.034813911 8.7506866
36896368750 -0.5594728 161.36327 -63.473705 46.175251 -63.806492 44.530293 0.037922561 8.766118
36938237500 -0.56339693 161.44641 -63.302437 49.746387 -63.789894 45.073444 0.037913322 8.7810249
36980106250 -0.56598854 161.29672 -63.496525 44.44252 -63.207481 43.889988 0.036432434 8.8031034
37021975000 -0.56928378 161.17184 -63.809208 38.929749 -63.773315 41.694889 0.037329242 8.7913332
37063843750 -0.57195508 161.2115 -63.501244 46.886391 -63.534645 47.414993 0.035596032 8.8120079
37105712500 -0.57965916 161.06453 -63.150291 42.304985 -63.458878 40.311474 0.038773395 8.784874
37147581250 -0.58319473 161.14049 -63.496319 44.835888 -63.17411 37.591232 0.037434977 8.8044672
37189450000 -0.5821113 160.97681 -63.394985 40.232281 -63.661457 44.791355 0.037754737 8.8103657
37231318750 -0.58582431 161.03873 -63.448643 43.7785 -63.242615 41.555592 0.034392238 8.8053217
37273187500 -0.58604622 161.06444 -63.116745 38.581547 -63.526398 35.263859 0.035780374 8.8144951
37315056250 -0.61094141 160.93182 -63.297894 40.140026 -63.249729 37.100788 0.034139007 8.823884
37356925000 -0.60194367 161.03621 -63.306759 37.268837 -63.371807 38.553745 0.032872122 8.8413095
37398793750 -0.62126696 161.00633 -63.437119 38.505627 -63.235405 32.695789 0.033109501 8.8288517
37440662500 -0.63065177 161.04274 -63.375511 29.99691 -63.753147 38.597664 0.031472266 8.8792448
37482531250 -0.62296045 160.97539 -63.290405 38.548889 -64.008492 35.795647 0.029916679 8.8632641
37524400000 -0.63265103 160.98422 -63.416046 35.585388 -63.407959 35.399433 0.031156668 8.8764992
37566268750 -0.62945586 161.03618 -63.269901 34.376541 -63.619698 35.489506 0.032516036 8.8886061
37608137500 -0.63458383 160.99219 -64.115776 30.499975 -63.768143 34.131428 0.030017968 8.911479
37650006250 -0.6380856 160.99976 -63.51284 36.757309 -64.201195 38.12323 0.031070827 8.9074049
37691875000 -0.63459194 160.95482 -64.159073 34.418983 -64.119057 31.656992 0.033334021 8.9011679
37733743750 -0.65706569 161.0358 -64.774551 34.563389 -64.048897 33.713882 0.032139361 8.9357176
37775612500 -0.65553349 161.03339 -64.062119 30.666157 -64.274643 33.809822 0.032209765 8.895072
37817481250 -0.66095942 161.02937 -65.134407 29.436695 -63.923279 37.213291 0.032857735 8.9417686
37859350000 -0.6593613 161.08719 -64.332924 34.148056 -63.901428 31.701612 0.032130111 8.9444561
37901218750 -0.66180527 161.14186 -63.659729 31.487787 -64.673576 33.26899 0.031288769 8.9454718
37943087500 -0.6691758 161.24472 -64.244453 31.922287 -64.47448 28.892691 0.032025788 8.9764872
37984956250 -0.65501332 161.19702 -64.815285 33.638783 -64.268257 30.057638 0.031383343 8.9696741
38026825000 -0.65417904 161.18437 -64.415283 29.087324 -64.597099 31.424206 0.029588114 9.0179787
38068693750 -0.63719642 161.31509 -63.890179 29.245237 -64.500931 30.729055 0.028630046 8.9934788
38110562500 -0.64481962 161.12503 -64.83728 28.050549 -64.382233 26.912674 0.029097022 9.0167646
38152431250 -0.62918293 161.25204 -63.926125 29.828587 -65.693527 33.4758 0.028163021 9.0006361
38194300000 -0.62676984 161.05508 -65.182495 28.826246 -64.830177 33.828232 0.027245797 9.0195875
38236168750 -0.61387402 161.07663 -64.027306 24.859707 -64.817711 28.588831 0.027341491 9.0266886
38278037500 -0.60734504 161.20015 -64.480507 33.900703 -64.622322 31.371964 0.027732469 8.9924459
38319906250 -0.62106985 161.06149 -64.355598 26.35041 -64.488312 30.603445 0.027543157 9.0604916
38361775000 -0.60884488 161.11783 -64.914543 26.790237 -65.042824 31.61742 0.026233179 9.0098171
38403643750 -0.60728759 161.06323 -64.636757 27.896561 -64.774208 26.468866 0.025811186 9.0580635
38445512500 -0.5988518 161.07727 -64.77552 28.075176 -64.855721 21.956228 0.027442325 9.0530567
38487381250 -0.59267616 161.01572 -65.262718 28.734722 -65.349197 25.094267 0.024129493 9.0809402
38529250000 -0.58874506 161.09694 -65.013222 30.234482 -64.671387 26.606915 0.027625468 9.0935163
38571118750 -0.58714724 161.06401 -64.920067 35.701157 -65.259697 29.300621 0.02475911 9.0728045
38612987500 -0.59411156 160.92532 -64.528809 27.142273 -65.650497 26.109552 0.025678404 9.1006231
38654856250 -0.5903672 160.99007 -65.232285 26.882446 -66.038742 25.699833 0.025738105 9.0899706
38696725000 -0.5716598 160.78293 -65.462662 28.864571 -65.71125 24.908278 0.024897069 9.1295576
38738593750 -0.58123529 160.92566 -64.62825 28.097898 -65.019165 25.188389 0.026823903 9.1185703
38780462500 -0.56530887 160.74919 -65.149147 25.941015 -65.671158 29.99909 0.021636385 9.1498947
38822331250 -0.59477264 160.8465 -65.257614 20.568066 -65.746704 25.902227 0.025056642 9.1397247
38864200000 -0.56520069 160.72009 -65.096283 23.790464 -66.291428 27.45369 0.021760534 9.1441135
38906068750 -0.57854342 160.67384 -65.780251 20.652891 -65.731056 25.346987 0.024253571 9.1528692
38947937500 -0.57563573 160.7368 -66.531166 23.759876 -66.503471 32.417126 0.023147047 9.1551847
38989806250 -0.57330394 160.60826 -65.594963 23.743452 -65.475258 31.875448 0.022378648 9.1831007
39031675000 -0.59568435 160.60205 -67.14814 19.436359 -67.268127 28.292042 0.023220686 9.176054
39073543750 -0.56408721 160.55583 -67.052376 27.191643 -65.368492 30.55661 0.026647415 9.1866751
39115412500 -0.58294815 160.51469 -66.125145 28.970606 -66.850044 35.649689 0.027978871 9.2001705
39157281250 -0.57483637 160.46742 -66.277023 30.36574 -66.661774 27.29285 0.026793545 9.231863
39199150000 -0.5891313 160.3277 -65.777931 29.206989 -66.588127 31.802362 0.02639013 9.2485332
39241018750 -0.56886148 160.53731 -65.944527 35.175205 -66.302681 35.949665 0.025775161 9.2404032
39282887500 -0.57707149 160.26476 -66.386314 29.382191 -66.50219 37.538177 0.028055515 9.2414818
39324756250 -0.57142651 160.48811 -66.175507 37.266125 -66.38456 37.478485 0.028285954 9.2347383
39366625000 -0.57744253 160.20955 -65.464951 40.130936 -65.854141 32.779518 0.027118204 9.2586145
39408493750 -0.58466733 160.23357 -66.18351 34.061069 -65.608559 35.135975 0.027122835 9.2425423
39450362500 -0.57402176 160.24754 -65.93956 31.377272 -65.305992 35.775013 0.026356168 9.2349243
39492231250 -0.60259044 160.17192 -65.261414 33.991238 -65.029861 29.266665 0.029962953 9.2654619
39534100000 -0.58720618 160.25551 -65.671532 33.702389 -65.222626 37.387867 0.028178968 9.2632542
39575968750 -0.59504277 160.07829 -65.203636 35.881641 -64.45752 34.742191 0.028707193 9.3154669
39617837500 -0.61038154 160.1339 -65.298698 39.198917 -65.255348 31.815008 0.023701116 9.3165817
39659706250 -0.5938133 159.99571 -65.764038 34.12458 -66.663155 37.642223 0.021889314 9.286602
39701575000 -0.62355506 160.03699 -64.616821 39.106476 -66.713676 36.93182 0.026639696 9.3015251
39743443750 -0.60731286 160.08911 -66.840172 31.095833 -65.325333 36.884888 0.021034652 9.2965689
39785312500 -0.62664545 159.98357 -65.566025 38.942856 -65.056213 37.585087 0.027016332 9.3259468
39827181250 -0.61936545 160.06894 -66.2724 34.987148 -64.693535 41.253407 0.02126907 9.3412733
39869050000 -0.62558311 159.97786 -65.5578 37.735161 -65.552429 38.772312 0.0213685 9.3626213
39910918750 -0.63548356 160.03767 -65.619385 41.12619 -64.539864 33.394794 0.02158796 9.3580694
39952787500 -0.62213707 160.01935 -65.181816 32.662872 -64.771225 36.834461 0.019372242 9.3841658
39994656250 -0.64438659 160.00188 -65.344414 31.005117 -65.75946 38.730103 0.023912221 9.4066849
40036525000 -0.6299203 160.07838 -64.868515 34.670712 -64.517906 37.085926 0.021471536 9.419426
40078393750 -0.63753819 159.9695 -63.903664 39.304718 -64.541878 39.788952 0.022721663 9.4612732
40120262500 -0.6422168 160.0771 -65.085938 37.246506 -64.369682 30.872414 0.021974308 9.4675207
40162131250 -0.62741166 159.95274 -63.673122 38.305099 -64.588303 32.136272 0.024268501 9.5191259
40204000000 -0.64977276 160.10367 -64.029655 30.200119 -63.201191 34.910881 0.022606812 9.4909315
40245868750 -0.62756538 160.05518 -64.222359 32.797371 -63.920944 34.558498 0.019728893 9.5358057
40287737500 -0.63488704 159.99696 -63.494667 32.35648 -64.301392 34.181484 0.020680169 9.5363588
40329606250 -0.62538844 160.01564 -64.481972 35.098225 -63.561245 30.021851 0.020692019 9.5283833
40371475000 -0.61691397 160.00136 -63.500294 32.97258 -64.184982 29.277073 0.025411798 9.5596209
40413343750 -0.61818457 160.08855 -63.635086 30.474258 -64.497269 33.038818 0.022347229 9.5672073
40455212500 -0.60815519 159.90587 -63.59473 27.886709 -63.850815 23.840223 0.021154696 9.5862398
40497081250 -0.61252981 159.93819 -64.399132 29.428486 -64.01413 27.153263 0.023790708 9.5748405
40538950000 -0.59791058 159.92935 -63.302658 31.580183 -63.761234 25.542702 0.0236867 9.6095533
40580818750 -0.59717274 159.84882 -63.533028 28.450954 -64.196732 29.41217 0.024270561 9.6023426
40622687500 -0.59236461 159.8772 -63.548771 23.357092 -64.337395 31.733944 0.024266956 9.6374683
40664556250 -0.58615965 159.78549 -63.783688 28.597698 -63.562969 23.18836 0.027872905 9.6455698
40706425000 -0.60039896 159.89713 -64.0205 27.007338 -63.981533 28.533566 0.027094537 9.6538076
40748293750 -0.59810191 159.76225 -63.69865 24.980175 -63.591732 19.643108 0.025963521 9.6632833
40790162500 -0.59200299 159.7645 -63.368374 24.910604 -64.392792 30.0473 0.026237296 9.651248
40832031250 -0.59155738 159.72298 -63.047859 24.236248 -63.506588 25.028624 0.028053459 9.6881142
40873900000 -0.59334886 159.60817 -63.800053 23.512779 -63.521168 26.953409 0.025466871 9.685854
40915768750 -0.60615253 159.63208 -64.284752 24.903162 -63.955326 19.792559 0.021975338 9.709425
40957637500 -0.58440077 159.49417 -64.05793 22.272877 -63.833778 21.241142 0.024351388 9.7068205
40999506250 -0.59909695 159.53198 -63.639473 20.735853 -63.39069 26.165047 0.025028331 9.7289171
41041375000 -0.59226704 159.55336 -64.007378 26.987467 -63.400654 24.903822 0.024955235 9.7219019
41083243750 -0.58938837 159.47409 -64.938057 19.840792 -63.690998 22.021143 0.023804097 9.7164698
41125112500 -0.59421903 159.43941 -64.394485 20.346516 -63.920044 25.7988 0.024391545 9.7728367
41166981250 -0.58219594 159.42944 -64.024254 22.370262 -64.238251 14.928943 0.022773165 9.7545471
41208850000 -0.60121733 159.45103 -63.942299 17.84436 -63.661232 15.864708 0.022875652 9.7842302
41250718750 -0.59585923 159.37338 -63.90509 17.707605 -63.875931 22.423216 0.021871801 9.7932844
41292587500 -0.60948402 159.35568 -63.611221 13.51802 -64.207054 20.773096 0.01993143 9.8194256
41334456250 -0.60385752 159.34448 -64.008087 14.97693 -64.103966 19.888821 0.01985052 9.816267
41376325000 -0.59366518 159.14377 -63.908741 15.274745 -63.905365 19.062685 0.019105248 9.8273678
41418193750 -0.61744595 159.30798 -64.114494 18.017689 -64.297829 13.516082 0.022222068 9.8239059
41460062500 -0.59091848 159.11931 -64.974106 20.592133 -63.442089 17.725285 0.017913371 9.831254
41501931250 -0.61767185 159.1925 -62.993587 11.926618 -63.547466 16.023905 0.019011436 9.8374939
41543800000 -0.58971006 159.15347 -65.445351 10.949938 -63.07159 8.0939207 0.019059373 9.8508883
41585668750 -0.61509782 159.07388 -63.920036 12.448536 -63.705925 16.726744 0.021845015 9.8678675
41627537500 -0.60409462 159.11189 -64.805283 21.147137 -63.893726 19.381571 0.020069541 9.8894005
41669406250 -0.60798067 159.05067 -65.209427 15.755283 -65.146416 10.339431 0.019727863 9.9087305
41711275000 -0.61088926 159.13725 -63.589718 16.559519 -64.313751 11.827906 0.018782565 9.9174728
41753143750 -0.60847169 159.05859 -64.621521 18.249729 -64.268623 14.855443 0.01573498 9.8655071
41795012500 -0.63184798 159.0609 -63.629089 18.297056 -63.915997 12.659876 0.021327801 9.9160547
41836881250 -0.62001753 159.11562 -64.083115 17.821957 -64.749596 6.7203755 0.022723209 9.8881788
41878750000 -0.6256423 158.95146 -66.649239 10.302723 -64.897606 7.1523218 0.021700777 9.9403105
41920618750 -0.62998492 158.98262 -64.769455 5.5362267 -64.422958 11.344313 0.02145608 9.9488268
41962487500 -0.62154955 158.82155 -64.214485 9.8652086 -64.101997 5.277431 0.019791769 9.9469614
42004356250 -0.63453412 159.04333 -64.162651 11.019077 -65.087372 14.606338 0.023530681 9.9514771
42046225000 -0.61365157 158.87526 -66.398834 9.2395601 -65.250687 10.95156 0.022401311 9.952981
42088093750 -0.63996327 158.96358 -65.67852 6.9277997 -65.661354 20.017281 0.026673142 9.9789982
42129962500 -0.61783272 158.9023 -66.399452 7.1368771 -63.336349 17.603022 0.024753448 9.9566498
42171831250 -0.64051342 158.77892 -64.920982 1.6752014 -65.496025 6.0740485 0.024125889 10.0083
42213700000 -0.63724858 158.96797 -65.149178 9.1788998 -64.355034 14.163218 0.025397386 9.9752111
42255568750 -0.64113235 158.82535 -65.087555 20.77503 -65.362114 13.077699 0.024151633 9.9847517
42297437500 -0.66359186 158.96794 -66.511703 22.036591 -65.694847 9.1682835 0.027829695 9.9721527
42339306250 -0.64911681 158.93318 -65.719978 18.684023 -64.953087 13.47449 0.025052009 10.016023
42381175000 -0.65760601 158.8623 -65.737396 13.549587 -65.022461 11.068505 0.027922802 10.031406
42423043750 -0.64516944 158.88651 -64.861504 14.046049 -66.644501 19.93383 0.027344063 10.008218
42464912500 -0.66272575 158.87303 -65.154037 19.542658 -65.584167 13.865272 0.02855547 10.03887
42506781250 -0.64393741 158.90881 -65.788719 16.303478 -64.30526 21.82374 0.028202629 10.013704
42548650000 -0.63850421 158.84798 -65.36187 6.3171954 -63.907627 16.42214 0.026493046 10.041023
42590518750 -0.65613347 158.97301 -65.740364 11.352268 -65.399406 20.186045 0.029900739 10.036907
42632387500 -0.6483444 158.88162 -64.212509 19.280224 -64.32666 9.8530474 0.02748091 10.033849
42674256250 -0.65218723 158.8148 -64.598145 6.3586674 -65.570877 11.402286 0.031158725 10.047914
42716125000 -0.63522351 158.91606 -64.632149 11.022183 -64.123825 14.117216 0.024427067 10.034722
42757993750 -0.64674193 158.84613 -65.102371 10.68007 -64.557297 18.78911 0.032442551 10.067296
42799862500 -0.62829524 158.83147 -65.508064 14.546233 -65.52961 8.0337734 0.028904684 10.054374
42841731250 -0.62602347 158.79106 -64.770256 13.802023 -66.875168 11.140644 0.029318664 10.07894
42883600000 -0.62785882 158.79944 -65.061516 7.7740097 -63.809551 8.3295326 0.031398252 10.084477
42925468750 -0.61274087 158.72824 -63.561707 15.357715 -64.780434 13.273036 0.0294935 10.108704
42967337500 -0.6209498 158.74875 -65.606529 24.693848 -63.922169 4.7297406 0.029611768 10.104477
43009206250 -0.62917608 158.68526 -64.713341 4.5289536 -64.636765 12.224306 0.030416418 10.096741
43051075000 -0.61658305 158.64339 -65.39695 11.761093 -65.482391 3.1862772 0.032548923 10.139158
43092943750 -0.61662394 158.69264 -66.049278 2.3527441 -64.966164 10.747191 0.031556044 10.106103
43134812500 -0.61887914 158.67676 -66.198029 14.202418 -66.124229 10.827701 0.03074749 10.134949
43176681250 -0.62500703 158.52748 -64.733406 -0.27405787 -67.134666 10.977631 0.03341879 10.12938
43218550000 -0.62640685 158.57794 -66.269806 12.195559 -65.461998 12.070471 0.032291472 10.130994
43260418750 -0.63946503 158.46085 -65.115005 8.8388596 -66.069084 13.719923 0.037667483 10.141541
43302287500 -0.62929368 158.50981 -65.23716 6.2670612 -67.812805 18.056486 0.028991597 10.15648
43344156250 -0.63627923 158.4472 -66.67218 12.351999 -65.867393 13.11015 0.035178542 10.151095
43386025000 -0.63225126 158.50925 -66.582321 8.7931852 -65.567474 4.6254916 0.033640724 10.116368
43427893750 -0.63880706 158.38892 -65.805626 11.555946 -64.132614 14.966137 0.032209765 10.166956
43469762500 -0.63844216 158.31299 -65.452454 14.577375 -65.447456 16.848463 0.03246465 10.166793
43511631250 -0.63171506 158.35641 -64.226532 8.5873051 -65.847954 17.081272 0.030600464 10.161742
43553500000 -0.61720902 158.36638 -64.838196 20.329136 -64.781639 11.311426 0.033456806 10.171237
43595368750 -0.64122927 158.36778 -64.820915 2.2624605 -65.414864 9.2774696 0.028142961 10.183431
43637237500 -0.62097847 158.36197 -65.280586 10.671371 -66.697746 5.8676987 0.032426622 10.159196
43679106250 -0.65311229 158.28325 -66.844147 5.724103 -65.983353 2.1695435 0.032998521 10.19635
43720975000 -0.61161602 158.31235 -66.698532 0.54474294 -67.934303 4.3931227 0.024474945 10.246769
43762843750 -0.64404672 158.21729 -66.45491 3.5383363 -66.119736 8.9606419 0.025903307 10.171309
43804712500 -0.63335061 158.35741 -67.250641 9.5122118 -67.55201 9.5553551 0.021695111 10.170503
43846581250 -0.63804215 158.33083 -65.891579 2.7472224 -66.010864 6.829052 0.031382829 10.183151
43888450000 -0.64711171 158.27361 -65.848152 20.201525 -67.069496 12.418936 0.022560975 10.233245
43930318750 -0.63339192 158.23094 -66.670174 5.3928843 -66.65181 7.3957291 0.020162815 10.241366
43972187500 -0.65632135 158.21376 -65.993393 7.0889497 -67.859978 10.410816 0.020552382 10.263644
44014056250 -0.65000308 158.19968 -66.440735 11.791963 -65.363815 19.570656 0.020112829 10.299991
44055925000 -0.63457066 158.18668 -66.440811 22.115063 -66.231972 11.788684 0.018337164 10.276628
44097793750 -0.64798194 158.23239 -66.584671 9.5577221 -66.737839 15.4618 0.018479966 10.311665
44139662500 -0.63513243 158.10429 -66.583359 11.335701 -67.084663 11.724561 0.019510886 10.305769
44181531250 -0.65470296 158.13136 -67.426682 17.464085 -65.612534 11.487152 0.017766941 10.343455
44223400000 -0.61618775 158.07033 -65.528084 17.748343 -65.634071 9.8036461 0.016891871 10.354471
44265268750 -0.65457028 158.18767 -65.841736 10.46676 -66.211418 19.155388 0.017555539 10.375484
44307137500 -0.64201456 158.1792 -65.566948 18.358147 -66.137054 14.206029 0.016580371 10.428103
44349006250 -0.64734578 157.98541 -65.537521 16.634132 -65.515366 11.691936 0.017362688 10.414068
44390875000 -0.64322382 158.10265 -66.639725 15.616014 -65.610046 19.401764 0.015883025 10.456474
44432743750 -0.61708045 158.1411 -67.33329 13.280659 -64.786583 4.4214616 0.017789112 10.437986
44474612500 -0.64292604 158.12624 -65.719597 17.83263 -66.708 7.5852246 0.015394508 10.490379
44516481250 -0.60972738 158.07225 -65.609619 20.488022 -66.045692 14.049021 0.017638039 10.478765
44558350000 -0.63247049 157.92203 -65.102921 16.19891 -64.898659 16.08893 0.019651072 10.494987
44600218750 -0.61499107 158.08243 -66.223572 12.910895 -65.654648 10.555079 0.020967158 10.514403
44642087500 -0.61951381 157.84937 -65.604019 11.774439 -64.869125 19.399343 0.017609164 10.529414
44683956250 -0.62262672 158.01042 -64.032867 21.003004 -65.334549 16.750381 0.020878538 10.552117
44725825000 -0.60133296 157.81343 -64.442024 9.7825432 -65.482994 11.555805 0.021000648 10.524302
44767693750 -0.62372243 157.83801 -64.801872 9.7831879 -64.798851 11.573696 0.019644888 10.539984
44809562500 -0.59707683 157.84731 -65.537582 11.653246 -64.87899 10.93966 0.019488724 10.538243
44851431250 -0.62177026 157.78012 -64.295891 10.593344 -64.409973 12.608511 0.018956281 10.546946
44893300000 -0.60958707 157.8374 -64.177887 10.316989 -66.179291 13.3709 0.021777533 10.546002
44935168750 -0.60046136 157.64536 -65.108612 15.904565 -63.606682 14.084045 0.020225169 10.576515
44977037500 -0.62669629 157.717 -64.279732 15.128309 -64.585373 13.111172 0.022632563 10.619963
45018906250 -0.59317672 157.69696 -63.862335 11.781365 -64.160263 7.4931359 0.021286586 10.602042
45060775000 -0.6121152 157.61244 -64.425697 12.104373 -64.541176 7.9337659 0.022294693 10.619785
45102643750 -0.6001873 157.61584 -65.01165 4.348587 -63.504971 13.398045 0.019751055 10.61904
45144512500 -0.61489207 157.57764 -64.216034 14.967214 -65.311028 3.9910307 0.019831453 10.633013
45186381250 -0.60985786 157.62082 -63.263649 2.1838973 -64.479813 4.2824721 0.021890344 10.649661
45228250000 -0.6052044 157.39047 -64.532303 3.762548 -64.998489 2.1886532 0.016187871 10.609619
45270118750 -0.61599416 157.46307 -64.0513 5.4446039 -65.594879 7.8811984 0.018815557 10.62236
45311987500 -0.59322482 157.45723 -65.246132 9.6507587 -65.080727 8.5215664 0.018183015 10.588733
45353856250 -0.60874599 157.39624 -64.180199 5.5101504 -64.737518 1.3438624 0.023129024 10.632304
45395725000 -0.60691154 157.38652 -64.5672 1.5108575 -63.691242 4.8631454 0.020407071 10.662858
45437593750 -0.61886781 157.24734 -64.843651 5.7449646 -65.960533 0.67766047 0.019910816 10.684609
45479462500 -0.61948067 157.41652 -65.114861 5.7011652 -64.657486 -0.19341776 0.018516568 10.650632
45521331250 -0.61379856 157.18571 -65.132973 6.8309941 -64.075104 2.5199995 0.015157709 10.640047
45563200000 -0.62838888 157.26643 -64.791618 -0.54249418 -64.670555 5.958034 0.017386924 10.649601
45605068750 -0.60757875 157.16177 -64.658195 1.0091897 -65.104294 -0.5307638 0.010829601 10.661195
45646937500 -0.63675791 157.10696 -64.97995 2.5007236 -64.638664 -2.7434342 0.012928898 10.668013
45688806250 -0.62755221 157.08609 -65.718712 10.850297 -66.586662 -3.3870151 0.0092092576 10.643324
45730675000 -0.62058365 157.03516 -63.911804 2.0199614 -65.664948 0.86424285 0.011770435 10.688353
45772543750 -0.64377737 157.10225 -65.185303 -0.99370503 -64.725014 -0.39243531 0.013923463 10.685786
45814412500 -0.64465141 157.00706 -65.663086 2.0691061 -64.799065 8.9857779 0.006059817 10.728197
45856281250 -0.65325254 157.10538 -64.089493 12.397056 -66.547989 -4.0892615 0.0066605266 10.736202
45898150000 -0.63370883 157.15973 -65.065407 -0.089855663 -63.973644 8.3956976 0.0047800601 10.722397
45940018750 -0.66318351 156.92244 -65.836739 2.9291101 -66.039757 5.4092236 0.003991852 10.750759
45981887500 -0.64573348 156.98619 -65.975594 -2.8944004 -65.293709 -4.5344272 0.0063493261 10.724956
46023756250 -0.64777577 156.9568 -65.081779 -1.7338561 -64.478386 -2.2755358 0.0030203597 10.758298
46065625000 -0.66595876 157.00462 -64.785995 -0.03971586 -64.922333 6.1558247 0.006791824 10.777422
46107493750 -0.64074624 157.01199 -66.324173 -5.6862087 -67.153488 9.017705 -0.00052189251 10.80399
46149362500 -0.65622741 156.97954 -65.105621 5.2442265 -64.838112 2.6243529 0.0041852971 10.833291
46191231250 -0.65036684 157.01901 -66.599892 -0.58549023 -65.671555 8.2904053 -0.003627362 10.829246
46233100000 -0.64703572 156.92815 -66.116035 4.608458 -65.368553 2.3934939 0.00092661881 10.840374
46274968750 -0.64996278 157.05139 -63.960598 -3.6222782 -64.738441 2.3741617 0.0031983277 10.843024
46316837500 -0.65112042 156.96216 -63.786972 1.8544376 -65.644844 -0.3475678 0.0011735113 10.899615
46358706250 -0.65233076 156.95599 -65.464615 9.9231091 -64.596855 -4.9120374 0.0058038961 10.902339
46400575000 -0.63953102 156.87939 -64.338188 -3.4065595 -64.710464 4.4863153 9.8366572e-006 10.928005
46442443750 -0.65507048 156.90663 -66.007828 -3.1351345 -65.175278 3.5891569 0.0073877806 10.925171
46484312500 -0.63865954 156.88562 -64.61792 0.51936203 -64.312943 1.821914 -0.0013338499 10.919899
46526181250 -0.64325356 156.75061 -64.158791 -7.0204024 -65.938957 0.35993218 0.0030726127 10.944824
46568050000 -0.64343518 156.89156 -64.998863 7.6041989 -64.703285 4.7972012 0.0032924823 10.928123
46609918750 -0.6381585 156.79112 -65.458107 1.7736313 -64.886391 5.9589472 0.0030084604 10.96262
46651787500 -0.65553045 156.823 -64.813309 4.4126225 -65.243103 5.3554764 0.0064108442 10.941422
46693656250 -0.63064575 156.71259 -64.595512 -1.4851972 -66.414413 4.9517579 0.0033167966 10.965939
46735525000 -0.65122807 156.71269 -64.837524 -1.2295722 -64.82843 0.0064906152 0.0096003236 11.001513
46777393750 -0.63195217 156.81187 -64.101303 -6.8353138 -63.960999 -0.65529662 0.004987949 10.98203
46819262500 -0.64684618 156.65369 -64.632668 -12.788501 -65.700714 1.8869839 0.0064537516 11.050467
46861131250 -0.63715893 156.6647 -64.898643 -0.96909529 -64.460907 1.6614075 0.0030591616 11.004415
46903000000 -0.63965368 156.53307 -65.006233 -6.4315014 -64.847527 -5.157877 0.004696798 11.041003
46944868750 -0.65373337 156.612 -65.396706 -10.023772 -65.052185 -4.5891681 0.0062066419 11.034028
46986737500 -0.63732684 156.47734 -65.033257 -10.038709 -67.004997 -4.6877761 0.0029913874 11.04801
47028606250 -0.649611 156.57632 -65.433807 -7.7539449 -65.065392 -7.5887904 0.0090919826 11.064533
47070475000 -0.63819748 156.48465 -64.246017 -6.4464016 -65.349777 -9.143878 0.0040130592 11.059965
47112343750 -0.65416396 156.39012 -65.778206 -12.912951 -65.869347 -7.3355756 0.0057066935 11.092041
47154212500 -0.65071988 156.51007 -64.241531 -4.0436268 -65.560974 -8.7637987 0.0054238639 11.057854
47196081250 -0.64969939 156.38771 -65.099144 -10.664233 -65.852814 -13.803336 0.0042411564 11.111086
47237950000 -0.65448147 156.3703 -65.457184 -10.968387 -65.139381 -11.425545 0.0064149802 11.07885
47279818750 -0.65035635 156.3461 -64.325188 -11.835696 -66.119713 -14.673647 0.0020558946 11.127113
47321687500 -0.66062033 156.37021 -66.262329 -26.121637 -66.193764 -16.079901 0.0084347716 11.138597
47363556250 -0.65140164 156.30925 -66.930344 -5.2440391 -65.899963 -14.586246 0.0023358392 11.139795
47405425000 -0.66611177 156.2282 -65.23423 -0.23129027 -65.399353 -12.097892 0.0073262765 11.1739
47447293750 -0.6577816 156.29213 -65.613457 -14.791247 -65.910561 -24.886902 0.0025169398 11.160667
47489162500 -0.66901457 156.19273 -67.887672 -17.623087 -66.82933 -11.774456 0.0076374072 11.205459
47531031250 -0.67797971 156.27809 -68.904694 -15.373395 -66.354362 -10.638158 0.0069479281 11.190437
47572900000 -0.67419344 156.17406 -67.278343 -10.530112 -67.195351 -11.696018 0.0040859892 11.241529
47614768750 -0.67763019 156.24626 -66.931213 -5.7041974 -65.978485 -4.8742065 0.0091555286 11.223963
47656637500 -0.6865055 156.15779 -67.260056 -15.980127 -66.963516 -15.334951 0.0046869721 11.245803
47698506250 -0.69520336 156.13158 -67.733253 -12.86409 -68.218468 -17.964836 0.009861703 11.258282
47740375000 -0.67741269 156.16771 -67.512863 -21.241768 -69.109665 -7.1732678 0.0089623053 11.243821
47782243750 -0.68562269 156.10696 -67.851501 -18.163935 -67.736176 -11.772226 0.011004667 11.2912
47824112500 -0.68689632 156.20992 -67.630852 -14.638283 -68.920609 -0.041568093 0.011268544 11.246957
47865981250 -0.69719338 156.17096 -68.309517 -0.70335776 -67.811386 -6.0908604 0.01346724 11.320931
47907850000 -0.69439381 156.18716 -67.759171 -1.8904743 -68.020836 0.59464121 0.013668521 11.298426
47949718750 -0.7011953 156.11047 -68.526878 -1.4385986 -67.360252 -14.23626 0.012676994 11.311466
47991587500 -0.7051267 156.15671 -68.928535 0.59338117 -69.641464 3.1529205 0.017185815 11.323256
48033456250 -0.69730216 156.09169 -68.078354 -14.155364 -68.177917 -8.6227865 0.014024095 11.328644
48075325000 -0.69993424 156.06529 -68.188324 8.4393063 -68.064781 8.7581568 0.016625756 11.342182
48117193750 -0.69314921 156.13232 -68.737389 3.5532308 -67.446533 6.4121881 0.014729993 11.343373
48159062500 -0.70805442 156.114 -67.57682 -4.0203571 -68.067123 -1.5665069 0.016771194 11.376184
48200931250 -0.70118922 156.18364 -69.132034 -4.1674314 -68.867783 13.255436 0.019182049 11.3873
48242800000 -0.70191848 156.12111 -68.581139 3.123421 -69.974548 1.9978455 0.012703837 11.388721
48284668750 -0.71744382 156.14374 -68.855774 2.4767773 -69.021736 8.2904243 0.019070197 11.391834
48326537500 -0.69705141 156.08369 -67.445625 14.772948 -67.048958 6.7748117 0.016485989 11.410007
48368406250 -0.7170893 156.10249 -68.746582 13.051335 -68.017761 13.636566 0.016874852 11.422045
48410275000 -0.69280791 156.13889 -67.028847 2.8743756 -67.648918 9.2634258 0.017177049 11.416258
48452143750 -0.70812696 156.03394 -67.64669 13.546478 -66.40152 13.121297 0.014740829 11.437348
48494012500 -0.70339507 156.09561 -67.818695 20.968199 -67.109505 9.8012552 0.021710051 11.434918
48535881250 -0.70091391 156.04341 -67.565254 18.366869 -67.273911 5.8881269 0.015396056 11.455556
48577750000 -0.70033264 156.08403 -68.221962 8.5065784 -66.106148 9.3679104 0.017956166 11.456777
48619618750 -0.68718833 155.96204 -65.717262 13.900329 -66.828308 8.8245964 0.016971804 11.462038
48661487500 -0.69648707 156.14331 -66.206177 16.9786 -65.899048 15.186222 0.021401986 11.460629
48703356250 -0.67034948 155.98682 -66.123352 8.1616821 -66.326981 6.9249196 0.016242027 11.479417
48745225000 -0.69998443 156.00189 -64.872993 11.791965 -66.381264 7.9561911 0.019270703 11.500015
48787093750 -0.6670329 155.99812 -65.458 8.1637239 -65.013268 14.335949 0.019987088 11.502206
48828962500 -0.69748974 155.94731 -66.046135 18.60951 -66.233215 0.35061273 0.019411413 11.511556
48870831250 -0.69777334 156.06793 -64.858009 10.018059 -65.252357 17.571033 0.022061875 11.527059
48912700000 -0.67925048 155.93327 -65.808769 13.138614 -65.605904 6.9504848 0.019665502 11.543789
48954568750 -0.69249094 156.00809 -67.020973 6.1417074 -66.30204 3.876718 0.019501608 11.563314
48996437500 -0.67041838 155.89059 -66.532562 5.8174701 -65.577744 9.1508083 0.015758708 11.558499
49038306250 -0.69882488 155.91664 -65.031616 4.3782282 -64.684174 5.4174418 0.021168092 11.584549
49080175000 -0.66735977 155.91379 -65.430725 9.2066107 -66.26989 2.9109988 0.016543753 11.59798
49122043750 -0.6917153 155.8607 -65.712898 1.5981935 -65.801353 12.205314 0.017971633 11.617266
49163912500 -0.66315967 155.89125 -64.615822 2.7389007 -64.539589 -0.75969911 0.018983601 11.616341
49205781250 -0.66519815 155.77153 -65.005692 4.2015576 -65.653893 4.607892 0.012153009 11.637436
49247650000 -0.6770941 155.9514 -65.068855 4.9239779 -65.108292 -2.6519909 0.023642417 11.625037
49289518750 -0.65361571 155.81573 -65.313049 -2.7611654 -65.211884 1.0330001 0.016803168 11.615542
49331387500 -0.67186159 155.87558 -65.502945 -4.1050787 -65.421829 -10.57802 0.020116437 11.657888
49373256250 -0.6562587 155.74507 -65.243576 -7.0866413 -64.211052 -4.8283687 0.019204728 11.637586
49415125000 -0.66311985 155.75214 -64.804893 -8.1426287 -66.23188 -1.4257034 0.017346187 11.655699
49456993750 -0.6609621 155.85722 -63.638634 -4.4703989 -65.416199 -4.598362 0.021049079 11.63244
49498862500 -0.65728223 155.63734 -65.616394 -3.2675328 -66.521309 -7.5382776 0.020598756 11.702372
49540731250 -0.64326042 155.73888 -67.434677 2.363277 -67.888382 -1.4257956 0.021218065 11.670829
49582600000 -0.63998604 155.62201 -66.632751 -12.075356 -64.766663 -3.1580119 0.016683003 11.70088
49624468750 -0.64696723 155.65764 -67.3041 -8.0519009 -65.01342 -12.634801 0.021556538 11.698157
49666337500 -0.62412739 155.60112 -65.941055 -4.6071258 -66.139587 -11.7925 0.016201796 11.686078
49708206250 -0.64249325 155.52248 -65.322388 -10.228976 -65.991089 -7.4209313 0.018861949 11.734778
49750075000 -0.63085949 155.50319 -64.28833 1.1661974 -66.06665 -1.6240884 0.014204192 11.691071
49791943750 -0.63418299 155.39755 -65.185394 -1.1749754 -65.980583 -5.1346402 0.012391521 11.731876
49833812500 -0.63639909 155.51436 -68.384911 5.4147296 -66.084427 -3.689039 0.016308565 11.709485
49875681250 -0.63200396 155.32439 -65.852089 3.6686747 -66.249603 -8.1533127 0.012397716 11.731049
49917550000 -0.64696181 155.34848 -65.208473 0.49574134 -66.830757 -3.4871483 0.016823281 11.749842
49959418750 -0.62874669 155.2771 -67.143044 -2.6008675 -66.083031 -5.3010359 0.010026478 11.753684
50001287500 -0.64486074 155.2001 -65.807182 -3.8673365 -65.656265 -2.0795925 0.013966297 11.760706
50043156250 -0.62450576 155.25906 -65.115257 -0.53394049 -65.874214 -0.20053886 0.011111046 11.715993
50085025000 -0.62983978 155.08875 -64.663239 -6.4495282 -64.967735 -3.9124994 0.0095512485 11.783979
50126893750 -0.6289463 155.32103 -65.531418 1.7873925 -65.632904 2.636523 0.0098529216 11.757973
50168762500 -0.64129019 155.11873 -66.610313 -4.0023985 -66.170578 0.6087417 0.0077082096 11.79885
50210631250 -0.63457698 155.23781 -65.342262 4.3271785 -66.470169 -19.62483 0.011292813 11.778377
50252500000 -0.64556229 155.1284 -66.27137 6.0012388 -65.449005 -11.831736 0.0048297062 11.809363
50294368750 -0.64798915 155.11288 -66.070267 -4.1034122 -65.597282 -14.565454 0.0093890391 11.836857
50336237500 -0.6336633 155.01895 -65.877342 -16.283957 -66.115952 -7.3443189 0.0062531698 11.827759
50378106250 -0.64503402 154.95114 -66.601898 -10.334198 -66.095451 -11.414157 0.004444934 11.848447
50419975000 -0.64680707 154.94615 -66.999115 -7.8459501 -66.149971 -11.777994 0.0088987565 11.816695
50461843750 -0.64278406 154.85326 -66.317703 -16.95376 -65.485611 -10.13981 0.0011429739 11.85204
50503712500 -0.6465379 154.96078 -65.983871 -10.080737 -67.043427 -16.840302 0.0086466195 11.862981
50545581250 -0.63972777 154.80937 -65.150208 -10.645784 -67.061142 -18.515198 0.0011610893 11.833849
50587450000 -0.65043902 154.76541 -66.903038 -10.552118 -66.414032 -11.620722 0.011236012 11.867661
50629318750 -0.6387648 154.86064 -67.143501 -15.767372 -65.867165 -20.092789 0.0022059595 11.83706
50671187500 -0.65343964 154.75003 -66.710114 -11.859378 -69.116165 -23.24984 0.0091017988 11.89157
50713056250 -0.66077316 154.97 -67.425072 -16.152496 -67.183792 -1.4230845 0.0086171674 11.86377
50754925000 -0.66096151 154.76541 -69.229538 -5.5336628 -66.408806 -17.519638 0.0056782565 11.913461
50796793750 -0.66970068 154.89725 -68.217964 -4.6757178 -67.096138 -20.206631 0.0095150871 11.904181
50838662500 -0.67266029 154.69611 -66.534607 -13.019406 -66.140038 -11.266122 -0.00025394876 11.908791
50880531250 -0.67403078 154.78151 -65.160568 3.5486197 -67.222076 -0.58690304 0.010898801 11.902995
50922400000 -0.66650951 154.82527 -66.793594 1.0190104 -67.434608 -4.7254782 0.0037275325 11.88289
50964268750 -0.67817575 154.79347 -66.512321 -2.5044374 -67.198479 -8.3176508 0.0066915425 11.93465
51006137500 -0.67381859 154.75208 -65.65892 -15.387641 -66.969292 -7.4611979 0.0022188961 11.892755
51048006250 -0.66824973 154.73135 -67.255943 -7.3454552 -67.748627 -11.46923 0.00074389903 11.941374
51089875000 -0.66801393 154.85617 -67.841499 6.8314424 -66.329399 -3.0292349 0.0056679156 11.904692
51131743750 -0.67437124 154.7762 -66.610085 -7.3407927 -68.185318 -11.860829 0.0038661601 11.924659
51173612500 -0.68411034 154.7621 -67.747772 -14.289792 -68.503296 -6.5625758 0.0035775201 11.937608
51215481250 -0.67231035 154.82283 -68.094505 -0.94999588 -69.736656 -6.0681624 0.00049801747 11.921689
51257350000 -0.6697312 154.70227 -67.145576 -14.474593 -66.702988 1.6886202 0.0026964806 11.955124
51299218750 -0.67228192 154.75179 -69.461456 -0.71122515 -67.961334 5.3112235 0.0036463195 11.951835
51341087500 -0.65340388 154.66788 -68.923553 -11.111472 -68.677834 -9.0247202 -0.0013105455 12.004343
51382956250 -0.67734671 154.6658 -67.466232 -4.1077824 -66.927475 -13.274462 0.0022639143 11.992408
51424825000 -0.65485829 154.70131 -68.289902 -8.3734417 -67.377502 -8.1369009 -0.0049042762 11.997469
51466693750 -0.65654689 154.59282 -67.139915 -3.7079 -67.469025 4.6324668 0.0014447144 11.999561
51508562500 -0.65383595 154.65411 -66.760399 5.5310616 -67.969238 -23.651411 -0.00080538716 11.99464
51550431250 -0.6495443 154.49574 -67.422203 -15.285686 -65.575081 -7.5106282 0.0018090523 12.045364
51592300000 -0.65601575 154.69478 -68.580986 -15.287466 -66.711212 -6.4144096 0.0012594286 12.019494
51634168750 -0.64676142 154.51048 -67.072968 -10.973832 -68.310867 0.46575114 -4.4006169e-006 12.060724
51676037500 -0.66621679 154.44849 -67.590942 -15.14273 -68.57254 -27.16839 0.0021298928 12.037059
51717906250 -0.64110863 154.50406 -67.263344 -6.7789788 -71.448502 -0.95922476 -0.0037221848 12.043091
51759775000 -0.66134822 154.31653 -67.851646 -14.457426 -66.876335 -7.9474988 0.0016574211 12.067893
51801643750 -0.63366091 154.49832 -67.427055 -4.612154 -66.551529 -10.641767 -0.0038623502 12.066407
51843512500 -0.64702338 154.25839 -67.792664 -9.743247 -69.555328 -16.440439 -0.0015384167 12.108592
51885381250 -0.6517809 154.40593 -68.476204 -12.132698 -70.597908 -4.6901655 -0.0060890224 12.091934
51927250000 -0.63784486 154.29793 -72.494072 15.516366 -68.117455 -15.219905 -0.0040981285 12.140591
51969118750 -0.65862739 154.30417 -68.493645 15.760194 -69.045181 3.3901861 -0.001026241 12.134116
52010987500 -0.64030224 154.20068 -67.497231 -2.8742251 -69.748566 -5.7537422 -0.0054822238 12.193579
52052856250 -0.65318453 154.21074 -69.507133 4.3979502 -68.441086 5.8239131 -0.00045561694 12.183725
52094725000 -0.64589447 154.20236 -67.65554 7.1354108 -68.53022 13.246387 -0.0069375415 12.206828
52136593750 -0.64229637 154.02872 -68.392296 10.629091 -70.26432 -8.8178644 -0.0021286071 12.19805
52178462500 -0.64423674 154.07849 -68.027489 -3.1026838 -66.319359 1.9637632 -0.0061190925 12.227045
52220331250 -0.62647498 154.01332 -66.782135 1.9896243 -68.161995 -3.7869456 9.5259318e-005 12.22892
52262200000 -0.63663709 153.95581 -67.755432 27.746408 -68.018814 22.086555 -0.0030602817 12.241329
52304068750 -0.61649507 153.96979 -67.268585 13.361761 -67.762566 0.91057414 -0.0030659807 12.248572
52345937500 -0.64507097 153.90309 -67.862198 14.661416 -67.468338 10.881394 0.0022478735 12.284642
52387806250 -0.63159442 153.94489 -68.319878 15.211497 -68.518471 29.330746 0.00065124215 12.312989
52429675000 -0.6396423 153.63994 -67.893478 15.279311 -67.398941 9.6806021 -0.0020229418 12.325571
52471543750 -0.63775551 153.90323 -66.641472 9.8364162 -67.905067 6.0913105 -0.0019095099 12.321653
52513412500 -0.640661 153.55075 -68.061981 15.884778 -67.735916 21.730968 -0.00054053264 12.343108
52555281250 -0.66479808 153.63307 -66.958885 23.034977 -65.886116 18.455908 -0.0028123853 12.350368
52597150000 -0.64008296 153.53163 -65.907791 16.331053 -66.212074 12.427509 -0.0049607717 12.34581
52639018750 -0.65478396 153.48778 -66.028534 1.1664745 -66.385979 10.241674 -0.0017393676 12.346359
52680887500 -0.65238339 153.47499 -66.065376 5.0042143 -65.626259 11.685159 -0.0052948361 12.394908
52722756250 -0.6603756 153.35271 -64.68882 3.627187 -67.083519 10.400068 -0.0027686101 12.414671
52764625000 -0.67325479 153.43758 -65.495461 11.579725 -66.142105 6.1341901 -0.0044606305 12.424337
52806493750 -0.64953136 153.31075 -65.427246 16.088879 -66.294174 10.56658 -0.0023785362 12.450969
52848362500 -0.68363678 153.37709 -65.870323 6.1649852 -65.564857 6.8172669 -0.0072344202 12.444626
52890231250 -0.6710189 153.24998 -66.423599 16.119036 -65.08754 7.0367613 -0.0029592565 12.49772
52932100000 -0.68409944 153.26222 -65.359512 2.6935554 -66.324951 2.6122892 -0.0058114035 12.476245
52973968750 -0.69127607 153.34103 -66.67585 0.097805291 -68.274612 -2.4981925 -0.0056973542 12.514971
53015837500 -0.69644451 153.19717 -65.088356 -0.19170968 -64.380356 2.4838288 -0.0036496427 12.541598
53057706250 -0.6931532 153.37233 -64.478539 3.9750302 -64.03775 6.5871053 -0.0082543325 12.518664
53099575000 -0.69876498 153.17836 -64.733032 -11.204358 -64.79068 -2.3434789 -0.0030540647 12.570519
53141443750 -0.70940477 153.35773 -64.738708 0.92917907 -64.660339 -6.2055712 -0.0099669127 12.521224
53183312500 -0.70384711 153.2272 -65.285393 5.3376837 -66.514816 -8.7821007 -0.0061859726 12.5986
53225181250 -0.71579278 153.21648 -64.752815 3.5149906 -65.431168 4.7045927 -0.0098013841 12.575822
53267050000 -0.70495796 153.26231 -65.079918 -14.4133 -64.047356 1.4101362 -0.0098696183 12.616654
53308918750 -0.71497142 153.19185 -65.787804 -1.2806166 -64.696777 -6.1682987 -0.0082496637 12.597946
53350787500 -0.70516473 153.26196 -65.822258 -11.031211 -66.583389 1.1685812 -0.014008758 12.633554
53392656250 -0.70412594 153.17926 -66.566803 -4.8388228 -65.20108 4.298389 -0.011039371 12.641487
53434525000 -0.7076757 153.23444 -66.273018 -3.2472701 -65.507263 -2.5551577 -0.011598409 12.670298
53476393750 -0.70261657 153.16374 -65.583084 4.5015817 -65.610649 7.4313774 -0.011361185 12.672844
53518262500 -0.71137267 153.16591 -67.038765 -8.7374249 -66.246536 -8.9765158 -0.0087069254 12.682377
53560131250 -0.7132023 153.05511 -67.176964 -0.53508699 -68.297028 -11.779195 -0.011913257 12.716831
53602000000 -0.72666717 153.02415 -66.863167 -6.9753122 -64.498665 -0.64679146 -0.0089873234 12.73649
53643868750 -0.71213597 153.15543 -66.004158 -2.8270743 -65.513016 2.6795216 -0.01354886 12.81685
53685737500 -0.71660143 153.06604 -65.993576 4.3565731 -65.928688 1.2571073 -0.010143864 12.791282
53727606250 -0.7208783 153.11682 -65.925552 0.88243771 -66.988121 0.79751766 -0.010316152 12.827769
53769475000 -0.71459514 153.02299 -65.964493 -2.3752141 -66.256538 -16.882624 -0.0098400414 12.814849
53811343750 -0.73051625 153.02095 -66.426575 0.73985529 -67.224648 -7.4942493 -0.014244309 12.822263
53853212500 -0.73190272 153.08664 -65.686981 -6.8108826 -66.808365 -1.6014458 -0.011241799 12.843984
53895081250 -0.73863226 153.03598 -67.825348 -11.044522 -65.817505 3.8855031 -0.0059480071 12.805039
53936950000 -0.71556079 153.05695 -66.447899 8.4102507 -65.669846 -1.9561346 -0.012617789 12.81873
53978818750 -0.75105911 153.09718 -66.036758 -0.20585568 -67.084557 1.8493702 -0.0021703041 12.826169
54020687500 -0.71813059 153.09525 -67.240662 -1.8481634 -66.093941 -5.9439111 -0.010545794 12.826777
54062556250 -0.7458874 153.05576 -66.266548 -11.96961 -67.248322 -3.7839344 -0.0015135574 12.879264
54104425000 -0.74021685 153.09459 -65.088097 7.4824901 -67.084244 -5.274086 -0.0073697721 12.905684
54146293750 -0.73978984 152.97704 -66.936226 -8.2533875 -65.56897 7.2962132 -0.0038025009 12.922194
54188162500 -0.72986883 153.09926 -66.4963 9.4083004 -67.401733 8.0418653 -0.0041136746 12.855795
54230031250 -0.72421795 153.06273 -66.299522 5.7591248 -67.016472 -10.399955 -0.0038545777 12.901914
54271900000 -0.74698019 153.02866 -64.560013 0.65296787 -67.386681 7.3743153 -0.0013783877 12.912024
54313768750 -0.71717358 152.95102 -66.469925 -11.782993 -66.514641 -8.2386265 -0.0053604078 12.897081
54355637500 -0.72900325 153.03886 -67.269478 -14.463397 -65.961647 -1.6200852 -0.00052474026 12.920607
54397506250 -0.72543901 153.09233 -66.991341 -0.48509556 -66.700958 1.3165883 -0.0045007952 12.887803
54439375000 -0.72076797 152.94614 -65.738968 -11.590383 -65.853241 -8.0115032 3.5204775e-005 12.91655
54481243750 -0.71655107 153.16754 -65.518547 -0.25815412 -66.017242 1.6831597 -0.0023971845 12.873522
54523112500 -0.72131014 153.05205 -66.396507 13.959913 -65.231262 -11.362052 -0.0066546835 12.884232
54564981250 -0.74119157 153.09976 -65.15802 2.4011197 -65.444511 -8.0812254 -0.00020942253 12.89258
54606850000 -0.70272821 153.05696 -68.007996 6.6417699 -65.715874 2.9987588 -0.00034818024 12.889215
54648718750 -0.73827726 153.10434 -66.263466 -4.6114674 -66.428177 0.85786533 0.0012149174 12.921176
54690587500 -0.70268929 152.96658 -66.351143 -8.2602243 -66.655441 10.249704 -0.0024642665 12.911645
54732456250 -0.72742307 152.83638 -66.597366 -3.8964365 -65.438499 -12.503523 -0.0025673525 12.966563
54774325000 -0.70818305 152.91327 -67.966362 -4.512104 -65.138214 8.3809299 -0.0032278851 12.914018
54816193750 -0.70820314 152.81859 -67.092491 -2.6818948 -65.043365 3.9440236 -0.0020560913 12.965274
54858062500 -0.71263772 152.9046 -64.562698 -4.4424367 -65.823341 -2.5119181 -0.0016668584 12.956236
54899931250 -0.67921537 152.8714 -65.628136 -6.6846066 -65.990753 -5.7771149 -0.006412026 12.943547
54941800000 -0.71857804 152.73807 -65.171265 -12.538079 -67.363808 -20.440672 0.002472959 12.967859
54983668750 -0.69315559 152.82715 -65.871208 -8.6412802 -66.749229 -4.5962877 -0.0044196886 12.937322
55025537500 -0.70955139 152.68362 -65.162819 -8.939312 -66.744156 -9.1781569 -0.00071399368 12.96906
55067406250 -0.7093417 152.90753 -66.342361 -5.8850684 -66.85955 -3.8009956 0.00087485759 12.963547
55109275000 -0.71056741 152.67606 -66.956276 -6.5681167 -65.668892 -6.3038807 0.00058343052 12.971779
55151143750 -0.72600776 152.88353 -65.914299 -2.383146 -67.216789 6.8580379 0.0033633555 12.984749
55193012500 -0.69627619 152.7216 -68.563751 5.2812009 -65.236717 -1.9340553 -0.00089730037 13.009569
55234881250 -0.72121358 152.65581 -66.053001 -3.1780815 -65.436852 1.1644406 0.0051663537 13.025465
55276750000 -0.69794476 152.82738 -64.083954 5.9417419 -67.370026 9.4967499 0.0028532494 13.0141
55318618750 -0.71817672 152.55075 -66.363014 -3.2190144 -66.263847 -1.1466093 0.0072130854 13.039953
55360487500 -0.70221883 152.77383 -66.179047 10.277287 -67.74514 8.9084244 0.0040937481 13.052043
55402356250 -0.70462918 152.45355 -66.246391 -7.5753255 -67.197807 -3.5737212 0.00035358794 13.093007
55444225000 -0.72028029 152.63544 -65.233177 9.6925249 -67.201134 -4.2776465 0.0054057664 13.060719
55486093750 -0.68382096 152.54489 -66.841248 -1.1823556 -65.67617 -7.6896439 0.002973797 13.093837
55527962500 -0.71816266 152.44278 -67.240654 2.7715764 -66.337341 2.6319931 0.0052604657 13.083324
55569831250 -0.68394917 152.53418 -65.130928 -9.9296141 -64.957199 4.2088571 0.0034714737 13.067192
55611700000 -0.70021796 152.34459 -65.246132 -2.8112626 -65.904129 -12.278082 0.0071619162 13.09732
55653568750 -0.68663496 152.54396 -64.874023 -3.9636881 -66.703377 -2.4095666 0.0058912728 13.077856
55695437500 -0.69254625 152.28053 -65.02951 4.3167658 -65.221313 -2.3261909 0.0071417582 13.12189
55737306250 -0.70254534 152.4751 -64.86248 -4.0291004 -64.893394 -10.653391 0.0067153205 13.099656
55779175000 -0.68844694 152.25635 -65.664619 -2.3170941 -66.921951 -0.48981908 0.0042183991 13.129022
55821043750 -0.70297354 152.19099 -68.013084 1.1515944 -66.343056 -13.878002 0.0086337021 13.132789
55862912500 -0.68442613 152.2914 -63.930191 -13.232547 -64.833313 -0.45153409 0.0038640909 13.129862
55904781250 -0.71067137 152.09267 -66.803352 6.4668012 -65.383987 4.5391474 0.0073955334 13.156605
55946650000 -0.70859408 152.20193 -64.59655 1.5159936 -66.096947 -8.15905 0.0042483974 13.160037
55988518750 -0.69912899 151.91754 -65.765846 1.3746018 -65.522873 -9.9869728 0.0062485174 13.183297
56030387500 -0.72825164 152.15565 -65.418976 -5.2695689 -64.015114 -6.0747547 0.0064656413 13.171316
56072256250 -0.69137383 152.01288 -66.310478 -5.233243 -65.716888 -7.4976063 0.00038723683 13.202417
56114125000 -0.71725816 152.03935 -65.947952 4.625649 -65.078056 -3.5831053 0.0066548404 13.194875
56155993750 -0.70891041 152.02267 -63.826038 -3.163588 -66.570122 -6.7234387 0.004732999 13.202761
56197862500 -0.72132236 151.90053 -68.462799 11.007037 -65.783646 6.4604917 0.006739099 13.247302
56239731250 -0.72487003 152.08476 -65.695282 -8.2440634 -67.850777 4.1558361 0.003704255 13.203188
56281600000 -0.71468091 151.78827 -66.562866 5.0146627 -68.346001 2.579227 -0.0013967726 13.277005
56323468750 -0.74796319 151.96616 -64.848923 -9.5371208 -65.307259 -0.21493949 0.0050008772 13.263692
56365337500 -0.71471906 151.88664 -65.898933 8.6796227 -65.32811 -6.1558337 0.003926679 13.278186
56407206250 -0.74280959 151.92163 -69.011559 5.9834867 -67.481178 -12.816013 0.0047459281 13.283109
56449075000 -0.73008448 152.03471 -66.509933 17.487198 -64.095741 -6.288507 0.0004006963 13.292193
56490943750 -0.72367972 151.82365 -65.840332 -4.5947561 -64.049118 -0.36978972 0.0015021617 13.304279
56532812500 -0.73804563 151.93733 -67.787956 21.40357 -65.858391 -19.684422 0.0015125126 13.278876
56574681250 -0.72980607 151.87321 -65.102577 16.285992 -68.686127 7.6297374 0.0055029751 13.336166
56616550000 -0.73977607 151.92349 -64.345268 1.3905888 -63.639317 18.955273 0.00082309579 13.360336
56658418750 -0.72491652 151.94688 -65.083046 -7.4301214 -67.693748 -4.2184663 -0.00026792803 13.410993
56700287500 -0.74371946 151.80893 -62.1534 5.0672379 -65.366905 4.781168 0.0010265162 13.343185
56742156250 -0.74184805 151.96074 -62.685097 -2.9370196 -64.203094 5.1710711 -0.00095555623 13.416938
56784025000 -0.72925091 151.78911 -64.457832 -14.556722 -66.960983 -5.4322462 -7.5069374e-006 13.361143
56825893750 -0.76666999 151.93661 -65.425201 15.987694 -64.315834 -2.2625027 -0.0016855035 13.436942
56867762500 -0.71366423 151.72211 -62.572227 -3.6715498 -62.699646 -8.6332264 -0.0053249006 13.40004
56909631250 -0.74509937 151.73006 -64.60334 9.7413092 -64.506096 -2.8661993 -0.0049434081 13.364806
56951500000 -0.71325386 151.78658 -64.467117 6.9673209 -65.253624 6.8087869 -0.00020191525 13.485703
56993368750 -0.74193031 151.72754 -63.65942 6.5187092 -63.865097 -8.764533 -0.0006192365 13.424087
57035237500 -0.72057331 151.68718 -64.955833 -4.3163948 -63.808453 -0.39843547 0.0029443072 13.509529
57077106250 -0.70265096 151.62004 -65.492378 -0.88229495 -62.127193 1.2270114 -0.0030848908 13.460585
57118975000 -0.72736949 151.67081 -67.013733 9.0031862 -63.482998 -1.4381512 -0.0095660742 13.515297
57160843750 -0.7158013 151.59398 -63.478977 -3.2506936 -64.445107 -0.45155138 -0.0027595442 13.511902
57202712500 -0.70039833 151.54152 -64.011978 -10.966129 -63.953831 -12.001603 -0.0085886503 13.513627
57244581250 -0.69987917 151.49762 -64.334557 0.045629472 -63.64185 -18.348476 -0.0055249901 13.534954
57286450000 -0.72916794 151.5321 -63.785866 14.68575 -62.898796 -10.618348 -0.004543033 13.501203
57328318750 -0.69634396 151.58867 -65.331589 -13.918878 -64.79129 -7.6257167 -0.0062393742 13.531322
57370187500 -0.70657206 151.52103 -64.082153 -3.4873731 -65.786041 10.167636 -0.00093225378 13.505517
57412056250 -0.73334295 151.46855 -65.846046 -20.498867 -66.121033 11.626794 -0.011889637 13.620834
57453925000 -0.69431114 151.55011 -65.875923 -15.177132 -63.401665 3.7834659 -0.0069829146 13.591411
57495793750 -0.70071834 151.41849 -64.253952 -0.33062378 -65.896812 -0.34191862 -0.013896311 13.620332
57537662500 -0.71626163 151.51953 -66.171638 -1.0826217 -64.878777 9.0113935 -0.0066419798 13.609254
57579531250 -0.69479841 151.384 -63.062668 -7.1809826 -64.934929 0.16210203 -0.012553665 13.593347
57621400000 -0.71407551 151.42569 -63.403652 -1.995905 -64.70076 -6.5570145 -0.0099002337 13.604445
57663268750 -0.68594795 151.29111 -63.39558 -3.9912472 -63.540443 -11.136369 -0.010227672 13.590572
57705137500 -0.70086527 151.34457 -65.880676 10.12578 -64.620056 -8.0003061 -0.012181661 13.666391
57747006250 -0.71693969 151.31859 -63.281063 -7.8527703 -63.262238 -1.0846312 -0.0091349222 13.599273
57788875000 -0.68675077 151.20244 -63.192352 3.6707976 -64.695473 -1.5130236 -0.011539491 13.640253
57830743750 -0.70377827 151.20634 -63.599995 -6.0286045 -64.21447 -6.0644813 -0.0070080645 13.633419
57872612500 -0.69821835 151.21449 -63.421852 -11.073281 -65.056725 -8.2591553 -0.013997071 13.700545
57914481250 -0.69488466 151.12634 -66.053017 -11.21926 -62.994377 -8.6378689 -0.0063384017 13.722611
57956350000 -0.68528807 151.16995 -66.642746 -8.1747961 -64.883423 -6.0422664 -0.012057841 13.705222
57998218750 -0.69713593 150.98338 -62.660725 -19.471939 -65.150749 -15.644023 -0.010300324 13.685068
58040087500 -0.70755231 151.02797 -67.881462 -3.1137602 -64.374466 -1.9030843 -0.013373588 13.702192
58081956250 -0.68215418 151.01457 -63.920029 -23.393354 -63.29847 -15.174872 -0.014579087 13.727202
58123825000 -0.7118386 150.92598 -64.568604 -7.8503165 -62.993801 -17.701733 -0.014118351 13.736788
58165693750 -0.6805383 150.93481 -64.332932 -7.7931514 -63.732391 -7.795125 -0.015331332 13.700974
58207562500 -0.70760232 150.78461 -64.690895 -19.81855 -64.267212 -17.441639 -0.01251706 13.762147
58249431250 -0.6866762 150.95793 -68.089455 -0.28076911 -63.53706 -2.3376675 -0.019123105 13.712486
58291300000 -0.70104933 150.77347 -64.72274 -3.6549823 -62.899319 -14.707571 -0.014095237 13.747985
58333168750 -0.71286952 150.79315 -63.780914 -14.201976 -65.154533 -5.0537357 -0.022080855 13.76891
58375037500 -0.6970104 150.74721 -64.161278 -3.6819754 -63.722496 -24.482983 -0.015038055 13.745163
58416906250 -0.73095119 150.57042 -66.864952 -19.056793 -64.161919 -13.208736 -0.016690947 13.738755
58458775000 -0.70888329 150.82642 -64.736244 -1.1803641 -64.2472 -10.846569 -0.017495278 13.788477
58500643750 -0.72641897 150.67206 -64.743118 -8.6527739 -64.329803 -20.317848 -0.016336259 13.797935
58542512500 -0.7287693 150.8956 -62.344482 -10.605886 -62.216225 -8.8603115 -0.020987719 13.766701
58584381250 -0.71706337 150.67702 -64.719437 -16.594763 -65.10508 -1.3389205 -0.018696982 13.8411
58626250000 -0.73481089 150.72501 -62.16642 -6.394969 -64.637245 -10.275015 -0.02220262 13.809233
58668118750 -0.7012583 150.69759 -62.977432 -15.229461 -64.514694 -21.837769 -0.025373889 13.877934
58709987500 -0.75883067 150.57048 -62.964329 -12.076809 -63.657646 -13.600392 -0.029074896 13.808157
58751856250 -0.71402091 150.68793 -62.576427 -19.793192 -62.943584 -1.9842771 -0.023647936 13.845444
58793725000 -0.74590307 150.41809 -65.920128 1.7181634 -65.647301 -15.151948 -0.019681366 13.903102
58835593750 -0.72435498 150.7552 -64.759132 -12.99931 -63.689621 -5.6161714 -0.029419681 13.896579
58877462500 -0.72627914 150.44931 -65.112122 -4.7414746 -65.25074 -20.420111 -0.025167417 13.906898
58919331250 -0.74359751 150.61996 -64.359695 1.2860072 -64.423241 -31.834234 -0.023961317 13.889969
58961200000 -0.70645416 150.60141 -63.157307 -16.324902 -65.825142 -17.896132 -0.02467015 13.942445
59003068750 -0.75459081 150.37083 -66.683128 -4.0871563 -63.834953 -11.127566 -0.025064053 13.950624
59044937500 -0.70662653 150.57396 -63.895004 -14.217269 -63.628674 -25.872658 -0.024284091 14.002419
59086806250 -0.74367064 150.2364 -64.576782 -19.80162 -66.244598 -27.228441 -0.02087171 13.997293
59128675000 -0.74347126 150.54344 -63.421665 -12.466942 -63.638073 -3.1488607 -0.026238687 14.030122
59170543750 -0.71388996 150.24358 -65.217819 -10.795407 -67.597778 -15.934754 -0.024554562 14.012284
59212412500 -0.74133343 150.40456 -63.779888 -12.281284 -63.791771 -10.331949 -0.028416935 14.000904
59254281250 -0.70172745 150.30692 -62.464035 -21.374685 -63.487724 -12.299064 -0.022574963 14.028171
59296150000 -0.74723876 150.19997 -62.314327 -20.262873 -63.548141 -25.410271 -0.020498214 14.064255
59338018750 -0.70973581 150.30206 -65.464455 -24.582611 -64.295532 -8.3246832 -0.026801508 14.029464
59379887500 -0.76707393 149.95531 -63.006165 -10.156888 -68.689621 -8.6157875 -0.017621594 14.045989
59421756250 -0.73241073 150.33932 -63.906132 -18.986349 -66.983154 -26.515806 -0.018962948 14.059187
59463625000 -0.73453343 150.02713 -65.788429 -24.773209 -64.253899 -20.644657 -0.016072014 14.062391
59505493750 -0.7683062 150.16638 -63.979164 -2.4647186 -63.980568 -7.9314208 -0.022626486 14.127464
59547362500 -0.71277833 150.15138 -64.452911 -20.707659 -63.187122 -20.360666 -0.016700303 14.106793
59589231250 -0.78823155 150.08473 -62.911427 -14.454393 -63.643845 -6.7355318 -0.02342671 14.11937
59631100000 -0.73577917 150.18225 -63.325047 -17.550188 -63.768166 -32.642727 -0.019623637 14.101595
59672968750 -0.7769776 149.90575 -65.505066 -22.85627 -63.057808 -7.6575532 -0.021948166 14.13157
59714837500 -0.7474823 150.24738 -64.643898 -12.105796 -63.090591 -12.882136 -0.017392876 14.155827
59756706250 -0.76616782 149.86874 -64.961464 -8.298151 -65.980034 -19.416197 -0.017492419 14.182604
59798575000 -0.78423822 150.11377 -63.86377 -21.67417 -63.451645 -2.3231673 -0.018985307 14.16153
59840443750 -0.7381404 149.9668 -64.21048 -7.7928019 -64.58416 -19.160702 -0.018242048 14.157178
59882312500 -0.77120113 149.86128 -63.77953 -13.703316 -64.297653 -11.684427 -0.018952288 14.182517
59924181250 -0.75002033 150.10635 -63.32019 -14.244624 -65.064728 -6.1480317 -0.021961955 14.220525
59966050000 -0.78454089 149.97975 -63.778927 -22.675337 -67.113106 -8.433116 -0.021843838 14.177737
60007918750 -0.76266956 150.11238 -65.251007 -6.8727989 -67.287544 -13.299887 -0.016935479 14.209227
60049787500 -0.75225389 149.8728 -64.459244 -18.660093 -64.405487 -10.486391 -0.021738993 14.214681
60091656250 -0.76275319 150.08833 -63.785587 -22.156322 -67.386154 -24.887575 -0.021953369 14.224762
60133525000 -0.74116546 149.90784 -63.030304 -9.2189083 -64.175262 -24.348444 -0.019955192 14.256484
60175393750 -0.77900922 149.9689 -63.573452 -2.6182427 -65.246094 -11.768752 -0.019486083 14.217267
60217262500 -0.73448718 150.06882 -64.669579 -17.594477 -65.73877 -8.9441509 -0.020076117 14.238981
60259131250 -0.75570953 149.84305 -62.481335 -9.7905254 -65.597641 -19.308695 -0.02094272 14.281223
60301000000 -0.76522821 149.92894 -65.775688 -5.0675092 -63.884773 -10.096028 -0.022008525 14.309934
60342868750 -0.7453956 149.88037 -63.840103 -23.236397 -64.283623 -17.60412 -0.020502115 14.330136
60384737500 -0.75753456 149.83978 -66.647667 -23.866467 -67.262474 -22.744232 -0.024270814 14.338481
60426606250 -0.73904932 149.72322 -63.439713 -17.461597 -65.520348 1.9681104 -0.021105293 14.391297
60468475000 -0.75010461 149.67848 -63.56797 -29.276527 -66.06813 -9.0913057 -0.023279667 14.372767
60510343750 -0.74746567 149.81175 -65.811806 -19.741329 -64.04583 -30.521042 -0.014303003 14.437999
60552212500 -0.75943774 149.71529 -63.556602 -11.995029 -63.681015 -13.785466 -0.023681251 14.397134
60594081250 -0.72887278 149.61948 -63.943699 -11.481877 -65.847069 -27.946772 -0.021396378 14.421601
60635950000 -0.76344413 149.60217 -65.421974 -14.623137 -66.30294 -19.496922 -0.015328734 14.440215
60677818750 -0.7758345 149.52734 -66.802612 -16.005259 -64.843658 -19.780859 -0.016670939 14.520866
60719687500 -0.75736445 149.51167 -64.714981 -19.119953 -64.193886 -13.726865 -0.017580267 14.51411
60761556250 -0.75278795 149.48418 -65.413773 -7.5433645 -64.94278 -28.833641 -0.015096501 14.489213
60803425000 -0.76715052 149.42903 -64.186394 -13.813869 -63.484356 -14.734451 -0.013980711 14.525724
60845293750 -0.7564705 149.47557 -62.740974 -8.0258389 -65.997528 -4.44274 -0.015757123 14.49096
60887162500 -0.76443791 149.44908 -64.359146 -21.62084 -64.588501 -18.902126 -0.013345805 14.536871
60929031250 -0.78045583 149.50623 -65.288902 -6.5316381 -63.600929 -11.3916 -0.01039659 14.542407
60970900000 -0.77425796 149.26056 -63.696644 -18.840075 -63.621956 -20.22761 -0.01573712 14.567678
61012768750 -0.77060449 149.34685 -64.695564 -19.182358 -62.73671 -19.047615 -0.0074216323 14.572966
61054637500 -0.76037359 149.2784 -65.906746 -14.296014 -63.518326 -13.497209 -0.022087099 14.632039
61096506250 -0.79540431 149.18777 -65.702591 -11.562325 -63.463055 -19.856665 -0.014921686 14.590563
61138375000 -0.75385046 149.3602 -63.575375 -17.107964 -64.278236 -8.8404722 -0.018412838 14.588158
61180243750 -0.78183317 149.27783 -64.219833 2.1004117 -63.346886 -17.846554 -0.013970063 14.626656
61222112500 -0.7843923 149.30879 -64.139801 -17.213451 -64.585129 -18.432842 -0.01215129 14.601842
61263981250 -0.78942817 149.11476 -64.05719 -17.201546 -64.828636 -16.485083 -0.0157353 14.669812
61305850000 -0.79130965 149.26822 -63.309647 -8.9508781 -63.472553 -9.5158978 -0.01192961 14.626118
61347718750 -0.78149974 149.22041 -63.592205 -17.566746 -62.625732 -5.8072615 -0.014556492 14.647892
61389587500 -0.81535345 149.15173 -63.406384 -13.308866 -63.066059 -5.8840733 -0.012515763 14.703875
61431456250 -0.79977578 149.32768 -63.763439 1.5929308 -64.35585 -8.9862127 -0.015968347 14.688538
61473325000 -0.82031316 148.99716 -63.557419 -13.179498 -62.939281 -14.979683 -0.013113678 14.747252
61515193750 -0.82463616 149.30396 -63.17144 -13.400513 -64.825562 -18.596802 -0.01068073 14.713462
61557062500 -0.79752386 149.09079 -62.63203 -20.263359 -66.970642 -10.481453 -0.017761689 14.720103
61598931250 -0.83330864 149.23668 -64.405304 -15.153941 -63.789181 -11.978784 -0.0056273709 14.757538
61640800000 -0.7966941 149.21548 -64.927521 -15.686429 -64.123253 -26.498722 -0.018897949 14.789119
61682668750 -0.82308811 149.10916 -63.643127 -2.330317 -62.973267 -18.866215 -0.013445254 14.793604
61724537500 -0.80425656 149.31082 -65.622147 -15.937497 -68.368797 -31.59041 -0.01553474 14.784566
61766406250 -0.8049342 148.98631 -65.158356 -17.878998 -62.666134 -8.6234388 -0.017207053 14.790676
61808275000 -0.81443441 149.3161 -62.451038 -22.41774 -63.641056 -20.208082 -0.011042484 14.731077
61850143750 -0.7982527 149.08777 -65.081512 -18.549015 -63.414139 -17.041359 -0.01413653 14.805009
61892012500 -0.82294071 149.29846 -63.916149 -26.815218 -63.518448 -14.099937 -0.0078658396 14.830427
61933881250 -0.77720332 149.08817 -64.205353 -21.795452 -63.192154 -21.802824 -0.017118951 14.850995
61975750000 -0.82012397 149.06966 -62.489616 -8.9386139 -62.16151 -21.300007 -0.0085160267 14.909091
62017618750 -0.80060953 149.37793 -64.830795 -19.90942 -62.302975 -20.345871 -0.024731068 14.808178
62059487500 -0.79596335 148.97084 -64.30233 -16.358746 -62.62999 -19.283144 -0.0054420503 14.899189
62101356250 -0.8171103 149.26474 -62.769791 -15.700378 -63.824734 -7.584166 -0.013761275 14.873263
62143225000 -0.7795943 149.09038 -62.857647 -26.837154 -64.806664 -23.682213 -0.015346399 14.966867
62185093750 -0.81514204 149.10104 -63.784023 -13.488058 -61.962883 -21.969145 -0.021317817 14.875748
62226962500 -0.7923792 149.12218 -65.64151 -16.156595 -62.932178 -9.8136377 -0.013560546 14.929315
62268831250 -0.80146313 148.97383 -64.887978 -9.8031549 -64.437523 -28.14571 -0.0065229828 14.923233
62310700000 -0.79530704 149.26271 -64.452415 -18.32345 -61.983585 -27.310966 -0.014732591 14.868405
62352568750 -0.79727161 148.9221 -63.493652 -28.696302 -64.987999 -22.65336 -0.0011787481 14.97368
62394437500 -0.78167701 149.09755 -63.19635 -24.019754 -63.782772 -17.775259 -0.014882983 14.955721
62436306250 -0.77947879 148.92305 -65.180801 -8.0598841 -64.068634 -10.17244 -0.013463431 14.963236
62478175000 -0.80047506 149.01706 -65.664497 -29.111172 -64.765846 -16.001638 -0.011406085 14.919419
62520043750 -0.77370113 149.07986 -63.336102 -20.142473 -64.970734 -20.014881 -0.012618049 14.957359
62561912500 -0.77963829 148.86423 -67.721474 -14.983751 -63.425358 -11.730253 -0.0098963417 14.948956
62603781250 -0.79716182 149.16608 -63.784607 -27.986849 -64.591141 -30.704645 -0.014686877 14.980196
62645650000 -0.77331448 148.78885 -64.254753 -21.922176 -63.49786 -16.8629 -0.0096999425 15.022781
62687518750 -0.796561 149.06932 -65.01265 -26.019793 -63.578396 -25.790455 -0.011406604 14.980371
62729387500 -0.76923066 149.01236 -64.789413 -24.061026 -63.566608 -14.77143 -0.014060957 15.000842
62771256250 -0.79041958 148.80983 -63.878464 -21.825985 -63.570759 -19.881124 -0.0096825603 15.00292
62813125000 -0.76456881 148.97841 -63.433067 -25.51145 -63.64949 -13.248699 -0.012238512 14.994379
62854993750 -0.77606016 148.72787 -64.816551 -16.547607 -62.661701 -21.562931 -0.0069085029 15.025588
62896862500 -0.78146565 148.9518 -62.920952 -18.708878 -62.314953 -22.39024 -0.010172405 14.976733
62938731250 -0.74722368 148.70158 -63.492863 -23.463509 -63.543388 -22.410582 -0.0049001295 15.000064
62980600000 -0.77816254 148.78171 -63.443771 -19.070934 -64.156868 -26.607328 -0.012763434 14.990486
63022468750 -0.7551403 148.82208 -63.565601 -18.340706 -64.707893 -19.143349 -0.0062557058 14.987613
63064337500 -0.77127165 148.66942 -64.176788 -23.331526 -63.978024 -14.710662 -0.0065097613 15.030638
63106206250 -0.75820309 148.86514 -63.77203 -17.164934 -62.445892 -18.902025 -0.011028211 15.034609
63148075000 -0.73982948 148.55481 -63.743382 -9.652585 -63.80267 -16.870724 -0.011131241 15.020027
63189943750 -0.77129358 148.802 -64.346283 -16.806173 -62.691124 -8.8919783 -0.010137637 15.021216
63231812500 -0.72665125 148.5475 -63.102455 -24.749166 -64.910034 -19.521471 -0.0082136141 15.012251
63273681250 -0.77327269 148.51216 -62.907593 -14.859024 -63.094391 -12.402453 -0.0065190941 15.047223
63315550000 -0.72648388 148.59589 -62.814384 -17.10111 -62.102627 -23.174221 -0.0092168944 15.055291
63357418750 -0.75913531 148.24663 -62.322178 -21.218212 -63.600918 -21.02541 -0.008393866 15.066885
63399287500 -0.75294191 148.61874 -62.898106 -9.0018711 -64.160759 -30.945528 -0.011606196 15.030306
63441156250 -0.74154222 148.16838 -62.169403 -17.375196 -62.252102 -12.388273 -0.0098615754 15.035788
63483025000 -0.7697162 148.49571 -63.145134 -28.964012 -63.686359 -20.750183 -0.009497066 15.025479
63524893750 -0.72259152 148.28729 -62.784714 -17.151173 -62.95715 -14.910932 -0.010030739 15.095014
63566762500 -0.77265042 148.24072 -61.993271 -21.068682 -62.400337 -25.372669 -0.008675281 15.041026
63608631250 -0.73513281 148.3443 -63.415478 -22.098297 -63.419697 -17.407715 -0.0044588163 15.080973
63650500000 -0.75658453 148.00845 -63.213203 -20.14189 -62.8661 -9.3000565 -0.014441174 15.135814
63692368750 -0.76833618 148.4473 -63.326344 -12.85838 -62.964417 -33.726238 -0.01513131 15.070384
63734237500 -0.74594575 147.95097 -62.920383 -16.86059 -63.574093 -23.281561 -0.0069466163 15.129696
63776106250 -0.78186882 148.11101 -63.347687 -26.404327 -62.724327 -13.379372 -0.0138893 15.131781
63817975000 -0.73431271 148.07095 -63.64735 -19.989056 -62.757713 -21.709843 -0.011490437 15.133701
63859843750 -0.79734224 147.91122 -62.934284 -21.778337 -63.397255 -16.64603 -0.0066080173 15.149489
63901712500 -0.75162292 148.1252 -62.576664 -20.333992 -62.285397 -25.555326 -0.014259112 15.190466
63943581250 -0.78566855 147.75726 -62.400902 -26.090231 -62.610409 -25.844007 -0.010652705 15.179954
63985450000 -0.77363956 148.0253 -63.557926 -17.669708 -61.840107 -15.584906 -0.010887295 15.194119
64027318750 -0.75782949 147.71797 -63.201233 -11.29818 -62.930229 -24.634016 -0.012277969 15.190568
64069187500 -0.79486126 147.96481 -62.028179 -34.391251 -62.663296 -22.216249 -0.0090161161 15.182193
64111056250 -0.75897837 147.80777 -62.933037 -24.157728 -62.712708 -24.936485 -0.0093061328 15.207285
64152925000 -0.80829829 147.81064 -63.251423 -26.244011 -63.096565 -21.0525 -0.015617353 15.220959
64194793750 -0.77845454 148.01459 -62.723797 -26.758312 -62.330151 -25.795855 -0.011687956 15.216072
64236662500 -0.79572827 147.71234 -64.901443 -27.56921 -63.204582 -23.936869 -0.014878567 15.25323
64278531250 -0.80087286 147.94557 -62.880013 -25.153278 -62.752453 -26.688723 -0.010724327 15.251464
64320400000 -0.77819502 147.66304 -63.312817 -26.833675 -62.678383 -31.313488 -0.012741886 15.2699
64362268750 -0.82781231 147.83278 -63.999062 -29.685276 -62.870468 -22.401419 -0.013381897 15.283112
64404137500 -0.7797969 147.82193 -62.730061 -26.917896 -62.841919 -30.10498 -0.018766917 15.282953
64446006250 -0.81333637 147.69978 -62.942291 -24.633448 -63.918331 -23.088835 -0.014535713 15.29513
64487875000 -0.79072642 147.8463 -61.691708 -29.961208 -62.020977 -25.445883 -0.01743238 15.304193
64529743750 -0.79820883 147.60327 -63.7132 -26.819031 -62.418427 -27.306425 -0.015489277 15.316947
64571612500 -0.80402076 147.94791 -63.023479 -22.417372 -62.117523 -26.094107 -0.017414449 15.291229
64613481250 -0.78512824 147.68665 -62.103001 -29.705076 -63.67186 -27.895023 -0.021340968 15.327491
64655350000 -0.82073653 147.80939 -64.42189 -32.663033 -62.383785 -25.212158 -0.011994244 15.324242
64697218750 -0.79397106 147.80798 -62.073635 -21.085432 -62.896866 -29.019535 -0.018907309 15.396235
64739087500 -0.79525232 147.70035 -62.452053 -28.699263 -63.051167 -25.665705 -0.022251016 15.411214
64780956250 -0.80873388 147.78104 -63.124653 -35.067959 -63.830109 -21.730888 -0.02028989 15.383949
64822825000 -0.79106838 147.64734 -63.189304 -25.18984 -62.794769 -28.883492 -0.019317072 15.445311
64864693750 -0.79991424 147.72388 -62.496895 -34.776386 -62.359554 -37.098503 -0.019957531 15.436947
64906562500 -0.77393067 147.62196 -62.716499 -28.476126 -62.458809 -19.787409 -0.019466581 15.442286
64948431250 -0.80934703 147.60077 -63.115074 -29.033754 -64.045349 -27.79108 -0.018822033 15.444998
64990300000 -0.77746773 147.56821 -62.968922 -30.450748 -63.873898 -26.744898 -0.020954166 15.493468
65032168750 -0.78150064 147.47777 -63.446827 -26.747002 -63.729904 -23.872835 -0.023587555 15.478795
65074037500 -0.77090496 147.45972 -62.430943 -23.387375 -62.405285 -21.661831 -0.02365184 15.450373
65115906250 -0.78370738 147.48415 -63.09119 -31.311735 -62.980118 -23.358774 -0.022177642 15.471041
65157775000 -0.77400553 147.4252 -63.203171 -25.219893 -64.097237 -30.926355 -0.024350731 15.482174
65199643750 -0.76871002 147.46277 -63.356361 -30.923494 -63.234844 -34.334625 -0.019538088 15.482247
65241512500 -0.7703563 147.36832 -63.574055 -26.637268 -62.493221 -27.188387 -0.018918488 15.53774
65283381250 -0.79458022 147.38704 -64.118355 -34.933517 -62.146954 -28.76235 -0.022847671 15.560614
65325250000 -0.76148826 147.34242 -62.291908 -29.498972 -63.430386 -34.591526 -0.024923202 15.572746
65367118750 -0.81300265 147.22942 -63.852242 -27.650843 -63.626244 -24.241949 -0.022675926 15.552479
65408987500 -0.74760157 147.29564 -63.323143 -25.182728 -63.172569 -34.587502 -0.025495488 15.568871
65450856250 -0.7882762 147.05931 -62.792549 -28.427074 -64.010452 -22.926367 -0.022666559 15.566484
65492725000 -0.78549117 147.29283 -64.017525 -40.294857 -62.495743 -27.309574 -0.024630578 15.556958
65534593750 -0.78608674 146.96802 -62.742386 -26.179129 -61.946625 -34.128716 -0.021997338 15.62659
65576462500 -0.80745679 147.1543 -62.553448 -29.277071 -63.544491 -29.512875 -0.028834891 15.621034
65618331250 -0.76333457 147.0145 -63.203892 -23.397772 -61.658176 -36.71389 -0.026096495 15.62789
65660200000 -0.80691063 146.90883 -62.60413 -36.375885 -63.288376 -37.745251 -0.026548086 15.657495
65702068750 -0.77804208 147.19 -61.930172 -29.954771 -62.981415 -22.422781 -0.033011455 15.610242
65743937500 -0.79563159 146.85831 -63.278877 -25.073328 -62.799526 -29.01545 -0.022109214 15.69581
65785806250 -0.80729997 147.18448 -62.405277 -26.071676 -61.270245 -32.149284 -0.029157767 15.706373
65827675000 -0.77961844 146.82748 -61.533485 -31.123072 -62.395107 -26.767101 -0.023806967 15.775292
65869543750 -0.824485 146.99866 -62.371784 -25.007534 -62.705902 -26.104013 -0.034340613 15.759334
65911412500 -0.77156377 146.98909 -63.963459 -35.001339 -62.407356 -24.239735 -0.030371828 15.813068
65953281250 -0.83021784 146.80299 -61.768501 -35.445847 -62.906803 -28.054768 -0.034304086 15.789852
65995150000 -0.77620405 147.06409 -61.610722 -39.433746 -62.442135 -28.943474 -0.03647542 15.77695
66037018750 -0.80366594 146.71031 -62.360378 -29.222443 -63.828686 -19.964252 -0.0279899 15.804602
66078887500 -0.80533832 147.10034 -64.478966 -31.849756 -62.374657 -31.769093 -0.027503772 15.763348
66120756250 -0.77873886 146.70229 -60.654167 -25.448341 -63.343246 -35.063568 -0.034841597 15.891535
66162625000 -0.8213554 146.94872 -63.172249 -31.22438 -62.693596 -33.492596 -0.030254524 15.811659
66204493750 -0.76216203 146.88216 -61.887466 -40.370071 -61.557049 -29.048532 -0.027233897 15.899721
66246362500 -0.82068962 146.86517 -62.329605 -31.528025 -63.238785 -23.810341 -0.029083757 15.874144
66288231250 -0.7835505 147.0078 -62.178558 -30.330156 -63.596149 -36.320663 -0.034486726 15.94376
66330100000 -0.7958169 146.64932 -61.731899 -37.3349 -62.382378 -35.245934 -0.030698467 15.919783
66371968750 -0.79703993 147.04022 -61.965649 -37.039509 -63.205353 -30.311775 -0.031253785 15.939089
66413837500 -0.75585002 146.47653 -63.397072 -24.319 -61.682758 -35.111031 -0.034727305 15.964771
66455706250 -0.82497299 146.8006 -62.265728 -36.695774 -63.445251 -41.2775 -0.035052709 15.948682
66497575000 -0.73226607 146.76015 -62.326801 -33.406483 -63.353329 -28.713924 -0.032650996 15.970758
66539443750 -0.82039881 146.58459 -61.958515 -30.536308 -64.185608 -31.962189 -0.019982237 15.998946
66581312500 -0.76560491 146.89845 -62.953232 -43.470299 -63.968868 -27.96904 -0.038180366 16.052498
66623181250 -0.79228508 146.33974 -61.185795 -30.010359 -62.721924 -35.351234 -0.031519476 16.014187
66665050000 -0.79607248 146.77417 -63.959049 -31.334541 -63.368935 -28.795399 -0.037209533 16.055368
66706918750 -0.76186341 146.28485 -62.917255 -39.743847 -63.612198 -34.921165 -0.035445467 16.08049
66748787500 -0.81740153 146.54114 -62.724556 -24.085897 -63.915672 -35.505348 -0.034077097 16.060818
66790656250 -0.75835657 146.51103 -62.770935 -35.641716 -62.293255 -28.789299 -0.036603071 16.123266
66832525000 -0.83990109 146.34619 -64.036339 -18.597424 -62.834072 -20.601257 -0.027296936 16.201622
66874393750 -0.75985247 146.53485 -62.393253 -34.907619 -61.852478 -36.152782 -0.034874216 16.162102
66916262500 -0.80557173 146.11589 -62.616337 -31.747225 -60.919735 -41.365669 -0.027644707 16.2325
66958131250 -0.79642695 146.57643 -61.839909 -28.282488 -62.658852 -34.410881 -0.036484294 16.166006
67000000000 -0.7790944 146.12518 -62.700859 -25.131056 -62.431782 -31.435616 -0.035201978 16.223194
