!Keysight Technologies,N5247B,MY61256062,A.16.20.04
!Date: Tuesday, November 18, 2025 07:38:50
!Correction: S11(C  2-Port  ) 
!S21(C  2-Port  ) 
!S12(C  2-Port  ) 
!S22(C  2-Port  ) 
!S2P File: Measurements: S11, S21, S12, S22:
# Hz S  dB   R 50
67000000000 0.051488806 13.964017 -67.639114 0.071589895 -67.819756 0.51938623 -0.84314436 139.1853
67048000000 0.047593649 13.944191 -67.309944 -6.4611254 -67.150505 -1.950845 -0.80511737 139.11589
67096000000 0.03072333 13.957005 -67.170959 -2.2837403 -67.602875 -3.7389672 -0.7850799 139.03352
67144000000 0.037684422 13.923844 -66.904587 -7.7961512 -67.54744 0.029795039 -0.79042894 138.87746
67192000000 0.028821884 13.901216 -67.563889 -1.4315463 -67.105881 0.61316979 -0.83265609 138.90453
67240000000 0.025672227 14.087589 -67.718277 -8.3911314 -66.939613 -0.73580658 -0.78888959 138.77586
67288000000 0.042837437 14.025467 -66.46524 0.18895048 -66.674644 2.8014879 -0.83846408 139.01942
67336000000 0.043637592 14.101669 -67.635689 8.6338472 -66.792046 0.5775829 -0.82016277 138.93953
67384000000 0.027615694 14.206758 -67.14193 -0.92083311 -66.830437 4.0204911 -0.76835531 138.89014
67432000000 0.036824647 14.126523 -65.45578 -0.73647642 -66.664467 1.1691343 -0.76364565 138.43369
67480000000 0.0065199207 14.064837 -67.255516 7.2269926 -67.014786 1.2663838 -0.75276577 138.4502
67528000000 0.015007059 14.031531 -65.418022 -1.7912089 -66.218178 3.2249913 -0.75771576 138.57758
67576000000 0.020532286 14.158625 -66.947845 -0.85651338 -66.237007 3.21632 -0.80929685 138.70398
67624000000 0.024363229 14.252015 -67.070045 -2.5248652 -66.109222 1.5170703 -0.79259509 138.75397
67672000000 0.030224139 14.247438 -65.904221 -3.2773104 -66.404427 4.3643041 -0.79487121 138.71825
67720000000 0.027419688 14.270295 -66.957527 -6.5630589 -66.108734 0.67478061 -0.79765636 138.6581
67768000000 0.028359508 14.250555 -65.29541 -3.7220292 -66.293381 -0.68787205 -0.78525543 138.58028
67816000000 0.023055896 14.396388 -65.325233 -0.48207822 -66.416458 -1.0537106 -0.77976406 138.45103
67864000000 0.039148465 14.462429 -66.662086 -6.5595641 -65.997597 1.6317453 -0.78984332 138.50034
67912000000 0.026662851 14.409174 -66.254326 -2.6268651 -65.867683 -1.4276676 -0.81917012 138.3343
67960000000 0.0142109 14.430995 -66.168251 -5.6580129 -66.115944 2.2524006 -0.79750365 138.64476
68008000000 0.0050184596 14.44542 -65.610863 -3.4703875 -65.789848 2.4917197 -0.79805142 138.64224
68056000000 -0.0003266932 14.540284 -66.199242 -4.6990948 -65.692322 1.0317904 -0.79328614 138.50597
68104000000 0.0024175942 14.522612 -66.383438 1.744343 -65.723869 2.1128111 -0.79408854 138.42804
68152000000 0.0010591247 14.613579 -65.726364 0.98407543 -65.596138 0.69355327 -0.79370689 138.41293
68200000000 0.024503775 14.77632 -66.008766 1.0069758 -65.499161 1.4034379 -0.80017072 138.53809
68248000000 0.018832052 14.71972 -65.708031 -3.4630103 -65.335121 0.94891191 -0.80283815 138.47368
68296000000 0.034393266 14.621678 -65.962852 -1.2995496 -65.380234 -1.4803089 -0.78231978 138.51859
68344000000 0.029163877 14.61388 -65.806229 -2.094064 -65.160622 -0.79670435 -0.77966803 138.49666
68392000000 0.0296745 14.628876 -65.442673 -1.5799484 -65.005005 -1.9257683 -0.76954746 138.35107
68440000000 0.035641734 14.777452 -64.872269 -2.8533556 -65.124748 -1.3965811 -0.79264361 138.30635
68488000000 0.021661628 14.739864 -65.470711 -0.61853796 -65.245987 -2.5022335 -0.78259999 138.27661
68536000000 0.034290537 14.747142 -64.982658 -2.9514289 -65.150169 -2.0320919 -0.78478956 138.40477
68584000000 0.038022123 14.778386 -65.180878 -5.220911 -65.335091 -1.6665769 -0.76959997 138.41446
68632000000 0.045463912 14.75146 -65.129646 -2.6666353 -65.406937 -2.5129552 -0.75321496 138.49355
68680000000 0.044586718 14.738659 -65.289688 -2.601815 -65.162155 -3.327172 -0.74959451 138.38158
68728000000 0.034197051 14.74831 -64.672134 -5.9803176 -65.169395 -4.0971894 -0.75998318 138.22162
68776000000 0.026459085 14.76384 -65.256569 -4.596983 -65.32122 -3.4510534 -0.78590494 138.15453
68824000000 0.02680435 14.741041 -65.717041 -5.0954981 -65.308655 -5.9515805 -0.80347598 138.15613
68872000000 0.029593257 14.764999 -65.424606 -7.3702683 -65.301361 -4.8121891 -0.80962616 138.16429
68920000000 0.035480496 14.789804 -65.41391 -6.4499125 -65.537224 -4.1608472 -0.80529189 138.29948
68968000000 0.042174034 14.776083 -65.629097 -6.7958989 -65.378548 -5.0244279 -0.7998302 138.24107
69016000000 0.04415369 14.812459 -65.414703 -6.0985274 -65.701981 -4.2997546 -0.78582305 138.23947
69064000000 0.037377488 14.799688 -65.664009 -5.232585 -65.654114 -4.2448759 -0.79398352 138.20314
69112000000 0.037233766 14.818806 -65.096039 -4.1664586 -65.712845 -4.4633045 -0.80677223 138.08565
69160000000 0.033752713 14.842013 -65.102905 -4.7717867 -65.623505 -3.5395277 -0.81791025 138.08961
69208000000 0.03451037 14.83416 -65.295914 -6.3518734 -65.329742 -2.7577283 -0.83006054 138.10297
69256000000 0.03641703 14.87076 -65.468979 -6.5045528 -65.656853 -2.4113765 -0.82320732 138.28271
69304000000 0.035069671 14.866255 -65.737 -4.5959821 -65.390999 -3.7419972 -0.81118757 138.28062
69352000000 0.034895059 14.856765 -65.472046 -7.5125885 -65.333031 -4.0513725 -0.79904544 138.26582
69400000000 0.028899541 14.872903 -65.456604 -5.2256227 -65.489319 -3.6293061 -0.79290766 138.15497
69448000000 0.034331627 14.859707 -65.4879 -5.4184251 -65.390144 -3.5115838 -0.80017072 138.18506
69496000000 0.032766789 14.924817 -65.395874 -2.5798197 -65.539925 -2.9503748 -0.80368525 138.15889
69544000000 0.043371059 14.947302 -65.492546 -4.92805 -65.456062 -2.788455 -0.80715531 138.19289
69592000000 0.039623033 14.94971 -65.29612 -3.7649336 -65.289276 -3.8543215 -0.79791081 138.20084
69640000000 0.048885938 14.890765 -65.241219 -5.5709429 -65.18351 -2.5528574 -0.7977556 138.18904
69688000000 0.039866708 14.921008 -65.208168 -5.193099 -65.269432 -3.8848891 -0.79357076 138.16792
69736000000 0.03761616 14.897975 -65.417801 -6.4269776 -65.22187 -4.6367321 -0.7969799 138.08025
69784000000 0.02834459 14.933997 -65.441566 -4.6214771 -65.176254 -5.0850801 -0.8019737 138.0388
69832000000 0.02769183 14.9435 -65.570587 -6.0098133 -65.133827 -3.8736103 -0.80608308 137.96562
69880000000 0.02896074 14.988769 -65.393433 -6.3665962 -65.141342 -3.995954 -0.81276077 137.96376
69928000000 0.033471704 14.989716 -65.262184 -5.9249806 -64.923904 -4.5703211 -0.80942816 137.95502
69976000000 0.035000853 15.036098 -65.378349 -5.6270823 -65.221634 -5.468533 -0.7984972 137.94016
70024000000 0.036663454 15.026703 -65.201096 -5.4502816 -65.220955 -5.976707 -0.79049695 137.88516
70072000000 0.03563711 15.037307 -65.191643 -4.0859942 -65.364326 -5.5234804 -0.78941733 137.81187
70120000000 0.032404013 15.040698 -65.27594 -4.478744 -65.270966 -5.2480278 -0.7943328 137.66913
70168000000 0.030980356 15.048399 -65.294868 -4.9701157 -65.37941 -5.1274109 -0.80252361 137.69966
70216000000 0.031096527 15.0485 -65.303726 -4.2722797 -65.367943 -3.6395991 -0.79969019 137.60193
70264000000 0.029476531 15.076268 -65.395882 -3.7670586 -65.301697 -4.6724844 -0.81452465 137.68629
70312000000 0.027384192 15.07071 -65.395355 -2.9934273 -65.214554 -3.5404534 -0.81381059 137.65135
70360000000 0.027810661 15.078044 -65.03318 -3.7042046 -64.990395 -3.6729963 -0.81029934 137.70363
70408000000 0.025510104 15.057128 -64.860397 -5.6996379 -64.973755 -4.0016284 -0.79338247 137.53218
70456000000 0.03223443 15.10641 -64.851608 -3.2071443 -65.025459 -4.8666186 -0.80677783 137.63658
70504000000 0.027119748 15.115366 -64.978111 -5.0918913 -64.9468 -5.2698116 -0.80230129 137.47815
70552000000 0.033226643 15.144637 -65.105011 -6.6478906 -65.085373 -5.5266514 -0.81366104 137.49734
70600000000 0.032729793 15.122403 -65.253494 -6.829145 -65.111923 -5.0920591 -0.8206374 137.44489
70648000000 0.030350612 15.130519 -65.210449 -6.6928601 -65.314697 -5.4356213 -0.80919421 137.38716
70696000000 0.035997566 15.150809 -65.451141 -5.4370971 -65.269363 -4.3586974 -0.83872032 137.381
70744000000 0.035113834 15.146042 -65.510506 -5.6850433 -65.308792 -3.927737 -0.79930991 137.23953
70792000000 0.034522187 15.179169 -65.182777 -2.8252981 -65.399834 -3.4528153 -0.84275275 137.2865
70840000000 0.036160324 15.142205 -65.168587 -3.637562 -65.432816 -2.2297747 -0.80457622 137.0955
70888000000 0.034009561 15.196712 -65.337425 -3.3947375 -65.293488 -1.1532435 -0.86903501 137.12943
70936000000 0.035986271 15.16898 -64.981621 -2.6025207 -65.21357 -1.3378251 -0.81980759 137.06175
70984000000 0.039962638 15.216865 -65.068283 -3.8746955 -65.086266 -0.80774039 -0.85923803 137.06281
71032000000 0.038770314 15.219984 -65.078735 -2.3298576 -65.143204 -0.45847037 -0.84356087 137.03571
71080000000 0.045508996 15.248415 -65.291458 -3.4965417 -65.087097 0.41999248 -0.84389883 137.06413
71128000000 0.041453093 15.204485 -65.180176 -1.7626795 -64.977592 1.261898 -0.83688438 136.98532
71176000000 0.048484057 15.223442 -65.101128 -1.3711368 -64.804329 1.1531121 -0.83926135 137.0015
71224000000 0.042837437 15.213268 -65.250908 -1.1560595 -64.777573 0.81225944 -0.86183846 136.92809
71272000000 0.042194542 15.261747 -64.944176 -0.24186797 -64.691261 0.24124992 -0.84297335 136.91948
71320000000 0.040278621 15.270136 -64.874062 0.23043065 -64.574699 0.77292573 -0.87867922 136.87502
71368000000 0.053191137 15.284586 -64.578842 0.45962313 -64.519844 1.1313908 -0.8377313 136.90176
71416000000 0.041444376 15.301085 -64.56321 1.2087086 -64.65741 1.2155367 -0.88550377 136.91782
71464000000 0.044768628 15.280822 -64.46907 0.98077172 -64.527252 1.2286017 -0.8459031 136.92213
71512000000 0.034686025 15.296547 -64.546089 -1.5559025 -64.64904 1.4862529 -0.8890754 136.78476
71560000000 0.028085865 15.254852 -64.606613 -0.051964685 -64.517426 2.3531685 -0.85169238 136.78073
71608000000 0.025352092 15.334152 -64.470406 1.9579144 -64.33033 2.9370418 -0.90169048 136.66177
71656000000 0.021033622 15.279296 -64.512138 0.80208886 -64.239166 2.0731785 -0.86272907 136.62415
71704000000 0.029460076 15.348145 -64.305969 0.63388413 -64.130089 2.4667084 -0.89350343 136.65936
71752000000 0.033088949 15.383429 -64.231277 0.91006476 -64.223564 1.7841452 -0.86176777 136.77737
71800000000 0.035143107 15.423353 -64.343452 -0.59421283 -64.006721 2.4049292 -0.88899094 136.66832
71848000000 0.026614998 15.344495 -64.088379 -1.551973 -64.110428 3.2730656 -0.88604087 136.58914
71896000000 0.020297313 15.283245 -64.233788 0.43917206 -63.958591 2.9299176 -0.88790208 136.47903
71944000000 0.033001088 15.309777 -64.107399 0.23690008 -63.898331 2.9522848 -0.86573887 136.58304
71992000000 0.037650548 15.309043 -64.045624 1.0029286 -63.756119 2.4073024 -0.88757753 136.41617
72040000000 0.029609198 15.406554 -63.964928 -0.36828843 -63.519924 2.0150824 -0.89175415 136.56653
72088000000 0.0326075 15.385731 -63.733757 1.5083342 -63.474178 2.1119688 -0.88285613 136.51715
72136000000 0.026380869 15.369092 -63.625229 1.8701427 -63.380993 2.1771109 -0.88294053 136.56258
72184000000 0.029689927 15.371068 -63.849957 1.273409 -63.361416 2.3579774 -0.87110633 136.5345
72232000000 0.046662081 15.360009 -63.619419 1.1089163 -63.141911 1.4182168 -0.86383277 136.51505
72280000000 0.049221236 15.442185 -63.274387 1.3426201 -63.129963 0.74860817 -0.85980153 136.54224
72328000000 0.047059521 15.477566 -63.408665 1.5330828 -63.099819 0.32787132 -0.87255073 136.38979
72376000000 0.046502277 15.503316 -63.24704 0.23772824 -62.965664 1.2978791 -0.87792504 136.35606
72424000000 0.048577748 15.512722 -63.276272 0.47988537 -62.864971 0.44515759 -0.88354009 136.31863
72472000000 0.034111783 15.579151 -63.134781 -0.78074747 -62.810287 -0.33861032 -0.91005772 136.25652
72520000000 0.061881639 15.608041 -63.027721 0.16757055 -62.742695 -0.59846771 -0.8658185 136.40486
72568000000 0.030508444 15.51275 -63.014893 -0.38230085 -62.77306 -0.67831504 -0.92059088 136.11819
72616000000 0.0647889 15.543624 -62.815292 -0.63074291 -62.664211 -0.93921953 -0.87423271 136.19247
72664000000 0.032769874 15.593042 -62.758953 -2.0063996 -62.606365 -1.2261829 -0.91085136 136.05206
72712000000 0.044328958 15.57445 -62.702568 -1.8025819 -62.457939 -1.975269 -0.89455289 136.02599
72760000000 0.04267903 15.654423 -62.591408 -2.1519866 -62.398861 -2.5140345 -0.9012875 136.02025
72808000000 0.035737243 15.613382 -62.659519 -2.4453368 -62.468353 -2.7696476 -0.90503472 135.97427
72856000000 0.052413199 15.682981 -62.664108 -2.398901 -62.371487 -3.2846477 -0.90140086 136.01872
72904000000 0.045601726 15.642296 -62.704185 -2.6204996 -62.421139 -3.5028901 -0.89532173 135.98755
72952000000 0.045366567 15.6086 -62.647636 -1.3090823 -62.347984 -2.7260206 -0.89257622 136.00563
73000000000 0.060453322 15.640081 -62.324425 -1.3962417 -62.230019 -3.2886569 -0.87778497 135.99979
73048000000 0.04568677 15.561743 -62.098747 -1.5969019 -62.090485 -2.9593863 -0.88840139 135.92653
73096000000 0.051594198 15.617413 -61.79253 -2.5659754 -61.883663 -3.492677 -0.88192809 135.9397
73144000000 0.037629504 15.545063 -61.678226 -4.8534346 -61.771912 -4.4998131 -0.90646303 135.77135
73192000000 0.052675083 15.656885 -61.692627 -5.3729725 -61.689709 -5.6209249 -0.88066536 135.92375
73240000000 0.048676558 15.638033 -61.724663 -6.4024734 -61.639675 -6.4426317 -0.9065935 135.7699
73288000000 0.046963748 15.788471 -61.587116 -7.6588831 -61.649284 -6.501852 -0.89575535 136.05611
73336000000 0.043263417 15.694708 -61.6012 -8.3129416 -61.599171 -7.7629943 -0.90287644 135.77922
73384000000 0.032593627 15.635563 -61.655041 -10.135607 -61.517601 -8.6051788 -0.90214002 135.72002
73432000000 0.027374417 15.658479 -61.564686 -10.209671 -61.608273 -8.4434862 -0.91599035 136.87987
73480000000 0.022385344 15.660723 -61.501545 -10.984076 -61.569775 -10.697457 -0.92476416 135.63338
73528000000 0.023405554 15.696047 -61.689331 -12.439612 -61.595238 -11.480193 -0.92559087 135.65439
73576000000 0.018513475 15.718314 -61.669621 -14.192568 -61.712608 -12.622206 -0.92132527 135.65797
73624000000 0.029035309 15.733091 -61.834221 -14.250528 -61.758369 -12.800544 -0.91951424 135.65381
73672000000 0.02282724 15.719959 -62.24604 -14.862891 -61.878231 -12.003521 -0.91550004 135.64944
73720000000 0.03956968 15.718061 -62.383606 -13.863018 -61.871155 -11.078934 -0.91149694 136.10266
73768000000 0.020146325 15.616994 -62.045258 -12.960073 -61.742119 -11.600426 -0.90875494 135.53065
73816000000 0.040233482 15.695133 -61.995266 -12.77553 -61.619038 -12.084116 -0.90916371 135.49992
73864000000 0.018912466 15.638367 -61.994217 -14.047289 -61.611656 -13.219842 -0.90561408 135.47598
73912000000 0.02981076 15.765791 -62.002495 -12.931459 -61.668232 -13.45468 -0.90104026 135.2011
73960000000 0.0079593677 15.72063 -61.691494 -14.483339 -61.705299 -13.789409 -0.89508855 135.2018
74008000000 0.02227409 15.798224 -61.796249 -15.01061 -61.667721 -14.226353 -0.88692278 135.35101
74056000000 0.012797786 15.75717 -61.72533 -14.324729 -61.717323 -13.780882 -0.89433855 135.28046
74104000000 0.027826093 15.827598 -61.708248 -15.229249 -61.617336 -14.616587 -0.88257253 135.3304
74152000000 0.016888261 15.867311 -61.761265 -16.213758 -61.626217 -14.106774 -0.88806599 135.33211
74200000000 0.025561573 15.887444 -61.830917 -15.970778 -61.595394 -14.49804 -0.86882061 135.44031
74248000000 0.021731686 15.866938 -61.739864 -15.671779 -61.640282 -14.641411 -0.88381487 135.28479
74296000000 0.028596615 15.941252 -61.577221 -14.276585 -61.531475 -14.550389 -0.86269534 135.37714
74344000000 0.020936759 15.946954 -61.849964 -16.553225 -61.475937 -14.811803 -0.87646961 135.2999
74392000000 0.020273609 15.923718 -61.546238 -16.036079 -61.443832 -15.376631 -0.86456776 135.28021
74440000000 0.015520899 16.01062 -61.342796 -16.005211 -61.487965 -16.249365 -0.86616737 135.2238
74488000000 0.012103447 16.001835 -61.602863 -18.399727 -61.379341 -16.795979 -0.86319107 135.18459
74536000000 0.011004151 16.019543 -61.292049 -17.885683 -61.246346 -16.914589 -0.86313993 135.06509
74584000000 0.0058695581 16.017443 -61.307911 -17.742096 -61.289307 -17.746964 -0.86629564 135.00125
74632000000 0.0059471102 16.036154 -61.219051 -20.182854 -61.174313 -18.743073 -0.85590518 134.91429
74680000000 0.007943348 16.068216 -61.36158 -21.203098 -61.247173 -19.516029 -0.86098719 134.8839
74728000000 0.0047624768 16.055729 -61.474434 -23.029806 -61.309517 -20.706686 -0.8597157 134.86488
74776000000 0.008015695 16.126081 -61.575542 -23.025824 -61.375828 -22.049759 -0.85237139 134.90813
74824000000 0.0063441568 16.03891 -61.967419 -23.114937 -61.673359 -22.871185 -0.84797508 134.87546
74872000000 0.0077970983 15.993841 -61.990955 -22.381779 -61.878822 -21.994341 -0.83490336 134.92117
74920000000 0.0066724159 16.059681 -62.188839 -22.558699 -61.916805 -21.195444 -0.82316256 134.75423
74968000000 -0.0030843727 16.09667 -62.328709 -23.227526 -61.923618 -21.049078 -0.81818026 134.78157
75016000000 -0.00032850535 16.19434 -62.416431 -21.334625 -62.011909 -21.024952 -0.81831092 134.73206
75064000000 -0.0022399726 16.195766 -62.275833 -19.166374 -62.074577 -20.46044 -0.82517207 134.71471
75112000000 0.0026571583 16.202791 -62.042217 -19.693506 -62.194035 -19.484064 -0.81711972 134.73715
75160000000 0.001365529 16.213579 -62.252052 -19.872721 -62.041199 -18.9662 -0.81683475 134.59218
75208000000 0.0053623319 16.222546 -62.41024 -18.103785 -62.138004 -18.163134 -0.81790304 134.63409
75256000000 0.0080363657 16.228348 -62.221855 -17.679016 -62.005363 -17.373211 -0.8253724 134.52202
75304000000 0.0094102193 16.190302 -62.153198 -17.411486 -61.899426 -16.91744 -0.81442255 134.63896
75352000000 0.020964067 16.278494 -61.878025 -17.169874 -61.723053 -16.876839 -0.82239014 134.51567
75400000000 0.011286617 16.213037 -61.907944 -16.750088 -61.693169 -17.198683 -0.81409597 134.46001
75448000000 0.018947517 16.260231 -61.704342 -17.254034 -61.592506 -17.806444 -0.82278931 134.37498
75496000000 0.0056668813 16.235998 -61.602737 -17.698486 -61.475601 -18.34684 -0.82549852 134.38875
75544000000 0.011680594 16.331141 -61.671265 -19.121742 -61.575848 -19.990408 -0.83012319 134.38942
75592000000 0.0061926837 16.258961 -61.671879 -17.960094 -61.626415 -19.959402 -0.8235718 134.35588
75640000000 0.0015642662 16.308155 -61.424759 -19.070438 -61.599384 -18.417639 -0.82479954 134.29982
75688000000 0.0041273679 16.362724 -61.315292 -19.842297 -61.473389 -19.117638 -0.82069743 134.28885
75736000000 -0.0013030362 16.362864 -61.053577 -21.570042 -61.417339 -20.462025 -0.81962091 134.16119
75784000000 0.0063612163 16.449556 -61.228451 -23.343437 -61.672619 -21.464273 -0.82086378 134.17993
75832000000 0.0062097441 16.441582 -61.623249 -24.014063 -61.757641 -20.344645 -0.82152116 134.09187
75880000000 0.0076751341 16.447697 -61.74696 -23.85206 -61.797062 -19.749271 -0.81159604 134.15826
75928000000 0.01077176 16.498962 -61.960476 -22.482872 -61.847359 -19.095545 -0.82331622 134.00822
75976000000 0.002729594 16.4233 -61.783283 -20.854591 -61.928528 -19.094505 -0.83127534 134.05139
76024000000 0.0075268084 16.424784 -61.738094 -20.095627 -61.789875 -18.833689 -0.8192417 134.05298
76072000000 0.00037740101 16.395777 -61.426479 -19.669334 -61.734291 -18.17071 -0.8227064 133.98987
76120000000 0.0053814636 16.457619 -61.407127 -18.614212 -61.480164 -16.952856 -0.83194023 133.94354
76168000000 -0.0040281708 16.439722 -61.490559 -20.556683 -61.394894 -17.627743 -0.8315838 133.93855
76216000000 0.002753394 16.491766 -61.163113 -21.37571 -61.225826 -18.210217 -0.84993309 133.88367
76264000000 -0.0046368395 16.485849 -61.521294 -21.763498 -61.280918 -19.656406 -0.85185993 133.89177
76312000000 0.0023730949 16.515793 -61.602222 -23.820566 -61.378574 -20.48184 -0.85950559 133.87041
76360000000 0.0066367481 16.534424 -61.789528 -21.987621 -61.461864 -20.34672 -0.85421264 133.87885
76408000000 0.0075945114 16.512657 -61.417091 -21.75317 -61.404835 -19.770214 -0.85820401 133.86139
76456000000 0.010128749 16.529743 -61.680954 -20.86937 -61.40276 -20.135477 -0.85775924 133.83609
76504000000 0.013362983 16.52696 -61.511822 -20.866381 -61.382866 -19.452881 -0.86231863 133.83804
76552000000 0.014559206 16.531494 -61.268188 -20.514456 -61.193256 -19.205639 -0.86366725 133.82593
76600000000 0.011992445 16.535629 -61.438591 -21.71129 -61.08234 -18.87694 -0.8647241 133.8058
76648000000 0.016490115 16.53229 -61.287014 -21.593718 -60.861568 -19.934893 -0.8684482 133.78644
76696000000 0.0080415336 16.595051 -61.231846 -23.338427 -60.892994 -20.681709 -0.86269593 133.73523
76744000000 0.014091181 16.620445 -60.998173 -23.440983 -60.706875 -22.217663 -0.86609024 133.69373
76792000000 0.002202855 16.653763 -61.103218 -24.862913 -60.675686 -24.209839 -0.85953873 133.74149
76840000000 0.019175863 16.656799 -61.397217 -25.356085 -60.846382 -26.017225 -0.85785073 133.67061
76888000000 0.014924509 16.642513 -61.57188 -27.033066 -61.041992 -28.51972 -0.84798831 133.61678
76936000000 0.010433997 16.653099 -61.714123 -26.251143 -61.460445 -28.053532 -0.85252768 133.5876
76984000000 0.017629789 16.691898 -61.724155 -23.938446 -61.697853 -27.369621 -0.84333861 133.55142
77032000000 0.011099685 16.681791 -61.664032 -23.863003 -61.9519 -25.381998 -0.85599977 133.55872
77080000000 0.020157147 16.693626 -61.583519 -24.287947 -61.865494 -23.489815 -0.86055034 133.54147
77128000000 0.018283032 16.704332 -61.469093 -23.769211 -61.596237 -22.488281 -0.87225044 133.5658
77176000000 0.018209308 16.706635 -61.247627 -24.017265 -61.33939 -23.170612 -0.86473078 133.58255
77224000000 0.026700413 16.727636 -61.340107 -25.482431 -61.310131 -25.029636 -0.86478698 133.68164
77272000000 0.011474058 16.687862 -61.39835 -26.615715 -61.373402 -26.031008 -0.85953367 133.66418
77320000000 0.023876695 16.775482 -61.484009 -26.735296 -61.600014 -26.514782 -0.85770756 133.60085
77368000000 0.019674264 16.747074 -61.462574 -27.632303 -61.569576 -26.332243 -0.86019725 133.5159
77416000000 0.025511649 16.774839 -61.551899 -27.793415 -61.557285 -26.277407 -0.86879915 133.3712
77464000000 0.02048591 16.777689 -61.633232 -28.28639 -61.598026 -26.870708 -0.86967063 133.36736
77512000000 0.024961928 16.819696 -61.678993 -29.12113 -61.636143 -27.163567 -0.86849749 133.40479
77560000000 0.021212399 16.822767 -61.820938 -28.633244 -61.739155 -27.149755 -0.86620587 133.25848
77608000000 0.026575375 16.85062 -61.969704 -29.141487 -61.883709 -27.651699 -0.858069 133.2108
77656000000 0.024739549 16.85911 -61.91626 -27.958916 -61.943642 -26.619688 -0.83921897 133.20219
77704000000 0.024244819 16.799063 -61.824905 -27.931648 -61.767582 -26.461185 -0.87479532 132.97076
77752000000 0.01159953 16.913582 -62.04266 -28.535183 -61.772346 -28.403486 -0.86472726 132.98326
77800000000 0.022243701 16.909655 -62.073231 -29.14805 -61.983799 -29.328987 -0.85802227 132.94409
77848000000 0.01988608 16.918737 -62.238667 -26.974977 -62.320713 -28.750217 -0.86276668 132.90747
77896000000 0.02220919 16.950954 -62.161564 -29.054926 -62.344631 -27.792831 -0.86334074 132.901
77944000000 0.019169163 16.961536 -62.242699 -28.593172 -62.391201 -26.291561 -0.86053145 132.85957
77992000000 0.027424833 16.983101 -62.374477 -27.710529 -62.289375 -27.489113 -0.85567224 132.82175
78040000000 0.022463631 16.986099 -62.408978 -27.412277 -62.444317 -26.965254 -0.86183339 132.75549
78088000000 0.02422577 16.974653 -62.354218 -26.494463 -62.606747 -25.532431 -0.85792136 132.7579
78136000000 0.026025275 16.99695 -62.239414 -26.319206 -62.585037 -24.791702 -0.86563557 132.7
78184000000 0.022118535 17.013479 -62.331196 -26.66855 -62.394794 -24.602493 -0.87577856 132.66843
78232000000 0.028242748 17.03907 -62.369011 -26.28964 -62.313469 -24.595242 -0.8789283 132.66739
78280000000 0.024301965 17.073599 -62.310219 -26.591589 -62.147999 -24.895071 -0.90030229 132.7383
78328000000 0.034658805 17.037659 -62.333603 -25.915653 -62.248985 -25.509798 -0.89832395 132.7103
78376000000 0.030268868 17.071333 -62.317535 -26.462828 -62.265224 -25.403278 -0.90804654 132.70456
78424000000 0.037580229 17.073744 -62.392319 -26.604795 -62.363785 -25.886284 -0.90022677 132.77003
78472000000 0.031686075 17.054415 -62.523483 -26.835611 -62.477196 -25.763901 -0.90631092 132.73103
78520000000 0.026244501 17.141338 -62.530956 -25.680416 -62.524445 -25.515039 -0.9066748 132.778
78568000000 0.03168299 17.088037 -62.677502 -25.406296 -62.553226 -25.039742 -0.9126808 132.70889
78616000000 0.039366517 17.136749 -62.596928 -25.079676 -62.608116 -24.889137 -0.89395082 132.70906
78664000000 0.030983441 17.138271 -62.478119 -24.001913 -62.643234 -23.661697 -0.91543519 132.63666
78712000000 0.035042964 17.183762 -62.391113 -24.008095 -62.51757 -22.887383 -0.89830393 132.65395
78760000000 0.030892454 17.170408 -62.317383 -24.304478 -62.425972 -23.054438 -0.91724581 132.52226
78808000000 0.03496439 17.26581 -62.260979 -25.447256 -62.318329 -23.033266 -0.90985662 132.57153
78856000000 0.028105412 17.172573 -62.287056 -26.432665 -62.198952 -23.883604 -0.91220653 132.53648
78904000000 0.033665895 17.23649 -62.479237 -27.279428 -62.389519 -24.974247 -0.90487725 132.45108
78952000000 0.033433687 17.220478 -62.604511 -25.303171 -62.464043 -24.475559 -0.91723233 132.3989
79000000000 0.024094483 17.222065 -62.896717 -24.484367 -62.607658 -24.210625 -0.9208107 132.44307
79048000000 0.036631625 17.289326 -62.801861 -24.982502 -62.771576 -23.629196 -0.91537732 132.41354
79096000000 0.025797291 17.196014 -63.105373 -23.732464 -62.811001 -21.768772 -0.93137801 132.42957
79144000000 0.043908719 17.300272 -62.881554 -20.968256 -62.639729 -20.521044 -0.92886639 132.52122
79192000000 0.031877775 17.1766 -62.629486 -19.839224 -62.464355 -19.453003 -0.9294464 132.55927
79240000000 0.040722802 17.261026 -62.561241 -19.418686 -62.353489 -19.394316 -0.92170423 132.5959
79288000000 0.032298155 17.224335 -62.407246 -20.262684 -62.267521 -19.185921 -0.91601688 132.593
79336000000 0.034478527 17.234783 -62.091625 -19.706778 -62.183022 -19.508348 -0.92303747 132.5692
79384000000 0.027416602 17.213661 -61.924805 -20.23064 -62.088924 -20.412609 -0.92377549 132.53058
79432000000 0.026910342 17.23843 -62.074299 -21.628906 -62.089127 -20.374218 -0.92344797 132.53607
79480000000 0.022326112 17.291437 -62.11755 -21.559467 -62.054558 -20.063381 -0.93876916 132.45082
79528000000 0.026097838 17.301207 -62.110519 -20.678732 -62.010952 -19.878553 -0.92235076 132.42879
79576000000 0.027302904 17.353548 -61.978928 -20.505495 -61.905891 -19.69758 -0.93903399 132.40842
79624000000 0.033620175 17.303724 -61.894333 -20.317223 -61.735291 -19.637863 -0.92047501 132.36821
79672000000 0.030955169 17.368771 -61.956955 -21.375822 -61.929718 -19.606874 -0.94428593 132.39474
79720000000 0.039277244 17.349438 -61.928925 -20.840658 -61.838787 -19.555319 -0.92852849 132.38728
79768000000 0.033909906 17.354134 -61.962536 -19.429501 -61.800228 -19.458744 -0.94043589 132.35065
79816000000 0.038050864 17.326799 -61.834229 -19.288145 -61.654282 -19.443935 -0.89977998 132.28296
79864000000 0.036671668 17.344007 -61.599197 -18.820477 -61.604568 -18.929415 -0.91622818 132.16911
79912000000 0.035193436 17.427832 -61.533733 -19.744356 -61.509735 -20.012098 -0.90968108 132.11537
79960000000 0.026702985 17.395308 -61.404331 -20.000172 -61.440193 -19.958183 -0.91667062 131.98888
80008000000 0.024689615 17.457031 -61.380486 -20.367767 -61.398796 -19.894627 -0.91435635 131.93806
80056000000 0.026556337 17.489731 -61.341644 -21.227839 -61.277081 -20.348434 -0.92425108 131.88971
80104000000 0.024507377 17.429653 -61.30621 -21.957659 -61.410297 -20.728745 -0.91386944 131.92131
80152000000 0.016979026 17.454433 -61.357323 -21.680168 -61.409859 -21.019859 -0.91002482 131.87056
80200000000 0.027401168 17.507164 -61.374943 -21.432747 -61.339245 -20.427813 -0.90905237 131.84848
80248000000 0.026424607 17.478542 -61.431969 -22.029629 -61.470978 -20.982077 -0.91116452 131.76401
80296000000 0.033936106 17.488024 -61.449551 -21.84952 -61.436058 -20.373007 -0.91654116 131.72961
80344000000 0.034745604 17.459536 -61.522461 -20.902079 -61.406158 -19.581587 -0.92232871 131.73315
80392000000 0.023835504 17.441107 -61.313404 -20.142788 -61.250923 -19.654448 -0.9194122 131.78079
80440000000 0.03481083 17.483253 -61.19199 -21.060251 -61.166157 -19.376844 -0.9265908 131.78438
80488000000 0.025014432 17.456177 -61.187878 -21.291685 -61.077541 -20.034197 -0.92722207 131.78908
80536000000 0.030264242 17.501741 -61.116192 -21.295223 -61.028637 -20.289743 -0.91374069 131.78235
80584000000 0.024659758 17.496964 -61.253513 -21.522724 -60.984062 -20.640543 -0.92846757 131.66273
80632000000 0.023155287 17.484037 -61.162891 -21.170624 -60.957718 -20.146696 -0.9250716 131.65407
80680000000 0.012703321 17.496178 -61.176422 -20.910627 -60.851654 -20.016863 -0.93065631 131.56772
80728000000 0.022214342 17.525974 -60.885391 -20.877356 -60.794624 -20.593714 -0.91989911 131.50432
80776000000 0.017951524 17.563885 -60.805611 -21.169331 -60.742676 -21.060938 -0.94217783 131.42082
80824000000 0.026664395 17.612917 -60.689426 -22.163168 -60.735283 -21.407587 -0.93472755 131.45567
80872000000 0.028680449 17.595179 -60.83128 -22.36199 -60.840366 -21.914383 -0.94573367 131.39418
80920000000 0.040450964 17.653957 -60.83197 -21.245741 -60.826965 -22.163042 -0.93486172 131.42038
80968000000 0.036646511 17.580284 -60.838558 -21.047848 -60.828144 -21.035969 -0.94620162 131.36795
81016000000 0.036680907 17.583902 -60.692566 -21.247169 -60.722008 -20.999165 -0.92500305 131.4651
81064000000 0.02672614 17.61742 -60.778526 -22.197941 -60.620815 -21.208721 -0.92563057 131.40703
81112000000 0.027227791 17.617386 -60.710251 -22.096952 -60.595215 -21.398294 -0.90939385 131.37346
81160000000 0.020086033 17.573854 -60.926956 -22.023914 -60.68531 -22.039856 -0.92655045 131.27582
81208000000 0.023975551 17.615156 -60.804329 -20.957211 -60.718468 -21.392536 -0.92481089 131.25705
81256000000 0.019402651 17.658648 -60.629128 -20.464155 -60.501617 -20.66618 -0.91825819 131.15601
81304000000 0.010624057 17.633345 -60.350227 -20.43572 -60.466927 -21.38443 -0.91861063 131.15831
81352000000 0.017654538 17.754887 -60.363899 -20.895712 -60.393265 -21.536669 -0.92612362 131.15997
81400000000 0.014359514 17.728863 -60.314034 -20.595032 -60.404232 -21.027412 -0.93729907 131.24599
81448000000 0.02834459 17.705286 -60.202305 -21.025387 -60.344086 -20.987991 -0.93319654 131.13905
81496000000 0.041998681 17.728382 -60.046154 -21.33884 -60.153851 -21.361662 -0.9292444 131.15018
81544000000 0.00094318227 17.513117 -59.979538 -22.085043 -60.09761 -21.737669 -0.92698908 131.20247
81592000000 0.025663478 17.619623 -59.937702 -22.622099 -60.041622 -22.36301 -0.94144213 131.22122
81640000000 0.020268971 17.633984 -59.877876 -22.711655 -60.019726 -22.20248 -0.9308821 131.10825
81688000000 0.027701089 17.725615 -59.935989 -22.315762 -59.972534 -22.609074 -0.91218096 131.181
81736000000 0.0190269 17.670048 -59.718739 -22.91164 -59.901897 -22.303314 -0.94551802 131.13148
81784000000 0.022852477 17.709309 -59.68092 -23.519033 -59.82457 -22.873775 -0.93930966 131.2148
81832000000 0.009048068 17.65699 -59.652172 -24.491514 -59.784698 -23.420176 -0.93886751 131.18242
81880000000 0.019577371 17.724791 -59.546272 -25.38929 -59.798698 -24.665436 -0.90428364 131.11472
81928000000 0.013709293 17.7216 -59.700871 -26.415749 -59.807426 -24.849606 -0.89703643 130.98436
81976000000 0.016883103 17.785795 -59.736515 -26.457256 -59.850521 -25.093369 -0.88705552 130.87924
82024000000 0.021375198 17.837748 -59.723969 -26.980431 -59.76947 -25.438026 -0.88786143 130.74875
82072000000 0.02308731 17.89006 -59.837582 -26.731083 -59.864033 -24.833721 -0.88372666 130.68279
82120000000 0.023087826 17.915598 -59.825882 -25.574621 -59.790329 -24.96257 -0.88945854 130.63445
82168000000 0.030899137 17.863981 -59.657646 -25.133255 -59.779606 -25.377235 -0.88168895 130.50633
82216000000 0.028727766 17.944878 -59.503922 -25.695211 -59.701424 -25.784704 -0.88824385 130.49428
82264000000 0.032060731 17.918213 -59.44162 -25.936043 -59.817917 -25.678257 -0.88052779 130.39857
82312000000 0.021633293 17.923056 -59.436478 -25.92346 -59.688496 -25.73597 -0.88444662 130.30843
82360000000 0.015429072 17.938013 -59.290241 -28.043768 -59.734467 -26.547462 -0.88167089 130.25673
82408000000 0.011464247 17.921476 -59.338905 -28.112009 -59.611458 -26.196466 -0.87837559 130.2988
82456000000 0.0071934448 17.901583 -59.445305 -28.52354 -59.610954 -26.804106 -0.88361371 130.27301
82504000000 0.00059015997 17.902174 -59.427044 -29.578762 -59.65797 -26.609098 -0.87839586 130.29507
82552000000 0.0013380984 17.930069 -59.550995 -30.229816 -59.69936 -26.515375 -0.88688946 130.25818
82600000000 0.0005616892 17.960686 -59.568104 -30.276648 -59.626835 -26.810034 -0.885373 130.31461
82648000000 0.0041692629 18.011885 -59.559246 -29.992016 -59.620579 -26.742056 -0.87979263 130.27902
82696000000 0.017597305 18.025284 -59.528835 -30.038794 -59.565109 -27.218885 -0.8720172 130.26228
82744000000 0.028290585 18.052353 -59.615475 -30.268703 -59.564423 -27.910315 -0.86762178 130.24982
82792000000 0.032323848 18.022093 -59.635696 -29.625235 -59.595764 -28.041206 -0.87009442 130.18672
82840000000 0.035479467 18.025349 -59.524433 -29.469965 -59.62664 -27.753767 -0.8688181 130.16672
82888000000 0.032208737 17.954012 -59.436001 -29.673244 -59.580261 -28.212051 -0.87806857 130.03098
82936000000 0.020033469 17.940609 -59.295658 -30.396645 -59.587978 -28.530968 -0.88229913 129.9772
82984000000 0.01205027 17.972845 -59.301701 -32.422581 -59.625706 -29.22193 -0.88649929 129.86823
83032000000 0.0059605525 18.008856 -59.723648 -32.546898 -59.607376 -29.01782 -0.89812565 129.77071
83080000000 0.0031481455 18.070459 -59.679031 -32.199684 -59.596935 -29.916803 -0.89756286 129.74606
83128000000 -0.00019906765 18.108829 -59.783157 -32.884563 -59.840824 -29.493328 -0.90731406 129.66957
83176000000 0.0022147563 18.16081 -59.853447 -32.249523 -60.031528 -28.126526 -0.89695817 129.67175
83224000000 -0.00056098518 18.188124 -59.982185 -30.795151 -59.970375 -25.916929 -0.89846593 129.59659
83272000000 0.011758042 18.214207 -59.894814 -30.682821 -59.800816 -25.872025 -0.89094305 129.51582
83320000000 0.017724661 18.208443 -59.751373 -29.831804 -59.726246 -25.842237 -0.88253576 129.58031
83368000000 0.022000063 18.20186 -59.742363 -29.016266 -59.611195 -25.005802 -0.87603003 129.43541
83416000000 0.0305105 18.224216 -59.500191 -28.920012 -59.400887 -25.249258 -0.87444359 129.38268
83464000000 0.035042964 18.240923 -59.246552 -29.122561 -59.20182 -25.714094 -0.88253891 129.37988
83512000000 0.03046166 18.240824 -59.006474 -30.466824 -59.077621 -27.152914 -0.88486552 129.42198
83560000000 0.028804911 18.26075 -59.110886 -31.878994 -59.036934 -27.605017 -0.89197284 129.39999
83608000000 0.018428929 18.222307 -59.367168 -33.720623 -59.0868 -27.901011 -0.88974857 129.40311
83656000000 0.01828561 18.236252 -59.460529 -33.883266 -58.99522 -28.68392 -0.88938421 129.33868
83704000000 0.0096354503 18.203472 -59.689163 -33.486092 -59.076988 -29.115086 -0.88440186 129.35016
83752000000 0.008922006 18.255184 -59.771984 -32.919884 -59.08532 -29.429878 -0.87137049 129.39919
83800000000 -0.00047710459 18.239162 -59.557636 -31.932972 -59.166935 -29.813181 -0.87651968 129.31573
83848000000 0.01315343 18.333509 -59.572731 -31.960905 -59.213402 -30.110704 -0.87593818 129.24065
83896000000 0.014629379 18.342768 -59.596493 -31.54232 -59.359974 -29.559692 -0.87951082 129.26591
83944000000 0.023865882 18.358578 -59.58749 -32.34243 -59.337116 -28.788992 -0.87453634 129.27664
83992000000 0.036225531 18.371716 -59.772915 -31.250141 -59.295837 -28.285219 -0.88117558 129.25746
84040000000 0.040834613 18.289368 -59.520748 -30.144491 -59.068764 -28.047104 -0.87538397 129.25
84088000000 0.055536885 18.351702 -59.46764 -30.16761 -58.919212 -28.311897 -0.88384724 129.26604
84136000000 0.042413466 18.340984 -59.303848 -29.420774 -58.912189 -28.809553 -0.89863753 129.22842
84184000000 0.032017048 18.362455 -59.249748 -29.542665 -58.785896 -29.124153 -0.89512098 129.23172
84232000000 0.026087545 18.368086 -59.094845 -31.297081 -58.828026 -30.099264 -0.92216033 129.09505
84280000000 0.0061296113 18.409756 -58.949066 -31.381092 -58.83606 -30.023643 -0.9014796 129.23839
84328000000 0.010709271 18.47188 -59.019825 -31.143614 -58.782986 -30.505964 -0.9033972 129.07883
84376000000 0.00031942112 18.509024 -58.754589 -32.943466 -58.719749 -31.033806 -0.91274112 129.00676
84424000000 0.0024714067 18.590584 -59.050053 -34.445522 -58.694237 -31.721285 -0.91632056 128.93396
84472000000 -0.0025878146 18.550505 -59.135479 -34.153141 -58.644573 -31.799055 -0.91573054 128.92207
84520000000 0.011167333 18.639013 -59.094643 -34.78376 -58.626297 -32.697906 -0.91085166 128.95386
84568000000 0.0099025099 18.60004 -59.228729 -34.089916 -58.730381 -33.188377 -0.90420997 128.91449
84616000000 0.027920745 18.654659 -59.062187 -33.230984 -58.726124 -33.812271 -0.88909829 128.92657
84664000000 0.025776189 18.637581 -58.904408 -33.782589 -58.840363 -34.108803 -0.88897914 128.90605
84712000000 0.024093455 18.628849 -58.894222 -35.061329 -58.923313 -34.127892 -0.88756198 128.83032
84760000000 0.02711769 18.615641 -59.071091 -35.767685 -58.960732 -33.785141 -0.8898744 128.80247
84808000000 0.023648081 18.58036 -59.241154 -35.433994 -58.973721 -34.183224 -0.89453095 128.89235
84856000000 0.021760534 18.590811 -59.248085 -34.864437 -58.971676 -33.883266 -0.89809763 128.96494
84904000000 0.019752601 18.601513 -59.211357 -34.24622 -59.060825 -33.888199 -0.9070493 128.93338
84952000000 0.025562087 18.66539 -59.124313 -34.877876 -58.917572 -33.597507 -0.89995831 128.89957
85000000000 0.024105296 18.617823 -59.14328 -34.304993 -58.88493 -33.675213 -0.86968642 128.76819
85048000000 0.021987185 18.672256 -59.012749 -34.314522 -58.921211 -34.833897 -0.87812275 128.76204
85096000000 0.0043735611 18.585855 -58.951252 -35.303177 -58.884834 -34.509979 -0.85610068 128.67876
85144000000 0.027449528 18.570993 -58.99202 -35.307701 -59.041374 -35.018661 -0.89354444 128.91043
85192000000 0.031935338 18.713808 -58.90406 -36.264694 -59.077488 -34.976982 -0.84365326 128.3223
85240000000 0.028622331 18.621084 -59.16423 -35.966236 -59.058975 -35.41127 -0.8706764 128.54057
85288000000 0.040248357 18.465414 -59.246452 -35.800804 -59.177147 -34.691875 -0.88688278 128.43159
85336000000 0.038609706 18.641296 -59.016155 -35.211323 -59.117043 -33.822891 -0.8600843 128.31625
85384000000 0.041079246 18.790794 -59.042263 -35.91758 -59.043087 -33.064781 -0.90465885 128.50693
85432000000 0.04460619 18.735119 -58.992527 -36.07782 -58.991814 -33.537689 -0.89455736 128.51317
85480000000 0.030423617 18.771852 -59.098793 -36.760487 -59.007538 -33.212364 -0.88952273 128.46744
85528000000 0.040416598 18.709881 -59.154518 -36.933472 -58.907154 -33.140915 -0.87306529 128.49783
85576000000 0.032782204 18.677464 -59.285572 -35.758804 -58.969879 -33.527077 -0.90619516 128.22003
85624000000 0.029731575 18.69264 -59.141399 -35.196358 -58.893383 -33.226109 -0.89110893 128.31813
85672000000 0.019116072 18.710161 -59.054218 -35.101147 -58.755974 -32.941517 -0.89284968 128.26924
85720000000 0.027307021 18.821451 -59.002972 -35.09206 -58.645962 -32.834316 -0.87101996 128.27118
85768000000 0.014071571 18.760004 -58.944572 -35.209011 -58.579815 -33.488129 -0.89947176 128.12679
85816000000 0.036994562 18.933104 -58.707798 -35.650761 -58.450226 -34.225323 -0.8808071 128.25571
85864000000 0.028487578 18.782812 -58.549797 -36.677605 -58.482861 -35.21405 -0.89589661 128.08096
85912000000 0.043816976 18.970289 -58.758732 -37.249989 -58.506195 -36.108494 -0.88513017 128.14409
85960000000 0.037458073 18.867809 -58.856194 -37.873333 -58.602081 -36.123646 -0.88901377 128.09195
86008000000 0.049235567 18.870501 -58.938526 -36.996517 -58.57299 -36.208401 -0.89430034 128.1212
86056000000 0.036596201 18.851456 -58.845558 -36.463818 -58.544827 -36.285 -0.88599229 127.96492
86104000000 0.02981076 18.91818 -58.774292 -36.758442 -58.53875 -36.731564 -0.89528322 128.04884
86152000000 0.030870864 18.956278 -58.785904 -37.024479 -58.615532 -36.969772 -0.90030676 128.1017
86200000000 0.028382139 18.927299 -58.666569 -38.525982 -58.637611 -37.315563 -0.90355271 128.1209
86248000000 0.02343954 18.914812 -58.768288 -40.681313 -58.730373 -37.723373 -0.86141294 126.45103
86296000000 0.017371453 18.904701 -59.026188 -38.999802 -58.790928 -37.167583 -0.91459662 127.73486
86344000000 0.036667559 18.968239 -58.963631 -38.667965 -58.808018 -36.739552 -0.83757305 127.84146
86392000000 0.022882346 18.930904 -59.0172 -37.956562 -58.787628 -36.450424 -0.90574741 127.79494
86440000000 0.017965445 18.988863 -58.953804 -37.062145 -58.765457 -35.76545 -0.90118843 127.84131
86488000000 0.019459346 19.047138 -58.854538 -38.042473 -58.585133 -36.153957 -0.89825583 127.63822
86536000000 0.027398081 19.054958 -58.817188 -37.966099 -58.608891 -37.035446 -0.89988446 127.64628
86584000000 0.039389603 19.00102 -58.896069 -38.710316 -58.617928 -37.416557 -0.88736224 127.55538
86632000000 0.03378097 19.010605 -58.943951 -38.273548 -58.634159 -37.931168 -0.91550231 127.67506
86680000000 0.03446928 18.932932 -59.077595 -36.576954 -58.753803 -37.347572 -0.92978239 127.65101
86728000000 0.044933107 19.245695 -58.99263 -36.379803 -58.896576 -36.923233 -0.90096861 127.53691
86776000000 0.052568186 19.142487 -58.737835 -36.53635 -58.730724 -36.153023 -0.89041173 127.5193
86824000000 0.033755284 19.006969 -58.752422 -36.50219 -58.651257 -36.568447 -0.90969354 127.52908
86872000000 0.032651179 19.090048 -58.648941 -36.837528 -58.550812 -35.965752 -0.89647192 127.47316
86920000000 0.024039393 19.040874 -58.618191 -37.157745 -58.47781 -36.253227 -0.91216242 127.42465
86968000000 0.027682057 19.176105 -58.479771 -36.738586 -58.43626 -36.763241 -0.91815776 127.49673
87016000000 0.010190213 19.0474 -58.463619 -37.755215 -58.398441 -37.098198 -0.93317986 127.36613
87064000000 0.018929992 19.139975 -58.3839 -37.02079 -58.415615 -37.151123 -0.92416203 127.42109
87112000000 0.027632156 19.029211 -58.364109 -38.077213 -58.397881 -37.853821 -0.91544479 127.19039
87160000000 0.02990691 19.199238 -58.38665 -38.299492 -58.35054 -37.768551 -0.92710668 127.31601
87208000000 0.038209952 19.214901 -58.384701 -38.623592 -58.423809 -37.940735 -0.91636407 127.27073
87256000000 0.037485275 19.216547 -58.271172 -38.908787 -58.392654 -37.799244 -0.9210363 127.35157
87304000000 0.040177569 19.193678 -58.303928 -39.022686 -58.376797 -37.792549 -0.92267573 127.43962
87352000000 0.036037613 19.192179 -58.3339 -39.38752 -58.353558 -38.056213 -0.94407809 127.38747
87400000000 0.036156733 19.129126 -58.359299 -38.969669 -58.37458 -37.660053 -0.95659381 127.41022
87448000000 0.034724548 19.246202 -58.440796 -39.103352 -58.294487 -37.389389 -0.94113475 127.2567
87496000000 0.036792822 19.178511 -58.377811 -38.837639 -58.291168 -37.50539 -0.94825149 127.24745
87544000000 0.02472874 19.270067 -58.361591 -38.082283 -58.216034 -36.901505 -0.92642421 127.29534
87592000000 0.028986454 19.210543 -58.337929 -38.292324 -58.143978 -37.170387 -0.9353202 127.3315
87640000000 0.012341961 19.327496 -58.148922 -38.713379 -57.989021 -37.669525 -0.92170388 127.1709
87688000000 0.014560753 19.290411 -58.033878 -39.394032 -57.873463 -37.832394 -0.9597404 127.28761
87736000000 0.014745473 19.352629 -57.966198 -40.009644 -57.867889 -38.988644 -0.92938709 127.08405
87784000000 0.02459335 19.291681 -57.885624 -40.787621 -57.82938 -39.410812 -0.91832024 127.14956
87832000000 0.029959869 19.313858 -57.878208 -40.830265 -57.871571 -39.433918 -0.93782264 127.1797
87880000000 0.022241125 19.398422 -57.890232 -41.307384 -57.898483 -40.398052 -0.93098217 127.11094
87928000000 0.033437796 19.283669 -57.95816 -41.925766 -57.923382 -40.751442 -0.9368012 127.08881
87976000000 0.029121192 19.488695 -57.979916 -41.62854 -57.916862 -40.880936 -0.93555522 127.12747
88024000000 0.037037682 19.234222 -58.014263 -41.659424 -57.943306 -40.884575 -0.93362689 126.98325
88072000000 0.025130764 19.490978 -57.961964 -42.324043 -57.91748 -40.785385 -0.93692356 127.08702
88120000000 0.027497886 19.326792 -57.939453 -42.59866 -57.898163 -41.037407 -0.91670102 126.97147
88168000000 0.038259219 19.471262 -58.011745 -42.715691 -57.853901 -41.293083 -0.92748612 127.22417
88216000000 0.020286491 19.344378 -58.03857 -42.671795 -57.911346 -41.676014 -0.93691748 127.06992
88264000000 0.024645343 19.391336 -58.079639 -42.204929 -57.895119 -42.062855 -0.91379499 127.00984
88312000000 0.016589655 19.436455 -58.006237 -42.494316 -57.929684 -41.768559 -0.92076302 126.88202
88360000000 0.0168403 19.476702 -58.008148 -42.901432 -57.895145 -41.95974 -0.91935337 126.90916
88408000000 0.013232402 19.574629 -57.944687 -42.76202 -57.897278 -42.184872 -0.92541629 126.86011
88456000000 0.027748417 19.551851 -57.986286 -42.795341 -57.884525 -42.374126 -0.92033362 126.80969
88504000000 0.017085258 19.395586 -57.92379 -42.742916 -57.930393 -42.361958 -0.93393081 126.85936
88552000000 0.045646809 19.637058 -57.910805 -43.014431 -57.941757 -42.395123 -0.91598111 126.61665
88600000000 0.035489738 19.473314 -57.896706 -43.678158 -57.907074 -42.201214 -0.91544348 126.27052
88648000000 0.0038987473 19.078726 -57.96064 -44.121548 -57.980049 -42.032104 -0.93643349 126.41521
88696000000 0.038930405 19.555225 -57.938625 -43.635704 -57.904118 -41.924866 -0.88765568 126.20422
88744000000 0.024315866 19.510439 -57.780476 -43.224758 -57.826382 -42.186047 -0.90028191 126.72435
88792000000 0.024847651 19.640402 -57.791454 -43.50602 -57.774414 -42.121342 -0.91161698 126.64404
88840000000 0.02673077 19.576391 -57.75206 -43.789433 -57.755112 -42.490936 -0.89648974 126.52712
88888000000 0.011654261 19.338858 -57.740417 -44.070858 -57.749588 -42.772438 -0.93154156 126.41493
88936000000 0.011600562 19.802704 -57.763783 -43.542622 -57.696823 -43.031715 -0.90263045 126.57316
88984000000 0.0059962263 19.638979 -57.739574 -43.399132 -57.662399 -42.674824 -0.9090485 126.55052
89032000000 0.01332479 19.798702 -57.589523 -44.271206 -57.646519 -43.139088 -0.90055484 126.43705
89080000000 0.015984643 19.77231 -57.601372 -44.682285 -57.555489 -43.365952 -0.9095068 126.35615
89128000000 0.018521722 19.782766 -57.634792 -45.06028 -57.544754 -43.88974 -0.90052396 126.24374
89176000000 0.017817471 19.797493 -57.603676 -45.553867 -57.589378 -44.049088 -0.89749634 126.28471
89224000000 0.022690762 19.786392 -57.615986 -45.590691 -57.563728 -44.272057 -0.89195061 126.11764
89272000000 0.028802855 19.861662 -57.585476 -45.506321 -57.557583 -44.581303 -0.8926214 126.18261
89320000000 0.024890376 19.801039 -57.596184 -45.894802 -57.552517 -44.55793 -0.90128076 126.01948
89368000000 0.03102148 19.823372 -57.507915 -45.441116 -57.473991 -44.758739 -0.89482838 126.15047
89416000000 0.017337937 19.8396 -57.555546 -45.859097 -57.503723 -45.055424 -0.90109825 126.04675
89464000000 0.023581658 19.833168 -57.51873 -46.014824 -57.522762 -45.241905 -0.8875134 126.10882
89512000000 0.0057253069 19.981987 -57.519581 -46.623825 -57.52235 -45.35598 -0.89528579 125.99668
89560000000 0.011348066 19.757311 -57.587128 -47.037678 -57.532486 -45.812496 -0.89120877 126.02948
89608000000 0.013222078 19.844151 -57.630627 -47.095284 -57.521126 -45.507694 -0.89103365 125.86782
89656000000 0.012368806 19.870392 -57.53949 -46.819908 -57.497761 -45.722874 -0.88660306 125.8884
89704000000 0.011872664 19.927078 -57.62249 -46.820099 -57.487972 -45.828037 -0.88387734 125.74101
89752000000 0.016586561 19.958206 -57.597694 -47.03178 -57.445225 -45.728912 -0.89041394 125.74155
89800000000 0.018734626 20.021267 -57.536251 -47.088108 -57.418282 -46.017681 -0.89552981 125.62936
89848000000 0.028259723 20.189102 -57.509499 -47.244705 -57.403667 -46.330765 -0.89677423 125.58874
89896000000 0.034121029 20.171526 -57.505981 -47.467289 -57.415745 -46.577717 -0.91990936 125.52609
89944000000 0.059972346 20.10515 -57.420258 -47.462353 -57.428116 -46.681572 -0.90397507 125.57292
89992000000 0.056622922 19.986858 -57.443756 -48.037548 -57.415173 -47.120934 -0.91878396 125.43884
90040000000 0.043803141 19.962755 -57.481712 -47.998081 -57.413555 -47.17976 -0.90709716 125.43974
90088000000 0.030070925 20.002274 -57.46706 -48.147881 -57.506832 -47.301979 -0.92401856 125.37212
90136000000 0.0093704406 20.102814 -57.470531 -48.325657 -57.428524 -47.147644 -0.91154039 125.32997
90184000000 0.029340776 20.265421 -57.497372 -47.949738 -57.415382 -47.176331 -0.93191278 125.27108
90232000000 0.032827936 20.114719 -57.417561 -48.903683 -57.35458 -47.473648 -0.93557513 125.10629
90280000000 0.024625782 20.167915 -57.529247 -49.008205 -57.422291 -47.730316 -0.9476226 125.20312
90328000000 0.031624399 20.232946 -57.511417 -49.026642 -57.449959 -47.744324 -0.93205678 125.18811
90376000000 0.031678367 20.175028 -57.532272 -48.491245 -57.459797 -47.641697 -0.93967122 125.18383
90424000000 0.039515812 20.183815 -57.509457 -48.667171 -57.423481 -47.716198 -0.92304581 125.17123
90472000000 0.030538261 20.178888 -57.488747 -48.736801 -57.416302 -47.355652 -0.93321514 125.15086
90520000000 0.045443419 20.370131 -57.390785 -48.826801 -57.448025 -47.712563 -0.9068675 125.08542
90568000000 0.056918278 20.193624 -57.377522 -48.975403 -57.455841 -47.704945 -0.91884542 124.92368
90616000000 0.057603955 20.273775 -57.388939 -49.197422 -57.426247 -47.631969 -0.93572283 124.86375
90664000000 0.062446099 20.230536 -57.436646 -49.214951 -57.375507 -47.550171 -0.93706459 125.03616
90712000000 0.049840059 20.096437 -57.393482 -49.143208 -57.368416 -47.882187 -0.94323242 124.89527
90760000000 0.031222977 20.202528 -57.381779 -49.150349 -57.320148 -47.634899 -0.95707554 124.9545
90808000000 0.039380368 20.294315 -57.374489 -49.274292 -57.294563 -47.793121 -0.95207524 124.90945
90856000000 0.039312646 20.298714 -57.330223 -49.191006 -57.273811 -47.863678 -0.96663415 124.88433
90904000000 0.038714897 20.273726 -57.359081 -49.626125 -57.22702 -47.903481 -0.95649087 124.91736
90952000000 0.033449613 20.258921 -57.348785 -49.541283 -57.152393 -47.972942 -0.96379441 124.89326
91000000000 0.035094321 20.271616 -57.306953 -49.696457 -57.154343 -48.139942 -0.93708259 124.90296
91048000000 0.034466714 20.290092 -57.307693 -49.600254 -57.175518 -48.411961 -0.94863278 124.79142
91096000000 0.041209508 20.341471 -57.200211 -49.92281 -57.166813 -48.835999 -0.93035322 124.70166
91144000000 0.045424461 20.390127 -57.207565 -50.12463 -57.168343 -48.790974 -0.9413386 124.73588
91192000000 0.054888196 20.389441 -57.182369 -50.431469 -57.183376 -49.059029 -0.94137913 124.58962
91240000000 0.062434874 20.406324 -57.190319 -50.742134 -57.193253 -48.723324 -0.93999231 124.62053
91288000000 0.063729897 20.337864 -57.187355 -50.191139 -57.18285 -48.8596 -0.95863307 124.55872
91336000000 0.068131521 20.423929 -57.216465 -50.2994 -57.144623 -48.553474 -0.94506878 124.65215
91384000000 0.062857918 20.392717 -57.21516 -50.294697 -57.0672 -48.397606 -0.96332002 124.53555
91432000000 0.059379473 20.36825 -57.107769 -49.859032 -57.05463 -48.689976 -0.94811881 124.52959
91480000000 0.052954853 20.353209 -57.051311 -50.347038 -56.928188 -48.789448 -0.95592344 124.50927
91528000000 0.044636425 20.385975 -57.065411 -50.682388 -56.911041 -48.794113 -0.95138621 124.43564
91576000000 0.04244525 20.421335 -57.043179 -51.174648 -56.914612 -49.174232 -0.94789535 124.43847
91624000000 0.042415004 20.391493 -57.068867 -50.942039 -56.853832 -49.300106 -0.95053655 124.35753
91672000000 0.039416283 20.440575 -56.997639 -50.912277 -56.8325 -49.545372 -0.94712454 124.38447
91720000000 0.043198317 20.464579 -56.986694 -50.737854 -56.756866 -49.617027 -0.94118363 124.29786
91768000000 0.057369448 20.532253 -56.901657 -50.487724 -56.749229 -49.611008 -0.93672669 124.35242
91816000000 0.05819656 20.465584 -56.797867 -50.925514 -56.694778 -49.991982 -0.93393403 124.28655
91864000000 0.068982057 20.474854 -56.754704 -51.764786 -56.67046 -50.62294 -0.93046033 124.27024
91912000000 0.071501106 20.447216 -56.75666 -51.920372 -56.63554 -50.967075 -0.93001044 124.19699
91960000000 0.074520007 20.463186 -56.694744 -51.51067 -56.627384 -51.060219 -0.92811948 124.12389
92008000000 0.074139833 20.503448 -56.620338 -52.391033 -56.577858 -51.700741 -0.93928975 124.04752
92056000000 0.074090458 20.457779 -56.577793 -52.412632 -56.56739 -52.075405 -0.93884116 124.11917
92104000000 0.06867478 20.461037 -56.567741 -53.553684 -56.593216 -52.479721 -0.95179647 124.0457
92152000000 0.069558337 20.43457 -56.512463 -53.842129 -56.584927 -53.251961 -0.93512625 124.04501
92200000000 0.065509543 20.463198 -56.660812 -55.115967 -56.605862 -53.483219 -0.95375192 124.021
92248000000 0.067914911 20.50354 -56.801613 -55.426136 -56.613605 -53.566921 -0.93672734 124.08428
92296000000 0.057908442 20.515415 -56.854767 -55.960346 -56.683575 -54.023151 -0.95360428 123.95568
92344000000 0.062848732 20.553619 -56.937466 -55.550312 -56.697075 -53.744858 -0.93610364 123.91302
92392000000 0.056572843 20.546148 -57.031052 -54.859287 -56.744999 -53.950089 -0.95185709 123.86951
92440000000 0.05693974 20.566814 -56.897999 -54.476379 -56.713585 -53.840313 -0.94762677 123.83013
92488000000 0.059496421 20.609377 -56.813801 -54.102844 -56.704346 -53.759361 -0.94984388 123.8391
92536000000 0.06583897 20.615936 -56.705902 -54.217102 -56.661961 -54.126293 -0.94437343 123.71447
92584000000 0.068637073 20.623135 -56.700233 -54.762695 -56.677807 -54.198154 -0.94902599 123.74033
92632000000 0.071253091 20.615696 -56.637703 -55.452019 -56.66663 -54.363689 -0.95808756 123.72747
92680000000 0.074843153 20.645473 -56.626003 -55.613571 -56.649799 -54.563148 -0.95550114 123.73195
92728000000 0.068244152 20.580051 -56.626892 -55.985367 -56.636757 -54.648998 -0.95811278 123.703
92776000000 0.065763496 20.581535 -56.71632 -56.01305 -56.645424 -54.807983 -0.95846069 123.69647
92824000000 0.059440248 20.568705 -56.697739 -56.202156 -56.659721 -54.963829 -0.9542079 123.65857
92872000000 0.053510759 20.569162 -56.701366 -56.409054 -56.656025 -54.883923 -0.95165724 123.64339
92920000000 0.053267848 20.618382 -56.708111 -56.201134 -56.666916 -54.965549 -0.94337326 123.65379
92968000000 0.04747843 20.660568 -56.707073 -56.598518 -56.624363 -54.934715 -0.94983613 123.51675
93016000000 0.049922973 20.718834 -56.682251 -56.742577 -56.597363 -55.023365 -0.94670314 123.60137
93064000000 0.041339252 20.666445 -56.670071 -56.873642 -56.567463 -55.483044 -0.9562012 123.42276
93112000000 0.054509368 20.785845 -56.665672 -57.040146 -56.570526 -55.553509 -0.95822412 123.53764
93160000000 0.051753305 20.690453 -56.633217 -56.88295 -56.576118 -55.822884 -0.95628989 123.46255
93208000000 0.057956971 20.784073 -56.577801 -57.495152 -56.575802 -55.99712 -0.96133441 123.44659
93256000000 0.060564622 20.771805 -56.598988 -57.772827 -56.557159 -56.053253 -0.95093507 123.47254
93304000000 0.062527239 20.748661 -56.632977 -58.314026 -56.533909 -56.20713 -0.95636052 123.41906
93352000000 0.070205852 20.793901 -56.659294 -58.238079 -56.536411 -56.654915 -0.95009965 123.46482
93400000000 0.067180388 20.729692 -56.740284 -58.235718 -56.534897 -56.805668 -0.95561308 123.37917
93448000000 0.058567405 20.756596 -56.626495 -57.696583 -56.524956 -57.069763 -0.95528924 123.40331
93496000000 0.068944864 20.869953 -56.63781 -57.951935 -56.521832 -56.890076 -0.95023978 123.40704
93544000000 0.054273669 20.733274 -56.64558 -58.548088 -56.493202 -57.121143 -0.94705176 123.30089
93592000000 0.05494801 20.851641 -56.656071 -58.328873 -56.491325 -57.407337 -0.96257877 123.34202
93640000000 0.048693962 20.823566 -56.675701 -58.516773 -56.493286 -57.573101 -0.96503431 123.29116
93688000000 0.044932596 20.865973 -56.729698 -58.558411 -56.519547 -57.719635 -0.95213622 123.33659
93736000000 0.050092887 21.0028 -56.594807 -58.707203 -56.536766 -58.03331 -0.94169486 123.27101
93784000000 0.039493237 20.892845 -56.612461 -58.748596 -56.569557 -57.879871 -0.94090074 123.20903
93832000000 0.057810355 21.086533 -56.638988 -59.208595 -56.586605 -58.07214 -0.94062299 123.16384
93880000000 0.055074275 20.984058 -56.663342 -58.342785 -56.599319 -58.064381 -0.9329626 123.10375
93928000000 0.062328722 21.023064 -56.692574 -58.557564 -56.579685 -58.010273 -0.93726659 123.03909
93976000000 0.070156947 21.098742 -56.693066 -58.6068 -56.5298 -58.198753 -0.94073063 123.1065
94024000000 0.063611023 21.021061 -56.565395 -58.301567 -56.568314 -57.934006 -0.94646716 123.06714
94072000000 0.065193348 21.073517 -56.579731 -58.304783 -56.521149 -57.814449 -0.94176817 123.09995
94120000000 0.057127774 20.996758 -56.540852 -58.979729 -56.469978 -57.741833 -0.94543755 123.09023
94168000000 0.054342184 20.989367 -56.567856 -58.40662 -56.498562 -57.960419 -0.93620259 123.12569
94216000000 0.055324756 21.023273 -56.448555 -58.737122 -56.426098 -58.316021 -0.93578029 123.03392
94264000000 0.048789185 20.994989 -56.380489 -59.009029 -56.408634 -58.557411 -0.92753392 123.10752
94312000000 0.045366056 21.048544 -56.383995 -60.187927 -56.407063 -58.63979 -0.91872227 122.95609
94360000000 0.041026421 20.989035 -56.5121 -60.820316 -56.406452 -58.993034 -0.92168564 122.96177
94408000000 0.043862078 21.115788 -56.520657 -61.150867 -56.443478 -58.998821 -0.91949219 122.89149
94456000000 0.040332992 21.077415 -56.645161 -59.947983 -56.41864 -59.169186 -0.91606933 122.90355
94504000000 0.043867204 21.152689 -56.584518 -59.542557 -56.468124 -59.305496 -0.92682153 122.82569
94552000000 0.046305072 21.187439 -56.485477 -59.409683 -56.469025 -59.508228 -0.92290974 122.88988
94600000000 0.050074466 21.136339 -56.440704 -59.955803 -56.441387 -59.359043 -0.92685544 122.77924
94648000000 0.054240949 21.271107 -56.284367 -59.821754 -56.417747 -59.190884 -0.92241257 122.8346
94696000000 0.054470003 21.172337 -56.35635 -60.494453 -56.374397 -59.295605 -0.92429143 122.75324
94744000000 0.05946527 21.266544 -56.41106 -60.395817 -56.329788 -59.345554 -0.91759813 122.80776
94792000000 0.051778883 21.157177 -56.330208 -60.695335 -56.370106 -59.472603 -0.91671282 122.7876
94840000000 0.044238761 21.211849 -56.389027 -60.876499 -56.354782 -60.050076 -0.92420399 122.60553
94888000000 0.038995054 21.366398 -56.361565 -60.747356 -56.37685 -59.283024 -0.91864806 122.66423
94936000000 0.059326362 21.265507 -56.394402 -60.328522 -56.260822 -59.333076 -0.9356721 122.76321
94984000000 0.044719435 21.216295 -56.195038 -61.033176 -56.223396 -59.811913 -0.8734926 122.46505
95032000000 0.028726738 21.159801 -56.209938 -61.302261 -56.18885 -59.915657 -0.91963422 122.33837
95080000000 0.035984214 21.301529 -56.243645 -61.679718 -56.146713 -60.646656 -0.91312671 122.55477
95128000000 0.022191163 21.273558 -56.283016 -61.850376 -56.207054 -60.69109 -0.90282416 122.43931
95176000000 0.038783144 21.418674 -56.277763 -61.504932 -56.167034 -61.299992 -0.89934945 122.38348
95224000000 0.034349091 21.375175 -56.231426 -61.829002 -56.202347 -61.227818 -0.89704537 122.33303
95272000000 0.048061661 21.481791 -56.235596 -61.87228 -56.226131 -61.178032 -0.89897949 122.26047
95320000000 0.048890546 21.422235 -56.172794 -61.706627 -56.214783 -61.211567 -0.89377147 122.24902
95368000000 0.061669823 21.486769 -56.138844 -61.645981 -56.169712 -61.066975 -0.9026674 122.21494
95416000000 0.054702621 21.434521 -56.065525 -61.860554 -56.10947 -61.253944 -0.89600354 122.24446
95464000000 0.057088431 21.435316 -55.967194 -62.203552 -56.083824 -61.189445 -0.91049445 122.15664
95512000000 0.055945266 21.481182 -55.997234 -62.998619 -56.077057 -61.441692 -0.90258676 122.1451
95560000000 0.051426388 21.489641 -56.071632 -63.637413 -56.027248 -61.663181 -0.90441591 122.18681
95608000000 0.04447398 21.485388 -56.014389 -63.790943 -55.997341 -62.048767 -0.9027257 122.08175
95656000000 0.050132297 21.564714 -56.087044 -64.137863 -55.968842 -62.277817 -0.89786112 122.09519
95704000000 0.031026106 21.448214 -56.06686 -63.876694 -55.981762 -62.879349 -0.89819503 121.96505
95752000000 0.036415491 21.584084 -56.037971 -64.521881 -55.989853 -62.824409 -0.89330119 121.94234
95800000000 0.022230824 21.589804 -56.082737 -64.846436 -56.03928 -63.158821 -0.9022283 121.85275
95848000000 0.026438501 21.6145 -56.115322 -64.684616 -56.043438 -62.958408 -0.90141076 121.84766
95896000000 0.03407634 21.687826 -56.078747 -64.110252 -56.074478 -63.229553 -0.89879447 121.79005
95944000000 0.0304303 21.563879 -56.001431 -64.870125 -55.971962 -63.141048 -0.89871901 121.7533
95992000000 0.0457047 21.708017 -56.009701 -65.250687 -56.005524 -63.367867 -0.89847106 121.7196
96040000000 0.050386131 21.681692 -56.023457 -65.296616 -55.974785 -63.708755 -0.89758736 121.6226
96088000000 0.058314048 21.695999 -56.025623 -65.006241 -55.960892 -63.94463 -0.89990801 121.60155
96136000000 0.048149217 21.666496 -55.92931 -64.925598 -55.921524 -64.006531 -0.90353549 121.54349
96184000000 0.06176731 21.757 -55.97282 -66.272285 -55.964252 -64.355072 -0.90253389 121.56991
96232000000 0.050488479 21.704861 -56.004169 -65.868492 -55.991295 -64.212372 -0.9069134 121.54711
96280000000 0.054607019 21.764883 -56.029884 -65.81601 -55.937908 -64.221008 -0.90789437 121.56207
96328000000 0.045975186 21.747068 -56.142731 -66.157028 -55.942734 -64.232018 -0.90813655 121.54694
96376000000 0.046363465 21.755178 -56.066109 -65.88401 -55.894669 -64.565376 -0.90806442 121.52354
96424000000 0.044884428 21.812658 -56.071869 -65.787727 -55.920296 -65.377228 -0.91376114 121.42953
96472000000 0.044496529 21.824705 -55.998383 -65.887985 -55.890778 -65.492348 -0.90957797 121.3892
96520000000 0.043844655 21.825558 -55.990311 -65.984146 -55.928116 -65.624313 -0.92209309 121.27674
96568000000 0.035195488 21.732958 -55.974224 -66.858688 -55.995472 -65.803833 -0.88301378 121.45403
96616000000 0.02748451 21.946722 -56.05508 -66.990944 -55.98563 -66.022835 -0.91151959 121.14627
96664000000 0.035612978 21.907646 -55.952087 -66.535629 -55.972813 -65.983871 -0.91481715 121.16631
96712000000 0.049402952 21.935156 -55.982601 -67.585587 -55.932384 -66.364967 -0.91306442 121.05388
96760000000 0.044625148 21.88867 -55.978073 -67.439621 -56.005379 -66.08847 -0.9196192 121.00822
96808000000 0.053615078 21.892136 -56.016251 -67.538887 -56.021492 -66.091011 -0.92158294 121.0006
96856000000 0.053006511 21.97064 -56.065754 -67.023415 -55.974319 -65.995407 -0.92762846 120.95018
96904000000 0.063324288 21.923359 -55.933704 -67.190292 -55.963676 -65.984749 -0.92208862 121.02
96952000000 0.06225064 21.907515 -56.030178 -67.879013 -55.967621 -66.059242 -0.92953008 120.91429
97000000000 0.062695131 21.913702 -56.035748 -67.006432 -55.987659 -66.402977 -0.92551273 120.89246
97048000000 0.070597067 21.904734 -56.047066 -67.145653 -55.983547 -66.237396 -0.93298727 120.87646
97096000000 0.063763566 21.934093 -56.057598 -66.653206 -55.962681 -66.031876 -0.92871505 120.8423
97144000000 0.064506315 21.962208 -55.93697 -66.731758 -55.96719 -65.748962 -0.9325974 120.85976
97192000000 0.070942916 22.016529 -55.84428 -67.048843 -55.852776 -65.739311 -0.93953174 120.78266
97240000000 0.054130506 21.990864 -55.920006 -67.314903 -55.871986 -66.031693 -0.95372772 120.73035
97288000000 0.068037234 22.04557 -55.755722 -67.181824 -55.812614 -66.016434 -0.94142765 120.79456
97336000000 0.059670556 22.096674 -55.756401 -67.777565 -55.766331 -66.021042 -0.94959229 120.66148
97384000000 0.060173523 22.077379 -55.756248 -68.35714 -55.748367 -66.590347 -0.94305032 120.69807
97432000000 0.053517409 22.099199 -55.797527 -67.564072 -55.701046 -66.57019 -0.95476514 120.61098
97480000000 0.059663918 22.122345 -55.857922 -67.782059 -55.687256 -67.083534 -0.94134694 120.65158
97528000000 0.058743622 22.201365 -55.665653 -67.70816 -55.717983 -67.322884 -0.95400792 120.54414
97576000000 0.053938251 22.074987 -55.670258 -68.387253 -55.704994 -67.067085 -0.94838643 120.57117
97624000000 0.066315219 22.12542 -55.617676 -68.880165 -55.692257 -67.353745 -0.95452583 120.51624
97672000000 0.059267122 22.013651 -55.594776 -69.40036 -55.714672 -67.336525 -0.94714898 120.54303
97720000000 0.068832248 22.132175 -55.801689 -68.849617 -55.614365 -67.66983 -0.95697743 120.44199
97768000000 0.049788367 22.108982 -55.646168 -68.719856 -55.644047 -67.82383 -0.95820117 120.54095
97816000000 0.074958153 22.229218 -55.550663 -69.302322 -55.59341 -68.227898 -0.97338337 120.43404
97864000000 0.08042445 22.082956 -55.568279 -69.180504 -55.630962 -68.068703 -0.95514733 120.54631
97912000000 0.061312001 21.958277 -55.610126 -69.553474 -55.575085 -68.210129 -0.93872869 120.43357
97960000000 0.062742084 22.110718 -55.633331 -70.120995 -55.596127 -67.859924 -0.95382446 120.36565
98008000000 0.062313411 22.118517 -55.614689 -69.671326 -55.506466 -68.124672 -0.94976944 120.39021
98056000000 0.06616123 22.13022 -55.580276 -69.781487 -55.430695 -68.445297 -0.95783132 120.27388
98104000000 0.066285647 22.181023 -55.486748 -69.535995 -55.424648 -68.995537 -0.96278429 120.28081
98152000000 0.063782446 22.283113 -55.530151 -69.981918 -55.385273 -69.193161 -0.95992315 120.20158
98200000000 0.06794396 22.189991 -55.373409 -70.071732 -55.392483 -69.394791 -0.95918959 120.17042
98248000000 0.072831616 22.241064 -55.352619 -70.460403 -55.338367 -69.847885 -0.96060097 120.14019
98296000000 0.071651846 22.246246 -55.291824 -70.559219 -55.322594 -70.093925 -0.96366227 120.2333
98344000000 0.069312245 22.224148 -55.293278 -71.175636 -55.323517 -70.582283 -0.95915151 120.07542
98392000000 0.066494182 22.288067 -55.19632 -71.576591 -55.283154 -71.016357 -0.96163547 120.11011
98440000000 0.062635936 22.319878 -55.192635 -72.183113 -55.298969 -71.038712 -0.95596665 120.04781
98488000000 0.062465493 22.260908 -55.231884 -72.744781 -55.265629 -71.288467 -0.95389897 120.0475
98536000000 0.074714914 22.28096 -55.214874 -73.566605 -55.281174 -71.851402 -0.94350225 119.9595
98584000000 0.077815481 22.212303 -55.294827 -74.003799 -55.318832 -72.067024 -0.94883406 119.98402
98632000000 0.076712348 22.27733 -55.269188 -73.751472 -55.332741 -72.125481 -0.95096183 119.90025
98680000000 0.072029181 22.226633 -55.280087 -74.306244 -55.327595 -72.162758 -0.95476192 119.96689
98728000000 0.07855583 22.252222 -55.331745 -74.149269 -55.290138 -72.681778 -0.95107269 119.95484
98776000000 0.081013441 22.272736 -55.360641 -74.331123 -55.285202 -72.901672 -0.93796271 119.99146
98824000000 0.071942113 22.283821 -55.399616 -74.176292 -55.290924 -73.406914 -0.93538761 119.86707
98872000000 0.075163223 22.398102 -55.327229 -74.486267 -55.298805 -73.530731 -0.93240589 119.82681
98920000000 0.078940198 22.420193 -55.304192 -74.37822 -55.30537 -73.714371 -0.94447643 119.76651
98968000000 0.076687425 22.316858 -55.289673 -75.189949 -55.324425 -74.101646 -0.94295287 119.73132
99016000000 0.072237447 22.454353 -55.267807 -75.626663 -55.3153 -74.446602 -0.94529277 119.67679
99064000000 0.066167861 22.295633 -55.343948 -76.23774 -55.38076 -74.585297 -0.93682432 119.63433
99112000000 0.071391612 22.42835 -55.516132 -76.632965 -55.395458 -74.644127 -0.95102209 119.63806
99160000000 0.071229152 22.437014 -55.567745 -75.680191 -55.399338 -74.666878 -0.94720501 119.6123
99208000000 0.063500822 22.331514 -55.458252 -75.429314 -55.399559 -74.809875 -0.93393952 119.56999
99256000000 0.071354434 22.44066 -55.383446 -75.323708 -55.422047 -75.267845 -0.94242704 119.59828
99304000000 0.064483874 22.326813 -55.385731 -75.970108 -55.393887 -75.351418 -0.93489802 119.54447
99352000000 0.069541015 22.44968 -55.358959 -76.517029 -55.393272 -75.611557 -0.92448002 119.53159
99400000000 0.075188152 22.371096 -55.358315 -77.044937 -55.502411 -76.073761 -0.93020409 119.41306
99448000000 0.069733091 22.367802 -55.356804 -77.254311 -55.510521 -75.941757 -0.92289823 119.41917
99496000000 0.065093391 22.43144 -55.379887 -78.180122 -55.549309 -75.967888 -0.94015753 119.33895
99544000000 0.075220719 22.459736 -55.39859 -78.493774 -55.587616 -76.018768 -0.9360128 119.34149
99592000000 0.073556527 22.419464 -55.47578 -78.620926 -55.610859 -75.628265 -0.93811178 119.28078
99640000000 0.07551939 22.477633 -55.59935 -78.815529 -55.6325 -75.744675 -0.93218511 119.2053
99688000000 0.0747144 22.484863 -55.838493 -78.742378 -55.622349 -75.586311 -0.93275207 119.18586
99736000000 0.070498757 22.486172 -55.832962 -78.18644 -55.569439 -75.284302 -0.94239974 119.13797
99784000000 0.079358585 22.541145 -55.900108 -77.664825 -55.535595 -75.292328 -0.9441756 119.22031
99832000000 0.077885151 22.547892 -55.772385 -76.956017 -55.540615 -75.437462 -0.93695599 119.11098
99880000000 0.074299641 22.597317 -55.749767 -77.124184 -55.528881 -75.38913 -0.94893777 119.15809
99928000000 0.070689775 22.579878 -55.712482 -76.994125 -55.495525 -75.538177 -0.93987435 119.09223
99976000000 0.067502551 22.533157 -55.753593 -76.412453 -55.520588 -75.760918 -0.9228214 119.01243
100024000000 0.078096181 22.641958 -55.714333 -76.058914 -55.503719 -75.841507 -0.94503176 119.04935
100072000000 0.05391524 22.596014 -55.621967 -76.046471 -55.503998 -75.60527 -0.92103821 118.99209
100120000000 0.06955681 22.660292 -55.528698 -76.365456 -55.488216 -75.708153 -0.94059342 118.91776
100168000000 0.071222022 22.597715 -55.469498 -76.928391 -55.471416 -75.760963 -0.93011558 119.03064
100216000000 0.076674707 22.647388 -55.455681 -77.196976 -55.431271 -75.609802 -0.92858589 118.88522
100264000000 0.071787305 22.681852 -55.445644 -76.631622 -55.40062 -75.995018 -0.92324781 119.0567
100312000000 0.062663496 22.608919 -55.457661 -76.747574 -55.343109 -76.13842 -0.92240614 118.86627
100360000000 0.081940211 22.626072 -55.419128 -77.657516 -55.385757 -76.719093 -0.90480709 118.90911
100408000000 0.052631099 22.617352 -55.442459 -77.791634 -55.425156 -77.104973 -0.91527826 118.7771
100456000000 0.060953133 22.597952 -55.536041 -77.76767 -55.397266 -77.33532 -0.89893901 118.71791
100504000000 0.097070776 22.668648 -55.420055 -77.950211 -55.41124 -77.329597 -0.92808551 118.70138
100552000000 0.086190447 22.674894 -55.339836 -78.303009 -55.383869 -77.212601 -0.89435953 118.66636
100600000000 0.073500536 22.734974 -55.493607 -78.857544 -55.41489 -77.529861 -0.92760825 118.60358
100648000000 0.090484701 22.737383 -55.590801 -78.404022 -55.383846 -77.435837 -0.92779225 118.69649
100696000000 0.055824134 22.701799 -55.471081 -77.939087 -55.49292 -77.730621 -0.92850477 118.43758
100744000000 0.090956733 22.672421 -55.303146 -78.114952 -55.402611 -77.614609 -0.88225794 118.53082
100792000000 0.085684396 22.772293 -55.25806 -78.322418 -55.437416 -77.342163 -0.93232405 118.4419
100840000000 0.076349154 22.839125 -55.26656 -79.10704 -55.454979 -77.364395 -0.91637427 118.50068
100888000000 0.069145627 22.783863 -55.430504 -78.867676 -55.406799 -77.447159 -0.92283195 118.31059
100936000000 0.069823265 22.788294 -55.375828 -79.420166 -55.352047 -77.697189 -0.90507013 118.31632
100984000000 0.068733387 22.779703 -55.398129 -79.546539 -55.370865 -78.457924 -0.91104513 118.14692
101032000000 0.069084987 22.844141 -55.428726 -79.569168 -55.466084 -78.170418 -0.91471231 118.20402
101080000000 0.067154393 22.831459 -55.464554 -79.636955 -55.488441 -78.195229 -0.9176845 118.169
101128000000 0.072980784 22.873486 -55.44022 -78.768829 -55.449295 -77.786385 -0.91612625 118.0873
101176000000 0.08234866 22.869226 -55.298771 -79.013481 -55.413315 -77.725037 -0.91401958 118.21523
101224000000 0.065574817 22.939058 -55.368996 -80.201431 -55.361103 -77.753082 -0.91469282 118.01067
101272000000 0.074908286 22.872738 -55.529995 -79.863457 -55.358364 -77.826599 -0.90342271 118.09931
101320000000 0.071567819 22.887308 -55.497612 -79.126404 -55.358093 -77.792427 -0.90821058 118.08934
101368000000 0.066870943 22.967733 -55.36739 -78.704506 -55.330322 -77.679459 -0.90050995 118.03052
101416000000 0.068850592 22.922985 -55.353622 -78.982742 -55.301689 -77.519775 -0.90856731 118.02151
101464000000 0.06730222 23.00145 -55.404259 -79.098923 -55.316078 -77.257782 -0.88657802 117.91573
101512000000 0.068086162 22.966038 -55.283379 -78.595879 -55.230125 -77.588951 -0.88798881 117.76937
101560000000 0.062439978 23.116318 -55.208618 -78.56633 -55.211876 -77.818329 -0.91881466 117.66027
101608000000 0.055064052 23.078188 -55.139221 -78.665047 -55.192883 -77.908714 -0.93843824 117.75458
101656000000 0.071641155 23.07926 -55.105083 -79.418549 -55.17889 -77.762138 -0.93088114 117.68272
101704000000 0.063832954 23.137011 -55.039738 -79.755737 -55.109398 -77.986649 -0.94318253 117.72901
101752000000 0.066303492 23.138031 -55.028175 -79.809509 -55.081074 -78.214905 -0.88665956 117.83759
101800000000 0.075175941 23.212664 -55.039433 -80.564964 -55.069309 -78.75605 -0.86315125 117.55042
101848000000 0.072344877 23.264791 -55.110428 -79.998535 -55.058197 -78.525665 -0.89482516 117.48743
101896000000 0.076055631 23.634352 -55.036167 -79.583099 -55.034489 -78.911766 -0.93030959 117.47598
101944000000 0.060000427 23.465942 -54.963154 -79.7967 -54.967613 -78.574409 -0.90306574 117.93621
101992000000 0.077705637 23.657785 -54.961456 -80.783165 -54.925331 -78.858299 -0.85825759 117.54729
102040000000 0.07183212 23.237963 -55.061234 -80.704918 -54.916084 -79.507942 -0.91589898 117.28184
102088000000 0.067577481 23.230724 -54.962372 -80.112198 -54.925484 -79.70726 -0.93355626 117.32416
102136000000 0.071371242 23.286549 -54.889942 -80.334229 -54.923412 -79.550034 -0.94836932 117.60311
102184000000 0.075693905 23.230783 -54.807716 -80.462189 -54.843945 -79.926018 -0.90258074 117.58591
102232000000 0.085229047 23.304148 -54.814209 -81.392174 -54.805103 -79.971962 -0.88018602 117.54224
102280000000 0.088367783 23.285938 -54.775692 -81.624519 -54.733669 -80.251968 -0.86339599 117.37611
102328000000 0.090094261 23.362173 -54.771942 -81.849152 -54.730583 -80.647148 -0.85165489 117.5123
102376000000 0.08956939 23.478094 -54.782898 -82.426537 -54.762238 -81.012642 -0.85651368 116.98088
102424000000 0.09082745 23.405565 -54.782963 -82.184914 -54.786457 -81.164597 -0.89325601 117.13119
102472000000 0.078910202 23.34473 -54.705124 -82.760689 -54.801304 -81.418259 -0.90630102 116.92955
102520000000 0.074958153 23.410995 -54.69043 -82.893082 -54.756401 -81.409126 -0.88970542 117.18292
102568000000 0.068533622 23.378899 -54.779446 -83.045029 -54.734276 -81.487183 -0.9185102 116.98967
102616000000 0.080596231 23.581997 -54.700027 -83.346313 -54.707764 -81.397247 -0.87815505 117.3369
102664000000 0.075578414 23.456757 -54.674992 -83.735008 -54.700775 -81.944016 -0.90608668 116.91032
102712000000 0.066410564 23.601295 -54.736332 -83.879402 -54.658657 -82.261894 -0.85715503 116.94433
102760000000 0.074374959 23.535151 -54.73032 -84.10672 -54.641663 -82.814255 -0.88680089 116.9305
102808000000 0.078410923 23.443497 -54.66851 -84.912468 -54.623039 -83.369247 -0.87211341 116.9974
102856000000 0.074081808 23.49892 -54.786522 -84.87027 -54.672157 -83.579826 -0.90139353 117.07497
102904000000 0.071934469 23.539146 -54.756763 -84.921379 -54.71806 -83.914429 -0.87911272 116.80676
102952000000 0.077867858 23.457321 -54.811062 -85.27079 -54.782513 -84.038712 -0.8901518 116.72378
103000000000 0.070116192 23.578157 -54.902252 -84.99157 -54.750561 -83.732315 -0.88256747 116.95393
103048000000 0.080108836 23.660997 -54.789326 -85.397621 -54.709473 -83.668907 -0.90123266 116.59786
103096000000 0.083245173 23.562891 -54.678009 -85.215866 -54.699833 -84.071724 -0.87604171 116.8484
103144000000 0.086915672 23.659086 -54.669781 -85.831535 -54.697453 -84.642601 -0.89043778 116.53561
103192000000 0.089261033 23.697163 -54.767723 -86.096939 -54.731033 -84.694641 -0.87363762 116.85115
103240000000 0.081030212 23.603735 -54.807865 -85.802757 -54.774998 -84.932953 -0.88348651 116.51337
103288000000 0.093595825 23.689474 -54.73621 -85.621101 -54.741673 -84.858192 -0.86694795 116.66295
103336000000 0.086580731 23.595688 -54.826481 -86.303101 -54.767925 -85.097687 -0.88863993 116.3476
103384000000 0.095740579 23.790283 -54.903 -85.683701 -54.730465 -85.015656 -0.88013339 116.57671
103432000000 0.07325314 23.646473 -54.73888 -85.87915 -54.788277 -85.404175 -0.88963139 116.36066
103480000000 0.086270131 23.833542 -54.771427 -85.965553 -54.752708 -84.97126 -0.89053404 116.50128
103528000000 0.076462597 23.723911 -54.720901 -86.154404 -54.725693 -85.264267 -0.88814187 116.25381
103576000000 0.081219748 23.893059 -54.741047 -86.662186 -54.778549 -85.479782 -0.89019567 116.38693
103624000000 0.075660832 23.817482 -54.746353 -87.285515 -54.791981 -85.662186 -0.88864976 116.31177
103672000000 0.078744456 23.806622 -54.782692 -87.257774 -54.819191 -85.605667 -0.88684279 116.25018
103720000000 0.082237914 23.778446 -54.778942 -87.388557 -54.805695 -85.657158 -0.88371652 116.29227
103768000000 0.080941789 23.822638 -54.760323 -87.429131 -54.805305 -85.397408 -0.88017839 116.14118
103816000000 0.079401791 23.783268 -54.765671 -87.668007 -54.752365 -85.597321 -0.87555718 116.09476
103864000000 0.084685817 23.842203 -54.818703 -87.835403 -54.676514 -85.78363 -0.87655455 116.07787
103912000000 0.075978808 23.878868 -54.854931 -87.502632 -54.740459 -86.165771 -0.88644814 116.03053
103960000000 0.084626928 23.893068 -54.769909 -87.398865 -54.751965 -86.221405 -0.88937908 115.98627
104008000000 0.094457097 24.061071 -54.80632 -88.10421 -54.76643 -86.410652 -0.89675575 115.94558
104056000000 0.092469327 23.861876 -54.851665 -87.948074 -54.738529 -86.333466 -0.89476317 115.87994
104104000000 0.093613558 23.871208 -54.823772 -87.917007 -54.766674 -86.22879 -0.890154 115.83694
104152000000 0.11161096 24.002121 -54.894238 -87.989716 -54.810459 -86.352531 -0.91601914 115.90249
104200000000 0.094483435 23.819464 -54.82618 -87.637589 -54.80917 -85.991547 -0.89703584 115.93371
104248000000 0.10554414 24.055645 -54.763996 -87.458603 -54.836617 -85.689568 -0.89656419 115.85561
104296000000 0.089799628 23.864689 -54.862511 -88.206299 -54.793163 -85.571938 -0.8988623 115.85432
104344000000 0.090397991 23.975941 -54.869373 -87.522743 -54.675137 -85.610893 -0.91377646 115.73134
104392000000 0.079807937 23.873213 -54.864574 -87.175591 -54.652149 -85.260536 -0.91072875 115.83556
104440000000 0.086581238 23.984722 -54.712605 -87.665398 -54.634396 -85.823524 -0.91032141 115.73894
104488000000 0.081115574 23.936472 -54.66753 -87.256546 -54.568584 -85.992523 -0.90055996 115.79823
104536000000 0.0817817 24.033525 -54.705261 -87.385277 -54.596889 -86.286537 -0.9057439 115.72712
104584000000 0.085131072 24.074734 -54.632359 -88.161591 -54.582855 -86.870567 -0.90058577 115.57524
104632000000 0.087600179 24.012388 -54.579906 -88.201195 -54.616875 -86.635246 -0.92137331 115.72675
104680000000 0.093438752 24.112509 -54.511787 -88.56881 -54.537567 -86.608597 -0.8898226 115.53397
104728000000 0.095674239 23.971209 -54.539753 -89.203453 -54.538544 -86.887093 -0.89974499 115.55013
104776000000 0.10873387 24.06053 -54.631248 -89.576889 -54.542786 -87.405373 -0.89725381 115.39823
104824000000 0.10864148 24.06937 -54.659019 -89.375488 -54.481369 -87.629829 -0.88089144 115.6408
104872000000 0.10204209 24.00946 -54.734123 -89.465797 -54.579956 -87.758278 -0.89061671 115.42371
104920000000 0.11189704 24.090788 -54.747223 -88.57753 -54.593445 -87.376846 -0.95541084 115.38572
104968000000 0.092086159 24.157726 -54.592178 -88.929253 -54.623043 -87.455559 -0.90464258 115.33254
105016000000 0.096778639 24.092052 -54.706493 -88.870041 -54.618168 -87.655273 -0.92144942 115.37524
105064000000 0.092375562 24.163782 -54.732613 -88.306946 -54.629906 -87.114922 -0.90198487 115.36489
105112000000 0.10445258 24.226248 -54.577793 -87.515984 -54.547394 -86.70755 -0.92333651 115.31526
105160000000 0.087333292 24.141655 -54.501438 -88.300423 -54.484299 -87.150848 -0.91546011 115.27792
105208000000 0.098873757 24.194578 -54.484104 -88.299011 -54.39365 -86.971733 -0.92127663 115.32858
105256000000 0.086590372 24.18804 -54.491867 -88.862045 -54.365166 -87.527466 -0.9100408 115.23997
105304000000 0.090027831 24.180187 -54.390648 -88.854919 -54.348461 -87.496254 -0.91385663 115.17204
105352000000 0.090759002 24.295885 -54.350887 -89.419403 -54.303699 -88.046341 -0.91188014 115.07664
105400000000 0.10426001 24.219566 -54.314934 -89.438942 -54.324947 -88.097466 -0.90789056 115.12944
105448000000 0.091511346 24.282759 -54.376431 -89.576424 -54.312698 -88.314514 -0.92214626 114.95907
105496000000 0.11049315 24.25194 -54.343651 -89.668854 -54.261364 -88.465439 -0.91555762 115.15082
105544000000 0.10487812 24.307079 -54.356579 -89.717735 -54.311508 -88.59639 -0.91673839 115.01119
105592000000 0.11090902 24.274622 -54.27874 -89.831352 -54.319637 -88.573463 -0.93697399 115.09979
105640000000 0.10782644 24.291576 -54.288048 -89.684784 -54.305904 -88.744148 -0.90705729 114.89686
105688000000 0.10914586 24.184605 -54.325573 -89.922371 -54.270737 -88.411331 -0.90205371 115.05258
105736000000 0.098785698 24.034983 -54.203495 -90.230232 -54.230053 -88.773994 -0.93250984 114.82945
105784000000 0.098733574 24.324091 -54.292854 -90.037834 -54.24345 -88.352524 -0.89214069 114.96299
105832000000 0.088455543 24.257576 -54.323444 -90.03286 -54.20631 -88.401825 -0.91513127 114.72977
105880000000 0.10391074 24.309729 -54.252178 -89.625183 -54.13483 -88.561295 -0.92102122 114.83324
105928000000 0.097063683 24.33622 -54.198792 -89.843559 -54.122196 -88.605087 -0.93369299 114.64506
105976000000 0.087677807 24.131462 -54.114449 -90.06781 -54.045635 -88.532959 -0.93928587 114.67843
106024000000 0.10561387 24.472317 -54.038879 -89.838692 -53.971756 -88.794289 -0.94739109 114.65365
106072000000 0.084972166 24.187313 -53.878422 -90.474083 -53.874096 -88.958031 -0.92509145 114.63787
106120000000 0.10206333 24.478611 -53.839939 -90.59446 -53.813934 -89.626442 -0.93110663 114.67133
106168000000 0.097293019 24.387812 -53.880356 -91.395035 -53.819569 -90.04808 -0.92530578 114.58437
106216000000 0.1148517 24.561529 -53.823093 -91.623848 -53.817848 -90.312248 -0.91527122 114.70889
106264000000 0.13094638 24.422611 -53.792301 -92.491821 -53.893806 -90.61393 -0.92455208 114.41502
106312000000 0.12399594 24.42444 -53.808323 -92.310776 -53.824303 -90.781197 -0.90864038 114.52344
106360000000 0.12999886 24.374084 -53.866821 -92.233063 -53.796967 -90.722969 -0.93615055 114.33427
106408000000 0.10014632 24.332237 -53.863667 -91.749329 -53.776234 -90.756844 -0.95657867 114.45511
106456000000 0.10457034 24.43158 -53.696949 -92.380417 -53.67905 -90.938995 -0.89055121 114.48979
106504000000 0.099103503 24.379726 -53.755062 -93.061996 -53.611851 -91.125526 -0.96142876 114.2075
106552000000 0.079827763 24.4492 -53.699608 -93.204826 -53.65836 -91.564819 -0.95476091 114.24897
106600000000 0.0924825 24.336031 -53.59375 -93.441132 -53.572964 -92.220497 -0.91384929 114.42953
106648000000 0.071829066 24.448643 -53.639145 -94.049049 -53.480434 -92.484718 -0.95465744 114.19926
106696000000 0.1296386 24.454296 -53.555126 -93.972229 -53.567837 -92.761154 -0.96577728 114.29507
106744000000 0.07615076 24.540665 -53.511372 -94.672348 -53.506733 -93.366158 -0.93511629 114.10652
106792000000 0.082129195 24.744156 -53.56052 -94.964279 -53.503803 -93.463501 -0.95173848 114.20814
106840000000 0.10375808 24.736263 -53.491489 -95.022308 -53.485432 -93.78775 -0.94988865 114.10902
106888000000 0.12029725 24.644861 -53.471004 -95.406601 -53.438713 -94.157799 -0.94710362 114.16187
106936000000 0.11809556 24.48189 -53.440353 -96.052483 -53.452579 -94.648735 -0.9697929 114.00648
106984000000 0.1196622 24.609482 -53.432426 -96.340034 -53.44062 -94.9664 -0.94465947 114.08262
107032000000 0.12276105 24.422207 -53.443718 -96.90374 -53.440498 -95.420181 -0.95711458 113.97921
107080000000 0.11879885 24.40064 -53.44083 -96.92717 -53.411568 -95.765305 -0.96064264 114.04992
107128000000 0.10950633 24.138849 -53.459213 -97.968468 -53.407066 -96.415276 -0.95868313 113.96586
107176000000 0.095121175 24.616051 -53.435612 -97.630951 -53.420887 -96.270538 -0.9585017 113.91186
107224000000 0.094242305 24.562307 -53.483677 -98.672356 -53.405014 -96.738586 -0.9513672 113.86413
107272000000 0.083020173 24.60211 -53.512138 -98.689789 -53.432964 -97.112175 -0.94823474 113.80036
107320000000 0.084833056 24.709772 -53.547306 -98.948685 -53.434975 -97.362747 -0.95674288 113.69459
107368000000 0.080029547 24.584177 -53.518085 -98.991096 -53.468113 -97.69648 -0.95500767 113.67919
107416000000 0.082900301 24.668024 -53.518532 -99.720276 -53.480415 -97.643509 -0.98127902 113.67954
107464000000 0.085159503 24.784979 -53.489182 -99.661255 -53.502018 -98.029564 -0.95999581 113.71345
107512000000 0.092758201 24.861893 -53.528748 -99.918091 -53.490631 -98.373962 -0.94744682 113.75423
107560000000 0.10863288 24.826475 -53.548882 -100.21007 -53.523544 -98.510765 -0.96779531 113.68738
107608000000 0.1213798 24.913727 -53.525803 -100.17814 -53.546722 -98.627045 -0.95688516 113.78001
107656000000 0.12063766 24.849821 -53.549946 -100.08393 -53.532135 -98.550011 -0.94448864 113.7308
107704000000 0.12580338 24.957609 -53.493576 -100.55903 -53.519886 -98.476158 -0.94133669 113.95805
107752000000 0.12260704 24.822893 -53.580841 -100.682 -53.47691 -99.12458 -0.94118297 113.60178
107800000000 0.11443368 24.839638 -53.539913 -100.54099 -53.469055 -99.425377 -0.94550288 113.52788
107848000000 0.10511362 24.778307 -53.512024 -101.34211 -53.458828 -99.639305 -0.94757593 113.4337
107896000000 0.10207395 24.86203 -53.498611 -101.75223 -53.447765 -100.13645 -0.95257425 113.42083
107944000000 0.082617886 24.707258 -53.580101 -101.77991 -53.477146 -100.68224 -0.97883666 113.46767
107992000000 0.072387651 24.915882 -53.562004 -101.73554 -53.53294 -100.95146 -0.95537084 113.4816
108040000000 0.081270553 25.025238 -53.583988 -102.61709 -53.540031 -101.01753 -0.9649393 113.50044
108088000000 0.077478319 24.891012 -53.663845 -102.87881 -53.590462 -101.1977 -0.95537537 113.42767
108136000000 0.09883479 25.133373 -53.676411 -102.70017 -53.58506 -101.13103 -0.95191187 113.46223
108184000000 0.089411154 24.805573 -53.716549 -103.16398 -53.606407 -101.24973 -0.92473531 113.40919
108232000000 0.10320807 25.093067 -53.698532 -102.80175 -53.65815 -101.17497 -0.93021119 113.41715
108280000000 0.098455727 24.929495 -53.652035 -103.04427 -53.657963 -101.60377 -0.91497117 113.32553
108328000000 0.10170579 25.042664 -53.699913 -103.09557 -53.726902 -101.44931 -0.92790663 113.41555
108376000000 0.11030439 25.216696 -53.711777 -103.09841 -53.7295 -101.23638 -0.91506189 113.35638
108424000000 0.13016216 25.140059 -53.709927 -102.90648 -53.707447 -101.14205 -0.91696888 113.29708
108472000000 0.13008781 24.987219 -53.76651 -102.93546 -53.710327 -101.3826 -0.93343979 113.01312
108520000000 0.10826427 24.960199 -53.741287 -102.46595 -53.693741 -101.41811 -0.94721919 113.19119
108568000000 0.099151067 24.98386 -53.740273 -102.88226 -53.657776 -101.12115 -0.93720269 113.09228
108616000000 0.098619193 25.125143 -53.670498 -103.2082 -53.616615 -101.26934 -0.93702734 113.13934
108664000000 0.087139964 24.978634 -53.729214 -103.32217 -53.610657 -101.17989 -0.91544384 113.12732
108712000000 0.088614315 25.267868 -53.719894 -102.87545 -53.658825 -101.12081 -0.90712136 112.98759
108760000000 0.078029059 25.092785 -53.62447 -103.02769 -53.563137 -101.52242 -0.9001475 112.8339
108808000000 0.088959239 25.305578 -53.626995 -102.86382 -53.54208 -101.25761 -0.90943724 112.78698
108856000000 0.088509314 25.287958 -53.552116 -102.75987 -53.486 -101.7467 -0.89526606 112.77274
108904000000 0.10239454 25.294062 -53.432957 -103.31451 -53.460018 -101.87281 -0.90834427 112.7431
108952000000 0.10809157 25.250477 -53.451595 -103.94258 -53.425735 -102.3043 -0.90711629 112.57819
109000000000 0.1145537 25.255474 -53.458687 -104.27319 -53.450676 -102.46049 -0.93571419 112.65018
109048000000 0.11231328 25.079632 -53.398766 -104.89704 -53.454128 -102.71918 -0.91854632 112.35151
109096000000 0.12780361 25.11871 -53.380306 -105.32688 -53.443054 -102.91984 -0.9239555 112.01389
109144000000 0.12467967 24.975525 -53.380703 -105.74859 -53.386986 -103.14886 -0.90834677 111.70096
109192000000 0.12879634 25.221783 -53.367245 -105.18623 -53.375149 -103.26747 -0.90114731 112.51009
109240000000 0.11864118 25.033859 -53.366631 -105.37339 -53.327438 -103.60411 -0.89239788 112.49022
109288000000 0.11038565 25.069141 -53.390835 -105.58268 -53.310337 -104.06651 -0.89502621 112.43546
109336000000 0.099701092 25.093887 -53.415962 -105.87359 -53.304966 -104.14835 -0.9096278 112.33567
109384000000 0.094184041 25.15556 -53.387558 -106.29803 -53.304707 -104.47761 -0.90177554 112.38161
109432000000 0.087497182 25.223904 -53.399464 -106.54394 -53.336334 -104.66621 -0.91257602 112.35135
109480000000 0.090036958 25.285482 -53.401573 -106.85509 -53.346539 -104.63336 -0.90839815 112.78429
109528000000 0.09505634 25.307997 -53.386753 -107.18933 -53.321423 -105.47472 -0.92366278 112.16959
109576000000 0.10320251 25.302891 -53.420414 -107.59738 -53.371136 -105.83163 -0.92057103 112.16958
109624000000 0.11234052 25.319855 -53.415066 -107.96441 -53.40456 -106.01661 -0.89364076 111.9416
109672000000 0.12741651 25.36636 -53.420128 -107.70974 -53.435165 -106.0157 -0.89134258 111.94276
109720000000 0.12320945 24.789091 -53.466175 -108.1757 -53.421276 -106.07921 -0.9106167 111.58367
109768000000 0.14080621 25.352213 -53.437248 -107.64898 -53.407696 -105.86044 -0.90024811 111.88435
109816000000 0.12769954 25.267931 -53.383953 -107.71766 -53.374512 -106.45554 -0.90395623 111.81028
109864000000 0.1366919 25.414032 -53.416679 -108.07056 -53.406754 -106.76621 -0.91851693 111.79687
109912000000 0.136428 25.350956 -53.380657 -108.56066 -53.482822 -106.59452 -0.89912373 111.76303
109960000000 0.13002098 25.383848 -53.536987 -108.30199 -53.47438 -106.5332 -0.93361306 111.69563
110008000000 0.13581036 25.425041 -53.562687 -107.85911 -53.471992 -106.28379 -0.8990922 111.74232
110056000000 0.1252134 25.414913 -53.56974 -107.71428 -53.447823 -106.35617 -0.92542106 111.59805
110104000000 0.13493165 25.442389 -53.501263 -107.1789 -53.409428 -106.25528 -0.90184307 111.74263
110152000000 0.13072434 25.333149 -53.442833 -107.76711 -53.401772 -106.34337 -0.89968127 111.44305
110200000000 0.12359542 25.425261 -53.478359 -107.52941 -53.395874 -105.83704 -0.9241159 111.70994
110248000000 0.10798956 25.382071 -53.386951 -107.31299 -53.334007 -105.8324 -0.90308356 111.67604
110296000000 0.11175526 25.531563 -53.313694 -107.17526 -53.227062 -105.90575 -0.87899864 111.69086
110344000000 0.11313201 25.478703 -53.197876 -107.68933 -53.151863 -106.22882 -0.89022934 111.37611
110392000000 0.12365933 25.56579 -53.095482 -107.75034 -53.048927 -106.59587 -0.88457578 111.48088
110440000000 0.12905014 25.511723 -53.01749 -108.396 -53.037548 -107.14931 -0.89737856 111.35311
110488000000 0.13720709 25.601313 -52.965504 -108.69363 -53.032459 -107.28356 -0.90206039 111.46696
110536000000 0.1432559 25.591549 -52.981873 -109.05585 -52.988239 -107.94782 -0.90321809 111.49254
110584000000 0.14570071 25.477728 -52.976536 -109.46087 -52.991337 -108.17829 -0.91410077 111.19099
110632000000 0.14646763 25.542908 -52.915928 -109.87504 -52.94968 -108.35291 -0.89903104 111.34647
110680000000 0.14392057 25.577295 -52.947006 -110.11136 -52.914085 -108.75039 -0.91296029 111.30959
110728000000 0.14082275 25.542356 -52.929478 -110.75252 -52.870819 -108.9175 -0.90146428 111.25942
110776000000 0.1346526 25.496851 -52.959129 -111.32969 -52.872471 -109.59538 -0.92069775 111.10261
110824000000 0.13042845 25.554907 -52.958141 -111.74902 -52.844334 -110.16623 -0.91040885 111.1916
110872000000 0.12120309 25.477356 -53.00787 -112.00393 -52.899448 -110.65797 -0.91638291 111.06516
110920000000 0.12640284 25.55537 -53.014565 -112.04517 -52.899109 -110.77393 -0.91878396 111.01292
110968000000 0.1222527 25.587791 -53.042915 -111.81482 -52.877335 -110.64268 -0.92094475 111.12063
111016000000 0.12506098 25.62532 -52.92886 -111.73721 -52.77203 -111.03162 -0.8999545 110.90282
111064000000 0.13102826 25.74324 -52.835724 -112.27869 -52.756939 -111.50099 -0.91401988 110.85941
111112000000 0.13266556 25.655993 -52.767792 -113.19489 -52.740452 -112.34636 -0.90505034 110.81706
111160000000 0.14105982 25.740149 -52.76181 -113.68869 -52.776421 -112.97194 -0.90952659 110.85269
111208000000 0.1483673 25.712961 -52.74881 -114.28876 -52.826527 -113.5177 -0.89151257 110.78506
111256000000 0.14523208 25.650684 -52.812992 -114.96878 -52.905342 -113.7186 -0.89503032 110.6684
111304000000 0.1480801 25.707167 -52.855896 -115.31632 -52.932606 -113.72016 -0.89755493 110.6553
111352000000 0.13787921 25.631815 -52.973888 -115.3829 -52.976158 -113.58421 -0.90913945 110.44218
111400000000 0.14036764 25.773628 -52.918156 -115.05891 -52.940197 -113.45992 -0.92144787 110.49783
111448000000 0.13560462 25.684109 -52.909615 -114.97494 -52.895058 -113.55822 -0.92023283 110.63535
111496000000 0.13757627 25.814453 -52.848602 -115.33327 -52.867935 -114.02916 -0.91332698 110.6246
111544000000 0.13374755 25.717396 -52.836124 -116.24342 -52.875629 -114.64725 -0.91242623 110.58408
111592000000 0.13695978 25.833628 -52.858532 -116.71165 -52.794472 -114.60779 -0.90451187 110.59045
111640000000 0.13278206 25.718184 -52.87553 -116.76469 -52.831085 -115.15128 -0.899324 110.69241
111688000000 0.13328718 25.76906 -52.911034 -117.22557 -52.848705 -115.553 -0.90531117 110.67531
111736000000 0.12242081 25.759426 -52.919895 -117.30981 -52.911732 -115.40352 -0.8968299 110.51859
111784000000 0.12901847 25.847799 -52.901623 -117.31357 -52.887733 -115.89932 -0.89720863 110.47601
111832000000 0.12456094 25.805264 -52.843376 -117.83963 -52.870914 -116.21822 -0.90306127 110.47128
111880000000 0.13356833 25.900307 -52.83152 -118.34982 -52.893879 -116.68333 -0.90752655 110.43381
111928000000 0.13624839 25.865147 -52.883743 -118.85481 -52.868252 -116.8703 -0.90354091 110.59429
111976000000 0.14173836 25.924429 -52.919285 -118.98665 -52.888206 -117.22604 -0.91260475 110.37735
112024000000 0.14696313 25.999296 -52.968632 -118.99881 -52.918247 -117.46291 -0.89714754 110.5791
112072000000 0.14453407 25.887226 -52.993145 -119.23586 -52.962799 -117.65729 -0.91618246 110.18189
112120000000 0.14936434 25.98876 -52.987835 -119.20017 -52.956375 -117.57459 -0.91041112 110.39254
112168000000 0.14376882 25.911112 -52.972168 -119.42094 -52.942089 -117.57532 -0.92281431 110.22292
112216000000 0.15305087 25.998625 -52.979126 -119.76299 -52.925892 -117.98022 -0.91330016 110.33221
112264000000 0.14660126 25.902803 -52.973225 -120.25741 -52.881737 -118.23251 -0.9223761 110.21642
112312000000 0.1028304 26.051502 -53.002811 -120.20733 -52.947941 -119.07405 -0.91313118 110.25694
112360000000 0.14840432 26.07884 -52.9678 -120.51682 -52.922428 -119.04245 -0.90239304 110.13397
112408000000 0.14265676 25.932247 -53.008434 -121.25329 -52.920841 -119.46239 -0.90862024 109.89363
112456000000 0.14044884 26.033457 -53.047745 -121.15674 -52.935894 -119.3591 -0.91540384 110.18011
112504000000 0.123372 26.04508 -53.119556 -121.51093 -52.978558 -119.96664 -0.92449415 109.86906
112552000000 0.12457705 26.118635 -53.150372 -120.96179 -52.931561 -119.92434 -0.91789842 109.95313
112600000000 0.14486407 26.220572 -53.019032 -121.23547 -52.893288 -120.30284 -0.91836178 110.04128
112648000000 0.12730087 26.127922 -53.072277 -121.93816 -52.914825 -121.29818 -0.92068112 109.9338
112696000000 0.13549623 26.234022 -53.047375 -121.98531 -52.994591 -121.77975 -0.89637804 110.06108
112744000000 0.14067639 26.245142 -53.1096 -122.59934 -53.091522 -121.79634 -0.88468337 109.87149
112792000000 0.14523509 26.119043 -53.135387 -122.03929 -53.151199 -121.77213 -0.88435811 109.76854
112840000000 0.14316525 26.146978 -53.047981 -123.01952 -53.158875 -121.9143 -0.89644325 109.61153
112888000000 0.13550276 26.102167 -53.18964 -123.05345 -53.184334 -121.94514 -0.90381217 109.83839
112936000000 0.13552684 26.135014 -53.257915 -123.23602 -53.251892 -121.60532 -0.91102278 109.52612
112984000000 0.13354824 26.227108 -53.270504 -122.45406 -53.206333 -120.81406 -0.89291996 109.89588
113032000000 0.12853296 26.256708 -53.256084 -122.29572 -53.155735 -121.03557 -0.90707356 109.6665
113080000000 0.12665778 26.233614 -53.170567 -122.14433 -53.066872 -121.03481 -0.87551254 109.98415
113128000000 0.12663013 26.28599 -53.179836 -122.38078 -53.039234 -121.2602 -0.88261539 109.59462
113176000000 0.13203181 26.175039 -52.972229 -122.51007 -52.92926 -122.04749 -0.86680949 109.73077
113224000000 0.11192176 26.19017 -52.923824 -123.1191 -52.922169 -122.37279 -0.88018918 109.40436
113272000000 0.13350858 26.448944 -52.808678 -123.64587 -52.831936 -122.43662 -0.86797363 109.58208
113320000000 0.12305043 26.153883 -52.795872 -125.11111 -52.785336 -124.09816 -0.88949668 109.33392
113368000000 0.13821021 26.325369 -52.86977 -126.1347 -52.817741 -124.36057 -0.87162548 109.65784
113416000000 0.12667689 26.133425 -52.987259 -126.33287 -52.939545 -125.37639 -0.87831759 109.33986
113464000000 0.13802063 26.3904 -52.985672 -126.4921 -53.032261 -125.74705 -0.87106866 109.4472
113512000000 0.13711931 26.19899 -53.029732 -127.83938 -53.129253 -125.89861 -0.88132745 109.17018
113560000000 0.14611222 26.450621 -53.11404 -127.9698 -53.10519 -125.87073 -0.88848871 109.35344
113608000000 0.13560914 26.285019 -53.282734 -128.30627 -53.198757 -126.85286 -0.90249085 109.15292
113656000000 0.14544688 26.501383 -53.367786 -127.96231 -53.227654 -127.02969 -0.90124226 109.25825
113704000000 0.12804489 26.414543 -53.440647 -128.06453 -53.40033 -127.27697 -0.90405953 109.05544
113752000000 0.13754216 26.382999 -53.551956 -127.53368 -53.491661 -127.31825 -0.9034313 109.16169
113800000000 0.12843949 26.482113 -53.534332 -127.57581 -53.618954 -126.56963 -0.9023124 109.08219
113848000000 0.12439945 26.40436 -53.641464 -128.51924 -53.720264 -126.37332 -0.9083069 108.99715
113896000000 0.12353403 26.461693 -53.664646 -128.04782 -53.669804 -125.71257 -0.90881842 109.01844
113944000000 0.11798623 26.43589 -53.757233 -127.83732 -53.664799 -125.64628 -0.90464288 108.8562
113992000000 0.12475312 26.509277 -53.778278 -126.64548 -53.718796 -124.80579 -0.90439039 108.89431
114040000000 0.12658788 26.529978 -53.746948 -125.51152 -53.645054 -124.36038 -0.90344274 108.89457
114088000000 0.12637618 26.534077 -53.611088 -124.97057 -53.55999 -124.25028 -0.91017872 108.68822
114136000000 0.14256509 26.568502 -53.41423 -125.28826 -53.472122 -124.23068 -0.9031961 108.99476
114184000000 0.13780698 26.524616 -53.35368 -126.14867 -53.388008 -124.65887 -0.90858769 108.67182
114232000000 0.14825222 26.544552 -53.332138 -127.06445 -53.400448 -124.57682 -0.90178287 108.84705
114280000000 0.14271438 26.508432 -53.400066 -127.19523 -53.383434 -125.21742 -0.9069919 108.85114
114328000000 0.1397676 26.474503 -53.491791 -127.14513 -53.418232 -125.2448 -0.90934914 108.72193
114376000000 0.14345677 26.632887 -53.48938 -127.28107 -53.360012 -125.31664 -0.90796012 108.78738
114424000000 0.12940845 26.424116 -53.517006 -127.11204 -53.377857 -125.55618 -0.91808003 108.64495
114472000000 0.13785362 26.635111 -53.480831 -126.83933 -53.358727 -125.51713 -0.918823 108.6384
114520000000 0.12593766 26.555559 -53.407047 -127.13841 -53.327469 -126.17798 -0.92107564 108.63863
114568000000 0.12710328 26.608046 -53.362267 -127.02819 -53.343384 -126.83137 -0.92628831 108.54673
114616000000 0.12984863 26.671572 -53.335289 -127.38542 -53.310707 -126.85252 -0.92351294 108.56905
114664000000 0.12187517 26.515368 -53.39872 -128.25479 -53.321285 -127.30317 -0.93566281 108.41805
114712000000 0.12867621 26.693224 -53.390335 -127.88695 -53.297031 -127.49265 -0.94149262 108.42381
114760000000 0.11956247 26.526236 -53.308796 -127.92982 -53.303425 -127.45539 -0.94020253 108.34795
114808000000 0.13360497 26.675505 -53.22356 -128.51123 -53.294262 -127.85702 -0.93827885 108.35683
114856000000 0.1326279 26.656698 -53.317314 -129.44026 -53.362061 -128.55951 -0.93481839 108.34727
114904000000 0.13782403 26.677431 -53.401936 -129.66789 -53.440243 -128.3959 -0.93586379 108.24391
114952000000 0.14338464 26.633816 -53.461246 -129.09369 -53.417023 -128.33167 -0.92041743 108.16181
115000000000 0.14450201 26.767015 -53.51799 -129.44673 -53.422306 -128.56363 -0.9311291 108.19408
