!Keysight Technologies,N5247B,MY61256062,A.16.20.04
!Date: Tuesday, November 18, 2025 10:29:44
!Correction: S11(C  2-Port  ) 
!S21(C  2-Port  ) 
!S12(C  2-Port  ) 
!S22(C  2-Port  ) 
!S2P File: Measurements: S11, S21, S12, S22:
# Hz S  dB   R 50
67000000000 -14.384663 -67.157898 -1.7408099 -121.60519 -1.8400691 -66.510536 -24.218275 22.172884
67048000000 -14.368818 -66.81485 -1.7391453 -121.98215 -1.8185949 -66.192741 -24.288187 21.85087
67096000000 -14.318881 -66.659775 -1.7732742 -122.12835 -1.7926121 -66.128052 -24.332745 21.927689
67144000000 -14.275959 -66.982544 -1.7674842 -122.25357 -1.7882501 -66.265709 -24.223515 21.707741
67192000000 -14.298497 -67.817329 -1.7898548 -122.10176 -1.798592 -66.679893 -24.17835 20.004559
67240000000 -14.385974 -67.627289 -1.7676549 -121.68601 -1.7821974 -67.152298 -24.26918 22.146704
67288000000 -14.498166 -67.723808 -1.7665495 -121.38058 -1.7904009 -67.497162 -24.281368 20.030571
67336000000 -14.515381 -67.152382 -1.7684118 -121.60962 -1.8200542 -67.425514 -24.267866 20.453032
67384000000 -14.407511 -66.525589 -1.7588232 -121.78925 -1.7828932 -67.248329 -24.384275 22.172318
67432000000 -14.273502 -66.768959 -1.7837498 -122.66504 -1.7869564 -67.084846 -24.066399 22.61031
67480000000 -14.188084 -67.046165 -1.7567997 -122.82343 -1.7889577 -66.961533 -24.348469 22.432125
67528000000 -14.254116 -67.490128 -1.7646906 -122.73813 -1.7708983 -67.091347 -24.572687 21.514225
67576000000 -14.422894 -67.652466 -1.7635109 -122.61958 -1.7974023 -67.135353 -24.473845 20.670177
67624000000 -14.486643 -67.589516 -1.7560056 -122.48417 -1.7829852 -67.41143 -24.62468 20.143497
67672000000 -14.517958 -67.054916 -1.7720259 -122.51003 -1.7983949 -67.676712 -24.50688 20.727037
67720000000 -14.474223 -67.235542 -1.7842636 -122.63863 -1.8019534 -67.714378 -24.549212 20.227222
67768000000 -14.443252 -66.806648 -1.7725772 -122.74239 -1.7949036 -67.691452 -24.523727 21.445971
67816000000 -14.383544 -67.289719 -1.7552068 -122.85612 -1.7882618 -67.566795 -24.622522 21.405788
67864000000 -14.472226 -67.489479 -1.7214264 -123.0228 -1.7686163 -67.474892 -24.563295 22.05139
67912000000 -14.467265 -67.718437 -1.7685677 -122.96715 -1.7907554 -67.854202 -24.351454 20.626041
67960000000 -14.470448 -67.272781 -1.7723981 -122.8223 -1.7670988 -67.922638 -24.561464 18.576553
68008000000 -14.439115 -66.847702 -1.8105261 -122.86401 -1.7923406 -68.003769 -24.420143 18.243792
68056000000 -14.38289 -67.333733 -1.7790589 -122.89229 -1.8160007 -67.934044 -24.568636 18.011833
68104000000 -14.341321 -67.456024 -1.7848504 -122.7604 -1.8066813 -68.209862 -24.641764 17.004749
68152000000 -14.382764 -68.145836 -1.7691983 -122.67181 -1.7922472 -68.334404 -24.765574 16.879347
68200000000 -14.473805 -68.598869 -1.7864846 -122.7524 -1.7747171 -68.227341 -24.736452 17.107944
68248000000 -14.498655 -68.410645 -1.7890078 -123.38792 -1.7858492 -67.987267 -24.630901 18.405199
68296000000 -14.509279 -67.447105 -1.7785958 -123.75018 -1.7756898 -67.936798 -24.638844 17.498808
68344000000 -14.435506 -66.893082 -1.7690792 -123.83914 -1.7911546 -67.786194 -24.49822 16.300615
68392000000 -14.366316 -66.874664 -1.774892 -123.92806 -1.7858695 -67.870872 -24.487278 16.273083
68440000000 -14.267371 -68.151985 -1.7557203 -123.59323 -1.7603623 -68.080902 -24.473658 14.459442
68488000000 -14.401169 -68.179359 -1.8134087 -123.48444 -1.7613003 -68.648224 -24.68774 15.658834
68536000000 -14.46321 -68.836945 -1.7801895 -123.4809 -1.749272 -68.983643 -24.883724 13.716571
68584000000 -14.55927 -68.132553 -1.7931203 -123.43993 -1.7582543 -69.053612 -24.773037 15.048753
68632000000 -14.582794 -67.657822 -1.7703881 -123.39787 -1.7580311 -69.052307 -24.884581 14.197235
68680000000 -14.490656 -67.550362 -1.7510366 -123.58981 -1.7566794 -68.846733 -24.859373 13.948554
68728000000 -14.408661 -67.623962 -1.7615986 -124.07751 -1.7598871 -68.443787 -24.719563 14.633058
68776000000 -14.33227 -68.13871 -1.7746536 -124.60619 -1.7624632 -68.06929 -24.680452 13.38762
68824000000 -14.472228 -68.716728 -1.7894872 -124.97255 -1.7545677 -68.254341 -24.684647 13.866766
68872000000 -14.477153 -69.169662 -1.7853243 -124.92064 -1.7561108 -68.573647 -24.860947 12.748104
68920000000 -14.642316 -68.569992 -1.7935576 -124.45811 -1.7642235 -69.1054 -24.736176 13.127104
68968000000 -14.585053 -68.726151 -1.7848746 -124.00467 -1.7662174 -69.793427 -24.839685 11.335548
69016000000 -14.575486 -67.937553 -1.778222 -123.64129 -1.7767186 -70.089874 -24.661697 12.063918
69064000000 -14.465666 -68.565529 -1.7785666 -124.09935 -1.774215 -69.807549 -24.784695 9.7212286
69112000000 -14.479087 -68.751961 -1.7857797 -124.69978 -1.7703921 -69.38546 -24.725552 10.309876
69160000000 -14.514942 -69.350616 -1.7762424 -125.46214 -1.7678471 -68.75415 -24.852711 8.8480558
69208000000 -14.594569 -69.313408 -1.7895464 -125.99171 -1.771595 -68.435036 -24.866566 8.7400894
69256000000 -14.669109 -68.171066 -1.7891062 -125.57652 -1.7765292 -68.324219 -24.511948 7.4352551
69304000000 -14.610884 -68.093658 -1.78496 -125.52638 -1.775915 -68.651443 -24.692402 7.2664371
69352000000 -14.688085 -67.53965 -1.7947048 -125.35796 -1.7873604 -69.170258 -24.603472 9.3443966
69400000000 -14.576728 -67.802513 -1.809756 -125.11909 -1.7885282 -69.601486 -24.802197 8.6935186
69448000000 -14.715828 -67.678619 -1.798265 -124.85767 -1.7940146 -70.067764 -24.549246 7.9817781
69496000000 -14.632995 -68.201424 -1.7956374 -124.7111 -1.7909231 -70.122589 -24.586256 6.4828558
69544000000 -14.735209 -67.997597 -1.8006617 -124.90874 -1.7922335 -69.94883 -24.407698 7.0360599
69592000000 -14.751904 -68.118607 -1.7986422 -125.5249 -1.7918233 -69.591217 -24.658468 6.1937361
69640000000 -14.778063 -67.594139 -1.7903813 -126.17741 -1.7965757 -69.149269 -24.552914 6.0693555
69688000000 -14.714272 -67.330437 -1.7985947 -126.4483 -1.7967628 -68.864708 -24.546425 5.8629107
69736000000 -14.635474 -67.414261 -1.7947209 -126.42339 -1.794022 -69.010422 -24.525381 5.3190618
69784000000 -14.616608 -67.534927 -1.8080835 -126.20029 -1.7930682 -69.371368 -24.544228 5.3185315
69832000000 -14.600759 -67.972717 -1.8094993 -126.14171 -1.7907132 -69.708847 -24.618578 5.0540919
69880000000 -14.654322 -67.964218 -1.8187397 -126.12128 -1.7972049 -69.89608 -24.574116 5.7001758
69928000000 -14.681254 -68.17292 -1.809599 -126.22683 -1.7900048 -70.032013 -24.572548 4.4566088
69976000000 -14.644947 -67.587875 -1.8157352 -126.13828 -1.7999979 -70.069061 -24.546759 4.53333
70024000000 -14.609534 -67.41716 -1.8068905 -126.188 -1.7981181 -70.121689 -24.460239 3.5446835
70072000000 -14.561959 -67.284134 -1.8101001 -126.33864 -1.8042797 -70.080917 -24.477968 3.3321319
70120000000 -14.501023 -67.42939 -1.810324 -126.49411 -1.8078351 -70.055656 -24.43491 3.2464077
70168000000 -14.52445 -67.673531 -1.8116131 -126.71881 -1.806121 -69.955261 -24.460537 2.3742261
70216000000 -14.50751 -67.897675 -1.7989668 -126.90939 -1.7942235 -69.986183 -24.480442 1.7122643
70264000000 -14.600693 -67.917007 -1.8295656 -126.9378 -1.7966959 -70.108444 -24.528084 2.0844669
70312000000 -14.598934 -67.581688 -1.825586 -127.041 -1.8113947 -70.1063 -24.370642 2.2019324
70360000000 -14.665997 -67.502045 -1.830127 -127.27353 -1.8159822 -70.066444 -24.427521 2.1156549
70408000000 -14.543438 -67.436317 -1.8099979 -127.56359 -1.8184284 -69.927559 -24.307377 1.4936277
70456000000 -14.552634 -67.658592 -1.8084691 -127.67173 -1.8200742 -69.825096 -24.246969 1.1157712
70504000000 -14.471483 -67.638504 -1.8133541 -127.74693 -1.8147113 -69.825424 -24.072664 1.1467184
70552000000 -14.473784 -67.952988 -1.8114688 -127.71891 -1.8171487 -69.922379 -24.057562 0.78814328
70600000000 -14.498122 -67.917793 -1.8113844 -127.64697 -1.8158736 -70.220879 -23.970842 -0.15744817
70648000000 -14.439762 -67.803375 -1.8066177 -127.55153 -1.8194445 -70.447144 -24.088957 -0.61212039
70696000000 -14.505308 -67.830482 -1.8194461 -127.64792 -1.8201911 -70.503296 -23.948933 -0.44010252
70744000000 -14.354223 -67.563011 -1.8058157 -127.96407 -1.8087231 -70.334595 -24.109051 -0.76369774
70792000000 -14.446702 -68.10524 -1.8142644 -128.23701 -1.8078473 -70.170876 -23.894438 -0.96732032
70840000000 -14.264855 -67.912521 -1.7874944 -128.47716 -1.8041247 -70.05645 -23.902431 -1.459761
70888000000 -14.416121 -68.532669 -1.8171203 -128.70766 -1.8120189 -69.962021 -23.658943 -1.0870481
70936000000 -14.280684 -68.329597 -1.7922933 -128.95085 -1.7941875 -69.885529 -23.74687 -2.5925114
70984000000 -14.392694 -68.653801 -1.8051625 -129.09926 -1.8077044 -69.862343 -23.565357 -2.246558
71032000000 -14.320033 -68.374374 -1.7944661 -128.96785 -1.8035287 -70.018867 -23.452354 -2.8601415
71080000000 -14.301486 -68.572365 -1.78434 -128.80766 -1.7949251 -70.250175 -23.440132 -3.9113488
71128000000 -14.284939 -68.303009 -1.7940005 -128.68079 -1.798592 -70.580177 -23.41831 -3.7509863
71176000000 -14.26572 -68.69178 -1.7782683 -128.57695 -1.7852126 -70.829185 -23.417618 -4.7859459
71224000000 -14.258289 -68.64521 -1.8026963 -128.53795 -1.7895643 -71.013374 -23.281322 -4.6175623
71272000000 -14.204374 -68.865265 -1.7802523 -128.53076 -1.785356 -71.074516 -23.34511 -4.7483048
71320000000 -14.271343 -68.88591 -1.8115706 -128.67841 -1.8011688 -71.095871 -23.236666 -4.2203059
71368000000 -14.224142 -68.6008 -1.7849913 -128.85072 -1.7918812 -71.049103 -23.309162 -4.7652483
71416000000 -14.292579 -68.675423 -1.8276292 -129.16193 -1.8025783 -70.795547 -23.152027 -4.1271214
71464000000 -14.262665 -68.033157 -1.817915 -129.67778 -1.8086649 -70.538429 -23.324936 -4.9483719
71512000000 -14.305173 -68.430611 -1.8413923 -130.07425 -1.8208768 -70.412994 -23.271627 -5.0317731
71560000000 -14.304801 -67.838791 -1.8462148 -130.25764 -1.8183793 -70.521225 -23.394878 -5.9349785
71608000000 -14.338364 -68.750282 -1.8470552 -130.15901 -1.8354733 -70.810089 -23.306526 -6.3421383
71656000000 -14.331205 -68.144714 -1.8427975 -129.93123 -1.8255513 -71.373222 -23.404865 -7.4732842
71704000000 -14.342947 -68.787254 -1.8320404 -129.30681 -1.8391818 -71.929382 -23.286282 -6.8946991
71752000000 -14.257904 -68.384903 -1.778494 -128.73273 -1.8231471 -72.041656 -22.88048 -6.300993
71800000000 -14.342747 -68.626549 -1.8096241 -129.12366 -1.8201423 -72.125595 -22.941078 -7.0981321
71848000000 -14.368484 -68.085648 -1.8647841 -129.74149 -1.8337321 -72.038834 -23.264023 -7.3730621
71896000000 -14.320816 -68.432152 -1.8492472 -130.17819 -1.844907 -71.765297 -23.07086 -7.3796968
71944000000 -14.272046 -68.563866 -1.8437326 -130.63577 -1.8098103 -71.251625 -23.018892 -7.887908
71992000000 -14.201251 -68.738312 -1.8471609 -131.06604 -1.8168714 -70.997192 -22.860168 -8.1921892
72040000000 -14.26115 -68.869972 -1.8511434 -131.21214 -1.8100491 -70.82412 -22.921152 -9.0586519
72088000000 -14.260427 -68.657188 -1.8280152 -131.05437 -1.8306702 -71.158829 -22.804028 -9.1927004
72136000000 -14.307941 -68.957047 -1.8073264 -130.72183 -1.837724 -71.641685 -22.826292 -9.5857086
72184000000 -14.321384 -68.968857 -1.7892824 -130.46535 -1.8510941 -72.208786 -22.899555 -9.9489489
72232000000 -14.235159 -68.468369 -1.8084016 -130.03799 -1.8194858 -72.614723 -22.856657 -9.926116
72280000000 -14.193826 -68.522881 -1.8018523 -129.78667 -1.818321 -72.814682 -22.911385 -9.4330091
72328000000 -14.171698 -68.327972 -1.8190892 -130.12613 -1.8085232 -72.674301 -22.777977 -10.013216
72376000000 -14.124473 -68.631462 -1.7973952 -130.77046 -1.8089637 -72.184219 -22.733271 -10.291971
72424000000 -14.183485 -68.721016 -1.8298125 -131.55009 -1.8227021 -71.635574 -22.756454 -10.343561
72472000000 -14.130522 -68.904686 -1.8162142 -132.12752 -1.8236572 -70.994217 -22.557205 -10.763139
72520000000 -14.176297 -68.437981 -1.8127195 -132.43332 -1.8101181 -70.856544 -22.691256 -11.531638
72568000000 -14.12216 -69.217232 -1.82838 -132.47427 -1.8143084 -71.151451 -22.48201 -12.255569
72616000000 -14.123724 -68.480698 -1.8061213 -132.03993 -1.8113872 -71.794067 -22.718159 -12.49523
72664000000 -14.084856 -69.106201 -1.8252435 -131.457 -1.812229 -72.430611 -22.626238 -12.962026
72712000000 -14.101933 -68.696144 -1.8173438 -131.07715 -1.8099214 -73.065086 -22.737787 -12.500389
72760000000 -14.100883 -69.051888 -1.8248132 -131.12943 -1.7986315 -73.101303 -22.723404 -12.726519
72808000000 -14.121348 -68.935539 -1.8210052 -131.58366 -1.8077782 -72.815063 -22.675499 -12.247285
72856000000 -14.130987 -68.893814 -1.8180661 -132.24939 -1.8035941 -72.208275 -22.6581 -12.206579
72904000000 -14.141315 -68.823784 -1.8163172 -132.86479 -1.8177918 -71.81147 -22.584362 -12.257201
72952000000 -14.133698 -68.754951 -1.8183572 -133.18362 -1.8122994 -71.622162 -22.557213 -12.831014
73000000000 -14.128939 -68.75737 -1.8107599 -132.97931 -1.8182286 -72.038254 -22.506222 -13.057976
73048000000 -14.115176 -69.086899 -1.821234 -132.539 -1.8100184 -72.689041 -22.518896 -13.626243
73096000000 -14.108917 -68.982414 -1.8161167 -131.96103 -1.8244853 -73.376747 -22.517305 -13.901542
73144000000 -14.120612 -69.432259 -1.8338225 -131.83612 -1.8213214 -73.832375 -22.516989 -14.084478
73192000000 -14.138224 -68.961555 -1.8100859 -131.80815 -1.8186268 -73.825233 -22.587303 -14.141557
73240000000 -14.153608 -69.282013 -1.828748 -132.3436 -1.825824 -73.626991 -22.534225 -13.994315
73288000000 -14.177333 -68.70295 -1.8304572 -132.73848 -1.8310585 -72.924728 -22.60664 -13.693104
73336000000 -14.126011 -69.083878 -1.8504124 -133.2267 -1.8523824 -71.512215 -22.595675 -9.7957811
73384000000 -14.114255 -68.768639 -1.8589344 -133.3042 -1.8384765 -71.873436 -22.51565 -10.497865
73432000000 -14.091379 -69.079674 -1.8702586 -132.99586 -1.8581493 -72.102638 -22.581203 -10.324999
73480000000 -14.151932 -68.815277 -1.8795646 -132.71318 -1.8453093 -74.021294 -22.44132 -14.441103
73528000000 -14.143036 -68.899223 -1.8812349 -132.38434 -1.8467799 -74.370628 -22.423922 -14.258093
73576000000 -14.183784 -68.779373 -1.88763 -132.353 -1.8384002 -74.489738 -22.389982 -14.390693
73624000000 -14.170803 -68.596375 -1.8906286 -132.59222 -1.8334996 -74.398148 -22.420454 -14.53152
73672000000 -14.169456 -68.474663 -1.9014213 -133.07381 -1.8317401 -74.000938 -22.422544 -14.480843
73720000000 -14.130239 -68.810646 -1.8988649 -133.60229 -1.8399481 -72.114197 -22.672804 -9.839365
73768000000 -14.10009 -68.776932 -1.8981595 -133.99568 -1.8425336 -71.993454 -22.595604 -10.220858
73816000000 -14.099786 -68.798752 -1.8862078 -134.19781 -1.8454542 -71.939346 -22.615927 -10.416547
73864000000 -14.068913 -68.644234 -1.8688488 -134.07256 -1.8653631 -72.334763 -22.582794 -11.102839
73912000000 -14.068207 -68.3013 -1.8687428 -133.71751 -1.8544735 -74.357239 -22.029539 -15.685755
73960000000 -14.068602 -68.235725 -1.8608149 -133.13557 -1.8650597 -74.973671 -22.014433 -15.528193
74008000000 -14.083922 -68.31546 -1.8568789 -132.90135 -1.8539598 -75.035446 -21.97975 -15.076508
74056000000 -14.067046 -68.317917 -1.8515429 -133.07556 -1.8605261 -75.088394 -21.91733 -15.418876
74104000000 -14.054459 -68.145485 -1.8577062 -133.37984 -1.8518978 -74.805931 -21.880228 -15.856804
74152000000 -14.058978 -68.262131 -1.8685956 -133.88182 -1.8505718 -74.320274 -21.908451 -16.059685
74200000000 -14.044067 -68.187592 -1.8627087 -134.40503 -1.8375192 -73.775055 -21.900867 -16.269945
74248000000 -14.037049 -68.440582 -1.8591413 -134.72186 -1.8452712 -73.74147 -21.89506 -16.573366
74296000000 -14.055197 -68.289665 -1.8471103 -134.56705 -1.8444719 -73.900192 -21.906805 -16.708334
74344000000 -14.071425 -68.529739 -1.8475174 -134.17319 -1.8483624 -74.487465 -21.89835 -16.815773
74392000000 -14.068812 -68.296074 -1.8515157 -133.81078 -1.8424929 -75.098877 -21.8846 -16.851574
74440000000 -14.072939 -68.239502 -1.860213 -133.54471 -1.8415335 -75.501472 -21.879368 -17.036898
74488000000 -14.0617 -68.136787 -1.865002 -133.66711 -1.8434579 -75.544395 -21.880066 -17.065035
74536000000 -14.015919 -68.11264 -1.8704119 -134.17763 -1.8459721 -75.271767 -21.869436 -17.297726
74584000000 -14.026465 -68.38504 -1.8711741 -134.8264 -1.8457353 -74.815773 -21.833914 -17.049883
74632000000 -13.984407 -68.278946 -1.8737484 -135.38988 -1.8482122 -74.475159 -21.805826 -17.374788
74680000000 -14.017341 -68.500107 -1.8777473 -135.54613 -1.844411 -74.394325 -21.783203 -17.330452
74728000000 -14.012294 -68.339584 -1.8851165 -135.30997 -1.8496058 -74.731621 -21.786715 -17.625538
74776000000 -14.043836 -68.423637 -1.8817867 -134.82033 -1.8476921 -75.258812 -21.797417 -17.687468
74824000000 -14.035394 -68.357521 -1.8930424 -134.46368 -1.8487713 -75.873245 -21.782919 -17.772511
74872000000 -14.043366 -68.411385 -1.8841949 -134.34306 -1.8420284 -76.114861 -21.795956 -17.73204
74920000000 -14.022256 -68.269753 -1.8951721 -134.71825 -1.8357617 -75.951408 -21.78974 -17.607914
74968000000 -14.056875 -68.513138 -1.8765545 -135.03543 -1.8387725 -75.62986 -21.856045 -17.508831
75016000000 -14.04893 -68.455193 -1.8840246 -135.45741 -1.8444114 -75.296623 -21.863926 -17.566597
75064000000 -14.060985 -68.570709 -1.8750182 -135.629 -1.8422923 -75.247353 -21.883575 -17.559166
75112000000 -14.040102 -68.511322 -1.8715959 -135.57343 -1.8443054 -75.417664 -21.853994 -17.600513
75160000000 -14.040654 -68.704575 -1.8719492 -135.50423 -1.8417349 -75.836853 -21.864264 -17.520634
75208000000 -13.998402 -68.704445 -1.8770877 -135.18787 -1.841998 -76.110947 -21.733452 -18.008018
75256000000 -14.015369 -68.847977 -1.8855213 -135.3676 -1.8511311 -76.243629 -21.765574 -18.462269
75304000000 -14.003777 -68.845329 -1.8825564 -135.51515 -1.8442369 -76.017708 -21.729322 -19.097452
75352000000 -14.017173 -68.833748 -1.8847189 -136.00688 -1.8554509 -75.702003 -21.752676 -19.319096
75400000000 -14.006172 -68.871132 -1.8815016 -136.31143 -1.8433064 -75.568611 -21.738916 -19.57548
75448000000 -14.015112 -68.961823 -1.8788595 -136.44814 -1.8473954 -75.683693 -21.760546 -19.73
75496000000 -14.029551 -68.848083 -1.882027 -136.28293 -1.8566407 -75.939896 -21.750603 -19.972603
75544000000 -14.029663 -68.811493 -1.8691087 -136.10977 -1.860024 -76.15007 -21.739809 -20.005581
75592000000 -14.015743 -68.767059 -1.8724153 -136.10196 -1.8564923 -76.452156 -21.726604 -19.981602
75640000000 -13.994522 -68.848274 -1.8721508 -136.25169 -1.8582029 -76.390274 -21.706936 -20.017462
75688000000 -14.000434 -69.03434 -1.8700997 -136.57108 -1.8646302 -76.207237 -21.671974 -19.87635
75736000000 -13.974056 -69.166977 -1.8789605 -137.01729 -1.860867 -75.951088 -21.675184 -19.996052
75784000000 -14.023503 -69.534622 -1.8791149 -137.29079 -1.8614765 -75.773224 -21.616936 -19.922752
75832000000 -14.034674 -69.508858 -1.8930273 -137.51399 -1.8594663 -75.732468 -21.640488 -20.119808
75880000000 -14.088435 -69.678024 -1.8885632 -137.46339 -1.8535128 -75.829437 -21.638607 -20.140402
75928000000 -14.104795 -69.603966 -1.8986027 -137.28705 -1.864796 -76.212341 -21.654911 -20.069723
75976000000 -14.119258 -69.590179 -1.9126385 -137.33321 -1.8665107 -76.282356 -21.579454 -20.18058
76024000000 -14.098549 -69.241852 -1.888868 -137.17232 -1.8635761 -76.562164 -21.677742 -20.589075
76072000000 -14.058757 -69.395386 -1.8845799 -137.18414 -1.8664367 -76.724022 -21.62569 -20.230289
76120000000 -14.045246 -69.341904 -1.8810326 -137.33046 -1.8674024 -76.693497 -21.680462 -20.407539
76168000000 -14.028687 -69.508041 -1.8836396 -137.59682 -1.8644083 -76.591759 -21.653843 -20.388941
76216000000 -13.984168 -69.684181 -1.8884281 -137.91544 -1.8596482 -76.394867 -21.583199 -20.739237
76264000000 -14.00246 -69.941391 -1.8971661 -138.21262 -1.8645856 -76.284256 -21.573776 -21.073721
76312000000 -13.99214 -70.114319 -1.8851013 -138.42818 -1.8599695 -76.17363 -21.545794 -21.896141
76360000000 -14.026801 -70.129288 -1.8856543 -138.50706 -1.866105 -76.246353 -21.592932 -22.529125
76408000000 -14.005892 -70.203209 -1.8761047 -138.32594 -1.859769 -76.489799 -21.521839 -23.414597
76456000000 -14.041591 -70.046341 -1.8909143 -138.06157 -1.8641343 -76.91391 -21.561729 -23.652374
76504000000 -14.030477 -70.185158 -1.8807567 -137.82628 -1.8605361 -77.254547 -21.544695 -24.460068
76552000000 -14.042417 -70.083054 -1.8629081 -137.9028 -1.8783333 -77.314888 -21.573109 -24.676107
76600000000 -14.030848 -70.256271 -1.872679 -138.19148 -1.8559762 -77.15004 -21.563383 -25.122837
76648000000 -14.070269 -70.200935 -1.8757439 -138.55408 -1.8574978 -77.056419 -21.580944 -25.337957
76696000000 -14.037591 -70.160149 -1.8654487 -138.856 -1.8584043 -76.74485 -21.545414 -25.427238
76744000000 -14.061091 -70.048691 -1.8726639 -139.10867 -1.8616002 -76.725182 -21.533236 -25.362093
76792000000 -14.024373 -69.873535 -1.8888351 -138.81747 -1.8554131 -76.868721 -21.419945 -25.708447
76840000000 -13.940838 -70.109909 -1.8656065 -138.60602 -1.8342726 -77.212646 -21.313276 -26.116098
76888000000 -14.010222 -70.095497 -1.8750896 -138.64474 -1.8545382 -77.531593 -21.405354 -25.774574
76936000000 -13.919686 -70.560883 -1.8608086 -138.77721 -1.8434291 -77.436569 -21.280163 -26.768652
76984000000 -13.966539 -70.714279 -1.8592843 -139.22574 -1.8406634 -77.26284 -21.350885 -26.496254
77032000000 -13.985299 -71.069496 -1.8679501 -139.59129 -1.8404969 -77.049118 -21.322474 -27.050953
77080000000 -14.052342 -70.951538 -1.8693161 -139.83397 -1.8482578 -77.010262 -21.365965 -26.733715
77128000000 -14.062551 -71.066605 -1.8746563 -139.78792 -1.849647 -77.16938 -21.33737 -27.088236
77176000000 -14.086066 -70.69471 -1.8818785 -139.49387 -1.849798 -77.600685 -21.390169 -27.1306
77224000000 -14.05531 -70.622002 -1.8656949 -139.07111 -1.8514248 -78.025223 -21.340996 -27.649263
77272000000 -14.039697 -70.250275 -1.883594 -139.07634 -1.8734723 -78.185158 -21.390444 -27.304197
77320000000 -13.968077 -70.466026 -1.879735 -139.2224 -1.8501983 -78.011276 -21.34679 -27.226679
77368000000 -13.955367 -70.447342 -1.8833089 -139.56554 -1.8551108 -77.772194 -21.291748 -27.415226
77416000000 -13.948277 -70.996735 -1.8722161 -140.14177 -1.8525156 -77.497543 -21.357725 -27.761274
77464000000 -13.964936 -71.08252 -1.8739358 -140.45445 -1.8559564 -77.37899 -21.415724 -28.018545
77512000000 -13.984495 -70.991104 -1.8685311 -140.4478 -1.860834 -77.326675 -21.320614 -28.362837
77560000000 -14.006095 -71.033234 -1.8717265 -140.27792 -1.8577185 -77.842422 -21.42124 -28.634151
77608000000 -14.025604 -70.905052 -1.867566 -140.0545 -1.8554028 -78.249794 -21.440556 -29.052919
77656000000 -13.991966 -70.710281 -1.8669887 -139.95644 -1.8122346 -78.367012 -21.366085 -30.20653
77704000000 -14.110843 -70.741592 -1.905718 -140.3372 -1.8773309 -78.635239 -21.536919 -28.761286
77752000000 -14.042089 -70.409256 -1.8940057 -140.27275 -1.86985 -78.328102 -21.409573 -29.38146
77800000000 -14.010001 -70.617317 -1.8737756 -140.52249 -1.8541466 -78.297531 -21.376549 -30.007507
77848000000 -14.012644 -70.784439 -1.8816457 -140.70535 -1.852658 -78.287476 -21.369322 -29.951019
77896000000 -14.032001 -70.907005 -1.8858521 -140.82855 -1.8590242 -78.336952 -21.3626 -30.152658
77944000000 -14.048175 -70.849777 -1.8916105 -140.91145 -1.8607192 -78.379677 -21.355482 -29.776108
77992000000 -14.02792 -70.81057 -1.8840914 -140.99077 -1.8661543 -78.394455 -21.256447 -29.875633
78040000000 -14.037974 -70.766739 -1.8976377 -141.09143 -1.8681889 -78.46019 -21.258356 -29.622347
78088000000 -14.007997 -70.688866 -1.889179 -141.1319 -1.8736624 -78.489212 -21.174721 -29.652922
78136000000 -13.996461 -70.806107 -1.8920915 -141.19171 -1.8734185 -78.571236 -21.142748 -29.741318
78184000000 -13.977672 -70.97937 -1.8908106 -141.13878 -1.8715688 -78.69796 -21.098314 -29.631472
78232000000 -13.981133 -70.989662 -1.8909279 -141.02995 -1.8676504 -78.946136 -21.074903 -29.783054
78280000000 -13.98895 -71.086319 -1.8990854 -141.02417 -1.8720237 -78.893204 -20.924744 -29.639347
78328000000 -14.037658 -71.089447 -1.9002335 -141.27313 -1.8665673 -79.082893 -21.002239 -29.900698
78376000000 -14.056368 -71.261086 -1.9008278 -141.68674 -1.8714545 -78.801094 -21.012976 -30.010656
78424000000 -14.035386 -71.052139 -1.90171 -141.95837 -1.8578885 -78.61161 -20.958784 -30.769255
78472000000 -14.066222 -71.349495 -1.8988854 -142.20862 -1.8610307 -78.654999 -21.020342 -31.054832
78520000000 -14.049888 -70.552933 -1.9386408 -141.87543 -1.8825969 -78.825935 -21.013739 -30.456142
78568000000 -14.060187 -71.447014 -1.8706452 -141.93147 -1.8852731 -79.155556 -20.988834 -31.601166
78616000000 -14.025171 -70.927635 -1.8794504 -141.72116 -1.8680679 -79.467239 -21.005148 -32.184673
78664000000 -14.056714 -71.225952 -1.8969342 -141.83331 -1.8720261 -79.571968 -21.001541 -32.077766
78712000000 -14.017517 -70.846634 -1.8972439 -142.1098 -1.860993 -79.330635 -21.013767 -32.808918
78760000000 -14.060573 -71.145821 -1.8944694 -142.55775 -1.8796476 -79.209663 -21.045361 -32.726868
78808000000 -14.056078 -70.565132 -1.903941 -142.80069 -1.8892218 -78.825623 -21.022703 -32.430832
78856000000 -14.070122 -70.842537 -1.9115747 -142.76897 -1.8654339 -79.137688 -20.923618 -32.944378
78904000000 -14.050719 -70.962303 -1.8957365 -142.53656 -1.8559358 -79.574898 -20.886425 -33.590874
78952000000 -14.063095 -71.015633 -1.8964045 -142.36481 -1.8685614 -79.989365 -20.832636 -33.599972
79000000000 -14.088989 -71.216057 -1.9074482 -142.32664 -1.877615 -80.125412 -20.771822 -33.874977
79048000000 -14.085162 -71.133652 -1.9007419 -142.62239 -1.8734719 -79.927155 -20.70973 -34.134628
79096000000 -14.10789 -71.476494 -1.9040049 -143.10312 -1.8800945 -79.644333 -20.629049 -34.225941
79144000000 -14.125008 -71.415123 -1.9002079 -143.59668 -1.8763654 -79.180405 -20.569334 -34.740189
79192000000 -14.162806 -71.441193 -1.9088235 -143.90581 -1.8847241 -79.131592 -20.557531 -34.919365
79240000000 -14.144703 -71.315697 -1.9038717 -143.70459 -1.8746696 -79.306343 -20.49754 -35.155766
79288000000 -14.134623 -71.231651 -1.9091108 -143.26141 -1.8790822 -79.947975 -20.544739 -35.463993
79336000000 -14.127288 -71.181885 -1.9039222 -142.90384 -1.885566 -80.41114 -20.50444 -35.17799
79384000000 -14.140525 -71.345787 -1.9181696 -143.01628 -1.8818421 -80.575409 -20.52915 -35.358379
79432000000 -14.12521 -71.047005 -1.9155494 -143.3105 -1.8861299 -80.310356 -20.485584 -35.393753
79480000000 -14.131954 -71.432137 -1.9256892 -143.86406 -1.8929015 -79.923378 -20.540392 -35.191711
79528000000 -14.128301 -70.822174 -1.9211375 -144.37398 -1.900622 -79.5214 -20.573605 -34.963207
79576000000 -14.161599 -71.311462 -1.9273298 -144.75746 -1.8969105 -79.268532 -20.540438 -35.044136
79624000000 -14.130455 -70.523392 -1.9130599 -144.66835 -1.9016683 -79.418327 -20.434219 -34.950863
79672000000 -14.1717 -70.967003 -1.9181906 -144.30479 -1.9079252 -79.932358 -20.443476 -35.493618
79720000000 -14.123307 -70.354477 -1.9132277 -143.87672 -1.9134331 -80.342964 -20.371296 -34.973637
79768000000 -14.145671 -70.508202 -1.9269053 -143.84773 -1.9216555 -80.663002 -20.503832 -35.488918
79816000000 -14.110532 -70.537453 -1.8871371 -144.03326 -1.8822809 -80.817551 -20.405888 -37.751793
79864000000 -14.104195 -70.908752 -1.907931 -144.41539 -1.8821188 -80.673645 -20.504505 -37.512726
79912000000 -14.085533 -70.556091 -1.9079498 -144.60657 -1.8884181 -80.42543 -20.529812 -37.173767
79960000000 -14.111448 -71.135696 -1.9236848 -145.0247 -1.8774123 -80.387032 -20.522802 -37.345951
80008000000 -14.108191 -70.939987 -1.9349715 -145.1967 -1.8685049 -80.263618 -20.50572 -37.36924
80056000000 -14.133121 -70.981064 -1.9266354 -145.25938 -1.9041911 -80.387924 -20.567404 -37.199963
80104000000 -14.112146 -71.043114 -1.9015553 -145.24553 -1.9173785 -80.430885 -20.414492 -36.940807
80152000000 -14.102993 -70.942375 -1.9283764 -145.21173 -1.9109657 -80.597878 -20.421429 -37.272942
80200000000 -14.037663 -70.959167 -1.9135776 -144.98817 -1.9053354 -80.825409 -20.358025 -37.580898
80248000000 -14.015729 -71.019661 -1.9232647 -144.93353 -1.9051752 -81.060928 -20.343441 -37.634941
80296000000 -14.001208 -71.207756 -1.9149355 -144.85405 -1.9059798 -81.296364 -20.290819 -37.904369
80344000000 -13.995545 -71.409889 -1.9110702 -144.9612 -1.9009104 -81.377144 -20.256306 -38.466381
80392000000 -14.015696 -71.41275 -1.9275186 -145.10565 -1.8969297 -81.307442 -20.225416 -38.414196
80440000000 -14.039006 -71.154671 -1.9209123 -145.59766 -1.9187413 -81.05352 -20.288715 -38.609512
80488000000 -14.021319 -71.093071 -1.921577 -145.80894 -1.9205058 -80.822433 -20.184689 -38.176956
80536000000 -14.02465 -71.004784 -1.9072895 -145.9951 -1.9104898 -80.808929 -20.133745 -38.7155
80584000000 -13.976768 -70.974525 -1.9180255 -145.91167 -1.9033018 -81.002991 -20.056431 -38.696068
80632000000 -13.94854 -70.779915 -1.9303114 -145.80754 -1.9056998 -81.335358 -20.092436 -39.241802
80680000000 -13.936507 -71.337395 -1.9288498 -145.71951 -1.9013331 -81.564789 -20.070162 -39.252789
80728000000 -13.922776 -71.017372 -1.9267125 -145.87622 -1.9057465 -81.581497 -20.06769 -39.201977
80776000000 -13.935192 -71.539703 -1.9310758 -146.2843 -1.9077835 -81.309837 -20.03035 -39.153576
80824000000 -13.943808 -71.195915 -1.9302133 -146.68573 -1.9102306 -80.975693 -19.98595 -39.429428
80872000000 -13.971752 -71.397026 -1.923449 -146.94572 -1.9247274 -80.954147 -19.987865 -39.465984
80920000000 -13.949647 -71.031349 -1.9233228 -146.77313 -1.9202189 -81.125481 -19.98024 -39.349918
80968000000 -13.952139 -71.149849 -1.928906 -146.44553 -1.9288627 -81.760147 -19.955978 -39.64444
81016000000 -13.939563 -71.160538 -1.9173093 -146.14647 -1.9130205 -82.101234 -19.876881 -40.113659
81064000000 -13.957864 -71.111572 -1.9344696 -146.26024 -1.9176434 -82.09816 -19.837572 -40.230438
81112000000 -13.956791 -71.226723 -1.9228581 -146.76823 -1.9157245 -81.78521 -19.854898 -40.566189
81160000000 -13.948679 -71.407028 -1.9347371 -147.54039 -1.94012 -81.285606 -19.94692 -40.485394
81208000000 -13.957909 -71.248924 -1.9554073 -148.11652 -1.9234389 -80.770157 -19.97423 -40.686852
81256000000 -13.960832 -71.602188 -1.9340039 -148.32877 -1.9011509 -80.689812 -19.777821 -40.706318
81304000000 -13.976747 -71.575188 -1.9256263 -148.10596 -1.908131 -81.105141 -19.787601 -40.98457
81352000000 -13.971424 -71.330215 -1.9442927 -147.30411 -1.9221803 -81.878113 -19.880232 -40.479507
81400000000 -13.967638 -71.113724 -1.961645 -146.58853 -1.9383792 -82.548782 -19.88797 -40.170895
81448000000 -13.974855 -71.265526 -1.9350668 -146.73024 -1.9273063 -82.916138 -19.809179 -41.189533
81496000000 -13.939235 -71.039474 -1.910405 -147.16846 -1.9289757 -82.667992 -19.736868 -42.293602
81544000000 -13.964083 -71.475731 -1.9512576 -148.05505 -1.9646733 -82.045555 -19.771847 -42.038906
81592000000 -13.853404 -70.969803 -1.9908761 -148.89819 -1.9546416 -81.059616 -19.927267 -42.448223
81640000000 -13.87153 -71.408279 -1.9339608 -149.48087 -1.9412754 -80.728561 -19.828201 -43.477787
81688000000 -13.853329 -71.34436 -1.9412997 -149.24089 -1.9080839 -80.790413 -19.787748 -43.311272
81736000000 -13.850422 -71.347939 -1.9598138 -148.69542 -1.942649 -81.40609 -19.805019 -42.563721
81784000000 -13.827569 -71.14682 -1.9736524 -147.94742 -1.9476234 -82.154076 -19.895889 -42.568539
81832000000 -13.845117 -71.112885 -1.9829446 -147.65509 -1.9471933 -82.738571 -19.887978 -43.021961
81880000000 -13.815439 -70.908661 -1.9411402 -147.73061 -1.9337535 -82.88829 -19.794615 -43.649101
81928000000 -13.802363 -70.988983 -1.9328792 -148.03462 -1.932081 -82.781761 -19.719511 -43.545986
81976000000 -13.774847 -70.979996 -1.9318516 -148.40312 -1.9298198 -82.470413 -19.682516 -43.38269
82024000000 -13.787354 -71.139244 -1.9395329 -148.87283 -1.9236554 -82.184006 -19.627815 -43.279251
82072000000 -13.801323 -71.076698 -1.9465241 -149.17603 -1.9273765 -81.851578 -19.552946 -42.896469
82120000000 -13.82008 -70.993927 -1.9506284 -149.24133 -1.9409249 -81.860992 -19.4895 -43.245975
82168000000 -13.811641 -71.114685 -1.9404607 -149.20636 -1.9329467 -82.199326 -19.436209 -43.580551
82216000000 -13.80937 -71.038971 -1.9571952 -148.96722 -1.9274569 -82.413322 -19.431141 -43.596344
82264000000 -13.783737 -71.092148 -1.9311602 -148.83701 -1.9201964 -82.786339 -19.362646 -43.552956
82312000000 -13.766812 -71.082031 -1.937174 -148.76967 -1.9293919 -83.069756 -19.340443 -43.451752
82360000000 -13.723574 -71.186806 -1.9357055 -148.88875 -1.924131 -83.040352 -19.294058 -43.009117
82408000000 -13.689593 -71.447556 -1.9363952 -149.3102 -1.915127 -82.764496 -19.282698 -43.275982
82456000000 -13.662169 -71.712593 -1.9364364 -149.80653 -1.9189205 -82.41851 -19.312851 -43.221298
82504000000 -13.659674 -71.930809 -1.9322474 -150.25043 -1.9118601 -82.113647 -19.344082 -43.187309
82552000000 -13.675793 -71.980736 -1.9317943 -150.43643 -1.9248194 -82.151459 -19.330433 -43.083466
82600000000 -13.664906 -71.885086 -1.9316837 -150.19003 -1.925077 -82.465004 -19.326595 -43.320705
82648000000 -13.677608 -71.845627 -1.9214884 -149.58647 -1.9411625 -83.255257 -19.381804 -43.442039
82696000000 -13.664721 -71.774933 -1.9271914 -148.98106 -1.9345729 -83.984543 -19.389273 -43.220535
82744000000 -13.653357 -71.680794 -1.9241222 -148.90074 -1.9359093 -84.179283 -19.37928 -43.476128
82792000000 -13.632465 -71.690804 -1.9316771 -149.49014 -1.9406679 -83.749138 -19.397182 -43.624489
82840000000 -13.630649 -71.807724 -1.9341891 -150.50999 -1.9343802 -82.791275 -19.424767 -43.876518
82888000000 -13.621273 -72.011337 -1.9255691 -151.76065 -1.9489709 -81.825493 -19.464613 -43.862343
82936000000 -13.627065 -72.243073 -1.9513371 -152.35033 -1.9296035 -81.375084 -19.506783 -43.792171
82984000000 -13.623055 -72.2938 -1.9422081 -152.01816 -1.93464 -81.785629 -19.471731 -43.597618
83032000000 -13.605444 -72.399818 -1.93595 -150.93581 -1.931531 -82.943748 -19.448616 -43.6059
83080000000 -13.615791 -72.513084 -1.9282433 -149.72104 -1.9372269 -84.288063 -19.422884 -43.634815
83128000000 -13.622416 -72.496475 -1.9299731 -149.0374 -1.9449906 -85.168961 -19.426241 -43.757816
83176000000 -13.620731 -72.507034 -1.9300467 -149.16721 -1.935033 -85.177177 -19.388548 -44.002449
83224000000 -13.625571 -72.538254 -1.944908 -150.22968 -1.9276929 -84.356628 -19.365616 -44.323578
83272000000 -13.615214 -72.501205 -1.9362864 -151.71562 -1.9308517 -83.119759 -19.258436 -44.644455
83320000000 -13.605382 -72.654823 -1.9344008 -152.95702 -1.922657 -81.845108 -19.207703 -44.785801
83368000000 -13.620297 -72.808502 -1.9312649 -153.6411 -1.9304028 -81.492836 -19.190111 -45.176537
83416000000 -13.624614 -72.837799 -1.9229209 -153.19012 -1.9277203 -82.040192 -19.143156 -45.207108
83464000000 -13.619376 -72.92849 -1.9197482 -152.08398 -1.9349618 -83.18502 -19.123669 -45.04826
83512000000 -13.631759 -73.058647 -1.9338166 -150.86211 -1.9068053 -84.484718 -19.128582 -45.300835
83560000000 -13.663679 -73.031425 -1.9375864 -150.22868 -1.926335 -85.35424 -19.117443 -45.49612
83608000000 -13.669015 -72.944717 -1.9343338 -150.23398 -1.9286072 -85.488266 -19.12048 -45.681328
83656000000 -13.675658 -72.980049 -1.9308453 -150.89458 -1.9330488 -85.049408 -19.115288 -45.442825
83704000000 -13.669196 -73.043617 -1.9189374 -151.73859 -1.932325 -84.395958 -19.095877 -45.498951
83752000000 -13.666842 -73.098129 -1.9162351 -152.61523 -1.9314066 -83.59816 -19.10132 -45.299679
83800000000 -13.66593 -73.250824 -1.9267399 -153.26305 -1.9315766 -83.145828 -19.077431 -45.166489
83848000000 -13.671542 -73.332108 -1.9339272 -153.31938 -1.9264252 -83.268456 -19.026506 -44.953617
83896000000 -13.67308 -73.315041 -1.928359 -152.9308 -1.9359165 -83.645584 -18.983801 -45.013695
83944000000 -13.682192 -73.339203 -1.9221013 -152.42924 -1.9328562 -84.309189 -18.908266 -45.458408
83992000000 -13.697836 -73.299934 -1.9371513 -151.91649 -1.9384297 -85.051254 -18.914619 -45.877651
84040000000 -13.70075 -73.182884 -1.9429862 -151.65062 -1.9299812 -85.467155 -18.941532 -46.120903
84088000000 -13.667673 -72.960358 -1.9462162 -151.64935 -1.9215182 -85.426758 -18.943031 -46.379879
84136000000 -13.651925 -72.86998 -1.9531279 -152.09538 -1.9240146 -85.050018 -18.952021 -46.41713
84184000000 -13.622985 -72.914787 -1.9417174 -152.78539 -1.9254467 -84.501801 -18.997955 -46.784168
84232000000 -13.603507 -73.269363 -1.9664686 -153.7619 -1.9276041 -83.872147 -19.086107 -46.822906
84280000000 -13.626246 -73.161484 -1.9302223 -153.74982 -1.928322 -83.673416 -19.054646 -46.880802
84328000000 -13.615973 -73.482559 -1.9242625 -153.80508 -1.9298258 -83.997002 -19.0511 -46.939743
84376000000 -13.66965 -73.598885 -1.9293612 -153.16605 -1.9297968 -84.765976 -19.061239 -47.054462
84424000000 -13.687547 -73.748596 -1.9425215 -152.56058 -1.9282695 -85.601425 -19.071022 -47.227581
84472000000 -13.732018 -73.768936 -1.9474418 -152.45383 -1.9307798 -85.954567 -19.063217 -47.286915
84520000000 -13.75299 -73.641068 -1.9688807 -152.83885 -1.9294734 -85.656586 -19.070381 -47.366005
84568000000 -13.757898 -73.620209 -1.9701586 -153.74315 -1.9328873 -84.871071 -19.041954 -47.409676
84616000000 -13.749188 -73.460403 -1.9601756 -154.66934 -1.9333798 -83.989792 -19.015392 -47.563808
84664000000 -13.738061 -73.619041 -1.9349109 -155.17358 -1.9619879 -83.559593 -19.002853 -47.829834
84712000000 -13.746458 -73.515816 -1.9798505 -155.12361 -1.9459431 -83.806778 -19.007172 -47.970314
84760000000 -13.752022 -73.625755 -1.9760292 -154.19855 -1.9410342 -84.895355 -19.016958 -48.405201
84808000000 -13.780782 -73.601074 -1.9778728 -152.98242 -1.9500626 -86.143311 -19.022018 -48.377518
84856000000 -13.816722 -73.502274 -1.980796 -152.369 -1.9564352 -86.836205 -19.032082 -48.55019
84904000000 -13.847004 -73.244171 -2.0021641 -152.55457 -1.9612257 -86.843613 -19.018259 -48.493023
84952000000 -13.826564 -72.924248 -1.9920235 -153.23267 -1.9556241 -86.184235 -19.018236 -48.53632
85000000000 -13.745083 -73.072578 -1.9469237 -154.51437 -1.9431738 -85.285202 -19.025425 -48.600349
85048000000 -13.750795 -73.125 -1.9696889 -155.48907 -1.9491777 -84.457726 -18.99575 -48.63068
85096000000 -13.758245 -73.578484 -1.9611733 -155.67757 -1.9465586 -84.670937 -19.004471 -49.295609
85144000000 -13.784544 -73.699242 -1.9938753 -154.78865 -1.9410479 -85.390144 -18.829706 -49.227798
85192000000 -13.762783 -74.196167 -1.9216633 -154.15216 -1.9286153 -86.712738 -18.976042 -49.531021
85240000000 -13.864182 -74.602196 -1.9682159 -152.9724 -1.9280354 -88.4487 -18.884472 -50.169544
85288000000 -13.840492 -74.130989 -2.0037735 -153.12349 -1.925486 -87.835999 -18.885704 -49.104134
85336000000 -13.886773 -73.905899 -1.9826827 -153.45192 -1.9093595 -87.911674 -18.921331 -50.037865
85384000000 -13.897897 -73.307449 -1.9974127 -154.66411 -1.9622046 -86.15152 -18.806934 -49.194836
85432000000 -13.882344 -73.302635 -1.9866273 -155.58372 -1.9543751 -85.482361 -18.83234 -49.638935
85480000000 -13.889137 -73.041763 -1.9825809 -156.02757 -1.9865636 -84.988441 -18.808422 -49.497742
85528000000 -13.825397 -73.076141 -1.9781072 -156.00262 -1.9330428 -85.10701 -18.775686 -49.76366
85576000000 -13.837593 -73.606331 -2.0037694 -155.56006 -1.9554942 -86.107513 -18.837996 -49.671001
85624000000 -13.843812 -73.644547 -1.9777905 -154.97902 -1.958159 -86.726151 -18.808342 -49.870789
85672000000 -13.864948 -73.824051 -1.9826758 -154.88162 -1.9603732 -87.115623 -18.814198 -50.1273
85720000000 -13.831818 -73.653534 -1.9780202 -154.91788 -1.931272 -87.043488 -18.77841 -50.23259
85768000000 -13.905917 -73.878799 -1.9959209 -155.27168 -1.9815072 -87.098686 -18.843039 -50.10183
85816000000 -13.849646 -73.187592 -1.9875003 -155.42026 -1.9565567 -86.634789 -18.737726 -50.031162
85864000000 -13.860601 -73.833733 -1.9880701 -156.16907 -1.9761662 -86.401695 -18.771339 -50.286034
85912000000 -13.819465 -73.094223 -2.0033054 -156.2308 -1.9613185 -86.055527 -18.689447 -50.25412
85960000000 -13.815372 -73.37928 -1.996029 -156.29997 -1.9664861 -86.162621 -18.673468 -50.451614
86008000000 -13.816056 -73.425583 -1.9957659 -156.16565 -1.9646167 -86.485306 -18.662731 -50.935684
86056000000 -13.843138 -73.605347 -1.9919907 -156.22748 -1.9671204 -86.806885 -18.716772 -51.225735
86104000000 -13.875657 -73.33976 -2.0187159 -156.18719 -1.9710469 -86.754356 -18.694988 -51.246635
86152000000 -13.880072 -73.232819 -2.0213475 -156.27609 -1.9732013 -86.651649 -18.670637 -51.362133
86200000000 -13.911476 -73.008324 -2.0187092 -156.38864 -1.9922683 -86.650452 -18.659309 -51.275906
86248000000 -13.843229 -74.332008 -2.0091305 -158.10199 -1.9441987 -86.794868 -19.107584 -51.893745
86296000000 -13.928254 -74.437447 -2.0400946 -158.1492 -2.0007129 -87.118378 -19.180447 -51.055054
86344000000 -13.75426 -73.710335 -1.9262257 -157.55103 -1.9494349 -86.510399 -18.70541 -53.196709
86392000000 -13.852965 -73.34005 -2.0430624 -157.20549 -1.9882678 -86.799492 -18.701372 -51.72052
86440000000 -13.858655 -73.229523 -2.0338035 -157.13287 -2.0034409 -86.849304 -18.6612 -51.974136
86488000000 -13.828169 -73.582718 -2.048424 -157.03323 -1.9596357 -87.125595 -18.670259 -52.360748
86536000000 -13.855155 -73.640869 -2.0178485 -157.16902 -1.9921991 -87.197205 -18.646643 -52.575153
86584000000 -13.837792 -74.218399 -2.0068016 -157.55583 -1.9360176 -87.13176 -18.630394 -53.529095
86632000000 -13.922276 -73.824333 -2.0288897 -157.79971 -1.998631 -86.939217 -18.638636 -52.802513
86680000000 -13.951324 -74.000526 -2.0215132 -158.08289 -2.0281444 -86.909531 -18.684452 -52.560051
86728000000 -13.889449 -73.624344 -1.9717431 -157.83382 -2.0026608 -86.945839 -18.618183 -53.873127
86776000000 -13.799513 -74.019356 -1.9600447 -158.14412 -1.9432434 -86.761093 -18.538933 -54.284081
86824000000 -13.861754 -73.954567 -2.0254359 -157.90436 -1.9564332 -87.370049 -18.572916 -53.704868
86872000000 -13.815969 -74.052887 -2.0012882 -157.72141 -1.9620126 -87.54425 -18.523304 -53.94466
86920000000 -13.83785 -74.084366 -2.0285275 -157.57704 -1.9667711 -87.834892 -18.538168 -53.805313
86968000000 -13.85448 -73.830727 -2.0557859 -157.66371 -1.9734933 -87.632248 -18.527548 -53.469776
87016000000 -13.905948 -74.113068 -2.0632904 -158.16452 -2.0009317 -87.513168 -18.578634 -53.617718
87064000000 -13.916939 -74.101044 -2.0243318 -158.38921 -2.0258086 -87.432747 -18.550438 -53.797523
87112000000 -13.909926 -75.009644 -2.0020304 -158.70107 -1.9813259 -87.83802 -18.560137 -54.679314
87160000000 -13.912378 -74.489014 -2.0294399 -158.46021 -1.9812809 -87.805801 -18.488785 -54.30257
87208000000 -13.893076 -74.633865 -2.0058608 -158.41135 -1.9668729 -88.080353 -18.454529 -54.976185
87256000000 -13.863597 -74.631996 -2.0169225 -158.23476 -1.9616275 -88.175804 -18.382286 -55.018749
87304000000 -13.859509 -74.370811 -2.0071366 -158.08789 -1.9867668 -88.405869 -18.375948 -55.077148
87352000000 -13.859966 -74.534225 -2.018357 -158.31873 -2.0112648 -88.314583 -18.389826 -54.868519
87400000000 -13.905961 -74.368591 -2.0383716 -158.69289 -2.0311081 -88.150475 -18.422407 -54.368038
87448000000 -13.877759 -74.45755 -2.0524435 -159.12082 -1.9794855 -87.828094 -18.432646 -55.197891
87496000000 -13.915693 -74.511192 -2.0509131 -159.10292 -1.9820628 -88.134315 -18.453724 -55.365688
87544000000 -13.891208 -74.552612 -2.016654 -158.90105 -1.9855318 -88.22805 -18.352795 -56.241199
87592000000 -13.922159 -74.430466 -2.0291843 -158.84747 -1.9833586 -88.50367 -18.313913 -56.033546
87640000000 -13.873775 -74.804779 -2.0204091 -158.74089 -1.9607245 -88.764992 -18.316126 -57.105167
87688000000 -13.981256 -74.051323 -2.0848155 -158.63539 -2.0048761 -89.035851 -18.407408 -55.427479
87736000000 -13.880096 -75.016655 -2.0058167 -158.98228 -1.9797027 -89.052711 -18.337076 -57.497372
87784000000 -13.878348 -74.848564 -1.9830611 -159.37978 -1.9853208 -88.846016 -18.275944 -57.742912
87832000000 -13.830874 -74.733162 -1.9984038 -159.66399 -1.9949106 -88.423149 -18.199984 -57.074577
87880000000 -13.838151 -74.748741 -2.0123038 -159.77197 -1.9832565 -88.344818 -18.215611 -57.528183
87928000000 -13.829473 -75.124504 -2.0116572 -160.26401 -1.9767392 -88.329254 -18.223492 -58.103687
87976000000 -13.802658 -74.796806 -2.0211554 -159.8587 -1.9607834 -88.279602 -18.125917 -58.102261
88024000000 -13.84662 -75.37484 -2.0062921 -160.21428 -1.9671799 -88.910316 -18.243326 -59.05928
88072000000 -13.832773 -74.694427 -2.0333574 -159.71588 -1.9782439 -88.845177 -18.186396 -58.473675
88120000000 -13.842865 -75.005463 -1.9794822 -159.73349 -1.9784514 -89.486 -18.18 -60.031059
88168000000 -13.755139 -74.270821 -2.0152681 -158.9863 -1.9894091 -89.574539 -18.142122 -58.095409
88216000000 -13.818136 -74.27758 -2.0667603 -159.37758 -2.0018981 -89.786255 -18.311562 -58.464458
88264000000 -13.798289 -74.545311 -2.0203695 -160.26553 -1.9783509 -89.294197 -18.280766 -59.970448
88312000000 -13.754402 -75.131935 -2.0045664 -161.07916 -1.985396 -88.679993 -18.274839 -60.193836
88360000000 -13.72959 -75.013412 -2.0114062 -161.58006 -1.9828788 -88.09761 -18.226397 -59.764633
88408000000 -13.734054 -75.255379 -2.0075216 -161.63127 -1.9854271 -88.082474 -18.205166 -59.87505
88456000000 -13.740877 -75.246735 -2.0027277 -161.41023 -1.9767224 -88.577698 -18.176817 -60.111183
88504000000 -13.719509 -75.464409 -1.9861922 -160.47862 -2.0305502 -89.582886 -18.106945 -59.218327
88552000000 -13.796352 -74.648773 -2.0250034 -160.30762 -1.9636914 -90.298508 -18.287004 -61.444736
88600000000 -13.882933 -74.944252 -1.9935483 -160.64401 -1.981698 -90.854866 -18.230188 -64.182259
88648000000 -13.929543 -74.091805 -2.0100815 -161.68057 -1.988109 -90.723816 -17.824806 -68.268318
88696000000 -13.880356 -75.196129 -1.9922024 -162.35593 -1.983565 -90.099251 -18.661762 -65.96666
88744000000 -13.835464 -75.100174 -2.0264018 -163.10498 -1.9835535 -89.321884 -18.651081 -65.537491
88792000000 -13.790827 -75.054794 -2.030669 -163.4258 -1.9904139 -88.850395 -18.664822 -65.382942
88840000000 -13.769633 -75.37764 -1.99227 -163.33281 -1.9783758 -89.107628 -18.493994 -65.608192
88888000000 -13.748873 -74.728889 -2.0050261 -162.04457 -1.9733167 -89.864655 -17.774715 -64.309746
88936000000 -13.605349 -74.528877 -2.0331292 -160.09166 -1.9796002 -90.421951 -17.992371 -59.992722
88984000000 -13.609322 -74.782967 -2.0313206 -160.02167 -2.0053029 -90.982162 -18.092733 -59.905041
89032000000 -13.630439 -74.435051 -2.0003052 -160.22159 -2.0147867 -91.051163 -18.09313 -61.059978
89080000000 -13.613499 -74.574089 -2.0095091 -160.77618 -2.0229805 -90.892204 -18.193977 -61.311363
89128000000 -13.583023 -74.449806 -2.0373476 -161.54463 -1.9984809 -90.305534 -18.186827 -61.302464
89176000000 -13.544786 -74.719177 -2.0176096 -161.82748 -2.0170679 -89.969559 -18.104328 -61.109982
89224000000 -13.524955 -74.602814 -2.0325828 -162.02782 -2.0057142 -89.936707 -18.114328 -61.223892
89272000000 -13.49097 -74.818787 -2.01425 -161.578 -2.0032675 -90.265923 -18.052126 -61.232094
89320000000 -13.506493 -75.04985 -2.0219858 -161.39056 -2.0053022 -90.804283 -18.069561 -61.367695
89368000000 -13.490472 -74.888626 -2.0317686 -161.00876 -1.9884523 -91.138748 -18.072279 -61.306213
89416000000 -13.528558 -74.935921 -2.0218141 -161.09064 -2.0221934 -91.263008 -18.054422 -61.512501
89464000000 -13.498594 -74.594559 -2.016397 -161.14146 -2.0220678 -91.314079 -18.056791 -61.644485
89512000000 -13.486929 -74.510048 -2.0299704 -161.15195 -2.0189769 -91.007767 -17.994137 -61.391693
89560000000 -13.447213 -74.488319 -2.0306401 -161.51753 -2.0406535 -91.254326 -18.084906 -61.153053
89608000000 -13.442068 -74.915932 -2.0102723 -161.89941 -2.0196483 -91.098923 -18.015032 -62.035629
89656000000 -13.373195 -74.491936 -2.0335906 -161.79582 -2.0280204 -90.960503 -18.034849 -61.014622
89704000000 -13.418276 -75.057281 -2.0138547 -162.14697 -2.010236 -91.083565 -17.942404 -62.18729
89752000000 -13.362047 -74.993378 -2.02334 -162.15666 -2.0152364 -90.833725 -17.949987 -61.00835
89800000000 -13.40957 -75.305634 -2.0202167 -162.5069 -2.0208189 -90.84346 -17.933187 -61.56979
89848000000 -13.413353 -74.818405 -2.0236886 -162.47803 -2.0166705 -90.75946 -17.880165 -62.065159
89896000000 -13.408688 -74.726006 -2.0513794 -162.77232 -2.0538349 -90.626205 -18.033194 -61.608547
89944000000 -13.332553 -74.973747 -2.0093701 -162.41068 -2.0006588 -90.993813 -17.813629 -61.804108
89992000000 -13.347105 -75.566216 -2.0040195 -162.57788 -1.9935499 -91.327568 -17.777739 -61.901089
90040000000 -13.333054 -75.34919 -1.9936626 -162.64272 -2.0002005 -91.465622 -17.716461 -62.646904
90088000000 -13.361152 -75.552551 -2.0229764 -163.01703 -2.0200233 -91.201225 -17.724598 -62.110825
90136000000 -13.342283 -75.108749 -2.0590177 -163.22583 -2.0048261 -90.697968 -17.679996 -62.110435
90184000000 -13.299284 -75.14608 -2.0562418 -163.60945 -2.0034397 -90.394012 -17.841805 -62.320988
90232000000 -13.312716 -75.405609 -2.0153062 -164.05003 -2.0194142 -90.785042 -17.823093 -63.63681
90280000000 -13.319807 -75.746269 -2.0328615 -163.85655 -2.0308583 -90.720337 -17.847525 -61.852055
90328000000 -13.329811 -75.679794 -2.0304859 -163.65717 -2.0009968 -90.958435 -17.715872 -61.708794
90376000000 -13.366828 -75.797585 -2.0343502 -163.52052 -2.0082889 -91.338173 -17.690308 -61.813404
90424000000 -13.356112 -75.514999 -2.0438406 -163.58391 -2.0006275 -91.448082 -17.617453 -61.916607
90472000000 -13.359716 -75.516998 -2.0516841 -163.94196 -2.0241563 -91.050545 -17.634743 -61.746296
90520000000 -13.338202 -75.141174 -2.01402 -163.85829 -2.0236828 -90.983208 -17.472469 -61.900959
90568000000 -13.374456 -75.543381 -1.9864826 -164.53088 -2.0184529 -91.138931 -17.44079 -63.58659
90616000000 -13.286153 -75.261162 -2.0272958 -164.59036 -2.0547462 -90.90213 -17.643478 -63.157448
90664000000 -13.294609 -76.261826 -2.02706 -164.46077 -1.973919 -90.887276 -17.530849 -62.291729
90712000000 -13.359642 -76.571091 -2.0353742 -164.55934 -1.9704292 -91.520615 -17.52747 -62.803181
90760000000 -13.42814 -76.274872 -2.0636282 -164.60101 -2.0105672 -91.524124 -17.56673 -63.106873
90808000000 -13.389264 -75.966888 -2.0277517 -164.41557 -1.9995921 -91.681274 -17.503988 -63.40406
90856000000 -13.409997 -76.005379 -2.0494328 -164.85799 -2.0078766 -91.539124 -17.57745 -63.60001
90904000000 -13.380133 -75.759079 -2.0463195 -164.93915 -2.0184648 -91.519089 -17.586184 -63.426598
90952000000 -13.406059 -76.019379 -2.0545514 -165.01553 -2.0249321 -91.534966 -17.619066 -62.920189
91000000000 -13.365422 -75.792572 -2.0492158 -164.83543 -2.016223 -91.684448 -17.553949 -62.617924
91048000000 -13.412746 -76.208664 -2.043268 -164.7271 -2.0036733 -92.094719 -17.472496 -62.985302
91096000000 -13.385901 -76.017448 -2.0453229 -164.61569 -2.0059388 -92.254219 -17.448801 -62.78709
91144000000 -13.428307 -76.302338 -2.0334182 -164.69579 -2.008321 -92.256165 -17.389387 -62.974556
91192000000 -13.440735 -76.20919 -2.0399907 -165.10864 -2.0104315 -92.162109 -17.385332 -63.317104
91240000000 -13.493742 -76.460266 -2.0278277 -165.50174 -1.9958901 -91.983665 -17.287088 -63.871826
91288000000 -13.532647 -76.70256 -2.0486639 -165.74023 -2.0136998 -92.042152 -17.406317 -63.69495
91336000000 -13.523995 -76.276741 -2.0376246 -165.71634 -2.0078557 -91.922562 -17.300758 -63.693802
91384000000 -13.551292 -76.276703 -2.0549262 -165.80901 -2.0089998 -92.062859 -17.317293 -63.604172
91432000000 -13.518538 -76.109184 -2.0528848 -165.71585 -2.0015435 -92.33194 -17.277531 -63.799618
91480000000 -13.516012 -76.304329 -2.0538921 -165.82706 -2.0064692 -92.37484 -17.310116 -63.737022
91528000000 -13.484736 -76.224174 -2.0641198 -165.88441 -2.0084777 -92.397697 -17.297478 -63.746922
91576000000 -13.480721 -76.436821 -2.0517318 -165.96518 -2.0031123 -92.397728 -17.275038 -63.714073
91624000000 -13.468007 -76.620697 -2.0560992 -166.11443 -2.0058801 -92.485512 -17.28504 -63.619286
91672000000 -13.485995 -76.717781 -2.0552797 -166.2104 -2.0060608 -92.405411 -17.283886 -63.443531
91720000000 -13.502486 -76.632805 -2.0454886 -166.39391 -2.0125957 -92.530342 -17.214703 -63.689247
91768000000 -13.49218 -76.561981 -2.0399182 -166.41705 -2.0117674 -92.341751 -17.209459 -63.239288
91816000000 -13.519491 -76.520599 -2.0439043 -166.56412 -2.01861 -92.581627 -17.158987 -63.64423
91864000000 -13.508482 -76.391449 -2.0410006 -166.63022 -2.0169365 -92.660645 -17.118193 -63.981129
91912000000 -13.502234 -76.488968 -2.0477343 -166.76277 -2.0216706 -92.706535 -17.148121 -63.939812
91960000000 -13.481497 -76.229744 -2.0529315 -166.91385 -2.0260084 -92.742653 -17.122692 -64.489166
92008000000 -13.486039 -76.281799 -2.0596354 -166.89857 -2.0318623 -92.778908 -17.131941 -64.274544
92056000000 -13.485143 -76.366257 -2.0652692 -166.85295 -2.026597 -92.913681 -17.152693 -64.398743
92104000000 -13.52025 -76.429031 -2.0740485 -167.05272 -2.0291195 -92.851227 -17.14616 -64.235229
92152000000 -13.546741 -76.272987 -2.0705929 -167.1517 -2.0237753 -93.081146 -17.153212 -64.518852
92200000000 -13.584985 -76.542465 -2.0794797 -167.30022 -2.0272782 -92.964844 -17.179401 -64.138405
92248000000 -13.573643 -76.118294 -2.0819147 -167.30283 -2.0293651 -92.982635 -17.150818 -64.183983
92296000000 -13.597622 -76.462784 -2.0872946 -167.41203 -2.0300338 -93.033058 -17.132723 -64.071396
92344000000 -13.566708 -76.108376 -2.0702889 -167.51109 -2.03631 -93.167358 -17.050253 -64.429916
92392000000 -13.588213 -76.67141 -2.0729187 -167.57359 -2.0433366 -93.269249 -17.035994 -64.403976
92440000000 -13.617986 -76.663559 -2.0772624 -167.65039 -2.0459161 -93.389854 -17.013498 -64.737312
92488000000 -13.617508 -76.966148 -2.0677078 -167.74242 -2.0407054 -93.327087 -16.959921 -64.750488
92536000000 -13.629015 -76.980194 -2.066555 -167.96373 -2.0373468 -93.459198 -16.926014 -65.228134
92584000000 -13.626703 -77.017677 -2.0731218 -168.04005 -2.0413921 -93.361206 -16.946304 -65.205109
92632000000 -13.65156 -77.016365 -2.0793009 -168.17564 -2.0489829 -93.465645 -16.934214 -65.567802
92680000000 -13.649501 -76.893036 -2.0724947 -168.39122 -2.0401454 -93.307343 -16.907654 -65.647095
92728000000 -13.661301 -76.872383 -2.0837688 -168.66318 -2.0463798 -93.318748 -16.931818 -65.738884
92776000000 -13.654232 -76.805275 -2.0900171 -168.79138 -2.0362868 -93.2668 -16.917757 -65.795868
92824000000 -13.652267 -76.809586 -2.0891106 -168.77773 -2.0388186 -93.443069 -16.909506 -65.777107
92872000000 -13.64211 -76.872566 -2.0891194 -168.65869 -2.0315676 -93.665176 -16.898111 -65.830162
92920000000 -13.630121 -76.965111 -2.0769231 -168.54477 -2.0325618 -93.902802 -16.877838 -66.020576
92968000000 -13.630102 -77.191589 -2.0760539 -168.54736 -2.0331495 -94.065933 -16.866821 -66.101097
93016000000 -13.639678 -77.252251 -2.0763545 -168.59906 -2.02897 -94.06942 -16.847395 -66.354744
93064000000 -13.670215 -77.588074 -2.0793033 -169.01338 -2.0384741 -94.022369 -16.868486 -66.448868
93112000000 -13.683947 -77.679329 -2.0789683 -169.39314 -2.026356 -93.658089 -16.823616 -66.651192
93160000000 -13.695686 -77.74559 -2.0707147 -169.9216 -2.0493577 -93.404404 -16.866322 -66.653351
93208000000 -13.712078 -77.732895 -2.0797324 -170.18109 -2.0415506 -93.255402 -16.820484 -66.98008
93256000000 -13.712699 -77.575989 -2.0794437 -170.01624 -2.0515363 -93.582817 -16.838423 -67.075752
93304000000 -13.721706 -77.779938 -2.0848012 -169.6626 -2.0448565 -94.048943 -16.83341 -67.273727
93352000000 -13.689792 -77.623123 -2.080308 -169.23074 -2.0517962 -94.652321 -16.848392 -67.475906
93400000000 -13.705151 -77.891518 -2.0930471 -169.0889 -2.035969 -95.008888 -16.860756 -67.629166
93448000000 -13.693141 -77.557259 -2.09518 -169.03743 -2.0605531 -95.125656 -16.858873 -67.693275
93496000000 -13.655599 -77.477196 -2.0855567 -169.38112 -2.0291409 -94.59848 -16.838478 -67.829903
93544000000 -13.667103 -77.518944 -2.1046939 -169.90446 -2.0272343 -94.497032 -16.847816 -67.770042
93592000000 -13.678056 -77.515266 -2.1169744 -170.27597 -2.0478508 -94.214699 -16.892393 -68.179016
93640000000 -13.663934 -77.366814 -2.1054585 -170.52486 -2.0631289 -94.107986 -16.895185 -68.0364
93688000000 -13.660383 -77.387032 -2.0866954 -170.57645 -2.0609028 -94.013596 -16.853947 -67.950523
93736000000 -13.65188 -77.092369 -2.0782413 -170.63118 -2.0554426 -94.0877 -16.810774 -67.977341
93784000000 -13.653231 -77.530434 -2.0859191 -170.73087 -2.0496142 -94.239014 -16.792999 -68.078224
93832000000 -13.643399 -77.264229 -2.0823247 -170.71469 -2.054054 -94.354088 -16.759331 -68.389771
93880000000 -13.648102 -77.684746 -2.0822558 -170.70808 -2.0536387 -94.657646 -16.751389 -68.55085
93928000000 -13.651736 -77.581108 -2.081429 -170.48915 -2.0634179 -95.03614 -16.754368 -68.891129
93976000000 -13.663658 -77.644829 -2.09833 -170.18343 -2.0649242 -95.364273 -16.781689 -68.991356
94024000000 -13.658542 -77.654411 -2.101393 -170.02847 -2.0666955 -95.646721 -16.789305 -69.196579
94072000000 -13.676501 -77.586472 -2.1057765 -170.06238 -2.0645075 -95.738136 -16.789787 -69.299797
94120000000 -13.651731 -77.581848 -2.1141384 -170.43739 -2.0594583 -95.444855 -16.801865 -69.339798
94168000000 -13.628153 -77.565353 -2.1093962 -171.05011 -2.0532155 -94.988449 -16.810755 -69.482727
94216000000 -13.58505 -77.493027 -2.1106641 -171.70897 -2.0444763 -94.42244 -16.81122 -69.503754
94264000000 -13.570479 -77.466789 -2.1003118 -171.9675 -2.0549424 -94.316772 -16.812454 -69.655037
94312000000 -13.536695 -77.423103 -2.0910006 -172.03636 -2.058723 -94.428505 -16.814604 -69.698601
94360000000 -13.516116 -77.559486 -2.1077895 -171.48495 -2.0537093 -95.117279 -16.820787 -69.719887
94408000000 -13.513086 -77.533821 -2.1067688 -170.88089 -2.0537622 -95.791634 -16.811161 -69.769798
94456000000 -13.50133 -77.652206 -2.1051688 -170.49051 -2.0522139 -96.260628 -16.79656 -69.796356
94504000000 -13.528938 -77.628731 -2.1129003 -170.60455 -2.0647938 -96.253387 -16.798901 -69.767319
94552000000 -13.511403 -77.62822 -2.1064093 -170.97557 -2.0642893 -95.884865 -16.77187 -69.83857
94600000000 -13.554812 -77.75869 -2.1169777 -171.82433 -2.0700996 -95.35524 -16.784832 -69.857567
94648000000 -13.550706 -77.43795 -2.110739 -172.16554 -2.0822597 -94.968643 -16.762476 -70.049438
94696000000 -13.562495 -77.696373 -2.1199822 -172.3768 -2.0827796 -94.988739 -16.765022 -70.036522
94744000000 -13.522671 -77.470596 -2.1154666 -171.97162 -2.0780642 -95.391197 -16.749363 -70.429733
94792000000 -13.517526 -77.898376 -2.1153765 -171.5753 -2.0817027 -95.952148 -16.762032 -70.423187
94840000000 -13.47077 -77.762573 -2.1237586 -171.24861 -2.0817816 -96.431602 -16.770731 -70.669289
94888000000 -13.458776 -77.389229 -2.1066713 -171.02699 -2.0900116 -96.460556 -16.76568 -70.992447
94936000000 -13.307845 -77.788055 -2.0487013 -171.41368 -2.1187899 -96.075394 -16.819061 -70.706055
94984000000 -13.33133 -78.48835 -2.0501499 -172.54994 -2.0424023 -95.864594 -16.812864 -71.452484
95032000000 -13.32176 -78.500755 -2.1233783 -172.48073 -2.062933 -96.031517 -16.856682 -71.084015
95080000000 -13.343803 -78.17392 -2.1070342 -172.28964 -2.0781236 -96.000267 -16.825701 -70.865013
95128000000 -13.295046 -78.215889 -2.0967331 -172.18211 -2.0810318 -96.188133 -16.788687 -71.015831
95176000000 -13.307434 -78.006325 -2.0884562 -172.10062 -2.0735466 -96.375237 -16.771421 -71.21814
95224000000 -13.276937 -78.086067 -2.0871387 -172.03967 -2.0818458 -96.552299 -16.742023 -71.231514
95272000000 -13.297864 -77.754097 -2.0858366 -172.20929 -2.0848317 -96.433479 -16.713121 -71.416328
95320000000 -13.266668 -77.898979 -2.0796845 -172.36037 -2.0841448 -96.395981 -16.694473 -71.56443
95368000000 -13.272594 -77.666267 -2.0840981 -172.54042 -2.0830441 -96.331352 -16.689732 -71.921844
95416000000 -13.255847 -77.851196 -2.0868821 -172.68054 -2.078568 -96.296501 -16.688864 -72.043465
95464000000 -13.258839 -77.688263 -2.0995607 -172.89372 -2.0770271 -96.236046 -16.710791 -72.232132
95512000000 -13.238939 -77.875397 -2.094553 -173.19601 -2.0686934 -96.080856 -16.716942 -72.473625
95560000000 -13.250246 -77.761223 -2.0964835 -173.59274 -2.0731022 -95.745285 -16.725271 -72.465141
95608000000 -13.219227 -77.867447 -2.1014996 -173.89584 -2.0679324 -95.542542 -16.72698 -72.472893
95656000000 -13.21924 -77.890762 -2.0981092 -173.78659 -2.0688894 -95.794159 -16.730343 -72.402191
95704000000 -13.181192 -78.15023 -2.1084237 -173.44566 -2.0661683 -96.293915 -16.712711 -72.349579
95752000000 -13.196189 -78.164383 -2.1150486 -172.63641 -2.0617878 -97.192619 -16.678078 -72.33857
95800000000 -13.190287 -78.24884 -2.1247506 -172.01381 -2.0807738 -97.865982 -16.682886 -72.247169
95848000000 -13.199438 -78.198013 -2.1058326 -171.8665 -2.0912068 -98.085541 -16.640348 -72.274811
95896000000 -13.171926 -78.392967 -2.0906756 -172.36798 -2.0875473 -97.700851 -16.606434 -72.433151
95944000000 -13.19364 -78.494675 -2.0982168 -173.52194 -2.0878358 -96.836685 -16.601244 -72.59446
95992000000 -13.164213 -78.387596 -2.0864599 -174.6454 -2.080528 -95.688164 -16.569853 -72.734596
96040000000 -13.091637 -78.746506 -2.0812976 -175.55672 -2.0686331 -94.927132 -16.532747 -72.917587
96088000000 -13.095163 -78.509308 -2.0877616 -175.71222 -2.0636868 -94.875725 -16.523035 -73.108528
96136000000 -13.075416 -78.678398 -2.0862234 -174.98601 -2.0645621 -95.724197 -16.512901 -73.393379
96184000000 -13.10051 -78.566101 -2.0923331 -173.99428 -2.0569131 -96.895584 -16.535336 -73.576981
96232000000 -13.064177 -78.610695 -2.0875738 -172.87956 -2.0573354 -97.98597 -16.520638 -73.564293
96280000000 -13.085766 -78.75621 -2.091423 -172.53403 -2.0552533 -98.563927 -16.514484 -73.59465
96328000000 -13.069389 -78.876358 -2.0910325 -172.83446 -2.0547678 -98.327415 -16.49581 -73.574425
96376000000 -13.075699 -78.985603 -2.0862384 -173.64607 -2.0560472 -97.703117 -16.503931 -73.672714
96424000000 -13.084161 -78.980087 -2.0994487 -174.65446 -2.0556042 -96.866875 -16.50914 -73.772522
96472000000 -13.098652 -79.145226 -2.0943224 -175.20247 -2.0419495 -96.486641 -16.508886 -73.988235
96520000000 -13.09559 -79.173134 -2.0923116 -175.22951 -2.0733376 -96.69635 -16.507685 -73.911163
96568000000 -13.066464 -79.687691 -1.9780267 -174.99777 -2.1097136 -96.836044 -16.311794 -74.359207
96616000000 -13.123356 -79.206261 -2.1389678 -174.42018 -2.0300653 -97.577057 -16.44515 -74.221649
96664000000 -13.081146 -79.357384 -2.0888596 -174.00613 -2.0504894 -98.095619 -16.399836 -74.378593
96712000000 -13.07381 -79.218628 -2.0756876 -173.95143 -2.0514536 -98.339775 -16.368938 -74.613014
96760000000 -13.059822 -79.543159 -2.0787106 -174.34138 -2.0532134 -98.207642 -16.375694 -74.994156
96808000000 -13.070987 -79.173187 -2.0758348 -174.72411 -2.0665479 -97.914558 -16.348471 -74.937103
96856000000 -13.049953 -79.540886 -2.0669854 -175.17833 -2.0638974 -97.576057 -16.345392 -75.386322
96904000000 -13.050199 -79.320343 -2.0716572 -175.21141 -2.0528483 -97.559097 -16.274315 -75.077957
96952000000 -13.063654 -79.4561 -2.089514 -175.33401 -2.0439827 -97.738159 -16.303371 -75.409569
97000000000 -13.07902 -79.424263 -2.0842674 -175.18904 -2.0551584 -97.928505 -16.270094 -75.217087
97048000000 -13.08744 -79.477707 -2.080246 -175.23566 -2.0571811 -98.184067 -16.312702 -75.483788
97096000000 -13.097827 -79.775589 -2.0756013 -175.44983 -2.0416224 -98.131973 -16.218439 -75.836342
97144000000 -13.11778 -79.719559 -2.0789118 -175.68193 -2.0487938 -97.901962 -16.191092 -75.421471
97192000000 -13.131334 -79.841591 -2.0771132 -175.92419 -2.0388169 -97.937759 -16.213873 -76.102577
97240000000 -13.196047 -79.839027 -2.118742 -176.14578 -2.071054 -98.052032 -16.272934 -76.080727
97288000000 -13.144464 -80.047203 -2.083338 -175.94536 -2.0439835 -98.062378 -16.170074 -75.736778
97336000000 -13.173808 -80.132133 -2.0964856 -176.086 -2.0511596 -98.166725 -16.169573 -76.105331
97384000000 -13.184393 -80.309013 -2.1021187 -176.2235 -2.0492113 -98.238998 -16.141668 -76.166725
97432000000 -13.173912 -80.442436 -2.0962055 -176.40582 -2.0540774 -98.094467 -16.135767 -76.342674
97480000000 -13.18683 -80.462784 -2.0913591 -176.70822 -2.0620072 -98.068863 -16.118429 -76.437202
97528000000 -13.182045 -80.490051 -2.0812383 -176.74428 -2.0577793 -98.017914 -16.107555 -76.68187
97576000000 -13.170337 -80.337456 -2.1046202 -176.86523 -2.0660076 -98.120781 -16.131378 -76.457237
97624000000 -13.151401 -80.434769 -2.0836897 -176.86369 -2.0660868 -98.293259 -16.08946 -76.696495
97672000000 -13.150638 -80.245087 -2.0835764 -176.93991 -2.066462 -98.353088 -16.074247 -76.874298
97720000000 -13.135598 -80.163643 -2.0846281 -176.9986 -2.0662904 -98.421196 -16.068264 -76.997681
97768000000 -13.148206 -80.068336 -2.116009 -177.11797 -2.0770218 -98.273521 -16.094194 -76.825562
97816000000 -13.116688 -79.587547 -2.0732245 -177.09532 -2.1071556 -98.348679 -16.183292 -77.117554
97864000000 -13.106338 -80.044739 -2.1027279 -177.55579 -2.0360749 -98.136902 -16.025648 -76.717041
97912000000 -13.148858 -80.364243 -2.0648639 -177.35983 -2.0269623 -98.714142 -15.871721 -77.509621
97960000000 -13.184507 -80.004555 -2.0982571 -177.30759 -2.0785806 -98.996971 -16.050589 -77.584976
98008000000 -13.190372 -80.088303 -2.0668824 -177.06577 -2.0751705 -99.170082 -15.967976 -77.561768
98056000000 -13.199868 -80.06218 -2.067672 -177.36798 -2.1057408 -99.208885 -16.054817 -77.670464
98104000000 -13.192371 -80.160873 -2.0707347 -177.47722 -2.0912633 -99.024117 -16.025455 -77.566246
98152000000 -13.234095 -80.11631 -2.1005955 -177.81998 -2.0794775 -98.933189 -16.015413 -77.864639
98200000000 -13.222719 -80.368622 -2.078124 -177.9429 -2.0662982 -98.98497 -15.93782 -78.0812
98248000000 -13.232987 -80.360481 -2.0998399 -177.89313 -2.0441751 -99.217682 -15.905412 -78.233223
98296000000 -13.196043 -80.608345 -2.0980809 -177.54655 -2.0573661 -99.412422 -15.937488 -77.870644
98344000000 -13.212738 -80.244118 -2.1028185 -177.59506 -2.0867176 -99.847305 -15.966058 -78.595505
98392000000 -13.211171 -80.523529 -2.0935066 -177.54083 -2.074192 -99.768486 -15.928011 -78.533386
98440000000 -13.184961 -80.409134 -2.1011868 -177.95024 -2.0896318 -99.506561 -15.922987 -78.368507
98488000000 -13.201437 -80.715683 -2.0796709 -178.62485 -2.0617962 -99.008186 -15.847758 -78.613968
98536000000 -13.180835 -80.500313 -2.0765569 -179.13867 -2.0616024 -98.823349 -15.84228 -78.827629
98584000000 -13.18808 -80.562187 -2.0878923 -179.27003 -2.0556915 -98.844238 -15.878778 -78.797363
98632000000 -13.203885 -80.324844 -2.1123753 -178.98413 -2.0767353 -99.493668 -15.915492 -79.154274
98680000000 -13.205956 -80.37896 -2.1168196 -178.29846 -2.0809281 -100.11212 -15.9254 -78.778168
98728000000 -13.195781 -80.258957 -2.1236303 -177.83191 -2.0821242 -100.7144 -15.909715 -78.663208
98776000000 -13.202921 -80.237083 -2.1170642 -177.60512 -2.0628271 -100.93597 -15.849334 -78.602066
98824000000 -13.239432 -80.331436 -2.1159728 -178.03111 -2.0508518 -100.74469 -15.782758 -78.954506
98872000000 -13.253653 -80.194855 -2.1171412 -178.75879 -2.0679724 -100.16826 -15.796885 -79.237427
98920000000 -13.236319 -80.199257 -2.1109023 -179.60645 -2.0795293 -99.414932 -15.827424 -79.315071
98968000000 -13.229115 -80.254936 -2.1138432 179.74753 -2.0776687 -98.953102 -15.833226 -79.37233
99016000000 -13.23218 -80.414063 -2.123877 179.70464 -2.0733581 -99.055412 -15.799678 -79.500565
99064000000 -13.254323 -80.580849 -2.0997319 179.98712 -2.0734439 -99.572495 -15.759405 -79.581123
99112000000 -13.216528 -80.423943 -2.1235499 -179.35623 -2.0980334 -100.31918 -15.855268 -79.681732
99160000000 -13.230951 -80.647346 -2.0726578 -179.05992 -2.1171143 -100.68343 -15.774996 -79.636909
99208000000 -13.202473 -80.483543 -2.0807755 -178.98363 -2.1138315 -101.02393 -15.722304 -79.854202
99256000000 -13.193669 -80.640892 -2.0959315 -179.18086 -2.1061566 -100.83223 -15.739058 -79.863991
99304000000 -13.178472 -80.540413 -2.1079972 -179.65103 -2.1098864 -100.55253 -15.757494 -79.830437
99352000000 -13.162546 -80.662964 -2.1041572 179.9677 -2.0752027 -100.10565 -15.65235 -79.690239
99400000000 -13.176678 -80.605919 -2.0947866 179.54216 -2.097748 -100.1697 -15.695354 -80.245255
99448000000 -13.16529 -80.553589 -2.0811396 179.44774 -2.1154499 -100.08903 -15.668867 -80.025681
99496000000 -13.167449 -80.392685 -2.1083837 179.36382 -2.1363802 -100.25529 -15.722458 -80.563919
99544000000 -13.156815 -80.444626 -2.0962515 179.5042 -2.1288228 -100.39343 -15.694516 -80.263535
99592000000 -13.135074 -80.404533 -2.1052918 179.55615 -2.1214492 -100.48771 -15.680346 -80.16124
99640000000 -13.202901 -80.346893 -2.0982482 179.49741 -2.1111083 -100.80376 -15.602546 -80.215614
99688000000 -13.167978 -80.314461 -2.1280324 179.4212 -2.098664 -100.74845 -15.619685 -80.303406
99736000000 -13.187926 -80.162636 -2.1451423 179.34558 -2.1034698 -100.90027 -15.596569 -80.567917
99784000000 -13.159023 -80.51944 -2.1382875 179.38084 -2.1093051 -100.80885 -15.649448 -80.329979
99832000000 -13.175601 -80.631325 -2.0945673 179.26845 -2.111336 -100.91103 -15.560418 -80.37661
99880000000 -13.128956 -80.645493 -2.1458287 179.30211 -2.1193438 -101.01159 -15.644326 -80.856308
99928000000 -13.173249 -81.040588 -2.1188705 179.22826 -2.1092579 -101.0594 -15.610792 -80.419975
99976000000 -13.168211 -81.078819 -2.0885396 179.02887 -2.1123819 -101.22292 -15.546508 -80.527039
100024000000 -13.109003 -81.191536 -2.1231618 179.17351 -2.0984409 -101.18649 -15.622207 -80.828369
100072000000 -13.171587 -81.233437 -2.1346791 178.83931 -2.0990717 -101.22569 -15.580558 -80.516174
100120000000 -13.113958 -81.085571 -2.1414223 178.5408 -2.0996706 -101.07818 -15.578718 -81.093803
100168000000 -13.103024 -81.308403 -2.1301146 178.22725 -2.1011024 -100.79305 -15.592858 -80.882034
100216000000 -13.059006 -81.015678 -2.1404312 177.86194 -2.1055727 -100.59526 -15.606562 -81.273087
100264000000 -13.056223 -81.063728 -2.1390016 177.93149 -2.115772 -100.47376 -15.590349 -80.957153
100312000000 -13.069837 -80.931465 -2.1720276 178.02438 -2.1194289 -100.93449 -15.61037 -81.119835
100360000000 -13.038505 -81.007271 -2.0663633 178.42569 -2.1394806 -101.31629 -15.514103 -81.238358
100408000000 -13.131084 -80.715477 -2.1226277 178.5667 -2.1924586 -101.87195 -15.589455 -81.279915
100456000000 -13.10067 -80.426537 -2.1384883 178.77446 -2.1266105 -102.25993 -15.480277 -81.803307
100504000000 -13.084499 -81.204948 -2.1085675 178.50687 -2.1178293 -102.11613 -15.595551 -81.858269
100552000000 -13.040339 -80.632027 -2.1094005 177.90898 -2.0883236 -101.45937 -15.467083 -81.811409
100600000000 -13.160038 -80.687523 -2.1873248 177.11102 -2.1034966 -100.98481 -15.567653 -81.697128
100648000000 -12.990863 -80.619492 -2.1687276 176.78217 -2.1338255 -100.37682 -15.625931 -82.240791
100696000000 -13.203389 -80.387459 -2.1406968 176.38373 -2.2035909 -100.65382 -15.508877 -81.730988
100744000000 -13.118291 -80.902138 -2.1169238 176.85152 -2.0815969 -101.10724 -15.386232 -81.61644
100792000000 -13.052773 -80.955627 -2.1768024 177.2648 -2.1198177 -101.4361 -15.540563 -82.222549
100840000000 -13.072204 -80.84761 -2.1540446 177.77679 -2.1318722 -101.90839 -15.467706 -82.011086
100888000000 -13.056602 -81.051605 -2.162678 177.80634 -2.1579745 -102.26347 -15.530488 -82.197495
100936000000 -13.078689 -81.162888 -2.1240463 177.71442 -2.1415749 -102.27306 -15.432412 -81.788986
100984000000 -13.055431 -81.154434 -2.1250267 177.29494 -2.1458766 -102.17705 -15.424547 -81.980865
101032000000 -13.007596 -81.157356 -2.131434 177.10321 -2.1600759 -101.90992 -15.443782 -82.037971
101080000000 -12.988056 -81.229622 -2.1288316 176.80273 -2.1559238 -101.70844 -15.438229 -82.013
101128000000 -12.972868 -81.252716 -2.133301 176.58952 -2.1500311 -101.74247 -15.415067 -82.059357
101176000000 -12.898198 -81.388153 -2.1031744 176.57555 -2.1427631 -101.54181 -15.40661 -82.262268
101224000000 -12.957493 -80.888702 -2.165683 176.44453 -2.1397789 -101.76031 -15.375907 -82.121735
101272000000 -12.90289 -81.117851 -2.1349974 176.5316 -2.1352284 -101.83658 -15.393393 -82.443138
101320000000 -12.933807 -81.180946 -2.1495588 176.36063 -2.1338718 -101.76339 -15.42019 -82.457092
101368000000 -12.897941 -80.898552 -2.1502507 176.47394 -2.1321576 -101.8699 -15.39556 -82.59819
101416000000 -12.893068 -81.275963 -2.1219101 176.59564 -2.1478763 -102.12883 -15.427393 -82.786995
101464000000 -12.893064 -81.186447 -2.120086 176.69357 -2.120007 -102.28579 -15.416018 -82.517815
101512000000 -12.886538 -81.37693 -2.1163392 176.73741 -2.1072788 -102.75063 -15.372585 -82.774826
101560000000 -12.881136 -81.093239 -2.1527593 176.79593 -2.1499951 -102.81388 -15.380024 -83.055557
101608000000 -12.901931 -81.292847 -2.1782434 176.619 -2.1695957 -102.62534 -15.398982 -83.180153
101656000000 -12.873857 -81.684685 -2.1763978 176.13727 -2.1402273 -102.47945 -15.387185 -83.520149
101704000000 -12.896859 -81.742889 -2.1823311 176.00729 -2.1569386 -102.25123 -15.389805 -83.416687
101752000000 -12.895529 -81.747643 -2.1273391 176.01248 -2.1287949 -102.03906 -15.36345 -82.959038
101800000000 -12.892802 -81.664268 -2.084887 175.67805 -2.0934303 -102.17313 -15.257651 -83.065155
101848000000 -12.728313 -81.036621 -2.1643155 175.84988 -2.0778174 -102.02798 -15.205896 -83.735085
101896000000 -12.715351 -81.5364 -2.1863718 176.03799 -2.1067111 -102.54363 -15.283864 -84.402817
101944000000 -12.874636 -81.980339 -2.125617 175.94051 -2.1540704 -102.20963 -15.398031 -83.450768
101992000000 -12.720604 -81.056831 -2.0713277 176.05721 -2.093451 -102.45151 -15.206805 -83.545212
102040000000 -12.739405 -81.056679 -2.1876662 176.21643 -2.1027794 -103.13789 -15.214069 -84.065887
102088000000 -12.839772 -81.820282 -2.2133722 176.1411 -2.1355345 -103.71008 -15.310136 -84.524734
102136000000 -12.918445 -82.037682 -2.1999288 176.08751 -2.1705112 -103.44891 -15.386697 -84.425804
102184000000 -12.906391 -81.976143 -2.1668251 175.66028 -2.1262426 -103.13264 -15.374076 -84.160645
102232000000 -12.88794 -81.907166 -2.1408575 174.9471 -2.1103625 -102.53989 -15.359292 -84.233337
102280000000 -12.861823 -82.027596 -2.1196997 174.26099 -2.1011574 -102.17294 -15.342839 -84.32682
102328000000 -12.825011 -81.725082 -2.103971 174.19917 -2.1009924 -101.76866 -15.352365 -84.357864
102376000000 -12.798363 -81.57869 -2.0965397 174.00603 -2.1102829 -102.16981 -15.287007 -84.495697
102424000000 -12.834995 -82.416176 -2.1560216 174.73245 -2.1096239 -103.21017 -15.344517 -84.912277
102472000000 -12.878669 -82.924454 -2.1690805 175.33667 -2.1116626 -104.19222 -15.379458 -84.799225
102520000000 -12.946433 -82.923706 -2.1674662 176.05797 -2.1241436 -104.86914 -15.377861 -84.751137
102568000000 -12.931184 -83.273026 -2.1627891 175.60754 -2.1592188 -104.47894 -15.418878 -84.566154
102616000000 -12.905783 -82.641708 -2.1403913 174.96019 -2.1222699 -103.38992 -15.341012 -84.834518
102664000000 -12.896648 -83.263405 -2.1476111 173.82454 -2.1453264 -102.90964 -15.382233 -84.681717
102712000000 -12.910979 -82.521263 -2.1492705 173.44115 -2.1210363 -102.61769 -15.306332 -84.924011
102760000000 -12.863523 -82.907837 -2.1619389 173.56001 -2.1208701 -102.71655 -15.337013 -84.973541
102808000000 -12.839747 -83.303406 -2.1535382 173.78476 -2.1149282 -103.34666 -15.360581 -85.348221
102856000000 -12.833272 -83.110909 -2.168082 174.50681 -2.1462147 -103.71322 -15.364571 -85.28363
102904000000 -12.796091 -82.956017 -2.1699357 174.9339 -2.1269937 -104.65389 -15.356941 -85.640068
102952000000 -12.779715 -83.439301 -2.1599171 174.60435 -2.1158268 -104.55632 -15.381819 -85.569344
103000000000 -12.792465 -82.656075 -2.1859469 174.60066 -2.1213439 -104.12273 -15.359455 -85.475273
103048000000 -12.7789 -83.092827 -2.157649 173.40561 -2.135896 -103.39671 -15.368056 -85.521706
103096000000 -12.797473 -83.022598 -2.1229675 173.29366 -2.1475079 -103.35388 -15.338164 -85.564171
103144000000 -12.809578 -83.243271 -2.1218898 173.33157 -2.1523271 -103.63707 -15.345403 -85.468605
103192000000 -12.851072 -82.902702 -2.1304464 173.74585 -2.1499431 -103.93983 -15.299337 -85.598679
103240000000 -12.882427 -83.598991 -2.1447346 173.78752 -2.1401675 -104.45769 -15.326563 -85.580956
103288000000 -12.889963 -83.430885 -2.1483479 173.83446 -2.1297104 -104.68066 -15.308514 -85.906494
103336000000 -12.865541 -83.888756 -2.1634011 173.49391 -2.124017 -104.58453 -15.319247 -85.851799
103384000000 -12.900716 -83.660217 -2.1641405 173.24799 -2.1306078 -104.25258 -15.318418 -86.069794
103432000000 -12.909458 -84.042465 -2.1673553 172.8597 -2.1454062 -104.09753 -15.316529 -85.985481
103480000000 -12.90896 -83.893364 -2.1566999 172.78412 -2.148742 -103.91051 -15.322248 -86.1213
103528000000 -12.871065 -84.213821 -2.1364009 172.83029 -2.1545789 -104.33254 -15.323804 -86.152092
103576000000 -12.874063 -83.820679 -2.1530452 173.44754 -2.1428137 -104.72065 -15.310134 -86.213211
103624000000 -12.84392 -84.188629 -2.1514723 173.47983 -2.1394994 -105.0728 -15.318737 -86.249092
103672000000 -12.796598 -84.253288 -2.1403954 173.53371 -2.1350563 -105.32388 -15.332558 -86.308105
103720000000 -12.784194 -84.44696 -2.1452692 173.35286 -2.1336551 -105.29893 -15.33555 -86.342178
103768000000 -12.738516 -84.428978 -2.1442351 173.04832 -2.1288941 -105.19018 -15.3393 -86.421753
103816000000 -12.753554 -84.699738 -2.1472261 172.51999 -2.1323602 -104.94998 -15.351925 -86.49865
103864000000 -12.692139 -84.507568 -2.1393666 172.01941 -2.1232128 -104.40346 -15.3367 -86.636253
103912000000 -12.807777 -84.575836 -2.1666362 171.63477 -2.1471841 -104.19202 -15.328896 -86.589058
103960000000 -12.734038 -84.451736 -2.1500344 171.49876 -2.1342471 -103.95274 -15.292396 -86.736946
104008000000 -12.796575 -83.847198 -2.1594465 171.82315 -2.1406255 -104.1363 -15.263726 -86.80809
104056000000 -12.757481 -84.940376 -2.1429081 171.65329 -2.131618 -104.60983 -15.285064 -87.092262
104104000000 -12.825431 -84.965462 -2.1499989 172.11969 -2.1222932 -105.44857 -15.299768 -87.505768
104152000000 -12.747813 -84.612663 -2.1514192 172.93796 -2.1263597 -105.99706 -15.284657 -87.383904
104200000000 -12.802939 -84.972481 -2.1248355 172.91924 -2.1389546 -106.37949 -15.260233 -87.810921
104248000000 -12.767554 -84.849525 -2.1242187 172.49681 -2.1251547 -105.95985 -15.268682 -88.191742
104296000000 -12.803749 -85.222992 -2.1497891 171.28384 -2.1245399 -105.15818 -15.306852 -88.287003
104344000000 -12.793946 -85.240463 -2.1578996 170.12259 -2.1386919 -104.07869 -15.324038 -88.281021
104392000000 -12.805456 -85.346245 -2.1643496 169.26924 -2.1392248 -103.25692 -15.303627 -88.165657
104440000000 -12.764946 -85.378532 -2.1500762 169.17612 -2.1372638 -103.17654 -15.276289 -88.234932
104488000000 -12.752576 -85.606995 -2.1399837 169.90656 -2.1298554 -103.97825 -15.224072 -88.329315
104536000000 -12.760505 -85.349548 -2.1640317 171.06374 -2.119087 -105.13475 -15.215763 -88.358093
104584000000 -12.784589 -85.739616 -2.1425605 171.79834 -2.1365077 -106.39735 -15.230418 -88.887009
104632000000 -12.741488 -85.321404 -2.1599541 172.27901 -2.1529398 -106.621 -15.226869 -88.285667
104680000000 -12.766552 -85.919846 -2.1349287 171.40178 -2.128638 -106.2167 -15.142043 -89.073257
104728000000 -12.750525 -85.461304 -2.1128051 170.35168 -2.1682394 -105.26425 -15.186924 -89.122658
104776000000 -12.749425 -85.860817 -2.1285241 169.13005 -2.140465 -104.43143 -15.169661 -89.586029
104824000000 -12.712369 -85.496262 -2.1226995 168.84535 -2.1046784 -103.61478 -15.053823 -89.403267
104872000000 -12.746035 -86.028061 -2.1392469 168.69319 -2.1063807 -104.05447 -15.092151 -89.801239
104920000000 -12.757253 -85.450974 -2.1955767 169.40848 -2.1437478 -104.76228 -15.252389 -89.3489
104968000000 -12.793468 -85.697151 -2.1183271 170.26361 -2.1556532 -105.7192 -15.11427 -90.151566
105016000000 -12.801317 -85.722076 -2.1372144 170.66197 -2.1452034 -106.31467 -15.14192 -89.961334
105064000000 -12.773732 -85.819878 -2.1227641 170.48808 -2.1233652 -106.19075 -15.101111 -90.305664
105112000000 -12.80851 -85.518021 -2.1461704 170.05692 -2.1237357 -106.01314 -15.182943 -90.358002
105160000000 -12.771057 -85.99334 -2.1494892 169.51074 -2.1270244 -105.70864 -15.166736 -90.350807
105208000000 -12.792376 -85.693459 -2.1478007 169.338 -2.1283829 -105.53782 -15.148414 -90.252922
105256000000 -12.755319 -86.279778 -2.1510236 169.5038 -2.1220648 -105.91453 -15.115431 -90.376213
105304000000 -12.774811 -86.114983 -2.1473334 169.84622 -2.1317005 -106.39165 -15.108552 -90.479843
105352000000 -12.760808 -86.390327 -2.1554441 170.06459 -2.1164708 -106.73051 -15.093771 -90.774673
105400000000 -12.784064 -86.201172 -2.1530075 170.16768 -2.1076384 -106.98586 -15.0715 -90.871758
105448000000 -12.778154 -86.556778 -2.1707916 169.89548 -2.1247292 -106.92656 -15.092701 -91.086876
105496000000 -12.805305 -86.157822 -2.1801131 169.70364 -2.091644 -106.66278 -15.049341 -91.05172
105544000000 -12.753251 -86.495125 -2.1258764 168.98201 -2.1435459 -106.12838 -15.025146 -91.338364
105592000000 -12.813142 -85.840019 -2.1704426 168.76532 -2.1604233 -105.97073 -15.13045 -91.03154
105640000000 -12.761778 -86.232239 -2.1160305 168.51796 -2.1484892 -106.01762 -15.00523 -91.910172
105688000000 -12.808699 -86.067551 -2.1245091 168.63615 -2.1435132 -106.36504 -14.991036 -91.897308
105736000000 -12.723627 -86.202927 -2.1944339 169.09262 -2.146292 -107.03688 -15.132669 -91.290199
105784000000 -12.826838 -85.875275 -2.1282256 169.83075 -2.1331551 -107.63123 -14.921515 -92.290916
105832000000 -12.758565 -85.991158 -2.1416249 170.37239 -2.135164 -108.27868 -14.988098 -92.228004
105880000000 -12.797419 -85.793213 -2.1335802 170.36201 -2.1438618 -108.53671 -15.007481 -92.15448
105928000000 -12.748477 -86.122078 -2.1371987 169.87128 -2.1372998 -108.2021 -15.029408 -92.386375
105976000000 -12.790748 -86.160805 -2.1780696 168.59099 -2.1372821 -107.38116 -15.067066 -92.371155
106024000000 -12.778321 -86.179703 -2.1522663 167.57701 -2.1420701 -106.22591 -15.051076 -92.398674
106072000000 -12.802261 -86.532578 -2.1465123 166.40463 -2.14993 -105.34521 -14.955397 -92.212593
106120000000 -12.804468 -86.807869 -2.1222835 166.26801 -2.1345394 -105.06269 -14.850848 -92.128716
106168000000 -12.819345 -86.65506 -2.1722565 166.84717 -2.1479337 -105.9584 -14.925072 -92.15831
106216000000 -12.807691 -86.606789 -2.1230831 168.56703 -2.1160059 -107.14262 -14.733894 -92.017494
106264000000 -12.804385 -86.466896 -2.1321454 169.01028 -2.164783 -108.67902 -14.908166 -93.508774
106312000000 -12.765883 -86.788223 -2.0974169 170.03545 -2.1166983 -109.34077 -14.738582 -93.169365
106360000000 -12.776318 -86.387901 -2.1655393 169.34261 -2.1266248 -109.30373 -14.951221 -93.998024
106408000000 -12.756418 -86.666817 -2.1704235 167.92476 -2.2092609 -107.83519 -15.084944 -93.277946
106456000000 -12.747688 -87.16597 -2.077632 166.29041 -2.0624342 -105.67061 -14.477798 -92.712288
106504000000 -12.839476 -86.314796 -2.2492902 164.12317 -2.1396387 -104.94914 -15.094957 -94.861664
106552000000 -12.762052 -86.410309 -2.1783011 164.53522 -2.1785581 -104.50966 -14.923436 -93.265083
106600000000 -12.727836 -87.279831 -2.0517788 165.52361 -2.1567965 -105.56268 -14.571473 -92.652176
106648000000 -12.735869 -86.917938 -2.2311485 166.78961 -2.0714049 -107.17736 -14.782487 -93.336792
106696000000 -12.666646 -85.805573 -2.1368642 168.50685 -2.2172225 -109.04097 -15.029884 -93.181076
106744000000 -12.800382 -87.19239 -2.1079626 168.84775 -2.1420267 -109.63165 -14.590331 -93.824799
106792000000 -12.823364 -86.379425 -2.1849751 168.63298 -2.1501932 -109.37467 -14.757817 -94.047897
106840000000 -12.790998 -86.719513 -2.1409464 167.68468 -2.1715896 -108.58443 -14.703935 -93.972687
106888000000 -12.762811 -86.65847 -2.1662014 166.81795 -2.128423 -107.68327 -14.698772 -93.823914
106936000000 -12.744852 -86.798538 -2.2040901 165.93039 -2.1862726 -107.69156 -14.915324 -94.815048
106984000000 -12.79442 -87.151886 -2.1057401 166.29074 -2.1367571 -107.85168 -14.549684 -94.188606
107032000000 -12.77965 -87.071655 -2.1447783 166.45628 -2.1448679 -108.62288 -14.64799 -94.8349
107080000000 -12.750003 -86.92218 -2.1669462 167.15225 -2.1327524 -108.99939 -14.687069 -94.256943
107128000000 -12.750065 -86.897301 -2.1875055 167.20659 -2.1422787 -109.42572 -14.695425 -94.621597
107176000000 -12.764782 -86.289886 -2.184078 167.07086 -2.1632965 -108.99702 -14.66835 -95.209137
107224000000 -12.731308 -86.794479 -2.1572473 166.79433 -2.1493661 -108.81657 -14.60188 -94.537987
107272000000 -12.725271 -86.479706 -2.1620753 166.35854 -2.1503327 -108.45183 -14.583345 -94.923767
107320000000 -12.71047 -86.826706 -2.1729805 165.96721 -2.1282413 -108.23656 -14.58996 -94.899796
107368000000 -12.678799 -86.729401 -2.1964729 166.05881 -2.1285295 -108.44555 -14.646369 -94.76162
107416000000 -12.676605 -86.968307 -2.2022045 165.9536 -2.1586804 -108.54018 -14.712379 -95.014572
107464000000 -12.682348 -86.789291 -2.1489751 166.53943 -2.1853831 -108.86166 -14.647286 -94.316956
107512000000 -12.741087 -87.187752 -2.1303444 166.85614 -2.1348686 -109.28703 -14.478567 -94.035187
107560000000 -12.671731 -86.49897 -2.2053719 167.0116 -2.1567466 -109.83245 -14.620438 -95.186974
107608000000 -12.700297 -86.86747 -2.1678939 167.05637 -2.1589842 -109.79166 -14.547554 -94.758842
107656000000 -12.678573 -86.853058 -2.1641526 166.60535 -2.1708014 -109.11227 -14.570488 -94.193336
107704000000 -12.721941 -86.822006 -2.1595137 165.17616 -2.1576335 -108.43507 -14.457246 -95.985321
107752000000 -12.698917 -86.783966 -2.1498294 164.73949 -2.1689072 -107.96954 -14.461463 -95.666847
107800000000 -12.703416 -86.985497 -2.1319864 163.72984 -2.1758602 -107.38775 -14.425918 -96.331924
107848000000 -12.702057 -87.054459 -2.1402349 163.67943 -2.1646953 -107.39291 -14.449306 -96.160072
107896000000 -12.693622 -87.050362 -2.1516147 164.40082 -2.1496148 -108.20052 -14.462676 -96.399368
107944000000 -12.666886 -87.156265 -2.2406993 165.93282 -2.158205 -109.84887 -14.660097 -96.092873
107992000000 -12.683459 -87.185875 -2.1738591 167.4472 -2.1487088 -111.05737 -14.482605 -95.652214
108040000000 -12.667658 -87.263702 -2.1674359 167.61029 -2.1465559 -111.38442 -14.491117 -95.739677
108088000000 -12.652947 -86.740265 -2.2362928 167.16595 -2.1263063 -111.29992 -14.551615 -96.507996
108136000000 -12.634226 -87.057365 -2.1596944 165.82947 -2.167531 -109.99218 -14.459207 -96.260574
108184000000 -12.638531 -87.24733 -2.126946 164.0126 -2.1686058 -108.36137 -14.381771 -95.95015
108232000000 -12.622075 -87.288269 -2.1344059 162.81273 -2.1595669 -107.13468 -14.323841 -96.079521
108280000000 -12.600227 -87.470306 -2.1463871 162.58914 -2.1606054 -107.07682 -14.359724 -96.054062
108328000000 -12.600796 -87.663025 -2.1555874 163.46254 -2.1747465 -107.80146 -14.407963 -95.978607
108376000000 -12.611149 -87.543617 -2.1635823 164.79364 -2.1504686 -108.99255 -14.350837 -95.829842
108424000000 -12.627544 -87.518471 -2.1512752 166.02325 -2.091728 -110.34571 -14.272288 -95.91301
108472000000 -12.585146 -87.359016 -2.1862099 166.1537 -2.0975487 -111.631 -14.278637 -97.815788
108520000000 -12.608096 -87.557533 -2.198133 166.09505 -2.1578763 -111.53828 -14.438587 -97.639587
108568000000 -12.582523 -87.359863 -2.1877999 164.97891 -2.174346 -110.50517 -14.411577 -97.808395
108616000000 -12.582616 -87.467926 -2.1936798 163.98848 -2.1723204 -109.40095 -14.472644 -97.346199
108664000000 -12.556613 -87.57019 -2.1640816 163.38132 -2.1641676 -108.59384 -14.468881 -96.569443
108712000000 -12.560306 -87.56604 -2.1170292 163.52202 -2.1767538 -108.89462 -14.368855 -96.533768
108760000000 -12.536023 -87.712135 -2.1360145 164.01599 -2.1560352 -109.66631 -14.363438 -96.70993
108808000000 -12.546126 -87.960724 -2.1454389 164.6006 -2.1404121 -110.35834 -14.361648 -96.790985
108856000000 -12.533271 -88.010323 -2.1566646 164.87683 -2.1347723 -110.77109 -14.342651 -96.802338
108904000000 -12.565773 -88.237892 -2.1647079 164.98689 -2.1161897 -110.92344 -14.338982 -96.868614
108952000000 -12.542992 -88.080566 -2.1748304 164.66853 -2.1299877 -111.15636 -14.308549 -97.484398
109000000000 -12.572636 -88.266571 -2.1902642 164.36078 -2.1521316 -111.12753 -14.32338 -98.028229
109048000000 -12.50508 -87.923271 -2.1941185 163.82951 -2.1975555 -111.09206 -14.374399 -98.60379
109096000000 -12.528836 -88.020302 -2.177978 163.42036 -2.1799088 -110.95579 -14.292915 -98.440506
109144000000 -12.484854 -87.778671 -2.1665676 163.185 -2.1706777 -110.98759 -14.228387 -98.354347
109192000000 -12.557121 -88.0271 -2.153342 163.01247 -2.1642418 -110.84725 -14.194634 -98.857315
109240000000 -12.550968 -88.453613 -2.1484625 163.54265 -2.1540699 -111.04867 -14.293853 -98.212837
109288000000 -12.547672 -88.674057 -2.1501997 163.64879 -2.1502676 -111.23719 -14.314565 -98.261116
109336000000 -12.528642 -88.685753 -2.1611688 163.65567 -2.1556673 -111.39645 -14.338971 -98.556595
109384000000 -12.531703 -88.784813 -2.132622 163.8288 -2.1488714 -111.52535 -14.331603 -98.252739
109432000000 -12.538207 -88.949852 -2.1495843 163.6416 -2.141191 -111.35925 -14.368831 -98.115883
109480000000 -12.493666 -89.119743 -2.1508117 163.47984 -2.1472511 -110.39344 -14.485655 -96.664871
109528000000 -12.523721 -89.290077 -2.1714902 162.52544 -2.1456704 -110.0838 -14.4576 -97.476807
109576000000 -12.537027 -88.813599 -2.1716852 161.77747 -2.1764965 -110.47179 -14.327537 -99.226738
109624000000 -12.571037 -88.825714 -2.1190443 161.16925 -2.1597593 -110.23466 -14.152299 -99.155266
109672000000 -12.527346 -88.943382 -2.1357737 161.34898 -2.1437724 -110.36831 -14.149529 -99.333481
109720000000 -12.474737 -89.043999 -2.1632571 161.10976 -2.1640828 -111.13618 -14.037085 -99.820831
109768000000 -12.546741 -89.523529 -2.1603518 162.44905 -2.125628 -111.56357 -14.199203 -99.165176
109816000000 -12.539692 -89.581955 -2.1953561 162.75749 -2.144587 -112.00625 -14.274088 -99.278809
109864000000 -12.569869 -89.484924 -2.1841948 162.63875 -2.1400383 -111.95577 -14.220804 -99.296738
109912000000 -12.581167 -89.571091 -2.1617577 161.90932 -2.1355946 -111.42954 -14.25656 -99.25322
109960000000 -12.592417 -89.531471 -2.2056572 161.13161 -2.1498735 -110.97622 -14.260383 -99.722153
110008000000 -12.573692 -89.336739 -2.1271353 160.84167 -2.1486535 -110.35376 -14.303378 -99.02977
110056000000 -12.569709 -89.384224 -2.1584213 160.72797 -2.1688778 -110.71514 -14.292078 -99.54715
110104000000 -12.553022 -89.434967 -2.131021 161.34695 -2.1595414 -111.1305 -14.369513 -99.235748
110152000000 -12.55752 -89.850395 -2.1353669 161.55884 -2.1365755 -112.0952 -14.33056 -99.335312
110200000000 -12.584516 -89.749924 -2.2000413 162.25764 -2.1630008 -112.53975 -14.384473 -99.641113
110248000000 -12.601755 -90.073235 -2.1703393 162.65245 -2.1641021 -112.91433 -14.439089 -99.11042
110296000000 -12.592627 -89.748138 -2.1296504 162.52194 -2.1578979 -112.70606 -14.331845 -98.880135
110344000000 -12.631091 -90.139534 -2.1388795 161.8222 -2.160063 -112.6746 -14.331449 -99.141609
110392000000 -12.605477 -89.769005 -2.1348898 161.64569 -2.1552303 -112.39172 -14.267506 -99.348701
110440000000 -12.664041 -90.18055 -2.1448407 161.18599 -2.1656911 -112.44068 -14.299047 -99.653687
110488000000 -12.6309 -89.833496 -2.1555803 161.37947 -2.1706398 -112.42162 -14.288296 -99.72274
110536000000 -12.646671 -89.871674 -2.1780503 161.8266 -2.1470869 -112.88834 -14.285971 -99.756042
110584000000 -12.685337 -90.027084 -2.1714938 161.24362 -2.1712887 -113.19933 -14.314765 -100.17758
110632000000 -12.634603 -89.582848 -2.1742208 161.5233 -2.152297 -113.13412 -14.269042 -100.24493
110680000000 -12.663935 -89.669838 -2.1907949 161.62831 -2.1600699 -113.3548 -14.296906 -100.1091
110728000000 -12.60196 -89.37664 -2.184752 161.61693 -2.1521053 -113.45114 -14.269911 -100.30405
110776000000 -12.614667 -89.735855 -2.1906445 161.47415 -2.1668057 -113.60711 -14.314074 -100.42449
110824000000 -12.599952 -89.688797 -2.1927609 161.50984 -2.1623321 -113.58161 -14.330892 -100.236
110872000000 -12.614266 -89.955734 -2.1910222 161.53252 -2.161175 -113.87358 -14.341115 -100.24084
110920000000 -12.619205 -90.164108 -2.1786368 161.35612 -2.1722651 -114.12452 -14.316108 -100.38403
110968000000 -12.644092 -90.218529 -2.1792495 161.62207 -2.1834342 -114.19637 -14.359122 -100.0771
111016000000 -12.599575 -89.86235 -2.1560814 161.35614 -2.1737764 -114.22527 -14.273548 -99.928719
111064000000 -12.612736 -89.918419 -2.1878428 160.78348 -2.1742661 -113.79576 -14.264105 -100.07061
111112000000 -12.616239 -90.154678 -2.1960669 160.15126 -2.1784163 -113.40739 -14.299617 -100.02718
111160000000 -12.610859 -90.036972 -2.2054849 159.67706 -2.1856239 -112.81937 -14.282941 -99.992409
111208000000 -12.622111 -90.352806 -2.1740878 159.08267 -2.1945546 -112.35767 -14.323261 -99.861206
111256000000 -12.628327 -90.379799 -2.1829116 158.62059 -2.1931186 -112.26965 -14.287708 -100.00278
111304000000 -12.67473 -90.810036 -2.2118793 159.11804 -2.1775687 -112.94677 -14.356894 -99.999008
111352000000 -12.629655 -90.564087 -2.2042811 159.70343 -2.2043695 -113.69254 -14.321253 -100.21365
111400000000 -12.673191 -90.626984 -2.2257345 160.53154 -2.1976473 -114.46799 -14.349444 -100.38049
111448000000 -12.643477 -90.521309 -2.2126961 160.87312 -2.1914346 -114.63952 -14.358517 -100.53168
111496000000 -12.648285 -90.570732 -2.2099233 160.01244 -2.1840787 -114.07558 -14.362211 -100.82825
111544000000 -12.625229 -90.523781 -2.2013304 158.78058 -2.1791494 -112.9855 -14.369669 -100.92541
111592000000 -12.621748 -90.614876 -2.2011013 157.33401 -2.1777909 -111.73562 -14.383593 -101.11624
111640000000 -12.617908 -90.611847 -2.2089949 156.52592 -2.1733668 -110.93049 -14.378466 -101.20772
111688000000 -12.620008 -90.915146 -2.2039642 156.74872 -2.1947064 -111.31126 -14.368231 -101.2849
111736000000 -12.631214 -90.673973 -2.1843553 157.17155 -2.2210162 -111.87839 -14.348013 -101.44357
111784000000 -12.610438 -90.716667 -2.19824 158.40367 -2.2022717 -113.17281 -14.317701 -101.58685
111832000000 -12.60745 -90.847183 -2.2030721 159.63849 -2.2063129 -114.4536 -14.278502 -101.71142
111880000000 -12.602558 -90.970528 -2.2037456 159.94344 -2.2068496 -114.92378 -14.260168 -101.95605
111928000000 -12.613682 -91.07476 -2.2105231 159.63785 -2.2000911 -114.59731 -14.21444 -102.07129
111976000000 -12.600297 -90.998787 -2.2120173 158.72441 -2.2059138 -113.91267 -14.209367 -102.33078
112024000000 -12.605735 -90.933395 -2.2013288 157.87247 -2.1947155 -112.9285 -14.154259 -102.54895
112072000000 -12.565105 -91.069954 -2.2126393 157.09534 -2.2076998 -112.61053 -14.196071 -102.56875
112120000000 -12.579279 -91.047684 -2.2176132 157.17406 -2.195169 -112.57314 -14.157111 -102.71249
112168000000 -12.514005 -90.99955 -2.221719 157.77788 -2.1937873 -113.29156 -14.15685 -102.60936
112216000000 -12.489397 -91.324028 -2.2105372 158.4994 -2.1769502 -114.09254 -14.155646 -102.83035
112264000000 -12.477946 -91.729713 -2.2383068 159.22003 -2.1702459 -115.12566 -14.19645 -102.55682
112312000000 -12.668074 -90.790512 -2.2144864 160.42589 -2.2738318 -115.82168 -14.071365 -102.06435
112360000000 -12.406298 -91.145515 -2.1348534 159.91147 -2.2166626 -115.65822 -14.118616 -102.64102
112408000000 -12.465832 -92.128082 -2.1990573 158.8882 -2.1732135 -115.43336 -14.121687 -102.6478
112456000000 -12.442963 -91.622192 -2.182862 158.80528 -2.2095172 -114.77229 -14.156967 -102.21127
112504000000 -12.614106 -92.049088 -2.2428999 157.41179 -2.2123053 -114.13837 -14.12161 -102.36116
112552000000 -12.531054 -91.433128 -2.2380581 157.21619 -2.1890271 -113.54176 -14.110293 -102.40395
112600000000 -12.534523 -91.317154 -2.265131 157.36674 -2.1679175 -113.68925 -14.132844 -102.33762
112648000000 -12.562729 -91.459282 -2.2674608 158.33932 -2.1936128 -114.85044 -14.141532 -102.25615
112696000000 -12.635956 -91.170326 -2.2010777 159.63869 -2.2611265 -116.145 -14.122063 -102.06744
112744000000 -12.55793 -91.298203 -2.1643772 160.36618 -2.2533686 -117.01736 -14.105865 -102.42844
112792000000 -12.546124 -91.59771 -2.1873085 159.95529 -2.2230487 -117.14695 -14.145749 -102.81387
112840000000 -12.539926 -92.048172 -2.1940277 158.66158 -2.231421 -116.25916 -14.198126 -103.00401
112888000000 -12.523456 -92.054024 -2.2537148 157.22087 -2.1914399 -114.68049 -14.210682 -103.11189
112936000000 -12.491953 -92.364807 -2.2136064 154.84668 -2.2105322 -112.6428 -14.249697 -103.44157
112984000000 -12.487788 -91.966957 -2.2028677 153.97905 -2.2074533 -111.39999 -14.227715 -103.70588
113032000000 -12.439152 -92.01606 -2.1952724 154.58301 -2.2181962 -111.97159 -14.209936 -103.75533
113080000000 -12.443888 -92.030968 -2.168642 156.65166 -2.2186663 -113.98836 -14.202372 -104.00922
113128000000 -12.407529 -92.379173 -2.1878886 159.0992 -2.193527 -116.84395 -14.20589 -104.28405
113176000000 -12.402423 -92.506638 -2.1798391 160.77725 -2.1709211 -118.84771 -14.236769 -104.72197
113224000000 -12.451123 -93.141464 -2.1862216 160.3566 -2.2094762 -119.036 -14.238325 -105.0551
113272000000 -12.443203 -92.210548 -2.1739237 158.41953 -2.182322 -116.74653 -14.20901 -105.66088
113320000000 -12.423513 -93.330231 -2.2009625 154.67352 -2.1854606 -113.64986 -14.209714 -105.41968
113368000000 -12.435392 -93.40963 -2.1694169 151.12602 -2.171629 -109.76387 -14.076107 -105.47239
113416000000 -12.468388 -94.000084 -2.1826506 148.9796 -2.182097 -108.09594 -14.061198 -105.34151
113464000000 -12.507647 -93.523239 -2.1719453 149.88503 -2.1759906 -108.75375 -13.994655 -105.84628
113512000000 -12.493255 -93.999954 -2.174104 152.93886 -2.1885788 -112.33091 -13.997798 -105.65189
113560000000 -12.521556 -93.316757 -2.1816812 157.10345 -2.175703 -116.06361 -13.962682 -105.98743
113608000000 -12.519636 -93.951744 -2.1886036 159.765 -2.1906118 -119.38634 -13.952818 -105.97588
113656000000 -12.540182 -93.34787 -2.1936316 160.54611 -2.1751375 -120.04833 -13.953456 -106.67796
113704000000 -12.526826 -93.531548 -2.1913588 158.8779 -2.1852696 -118.83599 -13.912107 -106.94559
113752000000 -12.479596 -93.797234 -2.1747098 156.06924 -2.1732776 -116.12316 -13.933513 -106.79565
113800000000 -12.458962 -93.620247 -2.1847944 152.94508 -2.1756136 -112.9557 -13.912738 -106.60897
113848000000 -12.440285 -93.616768 -2.1795192 150.4986 -2.1739454 -110.50209 -13.916008 -106.47484
113896000000 -12.453393 -93.848259 -2.1849434 150.12343 -2.1826899 -110.38454 -13.923477 -106.26415
113944000000 -12.391912 -93.982956 -2.1647754 151.6375 -2.1776104 -111.85749 -13.900138 -106.0681
113992000000 -12.439221 -94.092476 -2.1695991 154.1548 -2.1843665 -114.6793 -13.905498 -106.09389
114040000000 -12.457745 -94.125504 -2.1740167 156.7977 -2.1715672 -117.43642 -13.898933 -106.24857
114088000000 -12.392833 -94.045654 -2.1765857 158.49255 -2.1744845 -119.24203 -13.889701 -106.21148
114136000000 -12.447673 -94.166161 -2.1719525 158.88577 -2.1693296 -119.71864 -13.90645 -106.26376
114184000000 -12.420424 -94.105911 -2.1796076 157.82114 -2.1728683 -119.03054 -13.903085 -106.59531
114232000000 -12.477028 -94.086449 -2.1703458 155.72598 -2.1773725 -117.2278 -13.929691 -107.0814
114280000000 -12.437168 -94.078583 -2.1836028 153.83543 -2.178998 -115.38519 -13.962141 -107.15523
114328000000 -12.428702 -94.115425 -2.1863594 152.18399 -2.1786568 -113.8344 -13.958504 -107.23482
114376000000 -12.449077 -94.057816 -2.1877627 151.6353 -2.1815023 -113.23692 -13.998268 -107.35076
114424000000 -12.417764 -94.457489 -2.1862626 152.33025 -2.1805608 -114.12312 -13.989211 -107.15852
114472000000 -12.459064 -94.243591 -2.1853981 154.15477 -2.1793883 -116.06423 -14.016184 -107.54693
114520000000 -12.463717 -94.342766 -2.1869745 156.07877 -2.1808386 -118.09382 -14.033454 -107.59548
114568000000 -12.476233 -94.303268 -2.1892769 157.17972 -2.1764421 -119.48434 -14.02649 -107.98762
114616000000 -12.494178 -94.271942 -2.1876123 157.05602 -2.1715031 -119.58376 -14.039647 -108.41164
114664000000 -12.47709 -94.413414 -2.1960042 155.56406 -2.1778405 -118.56741 -14.025982 -108.62823
114712000000 -12.470788 -94.385765 -2.2002516 153.62816 -2.1873016 -116.54585 -14.006862 -108.46485
114760000000 -12.453509 -94.435776 -2.1893659 151.89143 -2.1816096 -114.99719 -13.929141 -108.53448
114808000000 -12.443579 -94.503304 -2.1849172 151.46721 -2.1842513 -114.47683 -13.894528 -108.25245
114856000000 -12.439619 -94.528564 -2.1810896 152.56184 -2.1858506 -115.64925 -13.852456 -108.2877
114904000000 -12.441341 -94.534485 -2.1833601 154.40788 -2.1904957 -117.75126 -13.809203 -108.67495
114952000000 -12.435753 -94.58432 -2.1556196 155.56946 -2.1791811 -119.32656 -13.685292 -109.04555
115000000000 -12.433784 -94.26741 -2.1843951 156.06871 -2.1863775 -119.65366 -13.749742 -109.29306
