!Keysight Technologies,N5247B,MY61256062,A.16.20.04
!Date: Tuesday, November 18, 2025 05:53:03
!Correction: S11(C  2-Port  ) 
!S21(C  2-Port  ) 
!S12(C  2-Port  ) 
!S22(C  2-Port  ) 
!S2P File: Measurements: S11, S21, S12, S22:
# Hz S  dB   R 50
67000000000 -20.897276 -127.57097 -1.3842931 -53.009281 -1.3953167 -52.653305 -19.216297 -167.91718
67048000000 -20.970585 -127.57612 -1.3843782 -53.031158 -1.3902508 -52.725655 -19.217113 -167.85837
67096000000 -21.060724 -127.14367 -1.3914322 -53.019947 -1.3872759 -52.774952 -19.181643 -168.00883
67144000000 -21.028234 -126.6049 -1.3871925 -53.119408 -1.3871113 -52.799854 -19.172262 -168.2395
67192000000 -20.894712 -126.79585 -1.3945823 -53.168598 -1.3918422 -52.845695 -19.191359 -168.09026
67240000000 -20.903675 -127.02056 -1.3899653 -53.233875 -1.3929738 -52.871376 -19.106947 -168.42238
67288000000 -20.859097 -128.05406 -1.395321 -53.22147 -1.3920367 -52.937653 -19.176929 -168.22681
67336000000 -21.00107 -128.13388 -1.3978817 -53.298588 -1.4036043 -52.932316 -19.1353 -168.64915
67384000000 -21.057579 -127.54316 -1.386698 -53.284206 -1.3918465 -52.952251 -19.122173 -168.98831
67432000000 -21.061216 -126.96481 -1.3960221 -53.417751 -1.3899317 -53.004185 -19.091661 -169.10339
67480000000 -20.957317 -126.35614 -1.3840221 -53.428776 -1.3932927 -53.072872 -19.097189 -169.12183
67528000000 -20.804241 -126.94151 -1.3976243 -53.359665 -1.3837199 -53.137165 -19.059624 -168.87361
67576000000 -20.820238 -127.99108 -1.3970847 -53.399986 -1.4006041 -53.166782 -19.078781 -169.14551
67624000000 -20.804914 -128.6664 -1.399789 -53.445122 -1.3919164 -53.176548 -19.060678 -168.66585
67672000000 -20.99452 -128.88892 -1.4021679 -53.490276 -1.4047577 -53.214413 -19.022501 -168.93251
67720000000 -20.977211 -128.3042 -1.4082143 -53.531307 -1.4029212 -53.251575 -19.028303 -168.9623
67768000000 -21.031404 -127.92509 -1.4014269 -53.499157 -1.4080031 -53.263268 -18.999903 -169.39357
67816000000 -20.923908 -127.45338 -1.3996354 -53.537262 -1.3986155 -53.274361 -19.025116 -169.40849
67864000000 -20.832308 -128.41847 -1.3933077 -53.584274 -1.3956138 -53.238136 -19.014875 -169.52313
67912000000 -20.853159 -128.46219 -1.4018472 -53.617878 -1.3928866 -53.301483 -19.037773 -169.84552
67960000000 -20.884485 -128.94173 -1.3949342 -53.602112 -1.3895133 -53.292503 -19.043232 -169.42194
68008000000 -21.053753 -128.51645 -1.4099574 -53.584969 -1.3956077 -53.339516 -19.01479 -169.61591
68056000000 -21.012051 -127.97126 -1.399217 -53.613426 -1.4010416 -53.351074 -18.994589 -169.55359
68104000000 -20.980097 -127.43433 -1.405568 -53.64444 -1.3998358 -53.398682 -19.010223 -169.56633
68152000000 -20.831577 -127.52305 -1.3976743 -53.662983 -1.3972139 -53.428043 -19.000616 -169.56024
68200000000 -20.746901 -128.40613 -1.3950969 -53.638744 -1.3982475 -53.448685 -18.965591 -169.3636
68248000000 -20.821556 -128.90555 -1.3972718 -53.697472 -1.3973557 -53.475372 -18.9508 -169.56743
68296000000 -20.931086 -129.16196 -1.3949648 -53.729408 -1.3928268 -53.506023 -18.944454 -169.5752
68344000000 -21.069647 -128.24216 -1.3915228 -53.761166 -1.387628 -53.486118 -18.986225 -169.78299
68392000000 -21.100372 -127.81717 -1.3895699 -53.851898 -1.3825446 -53.501766 -18.961025 -170.00143
68440000000 -20.900021 -126.90975 -1.3754504 -53.945324 -1.3715852 -53.548588 -19.03499 -169.4391
68488000000 -20.888561 -127.82882 -1.4009891 -53.992386 -1.3804784 -53.665562 -18.94071 -169.86975
68536000000 -20.77578 -128.27182 -1.3941058 -54.060184 -1.3764585 -53.785187 -18.950327 -169.39906
68584000000 -20.931318 -129.00191 -1.4043671 -54.030388 -1.3834757 -53.80518 -18.915354 -169.98363
68632000000 -21.015465 -129.04556 -1.4002153 -53.986763 -1.3841422 -53.850727 -18.894457 -170.04567
68680000000 -21.048019 -128.40913 -1.3839866 -53.95895 -1.3817649 -53.880985 -18.906664 -170.23868
68728000000 -21.046505 -127.5883 -1.3824439 -53.980213 -1.3801988 -53.890205 -18.935568 -170.53755
68776000000 -20.935976 -126.925 -1.3753932 -54.097401 -1.3778206 -53.892601 -18.993246 -170.34474
68824000000 -20.848684 -127.78004 -1.3976974 -54.227196 -1.3795533 -53.985126 -18.997015 -170.4476
68872000000 -20.791193 -127.99169 -1.3963673 -54.340408 -1.3784869 -54.070244 -19.000824 -169.99193
68920000000 -20.884007 -129.3868 -1.4141744 -54.335442 -1.3869485 -54.110691 -18.989101 -170.48116
68968000000 -20.869514 -128.88261 -1.4053692 -54.39996 -1.3845526 -54.199177 -18.965868 -170.0024
69016000000 -21.043209 -129.13287 -1.4122193 -54.339367 -1.3927341 -54.203785 -18.981205 -170.87563
69064000000 -20.914787 -128.03517 -1.399012 -54.395454 -1.3868424 -54.248909 -18.987373 -170.29356
69112000000 -20.889727 -128.06143 -1.4023517 -54.387989 -1.3887807 -54.305218 -19.011808 -170.84727
69160000000 -20.747726 -128.18536 -1.3967472 -54.453369 -1.3885024 -54.34227 -19.012466 -170.49596
69208000000 -20.745125 -128.8829 -1.3962367 -54.528431 -1.387215 -54.389446 -19.018774 -170.58797
69256000000 -20.838535 -128.94359 -1.4042498 -54.47361 -1.3945965 -54.371048 -19.009388 -171.00809
69304000000 -20.885319 -129.04544 -1.3973154 -54.581177 -1.3869988 -54.434734 -18.993605 -170.9055
69352000000 -21.041065 -129.25537 -1.417846 -54.574047 -1.4027017 -54.45274 -18.971619 -171.32507
69400000000 -20.988298 -128.4657 -1.4163973 -54.662064 -1.3968283 -54.510769 -18.942818 -171.1355
69448000000 -21.021776 -129.11095 -1.4250842 -54.643574 -1.4100964 -54.564461 -18.960852 -171.57524
69496000000 -20.899481 -128.75743 -1.4176221 -54.703262 -1.4039812 -54.625523 -18.948515 -171.16376
69544000000 -20.960451 -129.33017 -1.4272527 -54.677681 -1.4140235 -54.637306 -18.930958 -171.59918
69592000000 -20.931299 -129.78192 -1.4155399 -54.761864 -1.4067353 -54.716305 -18.900873 -171.35677
69640000000 -21.082823 -129.82269 -1.4201432 -54.752655 -1.4162912 -54.717117 -18.948984 -171.71457
69688000000 -21.082932 -129.53688 -1.4153674 -54.772804 -1.4094052 -54.740143 -18.953651 -171.72951
69736000000 -21.086002 -128.88696 -1.4143301 -54.809299 -1.4113795 -54.768154 -18.972155 -171.75113
69784000000 -21.052073 -128.77637 -1.4211762 -54.846909 -1.4105685 -54.802444 -18.97716 -171.73288
69832000000 -20.997797 -128.61066 -1.4217917 -54.933506 -1.4086797 -54.849339 -18.972208 -171.70189
69880000000 -21.002819 -129.14934 -1.4335736 -54.949219 -1.4197422 -54.857822 -18.967339 -171.91156
69928000000 -21.002684 -129.33755 -1.4319538 -54.99828 -1.4133092 -54.928516 -18.966074 -171.84366
69976000000 -21.051996 -129.37206 -1.4338123 -54.987251 -1.4215051 -54.953037 -18.929337 -171.9176
70024000000 -21.106331 -129.15559 -1.4288894 -55.01263 -1.4158934 -55.01149 -18.942993 -172.13281
70072000000 -21.124659 -128.71443 -1.42996 -55.020622 -1.4203619 -55.015259 -18.943754 -172.17812
70120000000 -21.097862 -128.02313 -1.4249811 -55.044132 -1.4197217 -55.058907 -18.97298 -172.44907
70168000000 -21.012688 -128.07492 -1.4231791 -55.089592 -1.4155524 -55.088528 -18.972881 -172.22743
70216000000 -20.989107 -127.90852 -1.4178247 -55.136009 -1.4159132 -55.115005 -18.982744 -172.45001
70264000000 -20.93364 -128.78557 -1.4264901 -55.184647 -1.4116099 -55.185246 -18.978977 -172.21912
70312000000 -21.031437 -128.49702 -1.4335537 -55.199924 -1.4226978 -55.201145 -18.987827 -172.37917
70360000000 -20.986704 -129.43945 -1.4315615 -55.245895 -1.4212512 -55.259819 -18.959242 -172.42403
70408000000 -21.126522 -127.97513 -1.4358788 -55.269299 -1.4248029 -55.283745 -18.951593 -172.58421
70456000000 -20.969246 -129.0719 -1.4265907 -55.297741 -1.4262927 -55.300316 -18.98274 -172.58887
70504000000 -21.10763 -127.84055 -1.4436721 -55.290478 -1.4269992 -55.320038 -18.970854 -172.82475
70552000000 -20.915628 -128.6165 -1.4256022 -55.333134 -1.4256575 -55.339787 -18.996502 -172.79355
70600000000 -21.030542 -128.4071 -1.4411873 -55.349396 -1.4270643 -55.396057 -19.01512 -172.90225
70648000000 -20.94956 -128.44666 -1.4237525 -55.410889 -1.4265001 -55.43425 -18.991425 -172.75647
70696000000 -20.980415 -128.95438 -1.4393617 -55.41922 -1.4299917 -55.453876 -19.066475 -173.13733
70744000000 -21.026972 -127.99832 -1.423823 -55.480301 -1.4243587 -55.485931 -18.97978 -173.05956
70792000000 -20.932554 -128.94386 -1.4376676 -55.508266 -1.4283516 -55.525143 -19.070711 -173.22464
70840000000 -20.99889 -127.53558 -1.4221174 -55.576988 -1.4210469 -55.575516 -19.003847 -173.1825
70888000000 -20.840761 -128.84969 -1.4459754 -55.595444 -1.4308906 -55.587261 -19.132948 -173.64304
70936000000 -20.916603 -127.78676 -1.4259195 -55.659317 -1.4170954 -55.62302 -19.05146 -173.21895
70984000000 -20.81769 -128.92924 -1.4387408 -55.679821 -1.4303716 -55.652317 -19.121574 -173.67865
71032000000 -20.883648 -128.60995 -1.4367285 -55.681458 -1.4273753 -55.681305 -19.107689 -173.69217
71080000000 -20.819281 -128.86073 -1.4250903 -55.711472 -1.4265293 -55.705723 -19.117174 -173.5743
71128000000 -20.922682 -128.51999 -1.4342729 -55.73835 -1.42738 -55.746876 -19.106504 -173.77057
71176000000 -20.83515 -128.73756 -1.4187262 -55.792358 -1.4240719 -55.789402 -19.112013 -173.56052
71224000000 -20.880814 -128.52754 -1.4416769 -55.81805 -1.4275799 -55.809841 -19.17433 -173.82314
71272000000 -20.797113 -128.36681 -1.4181703 -55.857029 -1.4228687 -55.849144 -19.110249 -173.63863
71320000000 -20.789223 -128.8177 -1.4466952 -55.900986 -1.4298168 -55.867245 -19.176077 -174.01973
71368000000 -20.83325 -128.60049 -1.4141705 -55.919533 -1.4210458 -55.895214 -19.097462 -173.68961
71416000000 -20.792955 -129.38699 -1.4446763 -55.945393 -1.4304479 -55.921074 -19.183443 -173.98523
71464000000 -20.952826 -129.01309 -1.4304631 -55.973923 -1.4276047 -55.936508 -19.10956 -173.70544
71512000000 -20.838749 -129.35902 -1.4437547 -56.041733 -1.436188 -56.01033 -19.185408 -174.15688
71560000000 -21.039236 -129.03 -1.4451008 -56.081497 -1.4314786 -56.036041 -19.126438 -173.98019
71608000000 -20.802641 -129.35475 -1.4494646 -56.151768 -1.4469101 -56.114925 -19.196087 -174.28395
71656000000 -21.000895 -129.0215 -1.4508309 -56.197464 -1.4365364 -56.140278 -19.140312 -174.20659
71704000000 -20.845358 -129.57295 -1.4510121 -56.193714 -1.448305 -56.196342 -19.176805 -174.33221
71752000000 -20.958479 -129.41618 -1.4405605 -56.159061 -1.4407729 -56.144302 -19.177597 -174.3412
71800000000 -20.884138 -129.92522 -1.4493124 -56.267506 -1.4450319 -56.177216 -19.21389 -174.45549
71848000000 -21.010077 -129.88336 -1.4579043 -56.350529 -1.4440185 -56.214649 -19.186239 -174.44092
71896000000 -21.007257 -129.73239 -1.4607729 -56.396919 -1.4542317 -56.299282 -19.2033 -174.65997
71944000000 -21.011177 -129.75638 -1.4516908 -56.419899 -1.4409846 -56.314465 -19.164242 -174.28259
71992000000 -20.98365 -129.53307 -1.4594187 -56.44857 -1.4496127 -56.40353 -19.223829 -174.70656
72040000000 -20.913994 -129.99016 -1.4552143 -56.448952 -1.4474502 -56.415401 -19.19906 -174.16008
72088000000 -20.965693 -129.76003 -1.4531276 -56.466061 -1.4419113 -56.411518 -19.230473 -174.3911
72136000000 -20.928017 -130.14537 -1.4469329 -56.50193 -1.4510483 -56.474262 -19.209557 -174.24443
72184000000 -20.970407 -130.17719 -1.4458407 -56.550194 -1.4479747 -56.461033 -19.177572 -174.29111
72232000000 -21.058105 -129.94728 -1.4472027 -56.573795 -1.4478718 -56.504467 -19.185305 -174.45433
72280000000 -21.020746 -129.89449 -1.4411148 -56.581928 -1.4356208 -56.484734 -19.152081 -174.52324
72328000000 -20.980646 -129.32857 -1.4395204 -56.621014 -1.4402401 -56.576229 -19.206215 -174.6676
72376000000 -20.948912 -129.52 -1.4412159 -56.669807 -1.4321957 -56.594101 -19.204327 -174.75792
72424000000 -20.900963 -129.31729 -1.4376521 -56.695908 -1.4345196 -56.660042 -19.220747 -174.81456
72472000000 -20.83733 -129.64052 -1.4507062 -56.78186 -1.4402683 -56.667019 -19.268253 -174.96625
72520000000 -20.974573 -129.95798 -1.4367518 -56.786972 -1.4351082 -56.6689 -19.17404 -174.56718
72568000000 -20.81526 -129.45135 -1.4555631 -56.886368 -1.44475 -56.731628 -19.320087 -175.12924
72616000000 -21.022448 -129.8932 -1.4430975 -56.905209 -1.4381925 -56.767258 -19.181305 -174.95761
72664000000 -20.848198 -129.10257 -1.4536569 -56.939465 -1.4433172 -56.79845 -19.2696 -175.1059
72712000000 -20.965767 -129.57086 -1.4526936 -56.968475 -1.4422339 -56.875 -19.194624 -175.25117
72760000000 -20.853481 -129.21942 -1.4538873 -56.980766 -1.4386121 -56.88842 -19.213905 -175.24054
72808000000 -20.860374 -129.70277 -1.4588521 -57.05093 -1.4409362 -56.937607 -19.205275 -175.47455
72856000000 -20.822475 -129.71086 -1.449594 -57.064877 -1.4359967 -56.92593 -19.202242 -175.47812
72904000000 -20.857822 -130.18167 -1.4589419 -57.167374 -1.442217 -56.99057 -19.19371 -175.5771
72952000000 -20.868263 -130.05737 -1.4504499 -57.174973 -1.4410676 -56.994015 -19.200521 -175.50932
73000000000 -20.922888 -130.49495 -1.4606059 -57.256199 -1.4444691 -57.066437 -19.166006 -175.55074
73048000000 -20.893499 -130.02927 -1.4564456 -57.253387 -1.4422129 -57.082047 -19.180908 -175.56102
73096000000 -20.907616 -130.27534 -1.4621171 -57.296963 -1.4503357 -57.157078 -19.14501 -175.59903
73144000000 -20.866438 -130.00288 -1.4703553 -57.367977 -1.4511546 -57.189041 -19.183264 -175.88481
73192000000 -20.88798 -130.54201 -1.4571037 -57.324139 -1.4502013 -57.192539 -19.110537 -175.75854
73240000000 -20.86348 -130.4882 -1.4696758 -57.439133 -1.4553213 -57.258045 -19.159264 -176.06818
73288000000 -20.897472 -130.92245 -1.4715811 -57.439602 -1.459778 -57.05122 -19.110464 -175.80896
73336000000 -20.917324 -130.84569 -1.4767774 -57.523178 -1.4594215 -57.297543 -19.138144 -176.19928
73384000000 -20.949333 -130.93849 -1.481124 -57.585232 -1.4601812 -57.332829 -19.145979 -176.38998
73432000000 -20.914482 -130.89139 -1.4863653 -57.581253 -1.466658 -57.333618 -19.131683 -176.12387
73480000000 -20.937925 -131.00998 -1.4908601 -57.640144 -1.465994 -57.402664 -19.154142 -176.43974
73528000000 -20.910332 -131.00732 -1.4911342 -57.648315 -1.4689163 -57.437546 -19.145344 -176.51186
73576000000 -20.910152 -131.24168 -1.4928908 -57.677589 -1.4658663 -57.42728 -19.136145 -176.61983
73624000000 -20.923925 -131.34457 -1.4903121 -57.696358 -1.4667484 -57.456482 -19.117748 -176.69229
73672000000 -20.947245 -131.43604 -1.4965732 -57.739006 -1.4659178 -57.439049 -19.105185 -176.87747
73720000000 -20.970968 -131.58151 -1.4922665 -57.775177 -1.464274 -57.437199 -19.107927 -176.95811
73768000000 -21.020065 -131.29547 -1.4992301 -57.823494 -1.4686596 -57.502777 -19.127028 -177.09525
73816000000 -21.008686 -131.23912 -1.4890506 -57.854652 -1.463168 -57.474308 -19.122433 -177.17781
73864000000 -21.034351 -130.85953 -1.4844637 -57.889767 -1.4742389 -57.560005 -19.12323 -177.27969
73912000000 -20.988386 -130.76248 -1.4886268 -57.931301 -1.4665241 -57.599579 -19.139641 -177.58652
73960000000 -21.005619 -130.75166 -1.4778821 -57.900204 -1.4728014 -57.715878 -19.13236 -177.69461
74008000000 -20.985415 -130.92096 -1.4852751 -57.898899 -1.4640383 -57.669994 -19.133312 -177.59103
74056000000 -20.98535 -131.01378 -1.4770964 -57.899494 -1.4727136 -57.776844 -19.145967 -177.61601
74104000000 -21.018763 -131.07214 -1.475749 -57.911331 -1.4604483 -57.745098 -19.132128 -177.62082
74152000000 -21.003889 -131.08713 -1.4851357 -57.962906 -1.4688952 -57.808647 -19.13011 -177.63364
74200000000 -21.039238 -131.0222 -1.4777745 -57.963928 -1.4572747 -57.732655 -19.110701 -177.5627
74248000000 -20.998444 -131.02791 -1.4835697 -58.027435 -1.4667643 -57.85675 -19.119001 -177.71288
74296000000 -21.039814 -131.17702 -1.4747652 -58.007965 -1.4593784 -57.823612 -19.086618 -177.60654
74344000000 -20.972355 -131.21132 -1.4755788 -58.03915 -1.4639887 -57.912403 -19.101583 -177.70782
74392000000 -21.024965 -131.35167 -1.478894 -58.092537 -1.4605138 -57.949833 -19.078222 -177.75024
74440000000 -21.018486 -131.38326 -1.4789696 -58.116112 -1.4613088 -58.000847 -19.078386 -177.79604
74488000000 -21.039318 -131.49234 -1.4820004 -58.165401 -1.4618543 -58.046864 -19.061464 -177.93958
74536000000 -21.076788 -131.16237 -1.4830022 -58.232166 -1.4636703 -58.079823 -19.058384 -177.98576
74584000000 -21.008848 -131.42375 -1.4832175 -58.287994 -1.463989 -58.098785 -19.051336 -178.27071
74632000000 -21.073959 -131.1787 -1.4844277 -58.361721 -1.4649167 -58.127846 -19.047842 -178.2688
74680000000 -21.01248 -131.51576 -1.4854544 -58.405937 -1.4618478 -58.143665 -19.050024 -178.44124
74728000000 -21.086004 -131.42476 -1.4875486 -58.433472 -1.4660289 -58.188984 -19.048445 -178.47856
74776000000 -21.06662 -131.60005 -1.4886987 -58.44326 -1.4638381 -58.212399 -19.033993 -178.46815
74824000000 -21.142319 -131.5098 -1.4933592 -58.461002 -1.4666109 -58.292004 -19.030279 -178.58493
74872000000 -21.124886 -131.53847 -1.4925202 -58.481926 -1.4614973 -58.318527 -19.011494 -178.63141
74920000000 -21.18276 -131.16858 -1.4929951 -58.549641 -1.4614263 -58.348656 -18.996618 -178.83145
74968000000 -21.113211 -131.35188 -1.4865505 -58.580982 -1.4624506 -58.380539 -18.974646 -178.91125
75016000000 -21.144821 -131.09138 -1.487813 -58.635674 -1.4664226 -58.403801 -18.966087 -179.06656
75064000000 -21.100254 -131.30016 -1.4864907 -58.683826 -1.4663427 -58.418903 -18.965122 -179.14359
75112000000 -21.125784 -131.2213 -1.4828427 -58.693283 -1.465032 -58.439243 -18.953861 -179.29521
75160000000 -21.113609 -131.5992 -1.4885693 -58.768261 -1.4642185 -58.516048 -18.938862 -179.42166
75208000000 -21.146822 -131.17308 -1.4838492 -58.722851 -1.4578363 -58.529224 -18.968771 -179.48517
75256000000 -21.155331 -131.38589 -1.4962776 -58.837688 -1.4637388 -58.624149 -18.95783 -179.48975
75304000000 -21.166359 -131.12105 -1.4906693 -58.798935 -1.4588945 -58.62788 -18.961584 -179.41969
75352000000 -21.168468 -131.10588 -1.4993877 -58.906044 -1.4649711 -58.658848 -18.960804 -179.47697
75400000000 -21.150614 -130.9765 -1.4954392 -58.933441 -1.4612752 -58.684761 -18.951302 -179.46819
75448000000 -21.124352 -131.03792 -1.4981654 -58.997128 -1.4667473 -58.746731 -18.944033 -179.55566
75496000000 -21.149061 -131.15222 -1.4952259 -58.993156 -1.4701254 -58.791115 -18.930111 -179.63004
75544000000 -21.121069 -131.11258 -1.4907659 -59.025211 -1.4728876 -58.794582 -18.932095 -179.76398
75592000000 -21.151197 -131.28012 -1.4858415 -59.059494 -1.4753771 -58.865154 -18.926474 -179.84296
75640000000 -21.141134 -131.07735 -1.4883935 -59.135513 -1.4740986 -58.872154 -18.928608 -179.92601
75688000000 -21.129709 -131.22394 -1.4826314 -59.146515 -1.4779804 -58.905437 -18.911547 -179.99986
75736000000 -21.13105 -130.81956 -1.4946667 -59.274071 -1.4749738 -58.929642 -18.900862 179.85568
75784000000 -21.071318 -131.17532 -1.491617 -59.284805 -1.4754606 -58.956764 -18.899345 179.79965
75832000000 -21.090818 -131.01627 -1.5056765 -59.376213 -1.4771819 -59.005669 -18.88879 179.71715
75880000000 -21.048107 -131.46809 -1.5072918 -59.378693 -1.4711925 -59.017693 -18.87674 179.71768
75928000000 -21.074631 -131.39764 -1.5111371 -59.382225 -1.4810916 -59.143135 -18.871338 179.56297
75976000000 -21.110928 -131.47015 -1.5161872 -59.431847 -1.4782329 -59.105465 -18.879313 179.56317
76024000000 -21.142159 -131.31042 -1.5079679 -59.423 -1.4870958 -59.198952 -18.871588 179.54588
76072000000 -21.148266 -131.01468 -1.5040959 -59.459736 -1.4798237 -59.199791 -18.865492 179.40617
76120000000 -21.115538 -130.96666 -1.4987048 -59.484753 -1.4905649 -59.273926 -18.863281 179.3394
76168000000 -21.130272 -131.10191 -1.5026003 -59.561878 -1.4843405 -59.272301 -18.857574 179.35059
76216000000 -21.064995 -130.77092 -1.4987867 -59.57272 -1.485093 -59.299984 -18.894518 179.24904
76264000000 -21.074713 -130.98323 -1.5094357 -59.655056 -1.4822837 -59.340111 -18.901314 179.31673
76312000000 -21.001768 -130.96947 -1.5045713 -59.673882 -1.4827316 -59.382957 -18.937439 179.41953
76360000000 -21.032619 -131.39119 -1.5108027 -59.71907 -1.4838538 -59.425083 -18.911724 179.6265
76408000000 -20.998451 -131.20642 -1.5061642 -59.725708 -1.4790041 -59.453117 -18.949478 179.76659
76456000000 -21.063135 -131.56758 -1.5126902 -59.767284 -1.4853109 -59.513912 -18.918694 179.71008
76504000000 -21.025555 -131.38403 -1.5095478 -59.773315 -1.4841198 -59.554306 -18.927666 179.91667
76552000000 -21.041321 -131.57127 -1.5064371 -59.780766 -1.4908791 -59.579269 -18.913494 179.77673
76600000000 -20.997381 -131.44116 -1.5073317 -59.834957 -1.4863882 -59.604767 -18.911909 179.80496
76648000000 -21.015808 -131.99706 -1.5066516 -59.877285 -1.4873405 -59.647987 -18.89407 179.66449
76696000000 -21.008141 -131.62036 -1.5056014 -59.927109 -1.4905609 -59.657509 -18.913113 179.5423
76744000000 -21.040504 -132.02086 -1.5037701 -59.964527 -1.488941 -59.65007 -18.908968 179.37181
76792000000 -21.059837 -131.55148 -1.5079951 -59.959213 -1.4904865 -59.673424 -18.938231 179.42209
76840000000 -21.01985 -131.15164 -1.4969192 -59.97118 -1.4731648 -59.692768 -18.957895 179.50319
76888000000 -21.109673 -131.85944 -1.507012 -60.041668 -1.4814484 -59.811703 -18.889597 179.27127
76936000000 -21.007994 -130.81526 -1.4991007 -60.058796 -1.467394 -59.816433 -18.956221 179.47955
76984000000 -21.021566 -131.40009 -1.5015694 -60.123661 -1.4712012 -59.875652 -18.934095 179.39053
77032000000 -20.95566 -131.32057 -1.5027924 -60.180954 -1.4654357 -59.915596 -18.944481 179.70937
77080000000 -20.979311 -131.85013 -1.5023896 -60.22805 -1.473695 -59.999908 -18.911459 179.48505
77128000000 -20.920042 -131.86807 -1.5010424 -60.274864 -1.4712876 -60.044373 -18.928709 179.57489
77176000000 -20.997459 -132.33228 -1.5043144 -60.323441 -1.4761378 -60.126095 -18.903051 179.53384
77224000000 -20.984697 -132.24437 -1.5007612 -60.311024 -1.475516 -60.170921 -18.901714 179.61092
77272000000 -21.067535 -132.12889 -1.5080123 -60.342606 -1.4878224 -60.213493 -18.886497 179.44434
77320000000 -21.032763 -131.81535 -1.5086406 -60.357407 -1.4822137 -60.200592 -18.889982 179.32133
77368000000 -21.039171 -131.79832 -1.51064 -60.408058 -1.4849151 -60.258121 -18.891422 179.09735
77416000000 -20.967793 -131.78825 -1.5125054 -60.489113 -1.4792571 -60.298767 -18.891146 178.97704
77464000000 -20.959858 -132.04497 -1.5116668 -60.525188 -1.48711 -60.342461 -18.885952 178.96716
77512000000 -20.962427 -132.19025 -1.5144556 -60.561935 -1.4827149 -60.326424 -18.878765 178.7771
77560000000 -20.946138 -132.31044 -1.5105759 -60.590759 -1.4901191 -60.408543 -18.870691 178.65385
77608000000 -20.995422 -132.4866 -1.5114648 -60.609829 -1.4825754 -60.434513 -18.853609 178.54041
77656000000 -20.991959 -132.37646 -1.5090923 -60.625641 -1.4788361 -60.497925 -18.83807 178.47554
77704000000 -21.043131 -132.55956 -1.5182283 -60.700035 -1.4878013 -60.606297 -18.819124 178.02258
77752000000 -21.041574 -132.23622 -1.5171845 -60.696304 -1.4962107 -60.619263 -18.839121 177.89514
77800000000 -21.030468 -132.04242 -1.5159233 -60.763973 -1.488946 -60.635933 -18.8354 177.82298
77848000000 -20.988008 -132.02393 -1.5173808 -60.827507 -1.4954937 -60.668282 -18.828018 177.74821
77896000000 -20.971508 -132.10001 -1.522783 -60.88327 -1.4926082 -60.690338 -18.811655 177.76494
77944000000 -20.966299 -132.25623 -1.5288596 -60.910931 -1.4992188 -60.73101 -18.787102 177.46071
77992000000 -20.985495 -132.09001 -1.5251299 -60.916981 -1.4969133 -60.743382 -18.809465 177.33714
78040000000 -20.978981 -132.21074 -1.5314503 -60.93375 -1.5035253 -60.803432 -18.80196 177.21043
78088000000 -21.003633 -132.01804 -1.5279498 -60.925133 -1.5009366 -60.814148 -18.810894 177.21625
78136000000 -20.943697 -131.98859 -1.5274956 -60.955223 -1.5043443 -60.885502 -18.802654 177.18977
78184000000 -20.917124 -131.96927 -1.5298451 -60.987076 -1.5021759 -60.897129 -18.80369 177.0546
78232000000 -20.893053 -132.18121 -1.5303278 -61.042316 -1.5065341 -60.954506 -18.798944 177.00032
78280000000 -20.8181 -132.48514 -1.5363053 -61.072731 -1.5075581 -60.88924 -18.849592 176.76599
78328000000 -20.893154 -132.92921 -1.5394366 -61.111362 -1.5127518 -60.980728 -18.853855 176.87762
78376000000 -20.860813 -133.22319 -1.542755 -61.153225 -1.5126972 -60.974998 -18.858545 176.75412
78424000000 -20.93952 -133.12411 -1.543522 -61.166454 -1.513119 -61.020611 -18.872089 177.13795
78472000000 -20.886061 -133.37883 -1.5434604 -61.213268 -1.5140766 -61.036148 -18.875154 176.96942
78520000000 -21.004889 -133.05209 -1.5471559 -61.170685 -1.5202497 -61.054535 -18.883726 177.28758
78568000000 -20.848152 -133.36276 -1.5375068 -61.240173 -1.5213634 -61.091782 -18.884674 177.01282
78616000000 -20.974878 -133.09778 -1.5319747 -61.254646 -1.5098454 -61.105221 -18.873554 177.33092
78664000000 -20.848724 -133.30865 -1.537037 -61.313774 -1.5139662 -61.158012 -18.893154 177.05756
78712000000 -20.922455 -133.08934 -1.5290296 -61.346466 -1.5010599 -61.148785 -18.86025 177.40228
78760000000 -20.818041 -133.39871 -1.5352997 -61.432465 -1.513021 -61.255966 -18.864042 177.02106
78808000000 -20.88558 -133.47734 -1.5316458 -61.442646 -1.5090151 -61.207676 -18.850475 177.09004
78856000000 -20.853029 -133.75436 -1.5371568 -61.483463 -1.5095812 -61.28767 -18.867195 177.02234
78904000000 -20.871181 -133.87091 -1.534618 -61.501202 -1.5037756 -61.332191 -18.867336 176.87643
78952000000 -20.918282 -134.03117 -1.540771 -61.525143 -1.5100363 -61.408482 -18.899712 176.78299
79000000000 -20.879881 -134.05232 -1.5388736 -61.518845 -1.5085999 -61.429123 -18.920839 176.92741
79048000000 -20.946898 -134.18657 -1.5383559 -61.57523 -1.5093701 -61.465767 -18.918514 176.91006
79096000000 -20.889011 -134.2979 -1.5379612 -61.61116 -1.5143 -61.502411 -18.963867 176.8705
79144000000 -20.902943 -134.57027 -1.5303351 -61.653244 -1.5100139 -61.505737 -18.960835 177.32391
79192000000 -20.957167 -134.85011 -1.5340723 -61.740582 -1.5143609 -61.557346 -18.940369 177.34882
79240000000 -20.939852 -134.76624 -1.5275358 -61.743778 -1.5106902 -61.574982 -18.928883 177.38545
79288000000 -21.006393 -134.70837 -1.5325714 -61.786621 -1.5095556 -61.632622 -18.903385 177.40413
79336000000 -20.9678 -134.62169 -1.52838 -61.779095 -1.5147817 -61.702019 -18.934052 177.16426
79384000000 -21.017735 -134.7291 -1.5384644 -61.871841 -1.5120202 -61.741108 -18.941286 177.24643
79432000000 -21.015875 -134.55971 -1.5365856 -61.864994 -1.5176158 -61.795761 -18.947634 177.34795
79480000000 -20.950993 -134.5226 -1.5514866 -61.958431 -1.5220932 -61.811142 -18.931433 177.20816
79528000000 -21.019306 -134.60587 -1.5508062 -61.947227 -1.5292454 -61.831291 -18.911577 176.9735
79576000000 -20.919222 -135.10498 -1.5588808 -62.01717 -1.5294088 -61.823204 -18.924492 176.95103
79624000000 -21.094151 -135.27785 -1.5531508 -62.01548 -1.5340797 -61.848106 -18.942879 176.6532
79672000000 -20.97715 -135.6046 -1.5555779 -62.040447 -1.5358802 -61.876434 -18.970545 176.95726
79720000000 -21.143435 -135.42964 -1.5506634 -62.004108 -1.5407363 -61.888775 -18.964214 176.6582
79768000000 -21.111195 -135.5385 -1.5551171 -62.066013 -1.5435512 -61.949692 -18.94895 176.88049
79816000000 -21.206474 -135.21175 -1.5394676 -62.077507 -1.5348175 -62.01355 -18.905281 176.83879
79864000000 -21.125536 -135.12271 -1.5496143 -62.189686 -1.533476 -62.059818 -18.892727 176.55623
79912000000 -21.176905 -135.02612 -1.5442507 -62.17823 -1.5304713 -62.034779 -18.887079 176.26369
79960000000 -21.099216 -135.01155 -1.5498111 -62.295624 -1.5289679 -62.096474 -18.89323 176.0451
80008000000 -21.139982 -135.02478 -1.5502665 -62.319473 -1.5192308 -62.080963 -18.891125 175.97733
80056000000 -21.15506 -135.31728 -1.5594609 -62.361553 -1.5324234 -62.193764 -18.862045 175.72235
80104000000 -21.17444 -135.37827 -1.5581993 -62.362934 -1.5326308 -62.218899 -18.858868 175.4758
80152000000 -21.250147 -135.38481 -1.5676364 -62.381771 -1.5392203 -62.267754 -18.827379 175.25061
80200000000 -21.251421 -135.17097 -1.5703956 -62.38134 -1.5420626 -62.290604 -18.836504 174.98199
80248000000 -21.279221 -134.95354 -1.5726776 -62.389633 -1.5465875 -62.331745 -18.842169 174.61758
80296000000 -21.234146 -134.92532 -1.5713077 -62.421646 -1.5523487 -62.37891 -18.86228 174.32184
80344000000 -21.222593 -134.87529 -1.5686727 -62.452709 -1.5497239 -62.365398 -18.907534 174.24837
80392000000 -21.22514 -135.06392 -1.5711255 -62.46352 -1.5580629 -62.397366 -18.927069 174.26663
80440000000 -21.255518 -135.14368 -1.5646629 -62.476841 -1.5554953 -62.385693 -18.936619 174.40099
80488000000 -21.248842 -135.13304 -1.5607867 -62.509571 -1.5566483 -62.409351 -18.944479 174.22186
80536000000 -21.292381 -135.12143 -1.5515362 -62.548443 -1.5458686 -62.39212 -18.945314 174.28091
80584000000 -21.286741 -134.92784 -1.557815 -62.646385 -1.5444432 -62.445095 -18.993107 174.07301
80632000000 -21.383829 -134.71306 -1.56213 -62.697517 -1.5424061 -62.487934 -18.989326 174.45087
80680000000 -21.28323 -134.42819 -1.5694733 -62.754578 -1.5401295 -62.540081 -18.962746 174.26367
80728000000 -21.371822 -134.38368 -1.5702183 -62.788586 -1.542004 -62.596184 -18.953625 174.16881
80776000000 -21.211126 -134.21938 -1.5759203 -62.832592 -1.5403894 -62.603863 -18.990377 173.94791
80824000000 -21.256374 -134.38055 -1.5737247 -62.833786 -1.5459762 -62.658031 -18.987246 174.27203
80872000000 -21.194878 -134.68016 -1.5764453 -62.874889 -1.5476543 -62.701672 -18.977015 174.14899
80920000000 -21.246357 -134.82982 -1.5683239 -62.864296 -1.5505883 -62.730869 -18.946375 174.18419
80968000000 -21.265392 -134.87898 -1.5710995 -62.895264 -1.5547379 -62.789459 -18.963818 174.07558
81016000000 -21.304674 -134.94373 -1.5618547 -62.907894 -1.5482768 -62.805576 -18.939558 174.37804
81064000000 -21.313831 -134.85077 -1.5639044 -62.954693 -1.5510074 -62.834709 -18.937759 174.24106
81112000000 -21.343899 -134.68143 -1.5580051 -62.993134 -1.5476017 -62.841034 -18.893997 174.07368
81160000000 -21.33143 -134.45003 -1.5659937 -63.066681 -1.5592874 -62.886684 -18.919844 173.71555
81208000000 -21.339808 -134.32565 -1.5646009 -63.080376 -1.5509727 -62.889439 -18.934519 173.70282
81256000000 -21.272923 -134.3114 -1.5609684 -63.1488 -1.5445603 -62.952988 -18.946526 173.724
81304000000 -21.270756 -134.44659 -1.5605727 -63.207413 -1.542642 -62.989666 -18.938023 173.83641
81352000000 -21.248323 -134.53104 -1.5676813 -63.224014 -1.5466207 -63.015427 -18.894438 173.64229
81400000000 -21.258966 -134.89627 -1.5751896 -63.247517 -1.551383 -63.042484 -18.918995 173.5083
81448000000 -21.25379 -135.14326 -1.5704042 -63.302219 -1.5473052 -63.10651 -18.936865 173.42612
81496000000 -21.324368 -135.24232 -1.5660946 -63.354034 -1.5494083 -63.195683 -18.964397 173.77928
81544000000 -21.372999 -135.13322 -1.5740595 -63.398273 -1.558713 -63.244396 -18.955759 173.73973
81592000000 -21.40851 -134.79842 -1.5741335 -63.430889 -1.5643319 -63.213737 -18.931618 174.15237
81640000000 -21.32403 -134.74747 -1.5710787 -63.507317 -1.5637126 -63.267776 -18.890705 174.02153
81688000000 -21.338003 -134.78444 -1.5675477 -63.480072 -1.5510577 -63.245293 -18.835514 174.03464
81736000000 -21.334681 -135.02199 -1.5810195 -63.532837 -1.5662324 -63.297234 -18.891775 173.54539
81784000000 -21.380615 -134.97577 -1.5798742 -63.503471 -1.5630848 -63.286118 -18.838884 173.7126
81832000000 -21.398129 -135.16399 -1.5863758 -63.55938 -1.5684743 -63.342972 -18.845251 173.57065
81880000000 -21.432224 -134.98312 -1.5691921 -63.598728 -1.5558597 -63.347996 -18.805737 173.48364
81928000000 -21.435606 -134.85539 -1.5722091 -63.67728 -1.5565201 -63.406609 -18.80394 173.14317
81976000000 -21.437353 -134.51836 -1.5694964 -63.704617 -1.55144 -63.429031 -18.786406 172.94739
82024000000 -21.404549 -134.63496 -1.5742871 -63.751968 -1.551844 -63.489388 -18.776031 172.54916
82072000000 -21.428495 -134.70963 -1.5748335 -63.793552 -1.5498064 -63.489681 -18.798273 172.23428
82120000000 -21.459343 -134.74518 -1.571453 -63.817455 -1.5559775 -63.547672 -18.832954 172.25363
82168000000 -21.482695 -134.53575 -1.5715916 -63.895451 -1.553725 -63.612537 -18.824615 172.09166
82216000000 -21.467026 -134.49648 -1.5718403 -63.899803 -1.5589286 -63.657379 -18.825258 172.13539
82264000000 -21.482128 -134.50507 -1.57469 -63.965904 -1.554996 -63.680267 -18.825083 171.80574
82312000000 -21.491198 -134.45575 -1.5768394 -63.995773 -1.5623511 -63.730797 -18.841581 171.62193
82360000000 -21.511284 -134.35732 -1.5806568 -64.024216 -1.5595781 -63.73481 -18.864613 171.35263
82408000000 -21.531605 -134.19861 -1.5744553 -64.032745 -1.5537094 -63.737591 -18.864092 171.51956
82456000000 -21.540596 -133.86763 -1.578833 -64.095886 -1.5569887 -63.798756 -18.862719 171.39714
82504000000 -21.501902 -133.65178 -1.5735418 -64.122238 -1.5484006 -63.804363 -18.843504 171.39481
82552000000 -21.493647 -133.70354 -1.5790083 -64.185936 -1.5558259 -63.896461 -18.874174 171.38779
82600000000 -21.488783 -133.60501 -1.5786024 -64.212852 -1.5523621 -63.911186 -18.861883 171.61456
82648000000 -21.472115 -133.78413 -1.5831335 -64.237625 -1.5634915 -64.003899 -18.801889 171.5856
82696000000 -21.482843 -133.85437 -1.583236 -64.245186 -1.5602024 -63.998745 -18.782492 171.30122
82744000000 -21.512587 -133.93192 -1.5787439 -64.273895 -1.5631865 -64.020493 -18.778816 171.25392
82792000000 -21.511486 -133.69119 -1.5750314 -64.339645 -1.5610845 -64.026314 -18.787827 171.17941
82840000000 -21.503935 -133.64194 -1.5751829 -64.399796 -1.5592437 -64.037834 -18.772163 171.1889
82888000000 -21.484739 -133.56355 -1.5763025 -64.472237 -1.5608261 -64.068123 -18.784021 170.73384
82936000000 -21.469564 -133.62375 -1.5815903 -64.503853 -1.5556819 -64.13398 -18.793188 170.62575
82984000000 -21.467592 -133.46826 -1.5791372 -64.51355 -1.5554622 -64.197426 -18.825581 170.38998
83032000000 -21.437784 -133.2587 -1.5792563 -64.544685 -1.5571715 -64.27652 -18.839806 170.32394
83080000000 -21.395769 -133.34323 -1.5732331 -64.561127 -1.558313 -64.311386 -18.842524 170.21875
83128000000 -21.405758 -133.47136 -1.5767967 -64.636795 -1.5651414 -64.337128 -18.866686 170.07631
83176000000 -21.409754 -133.5222 -1.5772426 -64.708237 -1.5557827 -64.298203 -18.866358 170.16821
83224000000 -21.426044 -133.50288 -1.5877632 -64.768265 -1.5566146 -64.318336 -18.868546 170.1105
83272000000 -21.467815 -133.31877 -1.5890738 -64.79818 -1.5510948 -64.363632 -18.87487 170.15703
83320000000 -21.449602 -133.11728 -1.5867432 -64.789406 -1.5528458 -64.409882 -18.852274 170.25418
83368000000 -21.446053 -133.02583 -1.5894008 -64.859245 -1.5533419 -64.488876 -18.818747 170.07281
83416000000 -21.418074 -133.05443 -1.5851604 -64.839333 -1.5612785 -64.571465 -18.821089 169.82045
83464000000 -21.392143 -132.98389 -1.5861882 -64.828239 -1.5578877 -64.593521 -18.859774 169.58664
83512000000 -21.360905 -133.30409 -1.5879263 -64.852539 -1.5580378 -64.651634 -18.850218 169.73175
83560000000 -21.375584 -133.45207 -1.5857698 -64.913094 -1.5590447 -64.637047 -18.849255 169.63008
83608000000 -21.405434 -133.43118 -1.5844601 -64.972511 -1.5613055 -64.633911 -18.828358 169.66206
83656000000 -21.401443 -133.43953 -1.5804482 -65.024879 -1.5608349 -64.6576 -18.828436 169.41737
83704000000 -21.418686 -133.52557 -1.5757083 -65.09388 -1.5630362 -64.73053 -18.830299 169.50592
83752000000 -21.443018 -133.37483 -1.5743511 -65.145454 -1.5608405 -64.749062 -18.817831 169.39851
83800000000 -21.44364 -133.33582 -1.5844027 -65.234383 -1.5641164 -64.82019 -18.821981 169.21396
83848000000 -21.424423 -133.15453 -1.5859259 -65.225723 -1.5613844 -64.877563 -18.823511 169.0844
83896000000 -21.406742 -133.2117 -1.5968647 -65.260223 -1.5651469 -64.932106 -18.838831 169.07666
83944000000 -21.386467 -133.28166 -1.59482 -65.246925 -1.5642514 -64.953552 -18.867058 169.28984
83992000000 -21.402292 -133.62805 -1.605888 -65.306625 -1.5707806 -65.01487 -18.870333 169.40523
84040000000 -21.419014 -133.71085 -1.6030631 -65.287849 -1.5707315 -65.036499 -18.854464 169.35901
84088000000 -21.459206 -133.71103 -1.6089828 -65.301079 -1.5675443 -65.033546 -18.865545 169.37296
84136000000 -21.463142 -133.56158 -1.6077595 -65.286499 -1.5708843 -65.078972 -18.899828 169.24641
84184000000 -21.485645 -133.37933 -1.6038648 -65.328079 -1.5651659 -65.070656 -18.888783 169.44438
84232000000 -21.449322 -132.98807 -1.6014683 -65.395226 -1.5740904 -65.141685 -18.894106 169.34579
84280000000 -21.388588 -133.04298 -1.5860804 -65.328934 -1.5688903 -65.143265 -18.86281 169.43593
84328000000 -21.345167 -132.82863 -1.5754489 -65.404411 -1.5701585 -65.212929 -18.862162 169.24901
84376000000 -21.303648 -133.2785 -1.5768123 -65.456642 -1.5653756 -65.257988 -18.858969 169.0941
84424000000 -21.307615 -133.35121 -1.5870517 -65.522621 -1.5633367 -65.317581 -18.860624 169.00516
84472000000 -21.350344 -133.65327 -1.6004167 -65.591118 -1.561442 -65.353706 -18.860388 168.93147
84520000000 -21.380266 -133.62984 -1.6090686 -65.594002 -1.5623522 -65.385315 -18.847364 168.85696
84568000000 -21.417046 -133.59521 -1.6203268 -65.663147 -1.5639123 -65.41256 -18.843452 168.66975
84616000000 -21.452789 -133.56721 -1.6104232 -65.618652 -1.5693588 -65.465225 -18.836491 168.63458
84664000000 -21.436071 -133.27718 -1.6063272 -65.641235 -1.5755482 -65.501022 -18.853077 168.65982
84712000000 -21.432148 -133.02548 -1.6071557 -65.674408 -1.5765355 -65.522583 -18.833511 168.575
84760000000 -21.390591 -132.98405 -1.6073198 -65.711174 -1.5757518 -65.553009 -18.81583 168.66167
84808000000 -21.347567 -133.18221 -1.6094114 -65.698273 -1.581122 -65.600327 -18.807615 168.47401
84856000000 -21.347614 -133.4756 -1.6080965 -65.720673 -1.5858541 -65.608734 -18.802374 168.41403
84904000000 -21.362667 -133.78273 -1.6073289 -65.784889 -1.5901436 -65.602051 -18.815792 168.31384
84952000000 -21.392525 -134.07155 -1.5982372 -65.831139 -1.5902709 -65.616364 -18.806614 168.22104
85000000000 -21.40769 -133.80287 -1.583189 -65.922417 -1.5807376 -65.667824 -18.781187 168.06116
85048000000 -21.451223 -134.01649 -1.5901914 -65.99202 -1.5742567 -65.711044 -18.780434 167.94649
85096000000 -21.434265 -133.71385 -1.5968573 -66.085167 -1.5708619 -65.830315 -18.772758 167.99373
85144000000 -21.447083 -133.75342 -1.6109558 -66.057266 -1.5696045 -65.845711 -18.806616 168.02286
85192000000 -21.369158 -133.66765 -1.6022874 -66.162117 -1.5622457 -65.977684 -18.76965 167.69406
85240000000 -21.388708 -133.97769 -1.6192988 -66.113647 -1.5689542 -66.036217 -18.802439 167.70068
85288000000 -21.341463 -134.22388 -1.6204971 -66.197174 -1.5671351 -66.302666 -18.782494 167.66232
85336000000 -21.391428 -134.47513 -1.6116498 -66.189285 -1.569778 -66.175217 -18.769873 167.64671
85384000000 -21.456474 -134.56822 -1.6202719 -66.214165 -1.5838487 -65.995773 -18.802225 167.5038
85432000000 -21.499014 -134.47958 -1.6148692 -66.238518 -1.5883285 -66.043182 -18.781662 167.55931
85480000000 -21.55003 -134.2645 -1.6107675 -66.258095 -1.5985854 -66.060074 -18.776512 167.30272
85528000000 -21.548117 -133.85808 -1.5994304 -66.27182 -1.5861751 -66.052612 -18.774437 167.24838
85576000000 -21.504652 -133.62091 -1.6057434 -66.366196 -1.5865332 -66.226463 -18.803558 166.93452
85624000000 -21.475435 -133.767 -1.5955907 -66.376755 -1.5842882 -66.280212 -18.796329 167.01591
85672000000 -21.463858 -133.92052 -1.607933 -66.526184 -1.5866108 -66.28273 -18.798988 166.86859
85720000000 -21.48111 -133.84282 -1.6056789 -66.526337 -1.5759137 -66.255547 -18.804916 166.95776
85768000000 -21.461336 -134.20757 -1.6297317 -66.628906 -1.5915605 -66.381775 -18.801605 166.694
85816000000 -21.563889 -134.37129 -1.6219951 -66.545547 -1.5890745 -66.358871 -18.819195 166.95372
85864000000 -21.517172 -134.26865 -1.6342766 -66.66404 -1.5952135 -66.428383 -18.802904 166.59021
85912000000 -21.626125 -134.03674 -1.6267978 -66.586884 -1.5960778 -66.428169 -18.820499 166.80931
85960000000 -21.609329 -133.85161 -1.6278815 -66.626625 -1.5994966 -66.477409 -18.817093 166.58185
86008000000 -21.594572 -133.5872 -1.6216123 -66.644165 -1.60155 -66.519592 -18.825684 166.79102
86056000000 -21.56451 -133.53119 -1.6214802 -66.727325 -1.599322 -66.571228 -18.808422 166.66769
86104000000 -21.556421 -133.43286 -1.6233363 -66.719391 -1.6007445 -66.563034 -18.813725 166.76675
86152000000 -21.544994 -133.38904 -1.6217059 -66.721619 -1.6006944 -66.548477 -18.818197 166.76645
86200000000 -21.579779 -133.70613 -1.6200212 -66.754974 -1.6063931 -66.587852 -18.813263 166.6707
86248000000 -21.568388 -133.37064 -1.6092681 -66.891884 -1.5932589 -66.636086 -18.763571 166.66843
86296000000 -21.607969 -133.66199 -1.6261368 -66.941002 -1.6089772 -66.771362 -18.794489 166.42444
86344000000 -21.607252 -132.97212 -1.5973034 -66.942886 -1.593613 -66.684776 -18.782309 166.76701
86392000000 -21.625622 -132.96184 -1.6369781 -67.006996 -1.6077213 -66.792549 -18.810381 166.52664
86440000000 -21.604181 -132.68465 -1.6271878 -66.982155 -1.6120021 -66.753838 -18.837309 166.68684
86488000000 -21.543945 -132.57036 -1.6428256 -67.082031 -1.6008029 -66.882126 -18.808746 166.48157
86536000000 -21.521631 -132.45535 -1.6337608 -67.048203 -1.6104037 -66.894348 -18.819183 166.45886
86584000000 -21.424192 -132.4798 -1.6326885 -67.131012 -1.6010249 -66.927284 -18.794081 166.36426
86632000000 -21.480814 -132.97675 -1.6352007 -67.109406 -1.6203779 -66.95713 -18.814991 166.36787
86680000000 -21.422358 -132.93343 -1.631682 -67.151016 -1.6326598 -66.978477 -18.810366 166.12184
86728000000 -21.44766 -133.0748 -1.6180358 -67.153214 -1.6246381 -67.04834 -18.804815 166.31747
86776000000 -21.363279 -132.60735 -1.6100793 -67.228165 -1.6021312 -67.005875 -18.800858 166.23601
86824000000 -21.456781 -133.02687 -1.6282995 -67.264412 -1.6033545 -67.124802 -18.808756 166.12593
86872000000 -21.398457 -132.40314 -1.6208504 -67.269203 -1.6032166 -67.113167 -18.786528 165.97742
86920000000 -21.406019 -132.57428 -1.6363147 -67.357475 -1.6113995 -67.192352 -18.79368 165.74214
86968000000 -21.387636 -132.46446 -1.6338034 -67.274864 -1.6101696 -67.123299 -18.814123 165.70203
87016000000 -21.339664 -132.87759 -1.6432065 -67.480301 -1.6224208 -67.18029 -18.819706 165.53824
87064000000 -21.33024 -133.03325 -1.6296751 -67.425232 -1.6286863 -67.17263 -18.827358 165.59225
87112000000 -21.299505 -133.32669 -1.6371416 -67.552086 -1.6214713 -67.343231 -18.816839 165.41219
87160000000 -21.300907 -133.44276 -1.6422483 -67.482269 -1.6153483 -67.358574 -18.84919 165.41055
87208000000 -21.324984 -133.66573 -1.6382149 -67.529686 -1.6147655 -67.442596 -18.856928 165.4975
87256000000 -21.276676 -133.46461 -1.6400404 -67.549988 -1.6107517 -67.416565 -18.864244 165.4442
87304000000 -21.373919 -133.73895 -1.6363581 -67.551537 -1.6210746 -67.466766 -18.866785 165.61845
87352000000 -21.297749 -133.297 -1.636397 -67.579918 -1.6240191 -67.421295 -18.880325 165.4408
87400000000 -21.370239 -133.84659 -1.6434045 -67.629936 -1.6370163 -67.488251 -18.884668 165.33432
87448000000 -21.285757 -133.31851 -1.6385841 -67.676865 -1.6223377 -67.426857 -18.885023 165.25839
87496000000 -21.304119 -134.14452 -1.6432939 -67.728394 -1.6267105 -67.588196 -18.882721 165.27461
87544000000 -21.272945 -133.86021 -1.6312999 -67.685349 -1.6207407 -67.559235 -18.88645 165.50092
87592000000 -21.330429 -134.64072 -1.6345712 -67.753937 -1.6228962 -67.630516 -18.912004 165.40598
87640000000 -21.286509 -134.11543 -1.6352419 -67.867783 -1.6121346 -67.668007 -18.900026 165.39082
87688000000 -21.403709 -135.03134 -1.650334 -67.863739 -1.6257495 -67.719193 -18.93532 165.22617
87736000000 -21.35079 -134.41391 -1.6472951 -67.992119 -1.6158206 -67.767403 -18.913258 165.31938
87784000000 -21.445089 -134.69708 -1.6443003 -68.001457 -1.619065 -67.795006 -18.903076 165.22665
87832000000 -21.409746 -134.41098 -1.6477021 -68.027336 -1.6225141 -67.810623 -18.945045 165.24442
87880000000 -21.375099 -134.25732 -1.6438633 -67.995331 -1.6192344 -67.85215 -18.924438 165.06711
87928000000 -21.376657 -134.39146 -1.6439427 -68.07235 -1.6233604 -67.933815 -18.941151 165.29739
87976000000 -21.311056 -134.27367 -1.6399868 -68.035172 -1.6151571 -67.926117 -18.94775 165.29933
88024000000 -21.351686 -134.65706 -1.6389749 -68.194023 -1.6225299 -68.030396 -18.922001 165.21625
88072000000 -21.327698 -134.59492 -1.6367936 -68.157936 -1.6182522 -67.93647 -18.931499 165.27625
88120000000 -21.426306 -134.99135 -1.6295975 -68.303024 -1.6195776 -68.0457 -18.908003 165.34354
88168000000 -21.453152 -134.61122 -1.6327895 -68.165855 -1.6197625 -67.961586 -18.91997 165.34749
88216000000 -21.526962 -134.92027 -1.6469592 -68.322052 -1.6290249 -68.115166 -18.90657 165.0966
88264000000 -21.544638 -134.72369 -1.6347251 -68.330681 -1.6182525 -68.134315 -18.894815 165.21388
88312000000 -21.468605 -134.34386 -1.6417522 -68.439491 -1.6221703 -68.227257 -18.886539 165.04892
88360000000 -21.483656 -134.23372 -1.6493889 -68.442375 -1.6171119 -68.224648 -18.89049 164.93355
88408000000 -21.406796 -134.28781 -1.6545396 -68.438828 -1.6228586 -68.2994 -18.900677 164.8911
88456000000 -21.455959 -134.60846 -1.6563916 -68.499161 -1.6187094 -68.326538 -18.899139 164.81766
88504000000 -21.417564 -134.76639 -1.6546965 -68.478973 -1.6376556 -68.452553 -18.923981 164.72308
88552000000 -21.565454 -135.13092 -1.6654036 -68.627838 -1.6207504 -68.441238 -18.895676 164.81847
88600000000 -21.553232 -135.7287 -1.6482987 -68.839668 -1.6307659 -68.58268 -18.988075 165.90761
88648000000 -21.722139 -137.43474 -1.6580166 -70.170746 -1.6365019 -68.849602 -19.01992 168.27614
88696000000 -21.63022 -134.22684 -1.6411169 -68.526131 -1.6347055 -68.498138 -18.870378 164.71259
88744000000 -21.668898 -133.88914 -1.651556 -68.638428 -1.63688 -68.533531 -18.861797 164.66733
88792000000 -21.60409 -133.40601 -1.650884 -68.621132 -1.6352577 -68.520081 -18.853743 164.52124
88840000000 -21.610693 -133.43452 -1.6473386 -68.754189 -1.6334584 -68.608749 -18.838984 164.43675
88888000000 -21.625387 -135.24657 -1.6438429 -69.565659 -1.6289455 -68.89418 -19.000319 166.05614
88936000000 -21.583384 -133.33636 -1.6565524 -68.644035 -1.6309464 -68.663582 -18.853731 164.18381
88984000000 -21.561478 -133.32191 -1.6608573 -68.737305 -1.6345844 -68.645607 -18.844883 164.08784
89032000000 -21.653654 -133.64767 -1.6611844 -68.851738 -1.639477 -68.704178 -18.840439 164.05212
89080000000 -21.598362 -133.40744 -1.667711 -68.908676 -1.635596 -68.705032 -18.850365 163.93887
89128000000 -21.704746 -133.24054 -1.6810764 -69.007622 -1.633998 -68.746269 -18.828636 163.63208
89176000000 -21.609386 -132.80521 -1.6641104 -68.883072 -1.6389967 -68.785767 -18.847906 163.68925
89224000000 -21.712336 -132.59683 -1.6737404 -69.058487 -1.6397153 -68.834473 -18.824945 163.4222
89272000000 -21.562063 -132.27501 -1.6524967 -68.875244 -1.6408784 -68.884758 -18.832869 163.54085
89320000000 -21.595678 -132.16724 -1.6678752 -69.057602 -1.64105 -68.929977 -18.825321 163.19775
89368000000 -21.539764 -132.1302 -1.655097 -68.930939 -1.6381942 -68.933525 -18.822021 163.37485
89416000000 -21.554983 -132.20615 -1.6596395 -69.080795 -1.6422955 -68.9245 -18.822174 163.1797
89464000000 -21.5875 -132.09203 -1.6507788 -69.020798 -1.6423393 -68.978516 -18.815683 163.30255
89512000000 -21.557415 -131.93716 -1.6562537 -69.128891 -1.640514 -68.918861 -18.813631 162.92694
89560000000 -21.630789 -131.78535 -1.6575073 -69.133751 -1.6430576 -69.052513 -18.805929 162.91154
89608000000 -21.532278 -131.48816 -1.6565824 -69.18708 -1.6371299 -69.059296 -18.801064 162.65402
89656000000 -21.635368 -131.17033 -1.6673568 -69.207344 -1.6430017 -69.112091 -18.808964 162.50966
89704000000 -21.51362 -131.05937 -1.6629432 -69.245659 -1.6362231 -69.149574 -18.804747 162.3672
89752000000 -21.513313 -130.93103 -1.672027 -69.270775 -1.6393245 -69.159645 -18.827353 162.15628
89800000000 -21.393452 -130.97328 -1.6692672 -69.289238 -1.640784 -69.186943 -18.805977 161.908
89848000000 -21.41291 -131.08401 -1.6669377 -69.324905 -1.6401318 -69.198853 -18.849573 162.03062
89896000000 -21.329338 -131.30399 -1.6685399 -69.390038 -1.6515231 -69.177376 -18.838366 161.64886
89944000000 -21.393192 -131.21118 -1.650792 -69.365303 -1.6354535 -69.221832 -18.868097 161.89806
89992000000 -21.284155 -131.4808 -1.6486287 -69.468895 -1.6403221 -69.347023 -18.872559 161.53366
90040000000 -21.413193 -130.99086 -1.6460588 -69.453918 -1.6359179 -69.37545 -18.87406 161.74591
90088000000 -21.306812 -131.07658 -1.652599 -69.496674 -1.6447426 -69.437859 -18.888573 161.45747
90136000000 -21.36797 -130.43803 -1.655781 -69.52935 -1.6354172 -69.365967 -18.883673 161.44623
90184000000 -21.218456 -130.60529 -1.6580977 -69.638161 -1.637822 -69.375008 -18.868221 161.19853
90232000000 -21.217783 -130.52432 -1.6546772 -69.734993 -1.6338181 -69.47422 -18.883991 161.12061
90280000000 -21.115923 -131.02156 -1.6653492 -69.76178 -1.6387869 -69.497139 -18.887342 160.8522
90328000000 -21.15901 -131.12556 -1.6672136 -69.755875 -1.6308149 -69.519089 -18.901821 160.79291
90376000000 -21.119865 -131.72498 -1.6709483 -69.794579 -1.6355791 -69.599716 -18.920134 160.72108
90424000000 -21.239174 -131.67093 -1.6677213 -69.784592 -1.6364254 -69.676605 -18.932951 160.74156
90472000000 -21.219917 -131.73224 -1.6697036 -69.868019 -1.6424625 -69.613846 -18.934185 160.62868
90520000000 -21.286381 -131.41438 -1.6535803 -69.826714 -1.6460644 -69.709129 -18.933594 160.58517
90568000000 -21.217424 -131.56937 -1.6482961 -69.985466 -1.6431812 -69.760651 -18.947783 160.6136
90616000000 -21.246128 -130.99567 -1.6539755 -70.024345 -1.6550459 -69.772888 -18.934303 160.34142
90664000000 -21.110214 -131.22113 -1.6540428 -70.013161 -1.6365683 -69.728867 -18.960726 160.43205
90712000000 -21.06065 -131.35521 -1.6587011 -70.059387 -1.6355662 -69.894836 -18.960663 160.19814
90760000000 -21.054506 -131.87549 -1.6645008 -70.139778 -1.6440958 -69.883148 -18.980583 160.38954
90808000000 -21.040216 -131.97401 -1.6545827 -70.096275 -1.6396073 -69.960388 -18.974796 160.31293
90856000000 -21.054161 -132.55173 -1.6698611 -70.252747 -1.6424235 -69.990166 -18.97508 160.20451
90904000000 -21.135103 -132.32808 -1.6642098 -70.213341 -1.6424243 -69.993172 -18.969488 160.15273
90952000000 -21.109144 -132.64824 -1.6767564 -70.330223 -1.646693 -70.024208 -18.954035 159.92215
91000000000 -21.23702 -132.08667 -1.6727464 -70.302444 -1.6462096 -70.04583 -18.945112 159.83356
91048000000 -21.113472 -132.39067 -1.6782213 -70.343636 -1.643482 -70.096832 -18.96582 159.6331
91096000000 -21.223009 -132.00911 -1.6794875 -70.384422 -1.6493121 -70.197212 -18.948942 159.44505
91144000000 -21.108047 -132.19873 -1.671623 -70.322182 -1.6472558 -70.172279 -18.980789 159.45862
91192000000 -21.14065 -132.27618 -1.6761584 -70.457397 -1.6547662 -70.262695 -18.975601 159.26973
91240000000 -21.13271 -132.43581 -1.6651468 -70.441193 -1.6526917 -70.264122 -18.998293 159.41817
91288000000 -21.073654 -132.8817 -1.6725981 -70.539375 -1.6586518 -70.31675 -18.982666 159.08798
91336000000 -21.167128 -132.7355 -1.6640759 -70.510231 -1.656328 -70.304276 -19.011061 159.38606
91384000000 -21.126307 -133.0773 -1.6737716 -70.601318 -1.6587117 -70.355896 -19.021889 158.99983
91432000000 -21.219755 -132.67538 -1.6724056 -70.591255 -1.6532981 -70.391838 -19.012714 159.01961
91480000000 -21.181902 -132.92419 -1.6777219 -70.649193 -1.6553202 -70.424438 -19.00614 158.82744
91528000000 -21.231298 -132.43463 -1.6789505 -70.670174 -1.6535864 -70.441689 -19.008217 158.62703
91576000000 -21.178286 -132.56433 -1.6785916 -70.700119 -1.6518321 -70.4795 -19.005959 158.54048
91624000000 -21.201271 -132.40372 -1.6814196 -70.751282 -1.6528853 -70.546959 -19.016516 158.2919
91672000000 -21.159218 -132.68175 -1.6858393 -70.775963 -1.6544695 -70.57412 -19.007193 158.1882
91720000000 -21.201445 -132.68593 -1.6853741 -70.807655 -1.6560376 -70.611496 -19.026804 158.06392
91768000000 -21.207014 -132.80653 -1.6815728 -70.791534 -1.6570388 -70.577118 -19.035376 157.94885
91816000000 -21.24696 -132.9964 -1.6818713 -70.847733 -1.658681 -70.66555 -19.05608 157.89334
91864000000 -21.27363 -132.8709 -1.6737728 -70.836761 -1.658023 -70.707794 -19.097303 158.04584
91912000000 -21.274609 -132.70618 -1.6765858 -70.933792 -1.6615757 -70.732643 -19.076097 157.82137
91960000000 -21.31591 -132.21243 -1.670754 -70.953293 -1.6613631 -70.76815 -19.106607 158.03529
92008000000 -21.252827 -132.08325 -1.6753151 -70.987083 -1.6631255 -70.791481 -19.102688 157.66441
92056000000 -21.282619 -131.87335 -1.676826 -70.994377 -1.6582187 -70.821579 -19.112854 157.92886
92104000000 -21.183331 -132.07884 -1.6806849 -71.064293 -1.6605924 -70.845688 -19.128525 157.51114
92152000000 -21.272552 -131.96823 -1.6773406 -71.068367 -1.6531962 -70.900108 -19.122953 157.64792
92200000000 -21.165138 -132.3826 -1.682822 -71.125526 -1.6581186 -70.95079 -19.13183 157.30095
92248000000 -21.316828 -132.18771 -1.6772941 -71.107277 -1.6533909 -70.939209 -19.139744 157.44395
92296000000 -21.186893 -132.38965 -1.6822683 -71.197853 -1.6587292 -71.030807 -19.150503 157.1489
92344000000 -21.336597 -132.15236 -1.6797458 -71.238869 -1.6554824 -71.030441 -19.165306 157.16495
92392000000 -21.207926 -132.0778 -1.6809434 -71.249397 -1.663619 -71.111282 -19.189032 157.00716
92440000000 -21.283356 -131.84007 -1.6825771 -71.282639 -1.6619598 -71.10556 -19.209522 157.05304
92488000000 -21.186085 -131.84956 -1.682745 -71.335907 -1.6636878 -71.130333 -19.234768 157.06119
92536000000 -21.202042 -131.68127 -1.6781996 -71.375534 -1.6614933 -71.167213 -19.242861 156.9753
92584000000 -21.156244 -131.73764 -1.6785425 -71.41507 -1.6650594 -71.209808 -19.24534 157.017
92632000000 -21.159691 -131.78819 -1.6765499 -71.435013 -1.6633711 -71.226364 -19.28689 157.14665
92680000000 -21.146044 -131.99892 -1.6772332 -71.491768 -1.6622133 -71.251465 -19.284082 157.22656
92728000000 -21.173788 -132.04329 -1.6797767 -71.527145 -1.6627679 -71.30722 -19.285162 157.16576
92776000000 -21.176029 -132.06439 -1.682711 -71.583588 -1.6585861 -71.323051 -19.288137 157.2108
92824000000 -21.191824 -132.07359 -1.6815046 -71.624481 -1.6587155 -71.398422 -19.283131 157.11081
92872000000 -21.162413 -131.87361 -1.6801517 -71.657387 -1.6540743 -71.397873 -19.283201 157.10988
92920000000 -21.185968 -131.84119 -1.6715021 -71.647018 -1.6567938 -71.495651 -19.277456 157.25484
92968000000 -21.09861 -131.73756 -1.6768878 -71.783096 -1.6537015 -71.493271 -19.273718 157.01242
93016000000 -21.139883 -131.9077 -1.6760256 -71.755325 -1.6555847 -71.548965 -19.284487 157.27457
93064000000 -21.05739 -132.01521 -1.6860607 -71.876976 -1.6607841 -71.643005 -19.26582 156.87413
93112000000 -21.085409 -132.33199 -1.6861198 -71.849915 -1.6584615 -71.635948 -19.312201 157.20354
93160000000 -21.073652 -132.39981 -1.6845546 -71.88237 -1.6677376 -71.711624 -19.267029 156.89619
93208000000 -21.084429 -132.74675 -1.6895996 -71.98008 -1.6664069 -71.739754 -19.308226 157.09627
93256000000 -21.097218 -132.58092 -1.6797931 -71.914978 -1.6668469 -71.753105 -19.291229 157.07768
93304000000 -21.090145 -132.79523 -1.6853528 -72.037247 -1.6672033 -71.802254 -19.308437 157.15158
93352000000 -21.096006 -132.60355 -1.679513 -71.991112 -1.6688908 -71.852966 -19.300018 157.3116
93400000000 -21.076435 -132.8244 -1.6891425 -72.109901 -1.6629128 -71.863266 -19.296568 157.22725
93448000000 -21.085756 -132.78496 -1.6879601 -72.10778 -1.6685456 -71.945961 -19.2887 157.36938
93496000000 -21.066933 -132.88394 -1.6879563 -72.154007 -1.6606517 -71.886864 -19.273802 157.26738
93544000000 -21.058502 -133.05548 -1.6910498 -72.24659 -1.6616979 -72.020515 -19.263344 157.03085
93592000000 -21.070084 -133.20805 -1.6887957 -72.197762 -1.6657959 -72.02639 -19.267212 157.1465
93640000000 -21.088087 -133.48267 -1.6921654 -72.309288 -1.6705329 -72.073792 -19.269325 156.93282
93688000000 -21.09585 -133.47624 -1.6860282 -72.266281 -1.6725155 -72.107475 -19.260059 156.86246
93736000000 -21.160034 -133.73997 -1.6905413 -72.345154 -1.6696208 -72.116234 -19.279469 156.76144
93784000000 -21.127548 -133.49112 -1.6974864 -72.379562 -1.6731958 -72.18895 -19.281311 156.61288
93832000000 -21.182621 -133.67166 -1.7000165 -72.417702 -1.6739364 -72.206345 -19.309172 156.74576
93880000000 -21.146698 -133.46571 -1.700157 -72.465233 -1.6777085 -72.265831 -19.285147 156.60248
93928000000 -21.15741 -133.62202 -1.6984175 -72.512299 -1.6812667 -72.302963 -19.299376 156.66725
93976000000 -21.158756 -133.7728 -1.7018019 -72.542831 -1.6826534 -72.312378 -19.284834 156.73277
94024000000 -21.155401 -133.85364 -1.7024109 -72.55175 -1.6855626 -72.354332 -19.28875 156.64394
94072000000 -21.190367 -134.16182 -1.7071942 -72.62056 -1.6837161 -72.378441 -19.269075 156.85085
94120000000 -21.201941 -134.11006 -1.7082927 -72.607712 -1.6835902 -72.402519 -19.272718 156.63168
94168000000 -21.24889 -134.26686 -1.7094783 -72.657928 -1.6832297 -72.454384 -19.246677 156.84505
94216000000 -21.25086 -134.02991 -1.7071497 -72.685013 -1.6794745 -72.456955 -19.257097 156.48079
94264000000 -21.302937 -134.06459 -1.701916 -72.678741 -1.6850581 -72.544594 -19.241169 156.73367
94312000000 -21.310856 -133.83966 -1.69806 -72.765244 -1.6820853 -72.522842 -19.235029 156.49359
94360000000 -21.316019 -133.64464 -1.7038692 -72.80294 -1.685052 -72.61425 -19.230551 156.47583
94408000000 -21.322916 -133.58946 -1.7062881 -72.813889 -1.6826832 -72.593414 -19.234102 156.38208
94456000000 -21.327103 -133.65315 -1.7113359 -72.847755 -1.6850421 -72.68306 -19.23579 156.37961
94504000000 -21.351967 -133.86659 -1.7191949 -72.885155 -1.6882179 -72.682686 -19.251629 156.19931
94552000000 -21.351614 -133.75856 -1.7164745 -72.831573 -1.6902467 -72.714989 -19.25672 156.33534
94600000000 -21.40115 -134.04382 -1.7244765 -72.966278 -1.6922777 -72.745743 -19.261145 156.08533
94648000000 -21.419571 -133.84352 -1.7162312 -72.908859 -1.6961155 -72.755707 -19.267193 156.35286
94696000000 -21.454136 -134.00497 -1.725252 -73.062668 -1.6958516 -72.759033 -19.265093 156.09901
94744000000 -21.481173 -133.65607 -1.7147907 -72.94072 -1.6954974 -72.793671 -19.266838 156.48479
94792000000 -21.473036 -133.68495 -1.7198972 -73.053596 -1.6933067 -72.81279 -19.256102 156.26013
94840000000 -21.443974 -133.22209 -1.7186419 -73.054337 -1.6974822 -72.913185 -19.260019 156.07646
94888000000 -21.446632 -133.38884 -1.7115616 -73.056862 -1.6941944 -72.862297 -19.254114 156.19577
94936000000 -21.417023 -132.8591 -1.7055155 -73.130066 -1.7048811 -72.906616 -19.254034 156.04208
94984000000 -21.433102 -133.27925 -1.696485 -73.280579 -1.6825936 -72.915237 -19.209921 155.92619
95032000000 -21.415232 -132.58369 -1.7154549 -73.326302 -1.6916662 -73.061081 -19.234297 155.63081
95080000000 -21.472879 -133.33205 -1.7111651 -73.256874 -1.6911695 -73.042389 -19.240782 155.67009
95128000000 -21.451124 -132.52213 -1.7157047 -73.342285 -1.69339 -73.121735 -19.242159 155.66006
95176000000 -21.492735 -133.00124 -1.7207524 -73.371323 -1.6889832 -73.108109 -19.244787 155.63977
95224000000 -21.46043 -132.35704 -1.727789 -73.377945 -1.6941742 -73.197075 -19.247484 155.56679
95272000000 -21.495026 -132.62556 -1.730148 -73.434212 -1.6962873 -73.184608 -19.255955 155.50845
95320000000 -21.428034 -132.08499 -1.7262365 -73.427238 -1.6964426 -73.205437 -19.245205 155.42216
95368000000 -21.459436 -132.39806 -1.727561 -73.478096 -1.7003201 -73.234543 -19.259615 155.3867
95416000000 -21.422649 -132.0462 -1.7234654 -73.46666 -1.6992872 -73.240845 -19.251106 155.38707
95464000000 -21.436977 -132.33853 -1.7272173 -73.533211 -1.7016652 -73.294312 -19.263159 155.28447
95512000000 -21.421713 -131.98981 -1.721825 -73.526405 -1.6981243 -73.305763 -19.258369 155.23755
95560000000 -21.445879 -132.27835 -1.719951 -73.546356 -1.6996884 -73.338921 -19.246778 155.34258
95608000000 -21.431334 -131.80084 -1.721164 -73.62925 -1.6990536 -73.359116 -19.242769 155.13574
95656000000 -21.449594 -131.99445 -1.7169161 -73.61013 -1.6973685 -73.376869 -19.234598 155.06323
95704000000 -21.410093 -131.35786 -1.7201222 -73.696571 -1.6973659 -73.430016 -19.244629 154.83376
95752000000 -21.425314 -131.61731 -1.7192868 -73.683411 -1.6935537 -73.450066 -19.254038 154.77133
95800000000 -21.356958 -131.03705 -1.7252274 -73.736862 -1.7002459 -73.508263 -19.257437 154.70341
95848000000 -21.394489 -131.42749 -1.7263801 -73.745918 -1.6987379 -73.508591 -19.266842 154.592
95896000000 -21.332954 -131.06346 -1.7254642 -73.735962 -1.7020776 -73.587738 -19.275421 154.53322
95944000000 -21.388815 -131.52722 -1.7338212 -73.820259 -1.7026496 -73.620796 -19.275488 154.45448
95992000000 -21.354616 -131.21008 -1.7285148 -73.787956 -1.70099 -73.623878 -19.290108 154.33145
96040000000 -21.323835 -130.98148 -1.7274688 -73.845718 -1.7019371 -73.686783 -19.295391 154.16531
96088000000 -21.372936 -131.2849 -1.7296021 -73.93605 -1.6986563 -73.67025 -19.315496 154.17871
96136000000 -21.277283 -130.56125 -1.7214483 -73.898674 -1.7010653 -73.745064 -19.322569 154.20857
96184000000 -21.321287 -131.24931 -1.7233138 -73.975044 -1.6986843 -73.759117 -19.312534 154.29237
96232000000 -21.250477 -130.58449 -1.7171568 -73.943214 -1.6977898 -73.79052 -19.323895 154.21892
96280000000 -21.26519 -131.15179 -1.7171264 -74.007996 -1.6966875 -73.844154 -19.32452 154.19897
96328000000 -21.234806 -130.66251 -1.7119386 -74.019058 -1.6944155 -73.83075 -19.323492 154.13921
96376000000 -21.231562 -130.9695 -1.7115351 -74.074852 -1.6967177 -73.906517 -19.303989 154.05067
96424000000 -21.241596 -130.87234 -1.7159745 -74.1642 -1.6943455 -73.934334 -19.316761 153.87077
96472000000 -21.230051 -131.14848 -1.7173377 -74.175591 -1.6906903 -73.990128 -19.322399 153.73004
96520000000 -21.235029 -130.89061 -1.7212486 -74.21405 -1.6970708 -74.090897 -19.354935 153.58958
96568000000 -21.229742 -131.17047 -1.6974076 -74.265335 -1.7021439 -74.020813 -19.361753 153.84276
96616000000 -21.211527 -130.76295 -1.7291356 -74.324883 -1.6884031 -74.111763 -19.36713 153.35287
96664000000 -21.163485 -130.84454 -1.7269922 -74.339821 -1.6877208 -74.126396 -19.387152 153.41199
96712000000 -21.181978 -130.89841 -1.7229747 -74.367661 -1.6922789 -74.22419 -19.399179 153.16241
96760000000 -21.106052 -130.7634 -1.7198857 -74.400375 -1.6925105 -74.238617 -19.415285 153.30333
96808000000 -21.187355 -131.11159 -1.7181474 -74.456886 -1.6984262 -74.294479 -19.438612 153.13571
96856000000 -21.054491 -130.68115 -1.7116231 -74.454636 -1.6994759 -74.295723 -19.43784 153.19603
96904000000 -21.135443 -131.04782 -1.7126189 -74.529655 -1.6942511 -74.319695 -19.460545 153.20085
96952000000 -21.092472 -130.95898 -1.7135206 -74.573364 -1.6960291 -74.388107 -19.465267 153.06416
97000000000 -21.113144 -131.09506 -1.7125787 -74.609138 -1.6939968 -74.41259 -19.460989 152.98183
97048000000 -21.093388 -131.12196 -1.7113501 -74.634003 -1.6977309 -74.48481 -19.491249 152.86909
97096000000 -21.058582 -131.03458 -1.7111305 -74.721558 -1.6898823 -74.483971 -19.523108 152.94609
97144000000 -21.058434 -131.20018 -1.7109036 -74.720299 -1.6944603 -74.52681 -19.538481 152.81696
97192000000 -21.002407 -131.18024 -1.7133986 -74.797272 -1.6899114 -74.553467 -19.558136 152.8725
97240000000 -21.03544 -131.45453 -1.721341 -74.865082 -1.7006211 -74.638222 -19.57196 152.81537
97288000000 -20.991667 -131.4731 -1.7155434 -74.835098 -1.6915886 -74.627861 -19.570051 152.85718
97336000000 -20.983759 -131.51254 -1.7213529 -74.922859 -1.6968738 -74.697594 -19.57387 152.7216
97384000000 -21.025585 -131.85725 -1.7237961 -74.966415 -1.6961271 -74.742149 -19.58127 152.77208
97432000000 -20.944937 -131.50316 -1.7201395 -74.957451 -1.6975427 -74.72773 -19.595936 152.644
97480000000 -21.02199 -131.84227 -1.7196845 -75.03878 -1.7033139 -74.808655 -19.591497 152.69984
97528000000 -20.91345 -131.54849 -1.7156072 -75.016632 -1.6990457 -74.774269 -19.608105 152.55534
97576000000 -20.997618 -131.73558 -1.7233411 -75.120033 -1.7089626 -74.893082 -19.604593 152.50543
97624000000 -20.944923 -131.77628 -1.7150688 -75.102203 -1.7037765 -74.883057 -19.634481 152.50044
97672000000 -20.971474 -131.87534 -1.7194656 -75.21228 -1.7098497 -74.94809 -19.631233 152.56851
97720000000 -20.936548 -131.90495 -1.7173486 -75.193672 -1.7090117 -74.980354 -19.654154 152.3889
97768000000 -20.95339 -132.07495 -1.7235097 -75.221405 -1.7118964 -74.97496 -19.652929 152.39587
97816000000 -20.958279 -132.10837 -1.7197118 -75.239594 -1.7190133 -75.032127 -19.667564 152.29262
97864000000 -21.014051 -132.38326 -1.7292281 -75.348991 -1.7031507 -75.023735 -19.691854 152.34946
97912000000 -21.006245 -132.28114 -1.7180244 -75.337914 -1.6988099 -75.13913 -19.711952 152.40898
97960000000 -21.062988 -132.36214 -1.7317468 -75.424904 -1.7095178 -75.171593 -19.671986 152.25279
98008000000 -21.022299 -132.19586 -1.7216169 -75.378525 -1.7089994 -75.201187 -19.714209 152.24263
98056000000 -21.035545 -132.26468 -1.7266756 -75.472061 -1.7154088 -75.239555 -19.688116 152.03665
98104000000 -20.973022 -132.09569 -1.7300323 -75.514839 -1.714088 -75.256561 -19.720915 152.11145
98152000000 -20.997643 -132.3566 -1.7304384 -75.530701 -1.7103728 -75.280067 -19.703224 152.00706
98200000000 -20.978889 -132.35199 -1.7323446 -75.618462 -1.7095777 -75.341095 -19.729626 152.0807
98248000000 -20.977074 -132.60321 -1.7274404 -75.56179 -1.704538 -75.377228 -19.741831 152.0141
98296000000 -20.96278 -132.59784 -1.7269149 -75.601585 -1.7062252 -75.368164 -19.738909 152.07741
98344000000 -21.071026 -132.66127 -1.7247883 -75.666824 -1.7141902 -75.482735 -19.71789 151.89119
98392000000 -20.990959 -132.80392 -1.7246286 -75.679672 -1.7113897 -75.484055 -19.738607 151.81926
98440000000 -21.075483 -132.3815 -1.7260785 -75.733856 -1.7150031 -75.533737 -19.754915 151.739
98488000000 -20.976614 -132.60808 -1.7246593 -75.773689 -1.7079291 -75.536125 -19.756155 151.77907
98536000000 -21.085197 -132.29721 -1.7285159 -75.846359 -1.7091893 -75.614883 -19.74502 151.67795
98584000000 -21.016865 -132.60043 -1.7335171 -75.888947 -1.7082647 -75.657333 -19.746794 151.65504
98632000000 -21.068932 -132.46019 -1.7372078 -75.878288 -1.7151372 -75.727371 -19.73781 151.55753
98680000000 -21.010168 -132.71532 -1.738721 -75.880676 -1.717427 -75.741966 -19.733612 151.44363
98728000000 -21.105852 -132.79044 -1.7394949 -75.916618 -1.7219466 -75.783028 -19.749748 151.35707
98776000000 -21.143473 -132.89359 -1.7374916 -75.942581 -1.7172959 -75.802528 -19.750561 151.43161
98824000000 -21.131685 -132.78766 -1.7378643 -76.017319 -1.7151672 -75.815598 -19.758066 151.26323
98872000000 -21.173796 -132.73473 -1.7368227 -76.026573 -1.7181455 -75.865395 -19.755022 151.14912
98920000000 -21.153334 -132.47307 -1.7385596 -76.064392 -1.7188365 -75.851364 -19.781471 151.03981
98968000000 -21.186949 -132.47255 -1.7412579 -76.125389 -1.7230308 -75.949669 -19.787859 150.98201
99016000000 -21.143 -132.05128 -1.7405715 -76.112045 -1.7196976 -75.934959 -19.816692 150.94398
99064000000 -21.141245 -132.29836 -1.7364783 -76.192383 -1.7228415 -76.025986 -19.816153 150.86635
99112000000 -21.108292 -132.13939 -1.738132 -76.140213 -1.7246374 -76.022667 -19.833399 150.84084
99160000000 -21.099489 -132.43962 -1.7333612 -76.264145 -1.7322313 -76.059532 -19.850657 150.99974
99208000000 -21.155895 -132.22531 -1.7301445 -76.237228 -1.729857 -76.107529 -19.853949 150.99872
99256000000 -21.155485 -132.31024 -1.7372147 -76.283409 -1.7290624 -76.118256 -19.85931 151.10432
99304000000 -21.198545 -132.42769 -1.7424644 -76.342461 -1.7327328 -76.156113 -19.818874 150.9144
99352000000 -21.233833 -131.88618 -1.7397932 -76.349945 -1.7228415 -76.152885 -19.87075 150.87807
99400000000 -21.207159 -132.30188 -1.7418041 -76.425133 -1.7318991 -76.269356 -19.824469 150.73828
99448000000 -21.273058 -131.58708 -1.7363378 -76.426392 -1.7346281 -76.258057 -19.865158 150.76469
99496000000 -21.188841 -131.86092 -1.7461554 -76.498215 -1.7406198 -76.287025 -19.840765 150.71042
99544000000 -21.228436 -131.51161 -1.7408454 -76.479912 -1.740648 -76.308487 -19.85677 150.55916
99592000000 -21.226467 -131.41452 -1.7451575 -76.565063 -1.7398944 -76.321541 -19.876904 150.42622
99640000000 -21.197517 -131.67769 -1.7405096 -76.58786 -1.7381351 -76.379013 -19.868835 150.26935
99688000000 -21.235394 -131.40677 -1.7471768 -76.661339 -1.7335144 -76.367561 -19.88422 150.25337
99736000000 -21.20237 -131.66428 -1.7474035 -76.668213 -1.7360663 -76.416878 -19.913706 150.1123
99784000000 -21.227995 -131.52583 -1.7506249 -76.704216 -1.7357733 -76.391678 -19.933706 150.18356
99832000000 -21.190655 -131.57629 -1.7417074 -76.730904 -1.7390177 -76.453064 -19.928291 150.05157
99880000000 -21.233904 -131.18428 -1.7549361 -76.755081 -1.7397329 -76.458801 -19.934904 150.2661
99928000000 -21.171522 -131.39723 -1.7492085 -76.781342 -1.7402252 -76.507843 -19.924841 149.93372
99976000000 -21.187853 -131.19093 -1.7439498 -76.857857 -1.7404931 -76.556351 -19.934389 149.8976
100024000000 -21.141888 -131.2159 -1.7500854 -76.800179 -1.7362436 -76.568466 -19.950146 149.96419
100072000000 -21.158348 -131.30927 -1.7500117 -76.912514 -1.7368845 -76.618813 -19.933289 149.92545
100120000000 -21.152142 -131.33533 -1.7518483 -76.909706 -1.737154 -76.663788 -19.952366 149.86557
100168000000 -21.140903 -131.55106 -1.751096 -76.958145 -1.7363312 -76.658051 -19.94792 149.95284
100216000000 -21.204815 -131.14339 -1.7500799 -76.988197 -1.7391108 -76.704559 -19.915144 149.83656
100264000000 -21.190716 -131.4258 -1.7466546 -76.990639 -1.7380168 -76.679153 -19.955746 150.11337
100312000000 -21.2365 -131.12822 -1.7491678 -77.050201 -1.7417967 -76.7714 -19.933771 149.68465
100360000000 -21.250549 -130.90614 -1.7305158 -77.076027 -1.7441412 -76.797462 -19.948864 149.96283
100408000000 -21.240259 -131.10846 -1.7386986 -77.161934 -1.7585663 -76.848885 -19.915995 149.46014
100456000000 -21.263716 -130.56471 -1.7331784 -77.165604 -1.743353 -76.902832 -19.964357 149.72054
100504000000 -21.144062 -131.40244 -1.7451711 -77.266403 -1.742108 -76.938354 -19.94136 149.27179
100552000000 -21.255819 -130.33044 -1.7391977 -77.210129 -1.7285671 -76.930595 -19.973372 149.37668
100600000000 -21.160791 -131.62532 -1.7566341 -77.330864 -1.7378561 -76.996292 -19.977184 148.93488
100648000000 -21.303621 -130.59122 -1.7510335 -77.286583 -1.7371093 -76.96254 -20.018555 149.34567
100696000000 -21.234852 -131.63824 -1.7456809 -77.465775 -1.7605503 -77.107895 -20.02268 148.77481
100744000000 -21.344435 -130.91974 -1.735624 -77.391991 -1.7302741 -77.123482 -20.050667 149.17487
100792000000 -21.286848 -131.13686 -1.75643 -77.469521 -1.7436706 -77.174248 -20.050154 148.86345
100840000000 -21.315237 -130.74225 -1.7452998 -77.419724 -1.7394713 -77.118713 -20.086466 149.15298
100888000000 -21.320734 -130.50186 -1.7536575 -77.573471 -1.7530943 -77.237663 -20.035788 148.85123
100936000000 -21.311268 -130.2807 -1.7389563 -77.525581 -1.7472224 -77.222115 -20.089363 148.8271
100984000000 -21.27705 -130.32468 -1.7453231 -77.646278 -1.7520018 -77.311165 -20.089609 148.55728
101032000000 -21.295506 -129.82957 -1.7421807 -77.59346 -1.753225 -77.277229 -20.116554 148.64801
101080000000 -21.248335 -130.08186 -1.7445165 -77.67981 -1.7551444 -77.31189 -20.115236 148.54839
101128000000 -21.256454 -129.8754 -1.7434176 -77.722206 -1.7529296 -77.355804 -20.154856 148.45253
101176000000 -21.231913 -129.88991 -1.7388458 -77.716484 -1.7484604 -77.32653 -20.15657 148.67397
101224000000 -21.259649 -129.96173 -1.7508937 -77.846222 -1.7480086 -77.414215 -20.168839 148.40443
101272000000 -21.281824 -129.58952 -1.743657 -77.802917 -1.7426423 -77.414291 -20.148355 148.61209
101320000000 -21.282322 -129.75259 -1.7539967 -77.919014 -1.743679 -77.457367 -20.153618 148.50034
101368000000 -21.281122 -129.12993 -1.7488433 -77.873787 -1.7377218 -77.430534 -20.157394 148.4203
101416000000 -21.276628 -129.42015 -1.7508763 -77.979424 -1.7454039 -77.527611 -20.154949 148.4482
101464000000 -21.225758 -128.85178 -1.7438996 -77.971375 -1.733955 -77.510757 -20.148371 147.92039
101512000000 -21.245426 -129.28511 -1.750872 -78.103531 -1.7346674 -77.646599 -20.188377 147.93439
101560000000 -21.197599 -128.96504 -1.7496612 -78.060799 -1.7429149 -77.668266 -20.227694 147.80971
101608000000 -21.247578 -129.41838 -1.7635765 -78.173889 -1.7508937 -77.707161 -20.272587 148.23172
101656000000 -21.206369 -128.89035 -1.7531575 -78.138542 -1.7440218 -77.740234 -20.274796 148.22035
101704000000 -21.20299 -129.36392 -1.7642313 -78.219246 -1.7505347 -77.776489 -20.278751 148.43468
101752000000 -21.211838 -128.59889 -1.7404841 -78.112625 -1.7421811 -77.783226 -20.238167 148.41716
101800000000 -21.177937 -129.10478 -1.7419448 -78.286079 -1.7338748 -77.86409 -20.249458 148.17372
101848000000 -21.173412 -128.50919 -1.7521297 -78.297928 -1.7295767 -77.895042 -20.275953 148.36516
101896000000 -21.131315 -128.3298 -1.7657082 -78.149879 -1.7315547 -77.979797 -20.291977 148.48119
101944000000 -21.15839 -128.34766 -1.7491361 -78.031555 -1.747779 -77.911072 -20.296576 148.64699
101992000000 -21.119841 -128.59993 -1.7386593 -78.393158 -1.7265766 -77.897629 -20.277079 148.40359
102040000000 -21.114937 -128.90627 -1.7674465 -78.532852 -1.7363288 -78.058777 -20.320005 148.18805
102088000000 -21.118891 -128.51601 -1.7662435 -78.424088 -1.7419332 -78.136383 -20.314449 148.36829
102136000000 -21.133244 -128.98959 -1.7668189 -78.445572 -1.7538645 -78.101273 -20.302923 148.6862
102184000000 -21.13756 -128.82791 -1.7573254 -78.477921 -1.7396317 -78.144463 -20.278681 148.43793
102232000000 -21.16544 -129.01392 -1.7526226 -78.509811 -1.7315689 -78.163551 -20.257751 148.49316
102280000000 -21.180616 -128.94797 -1.7513858 -78.62294 -1.727398 -78.248932 -20.254581 148.33205
102328000000 -21.200891 -128.83591 -1.7436327 -78.602684 -1.72657 -78.225914 -20.239277 148.49323
102376000000 -21.185038 -128.70708 -1.7519165 -78.850449 -1.7320384 -78.324524 -20.264812 147.94547
102424000000 -21.19993 -128.43185 -1.7571225 -78.698082 -1.7341754 -78.376518 -20.286566 148.24721
102472000000 -21.117907 -128.52362 -1.7725273 -78.861229 -1.7403581 -78.498543 -20.283415 147.84875
102520000000 -21.16168 -128.56935 -1.7558001 -78.638512 -1.7384843 -78.51973 -20.300695 148.37654
102568000000 -21.061293 -128.65556 -1.7742294 -78.872276 -1.7562652 -78.613358 -20.292072 147.64767
102616000000 -21.155895 -128.69783 -1.7538075 -78.721359 -1.7394415 -78.441101 -20.306499 148.73538
102664000000 -21.0578 -128.79802 -1.766757 -78.988159 -1.7536156 -78.59613 -20.295782 147.6987
102712000000 -21.182571 -128.94942 -1.7548636 -78.913811 -1.7393948 -78.614426 -20.303911 148.42763
102760000000 -21.126167 -128.76112 -1.7687805 -78.957298 -1.7440101 -78.692345 -20.310545 147.94943
102808000000 -21.193851 -128.61287 -1.7655309 -78.975166 -1.740883 -78.722534 -20.2946 148.43782
102856000000 -21.157448 -128.29907 -1.7709785 -79.010353 -1.7506969 -78.685616 -20.313162 148.30202
102904000000 -21.189165 -127.9372 -1.7659189 -79.008202 -1.745096 -78.809937 -20.29151 148.32237
102952000000 -21.097261 -127.84785 -1.7720139 -79.129562 -1.7449223 -78.824883 -20.307295 147.90846
103000000000 -21.165318 -127.71602 -1.7672081 -78.989861 -1.7427796 -78.795891 -20.303047 148.34323
103048000000 -21.039499 -127.71725 -1.7724534 -79.205833 -1.7494831 -78.815964 -20.33128 147.67725
103096000000 -21.15476 -127.88083 -1.7584859 -79.091194 -1.7476254 -78.830894 -20.33773 148.28998
103144000000 -21.038099 -127.95839 -1.7660856 -79.225021 -1.7538389 -78.955605 -20.344469 147.55841
103192000000 -21.189747 -128.25879 -1.7609093 -79.1353 -1.7486547 -78.911201 -20.370441 148.45316
103240000000 -21.071245 -128.02164 -1.770169 -79.286316 -1.7542804 -79.042915 -20.363495 147.60625
103288000000 -21.223991 -128.28763 -1.7641178 -79.245781 -1.7467397 -79.012436 -20.370049 148.39067
103336000000 -21.110956 -127.64077 -1.7717589 -79.361038 -1.7533156 -79.150871 -20.393944 147.45508
103384000000 -21.214708 -128.11313 -1.7692509 -79.32325 -1.7477314 -79.07283 -20.373545 148.33722
103432000000 -21.101463 -127.33125 -1.7723362 -79.383095 -1.7563075 -79.212166 -20.396231 147.73766
103480000000 -21.115654 -127.94339 -1.7732294 -79.40905 -1.7523385 -79.117813 -20.373352 148.14648
103528000000 -21.040264 -127.32788 -1.7679765 -79.491783 -1.7572865 -79.220299 -20.393234 147.64052
103576000000 -21.047176 -127.80768 -1.7686443 -79.489899 -1.7514256 -79.168022 -20.391386 147.84541
103624000000 -21.022669 -127.66117 -1.7673585 -79.588593 -1.7531745 -79.248497 -20.414955 147.61398
103672000000 -21.023809 -127.56193 -1.7650043 -79.649086 -1.7484535 -79.228912 -20.418959 147.57933
103720000000 -21.0546 -127.8838 -1.7657108 -79.699989 -1.7507377 -79.311729 -20.422688 147.62238
103768000000 -21.035778 -127.08057 -1.7649429 -79.725304 -1.7448256 -79.3293 -20.436693 147.47673
103816000000 -21.07925 -127.35601 -1.7684802 -79.760567 -1.7484144 -79.43811 -20.431093 147.50047
103864000000 -21.021717 -126.65736 -1.7712049 -79.798531 -1.7442882 -79.437622 -20.439842 147.45023
103912000000 -21.032742 -127.10634 -1.7751503 -79.82769 -1.7511162 -79.498436 -20.465662 147.46687
103960000000 -20.937277 -126.55943 -1.7741516 -79.845818 -1.7467022 -79.514389 -20.473389 147.44142
104008000000 -20.952963 -127.16196 -1.7790816 -79.919975 -1.7507876 -79.563622 -20.500692 147.36771
104056000000 -20.880402 -126.82336 -1.7759128 -79.973267 -1.7462823 -79.554054 -20.507357 147.30193
104104000000 -20.942741 -127.76365 -1.779716 -80.051514 -1.7498401 -79.633057 -20.51948 147.40085
104152000000 -20.91054 -127.00259 -1.7735568 -79.958618 -1.7513192 -79.620567 -20.552137 147.52232
104200000000 -20.974258 -127.91416 -1.7728921 -80.050835 -1.754032 -79.730789 -20.551596 147.64867
104248000000 -20.953245 -127.0453 -1.766027 -79.994148 -1.7511091 -79.747086 -20.549328 147.73923
104296000000 -20.980303 -127.30704 -1.7701092 -80.104019 -1.7497952 -79.739929 -20.537756 147.81352
104344000000 -20.938429 -126.60417 -1.7679944 -80.133842 -1.7549893 -79.785912 -20.560787 147.56677
104392000000 -20.927765 -126.86083 -1.7701854 -80.20433 -1.7532226 -79.780746 -20.55118 147.72865
104440000000 -20.866045 -126.51594 -1.7671595 -80.24424 -1.7532462 -79.808304 -20.570684 147.55978
104488000000 -20.830242 -126.76905 -1.7690684 -80.286377 -1.750131 -79.857445 -20.57465 147.7278
104536000000 -20.811304 -126.95422 -1.7759973 -80.328934 -1.7479939 -79.898972 -20.597763 147.63966
104584000000 -20.80117 -127.10925 -1.7728139 -80.348122 -1.751693 -79.97966 -20.602287 147.65964
104632000000 -20.828526 -127.35976 -1.7808779 -80.324936 -1.7577021 -80.019585 -20.632385 147.67406
104680000000 -20.817476 -127.15315 -1.7735927 -80.448975 -1.7497766 -80.023354 -20.635256 147.60648
104728000000 -20.879587 -127.42404 -1.7683609 -80.458565 -1.7608663 -80.074928 -20.640844 147.64038
104776000000 -20.871265 -127.19717 -1.7718967 -80.561745 -1.7547311 -80.14463 -20.651529 147.60899
104824000000 -20.866339 -126.95016 -1.7667053 -80.503532 -1.7450151 -80.07618 -20.663984 147.92455
104872000000 -20.83073 -126.93848 -1.7736293 -80.631378 -1.7501155 -80.223068 -20.659481 147.76198
104920000000 -20.827377 -126.95457 -1.7844845 -80.603439 -1.7572598 -80.196732 -20.719847 147.5385
104968000000 -20.766336 -126.89394 -1.7650474 -80.681778 -1.7620941 -80.320427 -20.673132 147.8116
105016000000 -20.781277 -127.23473 -1.7635125 -80.648132 -1.7584401 -80.346962 -20.715197 147.67166
105064000000 -20.739939 -127.05206 -1.763122 -80.750771 -1.7551013 -80.377312 -20.676983 147.81784
105112000000 -20.806581 -127.48171 -1.7654629 -80.723656 -1.755813 -80.41716 -20.711153 147.6615
105160000000 -20.767387 -127.09757 -1.7722871 -80.844467 -1.7557163 -80.451416 -20.697346 147.6983
105208000000 -20.86549 -127.50922 -1.7743809 -80.827087 -1.7543685 -80.459969 -20.74247 147.6962
105256000000 -20.793686 -126.88579 -1.779574 -80.8638 -1.7528424 -80.546806 -20.742949 147.72641
105304000000 -20.839754 -127.01835 -1.785495 -80.919449 -1.7560833 -80.598877 -20.764742 147.72298
105352000000 -20.742596 -126.51195 -1.7871487 -80.94976 -1.7539878 -80.623558 -20.775843 147.78107
105400000000 -20.793617 -127.03554 -1.7878159 -80.978767 -1.7548105 -80.693184 -20.781439 147.82472
105448000000 -20.678123 -126.48535 -1.7884676 -81.02784 -1.7591662 -80.703415 -20.805239 147.75418
105496000000 -20.741356 -127.43827 -1.7841402 -80.959152 -1.7534555 -80.773987 -20.816696 148.05096
105544000000 -20.645632 -126.61385 -1.771704 -81.040131 -1.7648993 -80.761238 -20.824944 148.07295
105592000000 -20.758738 -127.69627 -1.7798252 -81.07634 -1.7681003 -80.789803 -20.837057 148.02106
105640000000 -20.713463 -126.65491 -1.7664479 -81.138214 -1.7653482 -80.859596 -20.819799 148.05908
105688000000 -20.838097 -127.57561 -1.7665716 -81.177574 -1.7637933 -80.874763 -20.829403 148.28719
105736000000 -20.780136 -126.4912 -1.7820389 -81.268356 -1.768015 -80.987083 -20.842869 147.9357
105784000000 -20.859692 -126.87559 -1.7619555 -81.238747 -1.7618079 -80.916283 -20.833391 148.42464
105832000000 -20.737833 -126.11006 -1.7709762 -81.328842 -1.7681465 -81.053635 -20.83074 148.10968
105880000000 -20.815567 -126.63813 -1.7735121 -81.355339 -1.7668655 -81.021103 -20.866117 148.13364
105928000000 -20.649446 -126.09078 -1.7814798 -81.381287 -1.7705761 -81.153679 -20.874937 147.93341
105976000000 -20.747761 -126.58254 -1.7965949 -81.494606 -1.7689797 -81.160011 -20.894926 147.97919
106024000000 -20.597528 -126.66482 -1.7910147 -81.392639 -1.7708318 -81.190094 -20.91794 147.90172
106072000000 -20.743042 -126.90671 -1.7939492 -81.595459 -1.7716584 -81.217377 -20.899303 147.91049
106120000000 -20.598633 -127.14572 -1.7816304 -81.499405 -1.7695951 -81.208786 -20.967588 148.02127
106168000000 -20.767181 -126.97591 -1.7967198 -81.654007 -1.7736048 -81.237488 -20.937431 147.74045
106216000000 -20.657825 -126.95374 -1.7794703 -81.54155 -1.7681469 -81.254448 -21.000395 148.37126
106264000000 -20.758421 -126.71534 -1.7837186 -81.729095 -1.7794973 -81.339867 -20.953457 148.01804
106312000000 -20.64645 -126.36364 -1.7730857 -81.598045 -1.7685544 -81.370056 -20.961098 148.39928
106360000000 -20.674122 -126.4145 -1.7892692 -81.709328 -1.774282 -81.499565 -20.955143 148.14383
106408000000 -20.597515 -126.29578 -1.788774 -81.728508 -1.7893572 -81.416374 -20.937782 148.22774
106456000000 -20.563313 -126.26438 -1.767548 -81.793518 -1.7602078 -81.398315 -21.003897 148.42799
106504000000 -20.590393 -126.96825 -1.8038585 -81.9869 -1.776388 -81.493576 -20.925104 148.17387
106552000000 -20.544605 -126.48013 -1.7912637 -81.923874 -1.7849137 -81.488876 -20.990627 147.94144
106600000000 -20.632092 -126.92824 -1.766282 -81.899025 -1.7763059 -81.487679 -21.034678 148.19952
106648000000 -20.537531 -126.70631 -1.8178238 -82.076729 -1.7596829 -81.606613 -21.043228 148.02025
106696000000 -20.714256 -127.01346 -1.8028115 -81.902565 -1.7939942 -81.722267 -20.991718 147.86871
106744000000 -20.56192 -126.58241 -1.7906847 -82.077934 -1.7796654 -81.761734 -21.038685 147.97597
106792000000 -20.641663 -126.60699 -1.8077433 -82.101959 -1.7795304 -81.686485 -21.049906 147.98199
106840000000 -20.615955 -126.43137 -1.7981185 -82.145363 -1.7926399 -81.771278 -21.070635 147.90314
106888000000 -20.593019 -126.12689 -1.7974324 -82.142685 -1.7770997 -81.639267 -21.106182 148.03427
106936000000 -20.605511 -126.4924 -1.8035895 -82.237602 -1.8016132 -81.872658 -21.065216 147.92612
106984000000 -20.496071 -126.43124 -1.7770869 -82.168671 -1.7790567 -81.722343 -21.119267 148.33322
107032000000 -20.546944 -126.89545 -1.7886169 -82.278168 -1.7885853 -81.926682 -21.120218 148.17134
107080000000 -20.534882 -126.77341 -1.7900419 -82.231285 -1.777277 -81.837082 -21.139381 148.29065
107128000000 -20.631886 -127.07082 -1.7989668 -82.395966 -1.7833498 -82.018112 -21.157087 148.11053
107176000000 -20.636295 -126.5532 -1.7954503 -82.374626 -1.783988 -81.876266 -21.157063 148.31485
107224000000 -20.625235 -126.51699 -1.7948339 -82.47821 -1.7832679 -81.9757 -21.185686 148.17065
107272000000 -20.664557 -125.9146 -1.7960919 -82.426552 -1.779574 -81.968849 -21.196522 148.28012
107320000000 -20.551304 -125.88585 -1.808654 -82.54213 -1.7769153 -82.023376 -21.195961 148.1879
107368000000 -20.604935 -125.44431 -1.814424 -82.447372 -1.7786231 -82.119606 -21.187025 148.15302
107416000000 -20.48572 -125.94057 -1.8229647 -82.564934 -1.7866924 -82.123222 -21.202734 148.19046
107464000000 -20.544504 -125.62975 -1.8075769 -82.483047 -1.7930248 -82.135628 -21.204161 148.10434
107512000000 -20.457979 -126.35312 -1.800398 -82.516006 -1.781119 -82.140839 -21.249166 148.19142
107560000000 -20.581684 -125.99126 -1.812167 -82.596451 -1.7884481 -82.21489 -21.248789 148.40508
107608000000 -20.547043 -126.39122 -1.7972163 -82.583992 -1.7880328 -82.210182 -21.266005 148.49416
107656000000 -20.609737 -125.87397 -1.7965957 -82.672913 -1.7911186 -82.271851 -21.250679 148.51711
107704000000 -20.539434 -125.74388 -1.7900275 -82.624672 -1.7837666 -81.950325 -21.281443 148.86954
107752000000 -20.580744 -125.44241 -1.7892148 -82.702339 -1.7868162 -82.391258 -21.272058 148.94153
107800000000 -20.509563 -125.26093 -1.7845181 -82.79068 -1.7849612 -82.379944 -21.267988 149.26398
107848000000 -20.473951 -125.19226 -1.7863714 -82.830635 -1.7883301 -82.477425 -21.241667 148.99774
107896000000 -20.425638 -125.11643 -1.7910416 -82.905167 -1.7804294 -82.420258 -21.232327 149.11128
107944000000 -20.397133 -125.58474 -1.8097742 -82.878014 -1.7844946 -82.534645 -21.211359 148.91219
107992000000 -20.419428 -125.45075 -1.8015411 -82.905762 -1.7792076 -82.480827 -21.234089 148.90015
108040000000 -20.365099 -126.04369 -1.8097643 -82.97509 -1.7812185 -82.507713 -21.228432 148.9558
108088000000 -20.528484 -126.0274 -1.8294532 -83.001205 -1.7806299 -82.684517 -21.170471 149.09555
108136000000 -20.461588 -125.87212 -1.8067636 -82.957619 -1.7844666 -82.572418 -21.220219 149.04703
108184000000 -20.561398 -125.72023 -1.8007576 -83.103279 -1.7926633 -82.676453 -21.156773 149.0125
108232000000 -20.499353 -125.44983 -1.791422 -83.087296 -1.7859941 -82.600121 -21.250927 149.30234
108280000000 -20.543659 -124.98817 -1.7932845 -83.224815 -1.7909305 -82.689621 -21.178923 149.11162
108328000000 -20.448092 -125.19782 -1.7832456 -83.11425 -1.7940228 -82.700249 -21.233006 149.56923
108376000000 -20.426462 -124.63422 -1.7907386 -83.26799 -1.7851694 -82.634628 -21.203552 149.33588
108424000000 -20.357824 -125.24979 -1.784531 -83.160049 -1.7753665 -82.781754 -21.231306 149.61545
108472000000 -20.377632 -124.86735 -1.8026743 -83.36039 -1.7720208 -82.898483 -21.222816 149.38196
108520000000 -20.355633 -125.40357 -1.7984968 -83.225471 -1.7848558 -82.960449 -21.213858 149.45761
108568000000 -20.408525 -125.04712 -1.8006397 -83.44651 -1.7856246 -82.904366 -21.19906 149.31738
108616000000 -20.395496 -125.31396 -1.7985172 -83.400345 -1.7847914 -82.896317 -21.197754 149.1682
108664000000 -20.463507 -124.96825 -1.7993715 -83.551987 -1.7849226 -82.904266 -21.181992 149.0058
108712000000 -20.425663 -124.90617 -1.7910166 -83.525482 -1.7861253 -82.935883 -21.198215 148.92599
108760000000 -20.483522 -124.42071 -1.8031092 -83.625473 -1.7871479 -83.109421 -21.195669 148.75052
108808000000 -20.395176 -124.63266 -1.8077178 -83.594368 -1.7826961 -83.10775 -21.212183 148.59311
108856000000 -20.416164 -124.0346 -1.8099846 -83.625755 -1.7830734 -83.14534 -21.217539 148.59819
108904000000 -20.313141 -124.70451 -1.8082139 -83.621292 -1.7813574 -83.139191 -21.230375 148.4052
108952000000 -20.347303 -124.0757 -1.8084648 -83.752312 -1.7836772 -83.199142 -21.229023 148.33179
109000000000 -20.257359 -125.2775 -1.8054528 -83.728104 -1.7897941 -83.251251 -21.273228 148.48143
109048000000 -20.425079 -124.2174 -1.8042824 -84.140289 -1.7978976 -83.342468 -21.225727 148.31604
109096000000 -20.404371 -124.98318 -1.7950151 -84.425743 -1.7928034 -83.412354 -21.368254 147.68599
109144000000 -20.500868 -123.68909 -1.7934829 -84.591911 -1.7913595 -83.546158 -21.462399 147.51808
109192000000 -20.356209 -124.48766 -1.7956898 -83.890579 -1.7908461 -83.398239 -21.282383 148.53809
109240000000 -20.368063 -123.90866 -1.8001496 -83.955879 -1.7904305 -83.516937 -21.273409 148.86487
109288000000 -20.308146 -123.73569 -1.8026501 -83.954002 -1.789184 -83.53521 -21.255056 148.61224
109336000000 -20.261364 -123.61044 -1.8077798 -84.053497 -1.7922581 -83.576447 -21.255983 148.61789
109384000000 -20.2138 -123.71885 -1.8008435 -84.039185 -1.7905744 -83.563934 -21.233786 148.45361
109432000000 -20.177885 -123.89779 -1.8107433 -84.115166 -1.7906909 -83.589233 -21.247293 148.32375
109480000000 -20.232801 -124.08734 -1.8146733 -84.111099 -1.7933886 -83.692978 -21.288074 148.22569
109528000000 -20.199411 -124.54861 -1.8219628 -84.153801 -1.7950648 -83.70948 -21.279133 148.13477
109576000000 -20.287178 -124.34837 -1.8187027 -84.181969 -1.8002068 -83.748421 -21.321447 148.35114
109624000000 -20.251381 -124.49786 -1.800947 -84.258331 -1.8008505 -83.828468 -21.315428 148.07945
109672000000 -20.291763 -124.02588 -1.7994447 -84.324188 -1.7927299 -83.809799 -21.365158 148.64589
109720000000 -20.326853 -123.82555 -1.7991791 -84.651878 -1.8027041 -84.110252 -21.522867 148.79997
109768000000 -20.163897 -123.68202 -1.7981968 -84.378227 -1.7903203 -83.87339 -21.352634 148.60078
109816000000 -20.167612 -123.08455 -1.8059491 -84.412964 -1.7984552 -84.04673 -21.330153 148.70923
109864000000 -20.05102 -123.84045 -1.811655 -84.437805 -1.7920942 -83.992134 -21.329617 148.42976
109912000000 -20.114431 -123.59692 -1.8130386 -84.492645 -1.7941351 -84.120544 -21.278704 148.6978
109960000000 -20.037615 -124.21348 -1.8231125 -84.516647 -1.7955102 -84.16053 -21.307459 148.34453
110008000000 -20.10581 -124.19457 -1.8123348 -84.584213 -1.7968165 -84.165634 -21.284317 148.21063
110056000000 -20.048616 -124.4156 -1.8144271 -84.574951 -1.8027433 -84.274986 -21.300919 148.06219
110104000000 -20.138861 -124.46972 -1.8100647 -84.674507 -1.8013161 -84.286194 -21.259672 148.23074
110152000000 -20.088272 -124.48 -1.8132256 -84.721748 -1.7998158 -84.433807 -21.249767 147.74522
110200000000 -20.172756 -124.15242 -1.8247707 -84.633186 -1.805866 -84.396744 -21.290247 148.25536
110248000000 -20.081968 -124.30626 -1.830318 -84.75708 -1.8119195 -84.482658 -21.217606 147.75352
110296000000 -20.132318 -123.94586 -1.8192186 -84.663284 -1.8107858 -84.456657 -21.29237 148.07297
110344000000 -20.036049 -124.38742 -1.8342304 -84.935951 -1.8159227 -84.520294 -21.244539 147.2532
110392000000 -20.091719 -124.04891 -1.8231238 -84.795029 -1.8166083 -84.548866 -21.342577 148.07225
110440000000 -20.030449 -124.53965 -1.8303866 -84.948853 -1.8208469 -84.597076 -21.322292 147.67432
110488000000 -20.068573 -124.4902 -1.8277774 -84.882202 -1.8251048 -84.615227 -21.363226 148.35803
110536000000 -20.070225 -124.40526 -1.8295838 -84.803871 -1.8195602 -84.670204 -21.373259 148.41661
110584000000 -20.030455 -125.07982 -1.8361062 -85.053001 -1.8308936 -84.832458 -21.32535 148.19373
110632000000 -20.145245 -124.18837 -1.8353604 -84.946686 -1.8231207 -84.690514 -21.343018 148.87575
110680000000 -20.13854 -124.51607 -1.8490063 -84.987167 -1.8327814 -84.815216 -21.331934 148.71809
110728000000 -20.172249 -123.93973 -1.8487313 -85.0214 -1.8259016 -84.75518 -21.305952 148.81436
110776000000 -20.112309 -124.0543 -1.8566895 -85.125511 -1.8352004 -84.88269 -21.303522 148.4798
110824000000 -20.125778 -123.74012 -1.8533778 -85.102814 -1.829321 -84.807785 -21.291706 148.57751
110872000000 -20.06086 -123.82677 -1.8517337 -85.142548 -1.8333195 -84.908524 -21.286442 148.39041
110920000000 -20.069027 -124.0192 -1.8477685 -85.197914 -1.8345089 -84.89843 -21.305059 148.35094
110968000000 -20.04706 -124.17188 -1.8491453 -85.175224 -1.8373556 -84.901451 -21.326742 148.35448
111016000000 -20.087038 -124.38426 -1.8468291 -85.274574 -1.8372959 -84.981163 -21.329966 147.91978
111064000000 -20.093723 -124.40959 -1.8525759 -85.298462 -1.8376496 -84.958122 -21.409092 148.1067
111112000000 -20.13183 -124.32285 -1.8535302 -85.316185 -1.8435518 -85.072723 -21.380835 147.95474
111160000000 -20.167847 -124.15866 -1.854003 -85.31295 -1.8444213 -85.080093 -21.437654 148.32367
111208000000 -20.136389 -123.79343 -1.8461843 -85.339325 -1.8466769 -85.102142 -21.389601 148.0977
111256000000 -20.172867 -123.67317 -1.8522052 -85.455231 -1.8449613 -85.112404 -21.421576 148.59914
111304000000 -20.129194 -123.50227 -1.8601372 -85.462357 -1.8430275 -85.169296 -21.367245 148.377
111352000000 -20.11528 -123.43846 -1.8663341 -85.608398 -1.8506376 -85.194443 -21.353773 148.18756
111400000000 -20.074005 -123.38702 -1.8731902 -85.563835 -1.8510129 -85.204353 -21.335043 148.17465
111448000000 -20.053766 -123.80527 -1.8725718 -85.539284 -1.8503339 -85.211899 -21.338743 148.09317
111496000000 -20.058592 -123.48673 -1.8635486 -85.540504 -1.8461336 -85.221764 -21.330429 148.58606
111544000000 -20.067368 -124.0795 -1.858631 -85.600143 -1.8464353 -85.27832 -21.345982 148.36263
111592000000 -20.052355 -123.53031 -1.8524181 -85.59996 -1.8438525 -85.27961 -21.337301 148.57352
111640000000 -20.11692 -123.97079 -1.8567078 -85.646843 -1.844238 -85.319725 -21.337523 148.7189
111688000000 -20.066084 -123.34917 -1.8578094 -85.586235 -1.84657 -85.378319 -21.35269 148.72607
111736000000 -20.135983 -123.68297 -1.8621522 -85.733154 -1.8560572 -85.398972 -21.376928 148.65897
111784000000 -20.090858 -123.28064 -1.8681812 -85.729767 -1.8500561 -85.367249 -21.401413 148.76903
111832000000 -20.071501 -123.50453 -1.8731893 -85.758629 -1.8579445 -85.491859 -21.409817 149.02541
111880000000 -19.975101 -123.16569 -1.8688241 -85.743744 -1.8555579 -85.454742 -21.412533 149.09082
111928000000 -20.027184 -123.58389 -1.8659141 -85.737373 -1.8541859 -85.472633 -21.405964 149.59647
111976000000 -19.949768 -123.38306 -1.8642421 -85.776894 -1.8579392 -85.556511 -21.407812 149.24039
112024000000 -20.018505 -123.69303 -1.8571317 -85.758232 -1.8495857 -85.475632 -21.373859 149.96127
112072000000 -19.935335 -123.43253 -1.8648776 -85.914223 -1.8589586 -85.663887 -21.37134 148.76068
112120000000 -20.029514 -123.70919 -1.8650274 -85.878616 -1.8493071 -85.560425 -21.381289 149.50699
112168000000 -19.992973 -123.4463 -1.8702103 -85.944542 -1.8542042 -85.706444 -21.414049 149.02586
112216000000 -20.02849 -123.43967 -1.864112 -85.927742 -1.8452028 -85.622467 -21.40193 149.65675
112264000000 -20.000147 -123.13786 -1.8711784 -85.998878 -1.8453623 -85.719749 -21.421091 149.33234
112312000000 -19.995827 -123.0596 -1.8576193 -85.903496 -1.865595 -85.775238 -21.429296 149.53275
112360000000 -19.948025 -122.71983 -1.8475689 -86.029213 -1.8516009 -85.718033 -21.411497 149.49271
112408000000 -19.907757 -122.91024 -1.8618951 -86.185875 -1.8429282 -85.825226 -21.439837 149.28957
112456000000 -19.875845 -122.62405 -1.8549083 -85.988144 -1.84837 -85.832703 -21.433056 149.68996
112504000000 -19.878223 -123.44814 -1.8751985 -86.22934 -1.848906 -85.933014 -21.448954 149.56078
112552000000 -19.843998 -122.99072 -1.8717759 -86.069489 -1.8478842 -85.97477 -21.42708 149.8576
112600000000 -19.932432 -123.69402 -1.8815287 -86.160194 -1.8411423 -85.947784 -21.408226 149.9257
112648000000 -19.867189 -123.19479 -1.8747298 -86.112854 -1.8522769 -86.107109 -21.390121 149.85071
112696000000 -20.028034 -123.62655 -1.8600343 -86.124115 -1.8613919 -86.038811 -21.389992 149.97749
112744000000 -19.936947 -122.81702 -1.8507013 -86.134262 -1.8652952 -86.111755 -21.388418 149.8011
112792000000 -19.988291 -123.12143 -1.8598412 -86.283699 -1.8521317 -86.041298 -21.388702 149.94461
112840000000 -19.913465 -122.74544 -1.8589392 -86.302002 -1.8594095 -86.150345 -21.377871 149.63219
112888000000 -19.895823 -122.87074 -1.8710562 -86.280914 -1.8437034 -86.163399 -21.358938 150.12556
112936000000 -19.784134 -122.65031 -1.8609421 -86.392937 -1.8520105 -86.266045 -21.383272 149.58656
112984000000 -19.810888 -122.88091 -1.8511481 -86.318962 -1.8461854 -86.206039 -21.306318 150.56523
113032000000 -19.726719 -122.76199 -1.8527266 -86.443832 -1.8517059 -86.260857 -21.375586 149.86111
113080000000 -19.801149 -123.11044 -1.8407488 -86.412338 -1.8493562 -86.209366 -21.256483 150.62617
113128000000 -19.754486 -122.8634 -1.8493466 -86.582497 -1.8440773 -86.264137 -21.334412 149.90735
113176000000 -19.837833 -123.29621 -1.849051 -86.561203 -1.8402944 -86.344521 -21.251766 150.39471
113224000000 -19.775267 -122.87826 -1.8595726 -86.652611 -1.8494968 -86.44767 -21.330839 149.88008
113272000000 -19.840824 -123.22448 -1.8583308 -86.611267 -1.8423307 -86.37693 -21.292158 150.59975
113320000000 -19.762918 -122.63237 -1.8631359 -86.670792 -1.8458252 -86.504143 -21.352566 149.91119
113368000000 -19.797857 -123.26097 -1.8550956 -86.71402 -1.8395822 -86.429001 -21.292185 151.03317
113416000000 -19.709332 -122.56319 -1.8523388 -86.773193 -1.8425736 -86.555489 -21.346973 150.03136
113464000000 -19.735268 -123.484 -1.8513674 -86.849792 -1.838673 -86.534531 -21.266613 151.08546
113512000000 -19.676149 -122.63266 -1.8463292 -86.865204 -1.8432732 -86.657219 -21.357872 150.14618
113560000000 -19.716288 -123.75071 -1.8495076 -86.895576 -1.8371545 -86.59288 -21.269604 151.22495
113608000000 -19.657412 -123.10281 -1.849651 -86.947342 -1.8424858 -86.745796 -21.361797 150.57973
113656000000 -19.7043 -123.86716 -1.8489773 -86.93364 -1.8368435 -86.698013 -21.250393 151.12807
113704000000 -19.647186 -123.13017 -1.8490046 -87.049065 -1.8392715 -86.760056 -21.323118 150.53252
113752000000 -19.672358 -123.59868 -1.8432581 -87.029655 -1.8370245 -86.7911 -21.271721 150.80385
113800000000 -19.628817 -122.92142 -1.8452601 -87.078331 -1.8348284 -86.797562 -21.311985 150.6349
113848000000 -19.621237 -122.89761 -1.8468987 -87.187691 -1.8374326 -86.868454 -21.307276 150.52792
113896000000 -19.615877 -123.24722 -1.8500561 -87.23671 -1.8389066 -86.879539 -21.308821 150.55049
113944000000 -19.569054 -122.93369 -1.8530296 -87.331337 -1.8418864 -86.922676 -21.321396 150.27917
113992000000 -19.596874 -123.53117 -1.8578416 -87.348541 -1.8441732 -86.928635 -21.303038 150.34296
114040000000 -19.592974 -124.15071 -1.8655163 -87.372231 -1.8427212 -86.939285 -21.284357 150.47043
114088000000 -19.56496 -122.86736 -1.8674116 -87.390984 -1.8489587 -87.055435 -21.389647 150.14857
114136000000 -19.604336 -124.24699 -1.8629849 -87.318245 -1.8437908 -87.010674 -21.300659 150.74294
114184000000 -19.574772 -122.96839 -1.8622626 -87.397102 -1.8492203 -87.176041 -21.38958 150.24989
114232000000 -19.610123 -123.92086 -1.8566148 -87.436485 -1.8471625 -87.096092 -21.304762 150.9397
114280000000 -19.587708 -123.31933 -1.8542228 -87.378723 -1.8481299 -87.166359 -21.3186 151.12929
114328000000 -19.601852 -123.26051 -1.8541669 -87.504227 -1.848738 -87.229721 -21.352221 150.99207
114376000000 -19.594934 -123.13477 -1.8502201 -87.497536 -1.8441838 -87.137962 -21.295942 151.20058
114424000000 -19.535126 -123.16826 -1.8543303 -87.655846 -1.8472049 -87.267639 -21.319319 150.96634
114472000000 -19.517372 -123.27937 -1.8524601 -87.652031 -1.8454133 -87.308052 -21.254862 151.07027
114520000000 -19.495991 -123.69569 -1.8588765 -87.708153 -1.8476841 -87.365799 -21.243139 150.82428
114568000000 -19.505625 -123.66652 -1.862147 -87.718697 -1.8492103 -87.478172 -21.249126 150.64499
114616000000 -19.51552 -124.042 -1.8659602 -87.714241 -1.8484032 -87.480469 -21.250515 150.53784
114664000000 -19.519257 -123.9918 -1.8732973 -87.795662 -1.8546437 -87.612411 -21.299946 150.40009
114712000000 -19.528921 -123.93551 -1.8770015 -87.803268 -1.857645 -87.559883 -21.340391 150.40097
114760000000 -19.530819 -123.94092 -1.8759245 -87.863312 -1.8576689 -87.595718 -21.375578 150.49837
114808000000 -19.53294 -123.81118 -1.8723682 -87.84108 -1.8588105 -87.584305 -21.38501 150.46867
114856000000 -19.534252 -124.03735 -1.8705754 -87.883865 -1.8584217 -87.599411 -21.391016 150.61565
114904000000 -19.559473 -123.78389 -1.8646154 -87.844429 -1.8585436 -87.679436 -21.390572 150.63579
114952000000 -19.53211 -123.88002 -1.8606349 -87.965637 -1.8559953 -87.728149 -21.39105 150.50574
115000000000 -19.537498 -123.56228 -1.8616661 -87.801071 -1.8561093 -87.699776 -21.369514 150.63037
