!Keysight Technologies,N5247B,MY61256062,A.16.20.04
!Date: Tuesday, November 18, 2025 10:35:23
!Correction: S11(C  2-Port  ) 
!S21(C  2-Port  ) 
!S12(C  2-Port  ) 
!S22(C  2-Port  ) 
!S2P File: Measurements: S11, S21, S12, S22:
# Hz S  dB   R 50
67000000000 -22.399948 -89.716499 -1.6111093 -124.21568 -1.6961633 -69.305695 -37.001476 -32.124825
67048000000 -22.39604 -88.561493 -1.602388 -124.62411 -1.6811916 -68.983978 -37.136982 -34.740768
67096000000 -22.23641 -87.88208 -1.6424534 -124.72552 -1.652746 -68.906853 -37.508072 -36.030621
67144000000 -22.13896 -88.256256 -1.6307474 -124.88643 -1.6509049 -69.048973 -37.270626 -33.2421
67192000000 -22.085756 -90.263802 -1.6596125 -124.69077 -1.6634885 -69.47464 -36.433128 -35.838436
67240000000 -22.234047 -90.446724 -1.6306977 -124.27931 -1.6522456 -69.926018 -38.274593 -32.424374
67288000000 -22.526583 -91.45768 -1.6382709 -123.9151 -1.6609294 -70.27179 -37.100834 -38.103703
67336000000 -22.609838 -90.080841 -1.6283809 -124.18559 -1.6950667 -70.194016 -37.493473 -34.558147
67384000000 -22.377407 -88.490067 -1.6304512 -124.30245 -1.6556143 -69.983162 -39.134983 -33.694237
67432000000 -22.076283 -88.25499 -1.6408169 -125.22864 -1.6576688 -69.795731 -38.7117 -19.198214
67480000000 -21.800064 -88.680893 -1.6273009 -125.33833 -1.6631122 -69.665413 -39.989937 -29.243513
67528000000 -21.962687 -89.650742 -1.6245934 -125.3105 -1.643084 -69.791641 -40.037426 -37.419552
67576000000 -22.293976 -91.292511 -1.6363518 -125.12903 -1.6726711 -69.822281 -39.083622 -36.861912
67624000000 -22.492294 -91.49054 -1.6159672 -125.00665 -1.6578994 -70.093399 -39.398434 -42.016731
67672000000 -22.549707 -90.449615 -1.6449275 -124.986 -1.6805267 -70.355293 -39.818649 -36.650673
67720000000 -22.463469 -90.755287 -1.641719 -125.1394 -1.6819018 -70.3675 -40.194664 -36.465153
67768000000 -22.39393 -89.652878 -1.6444451 -125.22591 -1.6817405 -70.316422 -41.051029 -31.754301
67816000000 -22.263124 -90.57901 -1.6163573 -125.37367 -1.6658199 -70.165878 -41.909443 -29.955008
67864000000 -22.437729 -91.606598 -1.6013868 -125.50517 -1.6500335 -70.049263 -42.150955 -28.465664
67912000000 -22.476299 -91.959923 -1.634179 -125.48495 -1.6673249 -70.442146 -39.944695 -20.675112
67960000000 -22.464571 -90.518219 -1.6522241 -125.31983 -1.6467863 -70.495628 -39.479919 -38.711639
68008000000 -22.485909 -89.502113 -1.6830032 -125.35333 -1.6710144 -70.567894 -38.867672 -32.719975
68056000000 -22.170486 -90.339302 -1.6583549 -125.37166 -1.6956933 -70.482048 -39.4632 -38.437565
68104000000 -22.092339 -90.349442 -1.6616819 -125.22753 -1.6880965 -70.755829 -39.007797 -44.142742
68152000000 -22.067451 -92.124168 -1.6489352 -125.13465 -1.6727381 -70.877663 -39.457443 -47.866043
68200000000 -22.207712 -94.095955 -1.6645782 -125.17932 -1.6576356 -70.75074 -39.802399 -44.97308
68248000000 -22.264359 -93.510742 -1.6709837 -125.81494 -1.670568 -70.502136 -40.78516 -35.567703
68296000000 -22.484962 -91.280556 -1.6544001 -126.16891 -1.6603709 -70.437614 -40.25634 -38.801449
68344000000 -22.34676 -89.273041 -1.6514913 -126.26711 -1.6763611 -70.284714 -38.983356 -38.821644
68392000000 -22.221958 -89.085098 -1.6492349 -126.34116 -1.6703638 -70.352333 -39.035694 -36.934937
68440000000 -21.82999 -91.695793 -1.6372242 -126.01199 -1.6418765 -70.563286 -37.983665 -42.566147
68488000000 -22.140173 -92.312271 -1.6884822 -125.88477 -1.6475134 -71.115341 -39.586082 -43.795616
68536000000 -22.21958 -93.74662 -1.6664084 -125.89043 -1.6344845 -71.469727 -38.78495 -55.939877
68584000000 -22.535013 -93.005768 -1.6704025 -125.82916 -1.6456652 -71.525284 -39.652153 -48.885296
68632000000 -22.605131 -91.735115 -1.6537064 -125.75733 -1.6440493 -71.519714 -39.372841 -55.346996
68680000000 -22.40909 -91.487511 -1.6257765 -125.94933 -1.6420616 -71.308945 -39.248348 -54.593456
68728000000 -22.151775 -91.053772 -1.6439234 -126.43302 -1.6476295 -70.891586 -39.812698 -49.003918
68776000000 -21.93615 -91.927727 -1.6508477 -126.97916 -1.6480615 -70.514259 -38.96685 -49.618538
68824000000 -22.215279 -93.499832 -1.6797385 -127.34293 -1.646733 -70.705078 -39.65715 -49.605267
68872000000 -22.20232 -94.563377 -1.670131 -127.30574 -1.643849 -71.028313 -39.288815 -56.501823
68920000000 -22.66374 -93.842545 -1.6878086 -126.80253 -1.6572173 -71.543175 -39.475857 -52.582558
68968000000 -22.545565 -93.940758 -1.6730623 -126.35842 -1.656386 -72.233788 -38.44883 -58.672329
69016000000 -22.598244 -92.065895 -1.6674442 -125.97555 -1.6668613 -72.517967 -38.732185 -52.354317
69064000000 -22.27249 -92.958115 -1.6635584 -126.44602 -1.6650876 -72.235001 -37.544792 -59.802399
69112000000 -22.254719 -93.597092 -1.6718228 -127.03155 -1.6623188 -71.804344 -38.035511 -57.13559
69160000000 -22.26391 -95.226662 -1.6628082 -127.79387 -1.6598318 -71.168747 -37.473438 -62.871605
69208000000 -22.459208 -95.390373 -1.6793197 -128.31578 -1.6676836 -70.840012 -37.616241 -63.305492
69256000000 -22.762785 -93.314926 -1.6791697 -127.91838 -1.6719646 -70.703575 -36.229187 -56.390022
69304000000 -22.634104 -92.665352 -1.675959 -127.87035 -1.6728556 -71.026466 -36.66449 -61.474586
69352000000 -22.867298 -91.377396 -1.6896218 -127.67716 -1.6850429 -71.528191 -38.066837 -55.863884
69400000000 -22.588541 -91.605095 -1.6993741 -127.45965 -1.6861373 -71.960823 -38.060333 -62.209663
69448000000 -22.946301 -91.579262 -1.6949096 -127.16705 -1.6940507 -72.418526 -37.379852 -57.430302
69496000000 -22.70356 -92.858765 -1.6865724 -127.03532 -1.6887881 -72.476257 -36.488041 -60.51112
69544000000 -22.942419 -92.663345 -1.6972189 -127.19064 -1.6925246 -72.281479 -36.646236 -55.139679
69592000000 -23.007275 -93.24514 -1.6911198 -127.81594 -1.6885967 -71.935204 -36.539253 -62.45211
69640000000 -23.151815 -91.764557 -1.6874402 -128.44191 -1.698483 -71.475311 -36.578377 -60.771145
69688000000 -23.018543 -91.206711 -1.687562 -128.73297 -1.6941463 -71.192764 -36.377605 -60.771973
69736000000 -22.798492 -90.566887 -1.689997 -128.68262 -1.6962081 -71.316696 -36.301384 -61.413681
69784000000 -22.733305 -90.932243 -1.7007065 -128.46815 -1.6924975 -71.675407 -36.397705 -61.578098
69832000000 -22.631931 -91.535378 -1.7068859 -128.39984 -1.6948349 -71.996948 -36.634113 -64.078506
69880000000 -22.756901 -91.974304 -1.7157201 -128.36346 -1.6983582 -72.180664 -37.032387 -61.505547
69928000000 -22.814976 -92.205627 -1.7121006 -128.45934 -1.6964499 -72.30558 -36.576176 -63.987316
69976000000 -22.762491 -91.08773 -1.711307 -128.3591 -1.6988419 -72.333984 -36.461349 -62.379585
70024000000 -22.690948 -90.236465 -1.7047626 -128.39079 -1.7014158 -72.372498 -35.962467 -62.379143
70072000000 -22.574814 -90.046753 -1.7017448 -128.53249 -1.7033447 -72.324181 -35.867138 -62.511368
70120000000 -22.375992 -89.955948 -1.7036964 -128.67674 -1.708455 -72.283875 -35.930984 -61.565392
70168000000 -22.424587 -90.889702 -1.7016962 -128.89749 -1.7062712 -72.182724 -35.53743 -63.243904
70216000000 -22.360435 -91.120361 -1.6941818 -129.07721 -1.6958183 -72.204384 -35.454987 -65.095612
70264000000 -22.575279 -91.793945 -1.7201207 -129.09988 -1.6993936 -72.31144 -35.732189 -64.776543
70312000000 -22.612511 -90.533707 -1.725401 -129.17998 -1.7141215 -72.296806 -35.740944 -61.302334
70360000000 -22.782459 -90.759659 -1.723127 -129.41422 -1.720136 -72.242592 -35.755844 -62.560772
70408000000 -22.498667 -89.547379 -1.711481 -129.67564 -1.7212775 -72.098289 -35.496281 -61.299255
70456000000 -22.469238 -90.517776 -1.7005751 -129.78531 -1.7213649 -71.98452 -35.095997 -60.287388
70504000000 -22.287945 -89.948807 -1.7119063 -129.85762 -1.714529 -71.982201 -34.984486 -56.959805
70552000000 -22.24305 -91.006439 -1.7030588 -129.83012 -1.7157235 -72.078011 -34.728386 -57.238071
70600000000 -22.317213 -90.942375 -1.7047971 -129.74815 -1.7134209 -72.372086 -34.234741 -57.42033
70648000000 -22.205227 -90.278748 -1.6985254 -129.64532 -1.7229816 -72.593269 -34.370506 -60.497936
70696000000 -22.35071 -90.79937 -1.7108845 -129.73785 -1.718522 -72.647194 -34.206863 -57.577839
70744000000 -22.056534 -89.093704 -1.7009581 -130.03844 -1.7149712 -72.46769 -34.597759 -61.364155
70792000000 -22.182089 -91.039047 -1.7048539 -130.31485 -1.7071466 -72.293633 -34.075901 -57.522282
70840000000 -21.84532 -89.215141 -1.6905669 -130.53127 -1.7106372 -72.18174 -34.197189 -59.02438
70888000000 -22.057928 -91.758278 -1.7090397 -130.76727 -1.7116745 -72.061668 -33.757904 -52.776382
70936000000 -21.835745 -90.117821 -1.6989243 -130.98677 -1.7004006 -71.994957 -33.654095 -57.674904
70984000000 -22.005232 -91.754471 -1.7002003 -131.13872 -1.7100481 -71.950874 -33.338779 -53.200203
71032000000 -21.900391 -90.604073 -1.6966021 -130.99727 -1.7074604 -72.105331 -33.022591 -52.693684
71080000000 -21.838493 -91.117638 -1.68314 -130.83719 -1.6982874 -72.334213 -32.653439 -54.653969
71128000000 -21.787188 -90.391541 -1.6879702 -130.6974 -1.6990502 -72.644951 -32.668037 -53.995422
71176000000 -21.753485 -91.143768 -1.6780742 -130.59145 -1.6918882 -72.905586 -32.489857 -56.001938
71224000000 -21.669836 -91.144531 -1.6919597 -130.54686 -1.6884662 -73.058594 -32.21817 -53.525822
71272000000 -21.587551 -91.177765 -1.6807052 -130.53264 -1.6916758 -73.127052 -32.509403 -54.643337
71320000000 -21.669107 -91.594269 -1.7054811 -130.67429 -1.7014859 -73.113312 -32.433807 -51.402073
71368000000 -21.655571 -90.481133 -1.6887556 -130.84393 -1.6962819 -73.062538 -32.604294 -53.742168
71416000000 -21.762823 -91.095337 -1.7251676 -131.14198 -1.706234 -72.800476 -32.432671 -49.561687
71464000000 -21.781467 -89.254738 -1.7213379 -131.64873 -1.7117881 -72.523399 -32.650696 -53.455078
71512000000 -21.791813 -90.440498 -1.7394006 -132.02951 -1.7266394 -72.40387 -32.586113 -52.075497
71560000000 -21.868662 -88.724304 -1.7506272 -132.20918 -1.7238473 -72.489655 -32.669468 -55.682777
71608000000 -21.804436 -91.090721 -1.7464786 -132.0999 -1.7411284 -72.779495 -32.374226 -54.768513
71656000000 -21.861219 -89.439667 -1.7453804 -131.85921 -1.7304908 -73.3284 -32.305523 -58.58609
71704000000 -21.812572 -91.033737 -1.7321155 -131.23576 -1.7436594 -73.882172 -32.24136 -55.888172
71752000000 -21.693537 -89.663246 -1.6834643 -130.65186 -1.732293 -74.007362 -31.687759 -50.442101
71800000000 -21.842939 -90.711212 -1.712894 -131.0367 -1.7261717 -74.065872 -31.684561 -52.143669
71848000000 -21.97105 -89.146294 -1.7703118 -131.64368 -1.7462896 -73.979767 -32.365677 -55.913685
71896000000 -21.836697 -89.758812 -1.7541138 -132.08475 -1.7487853 -73.674858 -32.021595 -53.206219
71944000000 -21.709213 -89.522812 -1.7508119 -132.53853 -1.7181374 -73.164886 -31.8125 -53.818672
71992000000 -21.587523 -89.686157 -1.7563428 -132.9581 -1.7211967 -72.893341 -31.464453 -51.662525
72040000000 -21.641264 -90.326332 -1.7590759 -133.08363 -1.7192042 -72.712204 -31.336048 -53.663803
72088000000 -21.637558 -89.891418 -1.7339669 -132.9247 -1.7296734 -73.000916 -31.050423 -52.773384
72136000000 -21.71723 -90.563515 -1.7142682 -132.57585 -1.7496771 -73.529671 -31.100256 -53.701576
72184000000 -21.711542 -90.647461 -1.696311 -132.30214 -1.748577 -74.008492 -31.114897 -55.088604
72232000000 -21.593288 -89.084244 -1.7148291 -131.86797 -1.7293955 -74.46273 -31.159601 -54.341644
72280000000 -21.486998 -89.344025 -1.7092814 -131.61719 -1.7131343 -74.593811 -31.34392 -54.091522
72328000000 -21.429363 -88.761818 -1.7235136 -131.9516 -1.7147911 -74.502663 -31.086304 -53.081802
72376000000 -21.357426 -89.504639 -1.7093662 -132.61452 -1.708562 -73.974434 -30.990784 -52.791878
72424000000 -21.417233 -89.475845 -1.7373931 -133.37125 -1.7256467 -73.425919 -31.052164 -52.780586
72472000000 -21.309408 -90.09845 -1.7222726 -133.95168 -1.7276038 -72.783386 -30.603024 -51.212269
72520000000 -21.452955 -88.941643 -1.7230108 -134.24771 -1.7132074 -72.608986 -30.707426 -54.354477
72568000000 -21.231749 -90.539879 -1.7297574 -134.27365 -1.7217673 -72.942497 -30.205225 -52.847885
72616000000 -21.355436 -88.991837 -1.7166797 -133.84566 -1.7129327 -73.509499 -30.622124 -55.671104
72664000000 -21.152306 -90.134087 -1.7237568 -133.23126 -1.7226402 -74.208038 -30.378248 -55.409214
72712000000 -21.261593 -89.550995 -1.725901 -132.86574 -1.7096977 -74.755585 -30.717209 -55.412502
72760000000 -21.199577 -90.256622 -1.7281479 -132.89638 -1.7060937 -74.845322 -30.717995 -55.459808
72808000000 -21.256182 -90.339462 -1.7280415 -133.35074 -1.7079629 -74.48513 -30.76783 -53.888084
72856000000 -21.291533 -90.236694 -1.7259202 -134.00894 -1.7087175 -73.906258 -30.806286 -53.455154
72904000000 -21.306324 -90.138275 -1.7249805 -134.6244 -1.7155764 -73.450577 -30.658518 -52.584042
72952000000 -21.289577 -89.78141 -1.7193749 -134.90298 -1.716848 -73.298355 -30.534145 -53.335407
73000000000 -21.292273 -89.724556 -1.7180228 -134.72212 -1.7172467 -73.653076 -30.437269 -53.071049
73048000000 -21.218309 -90.11396 -1.7206166 -134.23801 -1.7166905 -74.360786 -30.384508 -54.120586
73096000000 -21.215378 -90.031715 -1.7241449 -133.69032 -1.7232049 -74.970711 -30.352467 -54.319824
73144000000 -21.180201 -90.753174 -1.7344517 -133.52226 -1.7291781 -75.493858 -30.399422 -54.145485
73192000000 -21.277298 -90.189339 -1.7188846 -133.52022 -1.7195141 -75.401848 -30.543427 -55.163647
73240000000 -21.251505 -90.598137 -1.7293508 -134.00299 -1.7319998 -75.240044 -30.536091 -53.820297
73288000000 -21.35523 -89.937111 -1.7377172 -134.42422 -1.7339369 -74.496117 -30.724714 -54.110653
73336000000 -21.17523 -89.979973 -1.7523122 -134.88408 -1.7560173 -73.096436 -31.398521 -46.700619
73384000000 -21.19133 -89.538536 -1.7635548 -134.9664 -1.7380219 -73.441124 -31.155924 -46.97353
73432000000 -21.092678 -89.759384 -1.773102 -134.63719 -1.7603538 -73.662163 -31.314087 -47.055801
73480000000 -21.251648 -89.665833 -1.7840036 -134.3421 -1.7449548 -75.557411 -30.434286 -52.319153
73528000000 -21.205624 -89.760841 -1.7839278 -133.99974 -1.7497065 -75.924408 -30.447765 -51.733162
73576000000 -21.271879 -89.921768 -1.787526 -133.95192 -1.7380632 -76.012672 -30.364029 -51.666447
73624000000 -21.263355 -89.426857 -1.7893697 -134.17439 -1.7360474 -75.91909 -30.426538 -51.93438
73672000000 -21.265072 -89.268593 -1.8023788 -134.65492 -1.7308004 -75.493431 -30.470461 -51.753288
73720000000 -21.143719 -89.750237 -1.7959749 -135.18204 -1.7421973 -73.620674 -31.799475 -45.784676
73768000000 -21.079308 -89.453148 -1.7992551 -135.5743 -1.7426848 -73.47142 -31.599957 -45.614666
73816000000 -21.072521 -89.437935 -1.7818719 -135.75549 -1.745024 -73.404602 -31.648102 -46.007351
73864000000 -21.023998 -89.04921 -1.7716297 -135.62619 -1.764487 -73.797432 -31.460638 -46.734703
73912000000 -21.029072 -88.192047 -1.7614052 -135.25121 -1.7503108 -75.795013 -29.698444 -49.248825
73960000000 -21.034742 -88.196846 -1.7627087 -134.67027 -1.7597229 -76.404839 -29.682486 -48.676258
74008000000 -21.041075 -88.304039 -1.7488762 -134.41821 -1.7470617 -76.44825 -29.708609 -47.89082
74056000000 -21.009193 -88.31794 -1.7502627 -134.5932 -1.7545903 -76.50782 -29.553341 -47.801834
74104000000 -20.980087 -87.977135 -1.7512749 -134.88275 -1.7460861 -76.217735 -29.461977 -48.374592
74152000000 -20.952036 -88.313286 -1.765431 -135.38962 -1.7463964 -75.731926 -29.516029 -48.950375
74200000000 -20.918476 -88.144646 -1.7589773 -135.90547 -1.7343405 -75.180916 -29.501453 -49.499897
74248000000 -20.879629 -88.678429 -1.7582003 -136.22324 -1.7422035 -75.135307 -29.510715 -49.635128
74296000000 -20.915455 -88.380951 -1.7438481 -136.04395 -1.7432877 -75.291557 -29.549576 -50.142071
74344000000 -20.914854 -88.983932 -1.7473888 -135.64877 -1.7471446 -75.869865 -29.570728 -50.076378
74392000000 -20.921623 -88.324333 -1.746984 -135.25139 -1.7418122 -76.485504 -29.578714 -49.857677
74440000000 -20.927658 -88.409317 -1.7609991 -135.007 -1.7399254 -76.871193 -29.571386 -49.797253
74488000000 -20.901529 -87.903687 -1.7578961 -135.07729 -1.7410245 -76.891129 -29.595953 -49.700531
74536000000 -20.807476 -87.771477 -1.7708578 -135.6265 -1.7449335 -76.628998 -29.569195 -49.673203
74584000000 -20.804457 -88.237175 -1.7668438 -136.23576 -1.7423829 -76.140282 -29.592533 -48.67392
74632000000 -20.71982 -87.878273 -1.7725304 -136.8252 -1.7440833 -75.79303 -29.513536 -48.9436
74680000000 -20.753462 -88.553703 -1.7765872 -136.97427 -1.7414628 -75.720055 -29.513485 -48.537857
74728000000 -20.743111 -88.131516 -1.782071 -136.71201 -1.7460436 -76.057053 -29.491179 -49.125725
74776000000 -20.774738 -88.610947 -1.7825743 -136.23616 -1.7459948 -76.590927 -29.559362 -49.409809
74824000000 -20.75823 -88.117249 -1.7863792 -135.8214 -1.7480083 -77.216309 -29.566092 -49.347462
74872000000 -20.755985 -88.45623 -1.7841253 -135.74039 -1.7397658 -77.439423 -29.642635 -49.432178
74920000000 -20.696018 -87.891357 -1.7845926 -136.0451 -1.7351148 -77.286079 -29.750057 -48.944027
74968000000 -20.72661 -88.706673 -1.7719535 -136.39557 -1.73634 -76.938408 -29.937157 -49.247746
75016000000 -20.696396 -88.498779 -1.7728385 -136.77803 -1.7413557 -76.596771 -30.007244 -49.324337
75064000000 -20.702 -88.867592 -1.7693547 -136.9743 -1.7368327 -76.528549 -30.07132 -49.37822
75112000000 -20.656818 -88.605309 -1.7647089 -136.90533 -1.7387748 -76.708542 -30.023439 -49.19976
75160000000 -20.639132 -88.895988 -1.7659608 -136.82135 -1.7363269 -77.13282 -30.147589 -48.967937
75208000000 -20.543615 -88.693741 -1.7709929 -136.49564 -1.7347304 -77.409546 -29.78215 -49.102901
75256000000 -20.54912 -88.945496 -1.7808393 -136.67328 -1.7445029 -77.542427 -29.834105 -50.235153
75304000000 -20.510202 -88.879364 -1.7776517 -136.81903 -1.7395246 -77.325157 -29.650732 -51.685322
75352000000 -20.513878 -88.942497 -1.7776103 -137.28906 -1.7504541 -76.992332 -29.731251 -52.238525
75400000000 -20.466888 -89.014542 -1.7759906 -137.60832 -1.7424122 -76.87812 -29.743368 -52.72126
75448000000 -20.470295 -89.219109 -1.7691835 -137.71556 -1.7453243 -76.977417 -29.818027 -52.986294
75496000000 -20.500492 -88.980568 -1.7738583 -137.55688 -1.7554864 -77.23674 -29.774576 -53.360367
75544000000 -20.495651 -89.097488 -1.7588034 -137.36142 -1.7572858 -77.430946 -29.789063 -53.272354
75592000000 -20.485901 -88.792519 -1.7642589 -137.35681 -1.7541126 -77.745522 -29.806488 -53.018543
75640000000 -20.430628 -88.991585 -1.7619392 -137.49135 -1.7567035 -77.685188 -29.794382 -52.837997
75688000000 -20.428812 -89.310898 -1.7634569 -137.82224 -1.7610903 -77.481644 -29.79356 -52.250946
75736000000 -20.349892 -89.55632 -1.7720625 -138.25905 -1.7610476 -77.246582 -29.837442 -52.385754
75784000000 -20.402571 -90.454872 -1.7735171 -138.53188 -1.7596961 -77.050652 -29.798685 -51.790443
75832000000 -20.405621 -90.464111 -1.7877082 -138.75061 -1.762027 -77.021576 -29.883545 -52.283623
75880000000 -20.488504 -90.963478 -1.7822075 -138.67911 -1.7535564 -77.100861 -29.923279 -52.489586
75928000000 -20.500072 -90.952805 -1.79035 -138.48637 -1.7685946 -77.497009 -30.047989 -52.15382
75976000000 -20.518682 -90.867577 -1.8050464 -138.53221 -1.7705112 -77.569824 -29.889641 -51.680515
76024000000 -20.520548 -90.120499 -1.7768959 -138.35123 -1.7694652 -77.853172 -30.096214 -53.653324
76072000000 -20.428917 -90.306656 -1.7753884 -138.3837 -1.7721174 -78.006363 -30.114794 -52.367779
76120000000 -20.407335 -90.211716 -1.7687299 -138.51686 -1.7736714 -77.974869 -30.277264 -53.009659
76168000000 -20.362492 -90.503487 -1.7742383 -138.8033 -1.7697889 -77.855118 -30.27487 -52.773869
76216000000 -20.270521 -90.703499 -1.7795027 -139.12567 -1.7661945 -77.659729 -30.079773 -52.738659
76264000000 -20.283163 -91.250664 -1.7895823 -139.42465 -1.7706664 -77.542091 -30.037102 -53.312771
76312000000 -20.260317 -91.530533 -1.781234 -139.65491 -1.7673998 -77.444 -29.860136 -54.988358
76360000000 -20.324253 -91.644814 -1.7803751 -139.71367 -1.7733957 -77.507683 -29.883251 -56.646278
76408000000 -20.282055 -91.611191 -1.7726321 -139.52884 -1.7669328 -77.74855 -29.571941 -58.069756
76456000000 -20.35429 -91.389084 -1.7867776 -139.24283 -1.7735187 -78.178192 -29.644573 -58.862633
76504000000 -20.319668 -91.544647 -1.7788122 -139.01251 -1.7687351 -78.518158 -29.498608 -60.358177
76552000000 -20.355726 -91.379662 -1.7598886 -139.07478 -1.7891992 -78.573753 -29.544098 -61.062725
76600000000 -20.319521 -91.638672 -1.7717971 -139.36868 -1.7660289 -78.402603 -29.487045 -61.937565
76648000000 -20.419271 -91.649879 -1.7740725 -139.72575 -1.7685883 -78.298897 -29.513784 -62.329731
76696000000 -20.338747 -91.601089 -1.7649413 -140.03302 -1.7692901 -77.973946 -29.469696 -62.152187
76744000000 -20.394888 -91.397881 -1.7727761 -140.27432 -1.7715008 -77.934662 -29.503855 -61.638973
76792000000 -20.31255 -90.927063 -1.7890301 -139.97852 -1.766535 -78.079651 -29.223412 -61.47858
76840000000 -20.19058 -91.378441 -1.7638365 -139.78378 -1.7378322 -78.425583 -28.927576 -61.124477
76888000000 -20.325478 -91.306381 -1.777988 -139.82394 -1.7634814 -78.759918 -29.228067 -61.311977
76936000000 -20.106112 -91.988281 -1.7602893 -139.96027 -1.7455317 -78.64476 -28.80831 -62.106701
76984000000 -20.188765 -92.409714 -1.7638167 -140.41032 -1.7514555 -78.500999 -29.083265 -62.352039
77032000000 -20.180237 -93.195641 -1.7693368 -140.76216 -1.7455626 -78.242805 -28.932188 -62.796883
77080000000 -20.329487 -93.304657 -1.7717974 -141.00784 -1.7600653 -78.223892 -29.119078 -62.653358
77128000000 -20.331039 -93.543518 -1.7763908 -140.95712 -1.756012 -78.350174 -29.024065 -62.842052
77176000000 -20.422544 -92.92926 -1.7852912 -140.65633 -1.7617288 -78.795113 -29.172516 -63.483501
77224000000 -20.38357 -92.635666 -1.7681441 -140.2249 -1.7603308 -79.19783 -28.975571 -64.019066
77272000000 -20.377018 -91.641922 -1.7881942 -140.22934 -1.7843428 -79.356384 -29.152525 -63.744045
77320000000 -20.225599 -92.006905 -1.7826762 -140.37271 -1.757207 -79.175293 -29.125681 -63.093998
77368000000 -20.217981 -91.810867 -1.7878804 -140.7186 -1.7645321 -78.935173 -29.001497 -62.985233
77416000000 -20.162403 -92.869843 -1.7783298 -141.30272 -1.7604233 -78.647964 -29.114519 -64.133003
77464000000 -20.191315 -93.102264 -1.7793436 -141.61191 -1.7665591 -78.528976 -29.212334 -65.035973
77512000000 -20.238861 -92.988129 -1.7755024 -141.60536 -1.7681752 -78.450218 -28.939714 -64.938789
77560000000 -20.260029 -93.230919 -1.7762552 -141.4211 -1.7674632 -78.971901 -29.161629 -66.282578
77608000000 -20.294731 -93.102028 -1.7716931 -141.16608 -1.762267 -79.356758 -29.148783 -67.087875
77656000000 -20.219288 -92.759834 -1.76667 -141.06053 -1.7212464 -79.483879 -28.804903 -68.892738
77704000000 -20.437769 -93.128937 -1.8054105 -141.41432 -1.7842011 -79.725288 -29.484989 -66.622955
77752000000 -20.28232 -92.300522 -1.793551 -141.35179 -1.7790273 -79.420578 -29.139189 -67.17598
77800000000 -20.215977 -92.614594 -1.7734081 -141.60902 -1.7590456 -79.3685 -29.012421 -67.960365
77848000000 -20.201157 -92.970535 -1.7816113 -141.79597 -1.7605844 -79.358246 -29.06053 -67.580437
77896000000 -20.212576 -93.389542 -1.7847711 -141.91354 -1.764035 -79.381348 -29.009527 -67.573883
77944000000 -20.243708 -93.329781 -1.792011 -141.98961 -1.7678825 -79.416931 -29.11907 -66.7089
77992000000 -20.203957 -93.198906 -1.7812953 -142.05328 -1.7716063 -79.419365 -28.917645 -65.911575
78040000000 -20.215025 -93.183464 -1.7947905 -142.14374 -1.7755648 -79.485443 -29.017309 -65.168945
78088000000 -20.162148 -92.975052 -1.7849241 -142.17609 -1.7778691 -79.508667 -28.855335 -64.558952
78136000000 -20.1241 -93.164085 -1.787064 -142.23 -1.7787974 -79.591476 -28.811693 -64.456192
78184000000 -20.068531 -93.553169 -1.7866503 -142.177 -1.7761754 -79.712433 -28.775133 -63.783901
78232000000 -20.063107 -93.687271 -1.7832893 -142.06851 -1.7724098 -79.949867 -28.738068 -63.827675
78280000000 -20.060221 -93.916069 -1.7938486 -142.06555 -1.7763873 -79.887802 -28.473475 -62.32795
78328000000 -20.160746 -94.16095 -1.792569 -142.30133 -1.7725546 -80.070831 -28.654419 -63.25745
78376000000 -20.177107 -94.475075 -1.7993931 -142.71446 -1.7783561 -79.783112 -28.730936 -63.430649
78424000000 -20.142622 -94.077629 -1.7932407 -142.97209 -1.7649035 -79.582878 -28.480923 -64.482552
78472000000 -20.185799 -94.557495 -1.7983793 -143.2113 -1.7687089 -79.617996 -28.610819 -65.394852
78520000000 -20.167515 -93.064178 -1.8307145 -142.84715 -1.7878222 -79.769844 -28.657377 -63.874668
78568000000 -20.157913 -94.769798 -1.7681201 -142.91801 -1.7922261 -80.11734 -28.478481 -66.225174
78616000000 -20.105446 -93.810562 -1.7681617 -142.68124 -1.7750249 -80.424332 -28.420334 -67.407669
78664000000 -20.152054 -94.470482 -1.7912164 -142.80583 -1.7782574 -80.511536 -28.484499 -66.98011
78712000000 -20.084124 -93.82048 -1.7847652 -143.07426 -1.7671731 -80.260971 -28.368338 -68.578232
78760000000 -20.119797 -94.639091 -1.7796688 -143.50699 -1.7867026 -80.142296 -28.484766 -68.465256
78808000000 -20.111706 -93.691711 -1.7875694 -143.73708 -1.793299 -79.731598 -28.499466 -67.605118
78856000000 -20.120291 -94.19725 -1.7936883 -143.69099 -1.7732598 -80.070854 -28.252701 -67.980606
78904000000 -20.05999 -94.269501 -1.7823929 -143.4653 -1.7579043 -80.470474 -28.130764 -68.8899
78952000000 -20.077349 -94.483833 -1.7792414 -143.25763 -1.7770541 -80.922501 -28.076637 -68.166977
79000000000 -20.080462 -94.799797 -1.7939981 -143.22406 -1.7790098 -81.015144 -27.912178 -68.039467
79048000000 -20.078863 -94.772163 -1.7842422 -143.50916 -1.7818751 -80.852577 -27.796062 -68.105904
79096000000 -20.081017 -95.447525 -1.78837 -143.99536 -1.7822258 -80.52639 -27.632164 -67.436539
79144000000 -20.12417 -95.561455 -1.7840223 -144.48476 -1.7843803 -80.093956 -27.461117 -68.000893
79192000000 -20.20241 -95.574203 -1.7937406 -144.78415 -1.7894154 -80.007874 -27.440123 -68.058311
79240000000 -20.180166 -95.296013 -1.7892637 -144.57487 -1.7831117 -80.191978 -27.31538 -68.062157
79288000000 -20.152328 -94.97551 -1.7941906 -144.11482 -1.7834356 -80.807549 -27.351202 -68.904312
79336000000 -20.128359 -94.817604 -1.7892298 -143.73961 -1.788932 -81.270889 -27.337399 -67.906998
79384000000 -20.119774 -95.077576 -1.8020478 -143.82603 -1.7865467 -81.441063 -27.373913 -68.371971
79432000000 -20.110064 -94.404945 -1.8016917 -144.12097 -1.7887275 -81.161598 -27.297945 -68.284935
79480000000 -20.053612 -95.123734 -1.8107657 -144.64999 -1.7935647 -80.756165 -27.449944 -68.136436
79528000000 -20.115887 -93.941109 -1.8090355 -145.16882 -1.8010254 -80.353294 -27.565083 -68.043495
79576000000 -20.108974 -94.916565 -1.8152559 -145.53802 -1.7929 -80.066933 -27.500254 -67.855263
79624000000 -20.152239 -93.24868 -1.8017465 -145.4516 -1.8011001 -80.234581 -27.351738 -66.991051
79672000000 -20.159801 -94.202583 -1.8053151 -145.06502 -1.8047366 -80.724983 -27.25754 -67.864311
79720000000 -20.129961 -92.746925 -1.7996265 -144.61896 -1.81207 -81.143311 -27.228292 -66.454155
79768000000 -20.142694 -93.072044 -1.8130649 -144.57106 -1.8176125 -81.44825 -27.379583 -68.169388
79816000000 -20.068197 -92.966148 -1.7739466 -144.75745 -1.7791904 -81.606361 -26.928062 -71.89254
79864000000 -20.008259 -93.602867 -1.7916415 -145.11261 -1.7781658 -81.459145 -27.145039 -72.060631
79912000000 -19.99304 -93.046066 -1.7937438 -145.31569 -1.783774 -81.198219 -27.27944 -71.569122
79960000000 -19.9664 -94.102089 -1.8057184 -145.70909 -1.7728213 -81.159531 -27.264965 -71.775551
80008000000 -19.985516 -93.85231 -1.8234113 -145.91747 -1.7611746 -81.008904 -27.244705 -71.503647
80056000000 -20.029568 -94.008453 -1.810891 -145.95107 -1.7983253 -81.137154 -27.400824 -71.428528
80104000000 -20.028538 -93.832458 -1.7945404 -145.97992 -1.8098346 -81.175545 -27.201538 -70.171646
80152000000 -20.026726 -93.394493 -1.8181077 -145.9155 -1.8056093 -81.352196 -27.201017 -70.688835
80200000000 -19.92602 -93.227112 -1.8126012 -145.73148 -1.7967076 -81.558632 -27.086395 -70.640823
80248000000 -19.864483 -93.160301 -1.8165245 -145.63072 -1.8013961 -81.811836 -27.08317 -70.303215
80296000000 -19.812605 -93.509834 -1.8117639 -145.56213 -1.7986268 -82.017319 -26.976728 -70.235245
80344000000 -19.797049 -93.813957 -1.8052723 -145.66412 -1.7986559 -82.117241 -26.840401 -70.959274
80392000000 -19.81271 -93.931503 -1.8242446 -145.81865 -1.7901217 -82.012505 -26.818905 -70.686096
80440000000 -19.882252 -93.569954 -1.8130629 -146.27934 -1.8155814 -81.763626 -26.913824 -71.21373
80488000000 -19.85519 -93.491066 -1.8156133 -146.50458 -1.8137439 -81.510208 -26.790655 -69.711189
80536000000 -19.874672 -93.241379 -1.7983894 -146.67679 -1.8051112 -81.501701 -26.645748 -70.571976
80584000000 -19.817011 -93.003754 -1.8146167 -146.61478 -1.798071 -81.687378 -26.564238 -69.695
80632000000 -19.792154 -92.307442 -1.8272349 -146.4886 -1.7989347 -82.007172 -26.545275 -70.770691
80680000000 -19.718967 -93.212402 -1.8312819 -146.41327 -1.7945776 -82.228073 -26.5481 -70.653122
80728000000 -19.717934 -92.530396 -1.8271896 -146.55046 -1.7985325 -82.24054 -26.580853 -70.53183
80776000000 -19.670673 -93.658768 -1.8338679 -146.95976 -1.8005296 -81.959503 -26.552437 -70.051987
80824000000 -19.682308 -93.124557 -1.8294563 -147.33633 -1.8023322 -81.622383 -26.442474 -70.282288
80872000000 -19.696764 -93.586662 -1.8214371 -147.58034 -1.8189628 -81.595978 -26.475025 -70.129784
80920000000 -19.670456 -92.901947 -1.819524 -147.38896 -1.8121917 -81.754211 -26.478373 -69.802696
80968000000 -19.656944 -93.040337 -1.8233192 -147.03922 -1.8216785 -82.396767 -26.402765 -70.052277
81016000000 -19.619492 -92.935562 -1.8096877 -146.73401 -1.8074815 -82.74781 -26.200068 -70.536842
81064000000 -19.605347 -93.034218 -1.8242726 -146.83475 -1.8098598 -82.729881 -26.151154 -70.647301
81112000000 -19.580599 -93.173256 -1.8101044 -147.33539 -1.8133348 -82.443832 -26.195494 -71.524307
81160000000 -19.557703 -93.621895 -1.8246382 -148.12491 -1.8339837 -81.914627 -26.392679 -71.651955
81208000000 -19.595156 -93.508484 -1.8424181 -148.69513 -1.8234607 -81.429543 -26.451731 -72.168465
81256000000 -19.563625 -94.335426 -1.8247241 -148.93774 -1.7963537 -81.314568 -26.16844 -71.130463
81304000000 -19.619965 -94.33773 -1.815515 -148.69666 -1.8085899 -81.745361 -26.162029 -71.46846
81352000000 -19.626427 -93.998611 -1.8363227 -147.89151 -1.8159499 -82.473495 -26.394573 -70.897018
81400000000 -19.647541 -93.50782 -1.8520628 -147.1515 -1.8343686 -83.163124 -26.383116 -70.129745
81448000000 -19.653048 -93.867424 -1.8269341 -147.28069 -1.8181672 -83.49794 -26.166561 -71.218224
81496000000 -19.625349 -93.300644 -1.8009278 -147.7169 -1.8241622 -83.265129 -25.919592 -72.641144
81544000000 -19.582941 -93.540756 -1.8422029 -148.59961 -1.8573747 -82.625229 -26.011414 -72.603249
81592000000 -19.431812 -92.475548 -1.8781203 -149.43692 -1.8465463 -81.649353 -26.156557 -74.025208
81640000000 -19.411497 -93.546837 -1.8210285 -150.01804 -1.8319793 -81.302765 -25.900484 -75.360565
81688000000 -19.386719 -93.463783 -1.8291893 -149.79056 -1.7999822 -81.383072 -25.873028 -75.436615
81736000000 -19.377569 -93.481194 -1.8437667 -149.22496 -1.8337854 -81.995117 -25.989038 -73.952255
81784000000 -19.367867 -93.0821 -1.8577034 -148.48892 -1.841223 -82.744675 -26.15756 -74.647911
81832000000 -19.418621 -93.125885 -1.8673722 -148.20389 -1.8389556 -83.320541 -26.097122 -75.337837
81880000000 -19.402069 -92.788712 -1.8255386 -148.28326 -1.8251225 -83.462448 -25.905466 -75.895439
81928000000 -19.368389 -92.912712 -1.819086 -148.59216 -1.8231956 -83.342438 -25.820726 -75.084557
81976000000 -19.313286 -92.839905 -1.8194567 -148.96425 -1.8187901 -83.02211 -25.791378 -74.625534
82024000000 -19.311411 -93.209465 -1.8268477 -149.41792 -1.8125662 -82.728638 -25.737694 -74.056404
82072000000 -19.325916 -93.183876 -1.834125 -149.71262 -1.8114763 -82.380463 -25.654531 -72.82975
82120000000 -19.354708 -93.101105 -1.8353379 -149.76678 -1.8277727 -82.411201 -25.499092 -73.030167
82168000000 -19.328669 -93.196938 -1.8242631 -149.72896 -1.8156928 -82.735695 -25.380932 -73.283234
82216000000 -19.313488 -93.126778 -1.8411143 -149.48392 -1.8145938 -82.967422 -25.381731 -73.233604
82264000000 -19.264696 -93.181938 -1.8110843 -149.34251 -1.8010386 -83.312569 -25.299356 -72.735649
82312000000 -19.234247 -93.084129 -1.8204328 -149.29279 -1.8145864 -83.602837 -25.333086 -72.185349
82360000000 -19.149536 -93.13974 -1.8172038 -149.41141 -1.8040679 -83.546097 -25.329475 -71.058212
82408000000 -19.082901 -93.386322 -1.819293 -149.84412 -1.7986218 -83.277855 -25.291014 -71.395248
82456000000 -19.030727 -93.728371 -1.8234662 -150.35629 -1.7998785 -82.913132 -25.372097 -71.333664
82504000000 -19.017372 -94.053642 -1.82046 -150.79799 -1.7918843 -82.601303 -25.426491 -71.439743
82552000000 -19.05241 -94.150902 -1.8255154 -150.9865 -1.8037236 -82.633972 -25.437857 -70.999992
82600000000 -19.045099 -93.923828 -1.8255675 -150.729 -1.8008298 -82.93795 -25.40465 -71.407249
82648000000 -19.071375 -93.852234 -1.8189861 -150.11877 -1.8213434 -83.747543 -25.528322 -72.068069
82696000000 -19.048124 -93.68071 -1.8233614 -149.49104 -1.808831 -84.445953 -25.603785 -71.528687
82744000000 -19.037216 -93.461594 -1.8197621 -149.40422 -1.8166937 -84.66494 -25.588165 -71.885796
82792000000 -18.984894 -93.37088 -1.8243735 -149.98386 -1.8166701 -84.200211 -25.603357 -72.120117
82840000000 -18.960423 -93.582832 -1.8258922 -151.00165 -1.8159684 -83.268974 -25.637667 -72.764397
82888000000 -18.919998 -93.821587 -1.8145777 -152.24867 -1.8268367 -82.272163 -25.71567 -72.806618
82936000000 -18.914871 -94.237556 -1.8413484 -152.83638 -1.8096693 -81.82235 -25.811428 -73.050827
82984000000 -18.889629 -94.305908 -1.8282486 -152.48404 -1.8127388 -82.217995 -25.790833 -72.486824
83032000000 -18.858438 -94.570358 -1.8274722 -151.42369 -1.808513 -83.375908 -25.755825 -72.199364
83080000000 -18.863422 -94.814613 -1.8170975 -150.18433 -1.8094435 -84.708687 -25.693327 -72.073364
83128000000 -18.875212 -94.801994 -1.8220628 -149.49728 -1.817409 -85.598083 -25.681143 -72.251297
83176000000 -18.860268 -94.768265 -1.8252687 -149.6245 -1.8029739 -85.597527 -25.601852 -72.573166
83224000000 -18.846235 -94.789268 -1.8393921 -150.66864 -1.7993993 -84.789902 -25.564659 -72.974434
83272000000 -18.811029 -94.730263 -1.8319118 -152.15749 -1.7991862 -83.546677 -25.396996 -72.843643
83320000000 -18.776772 -94.897949 -1.8291222 -153.38329 -1.7980844 -82.300262 -25.315973 -73.01461
83368000000 -18.774601 -95.146622 -1.8260065 -154.0609 -1.8015532 -81.93026 -25.287535 -73.417023
83416000000 -18.765806 -95.278854 -1.8152304 -153.59743 -1.806502 -82.497993 -25.247078 -73.080338
83464000000 -18.736023 -95.465897 -1.8103553 -152.48698 -1.808069 -83.610062 -25.223791 -72.666573
83512000000 -18.74824 -95.858971 -1.8234137 -151.2644 -1.7894768 -84.943283 -25.221081 -73.0868
83560000000 -18.784384 -95.930931 -1.8231168 -150.60533 -1.8010054 -85.764107 -25.179087 -73.112068
83608000000 -18.803408 -95.869789 -1.8235776 -150.63374 -1.8100169 -85.921066 -25.198009 -73.334969
83656000000 -18.788788 -95.891861 -1.8154116 -151.25227 -1.8076805 -85.433662 -25.232893 -72.759682
83704000000 -18.788702 -95.997086 -1.810613 -152.13423 -1.8107834 -84.798012 -25.229214 -72.776352
83752000000 -18.755173 -95.927734 -1.8046808 -152.96442 -1.805829 -83.985527 -25.301382 -72.586884
83800000000 -18.751268 -96.173981 -1.8222212 -153.64426 -1.8074352 -83.561768 -25.307198 -72.251846
83848000000 -18.723351 -96.253029 -1.8250748 -153.63705 -1.8037714 -83.688164 -25.295218 -71.483505
83896000000 -18.742083 -96.325539 -1.8279175 -153.30322 -1.8100286 -84.048325 -25.210899 -71.546715
83944000000 -18.737253 -96.301567 -1.815883 -152.74951 -1.8111724 -84.7388 -25.049362 -71.94455
83992000000 -18.77561 -96.289879 -1.8355346 -152.27283 -1.8145525 -85.445435 -25.059055 -72.589081
84040000000 -18.770357 -96.076958 -1.833781 -151.96568 -1.8140757 -85.898697 -25.107037 -73.0345
84088000000 -18.729517 -95.771309 -1.8366352 -151.99136 -1.7999976 -85.807899 -25.045984 -73.43972
84136000000 -18.696342 -95.601303 -1.8385208 -152.41216 -1.8066381 -85.449966 -25.070091 -73.533272
84184000000 -18.637325 -95.593361 -1.8268319 -153.10918 -1.8062304 -84.890259 -25.118568 -74.487534
84232000000 -18.570856 -96.124962 -1.8482404 -154.06776 -1.8073268 -84.245636 -25.278099 -74.762955
84280000000 -18.578981 -96.270714 -1.8132063 -154.06842 -1.8118095 -84.070396 -25.233358 -75.174126
84328000000 -18.534599 -96.764481 -1.8043538 -154.0952 -1.8091443 -84.368294 -25.270163 -75.153534
84376000000 -18.603638 -97.399773 -1.8143257 -153.47029 -1.8156652 -85.172546 -25.315504 -75.374969
84424000000 -18.610838 -97.631508 -1.8283598 -152.85033 -1.8093269 -85.969299 -25.33704 -75.576393
84472000000 -18.67938 -97.925621 -1.8368304 -152.74352 -1.814448 -86.335358 -25.339788 -75.508896
84520000000 -18.71133 -97.732498 -1.8568106 -153.10835 -1.8113557 -86.011482 -25.335243 -75.475677
84568000000 -18.709345 -97.72802 -1.8597971 -154.0154 -1.8144516 -85.213432 -25.308517 -75.273842
84616000000 -18.696136 -97.445671 -1.846334 -154.90869 -1.8160958 -84.332687 -25.247625 -75.278572
84664000000 -18.640856 -97.627205 -1.8212041 -155.41759 -1.8434161 -83.879822 -25.182398 -75.61116
84712000000 -18.635962 -97.446762 -1.8618604 -155.33681 -1.8280925 -84.124985 -25.184015 -75.656235
84760000000 -18.612814 -97.680962 -1.8563005 -154.4024 -1.8239779 -85.211273 -25.154533 -76.49205
84808000000 -18.642685 -97.752426 -1.8550985 -153.1633 -1.8306186 -86.438629 -25.150803 -76.52108
84856000000 -18.673901 -97.756546 -1.8538221 -152.52693 -1.8389935 -87.144943 -25.138939 -77.019028
84904000000 -18.727261 -97.471176 -1.8749449 -152.70593 -1.8402659 -87.120361 -25.149899 -76.682419
84952000000 -18.682461 -97.073486 -1.8627225 -153.36926 -1.8374959 -86.481735 -25.174135 -76.738083
85000000000 -18.572107 -97.026611 -1.8205588 -154.68108 -1.8215462 -85.550262 -25.269388 -76.975662
85048000000 -18.564812 -97.135445 -1.8417919 -155.63701 -1.8306885 -84.741844 -25.22378 -76.703529
85096000000 -18.547285 -97.605293 -1.8391513 -155.83911 -1.8274766 -84.946716 -25.210623 -78.085564
85144000000 -18.62112 -97.937859 -1.8710936 -154.92754 -1.8220167 -85.682495 -24.807983 -76.922173
85192000000 -18.502216 -98.763435 -1.7999063 -154.28331 -1.810029 -86.995407 -25.231731 -78.255516
85240000000 -18.690845 -99.385468 -1.8478929 -153.1183 -1.8104991 -88.711296 -24.913046 -78.852448
85288000000 -18.598391 -98.981239 -1.8732017 -153.20985 -1.808135 -88.104263 -25.073963 -76.575821
85336000000 -18.678059 -98.917229 -1.8529804 -153.5663 -1.7872467 -88.186958 -25.063763 -78.970451
85384000000 -18.703444 -98.253143 -1.8624848 -154.75766 -1.8403573 -86.416618 -24.898478 -76.5494
85432000000 -18.685665 -98.203667 -1.8527845 -155.68896 -1.8306355 -85.74202 -24.901823 -77.679367
85480000000 -18.656593 -97.815765 -1.8436369 -156.08601 -1.8646517 -85.285019 -24.904388 -77.45314
85528000000 -18.5784 -97.849792 -1.8390698 -156.08501 -1.8082638 -85.392403 -24.842451 -78.025635
85576000000 -18.540625 -98.869644 -1.8598377 -155.61981 -1.8347616 -86.430359 -24.99683 -77.731346
85624000000 -18.574598 -98.941154 -1.8386599 -155.06836 -1.835915 -87.030289 -24.925831 -78.128532
85672000000 -18.599197 -99.215446 -1.8430555 -154.96664 -1.8384283 -87.399254 -24.937872 -78.529396
85720000000 -18.573053 -98.883919 -1.8434228 -155.01837 -1.8084687 -87.310852 -24.902113 -78.595245
85768000000 -18.676739 -99.348907 -1.8629646 -155.36903 -1.8612897 -87.353493 -25.04282 -78.332413
85816000000 -18.65543 -98.232529 -1.8581278 -155.53882 -1.83319 -86.869759 -24.872511 -77.686722
85864000000 -18.619949 -99.071709 -1.8559854 -156.25291 -1.8555869 -86.654449 -24.913311 -78.109734
85912000000 -18.577549 -97.922966 -1.8711091 -156.32234 -1.8360825 -86.282822 -24.764906 -77.564133
85960000000 -18.51852 -98.344757 -1.8580123 -156.35358 -1.8414172 -86.40921 -24.702473 -77.904709
86008000000 -18.478252 -98.5588 -1.8526298 -156.20407 -1.8368032 -86.72496 -24.592905 -78.674667
86056000000 -18.464352 -98.941437 -1.8467875 -156.23744 -1.8380816 -87.036026 -24.70055 -79.535736
86104000000 -18.491213 -98.768707 -1.8709769 -156.1839 -1.8457693 -87.029503 -24.662533 -79.529602
86152000000 -18.482637 -98.681725 -1.869188 -156.25475 -1.8421154 -86.87619 -24.595615 -79.78273
86200000000 -18.552595 -98.612091 -1.8682942 -156.38495 -1.8691095 -86.931076 -24.61985 -79.624489
86248000000 -18.303358 -100.2038 -1.8574775 -158.08514 -1.8189065 -87.026978 -25.656466 -82.633926
86296000000 -18.437145 -100.82072 -1.8953099 -158.11005 -1.8827282 -87.373245 -25.873907 -80.773376
86344000000 -18.260796 -98.846199 -1.7747825 -157.40901 -1.8263041 -86.735558 -24.652426 -83.175201
86392000000 -18.43219 -98.798477 -1.8937442 -157.17188 -1.8650705 -87.001846 -24.758854 -79.920708
86440000000 -18.427233 -98.563515 -1.8851744 -157.1003 -1.8802677 -87.039467 -24.665638 -80.12886
86488000000 -18.323217 -99.121109 -1.8997264 -156.99348 -1.8334494 -87.296143 -24.673964 -80.730515
86536000000 -18.361139 -99.274193 -1.8717357 -157.13335 -1.8664968 -87.37664 -24.60581 -80.989044
86584000000 -18.265554 -100.16775 -1.8570976 -157.47957 -1.8075725 -87.307564 -24.471558 -82.600983
86632000000 -18.432293 -99.764084 -1.8809379 -157.74776 -1.8697119 -87.102371 -24.532942 -81.354195
86680000000 -18.446457 -100.12978 -1.8711828 -157.97348 -1.8987904 -87.083229 -24.631397 -81.101151
86728000000 -18.338869 -99.705658 -1.8209729 -157.72403 -1.8707687 -87.117874 -24.4154 -83.164436
86776000000 -18.205173 -100.19742 -1.8064306 -158.06351 -1.8142554 -86.980331 -24.26409 -83.893608
86824000000 -18.32095 -100.13068 -1.8684431 -157.81346 -1.8275992 -87.5457 -24.389303 -82.9235
86872000000 -18.228327 -100.23601 -1.8451394 -157.65227 -1.8369842 -87.754715 -24.330696 -83.204338
86920000000 -18.242096 -100.38698 -1.8707587 -157.49957 -1.8402193 -87.999855 -24.398529 -82.753571
86968000000 -18.288168 -100.21609 -1.9002661 -157.60211 -1.851487 -87.815842 -24.424604 -81.963646
87016000000 -18.326262 -100.69786 -1.9090457 -158.0849 -1.877749 -87.651924 -24.524185 -82.129547
87064000000 -18.360624 -100.72754 -1.8726484 -158.30017 -1.9047201 -87.59787 -24.470884 -82.258247
87112000000 -18.294653 -102.00551 -1.8543704 -158.62662 -1.8574077 -87.956322 -24.444088 -83.664009
87160000000 -18.343172 -101.27543 -1.8803612 -158.34761 -1.8594646 -87.967621 -24.349911 -82.641991
87208000000 -18.298805 -101.43607 -1.8593967 -158.32603 -1.8412472 -88.207787 -24.228262 -83.651474
87256000000 -18.241341 -101.21455 -1.8659693 -158.10646 -1.8348742 -88.307426 -24.066668 -83.435692
87304000000 -18.27051 -100.91501 -1.8573922 -157.9993 -1.85962 -88.552155 -24.042122 -83.634682
87352000000 -18.235741 -101.14964 -1.864936 -158.19623 -1.8818138 -88.437881 -24.077732 -83.224556
87400000000 -18.340698 -101.24887 -1.8856348 -158.59703 -1.9054168 -88.303917 -24.216528 -82.50164
87448000000 -18.252476 -101.42661 -1.8964018 -159.00543 -1.852024 -87.951134 -24.192215 -84.029449
87496000000 -18.347858 -101.9402 -1.8965083 -159.02228 -1.86225 -88.322655 -24.262953 -84.429031
87544000000 -18.296921 -101.77718 -1.8620341 -158.81531 -1.8628517 -88.341637 -24.009892 -85.553101
87592000000 -18.405958 -101.88704 -1.8763288 -158.77234 -1.8659049 -88.677811 -23.992842 -84.850372
87640000000 -18.274242 -102.0968 -1.8697755 -158.68608 -1.8404609 -88.865112 -23.907459 -86.610115
87688000000 -18.567522 -101.51466 -1.9370712 -158.57904 -1.8871795 -89.149635 -24.220835 -83.753532
87736000000 -18.308329 -102.41036 -1.8632532 -158.94858 -1.8581136 -89.131554 -23.924147 -87.082893
87784000000 -18.359612 -102.17566 -1.839555 -159.3259 -1.8661352 -88.952965 -23.80246 -87.196442
87832000000 -18.307508 -101.81358 -1.8564759 -159.64426 -1.8722571 -88.4935 -23.71559 -85.572556
87880000000 -18.310917 -102.02062 -1.8702247 -159.73636 -1.8621088 -88.432114 -23.724413 -86.35759
87928000000 -18.321573 -102.4493 -1.8721734 -160.26529 -1.855914 -88.410713 -23.665564 -87.404922
87976000000 -18.268702 -102.12037 -1.8775902 -159.8231 -1.8406717 -88.366112 -23.510632 -86.876534
88024000000 -18.354088 -103.00344 -1.8673698 -160.22119 -1.8464861 -88.989098 -23.61948 -89.037338
88072000000 -18.351736 -102.07825 -1.8896766 -159.67299 -1.8592248 -88.9244 -23.573011 -87.693481
88120000000 -18.379242 -102.51897 -1.8410478 -159.73453 -1.8596716 -89.531509 -23.439077 -90.201851
88168000000 -18.328619 -101.13202 -1.8727452 -158.95969 -1.8708686 -89.649986 -23.534796 -86.927635
88216000000 -18.432381 -101.1868 -1.9284006 -159.37605 -1.8807052 -89.797859 -23.792585 -88.031036
88264000000 -18.399576 -101.58916 -1.8836056 -160.24794 -1.8601046 -89.333206 -23.613091 -90.382027
88312000000 -18.28438 -102.28456 -1.8723423 -161.10162 -1.8643482 -88.693443 -23.590694 -90.718102
88360000000 -18.292654 -101.91412 -1.8805543 -161.57909 -1.864007 -88.141838 -23.56296 -89.831657
88408000000 -18.273508 -102.30644 -1.8834099 -161.66074 -1.8639709 -88.081573 -23.537161 -89.870949
88456000000 -18.336655 -102.25918 -1.8775893 -161.41132 -1.8605424 -88.631195 -23.487267 -90.138023
88504000000 -18.302744 -102.23415 -1.8667547 -160.50374 -1.9066695 -89.576263 -23.450758 -88.361862
88552000000 -18.482517 -101.64194 -1.9015244 -160.22823 -1.8488791 -90.338165 -23.559755 -92.202805
88600000000 -18.624136 -102.52472 -1.8757291 -160.68828 -1.8634146 -90.855331 -23.173521 -96.391792
88648000000 -18.881172 -100.95331 -1.8883649 -161.70091 -1.8760321 -90.789749 -22.041996 -99.690834
88696000000 -18.556053 -102.97257 -1.8754779 -162.39856 -1.8658345 -90.063263 -23.691635 -101.47617
88744000000 -18.485659 -102.41799 -1.90256 -163.08334 -1.8685454 -89.316391 -23.706202 -100.74377
88792000000 -18.40033 -102.43198 -1.9117069 -163.47784 -1.8701534 -88.785927 -23.735819 -100.49314
88840000000 -18.354286 -102.74829 -1.8710067 -163.33693 -1.8617325 -89.090645 -23.47151 -100.01703
88888000000 -18.460363 -101.51521 -1.8840526 -162.10516 -1.8482221 -89.816742 -22.425962 -94.220726
88936000000 -18.172424 -100.71229 -1.9095523 -160.11441 -1.8574656 -90.411713 -23.249622 -89.243164
88984000000 -18.170431 -100.93636 -1.909566 -160.02664 -1.8749788 -90.891701 -23.406616 -89.406982
89032000000 -18.234694 -100.73145 -1.8791205 -160.2103 -1.8872977 -91.012276 -23.307938 -91.093231
89080000000 -18.206963 -100.92405 -1.8899002 -160.76958 -1.8891574 -90.805557 -23.423866 -91.753685
89128000000 -18.162697 -100.58933 -1.9133534 -161.50598 -1.8655003 -90.221375 -23.410458 -91.573936
89176000000 -18.067993 -100.84299 -1.8925053 -161.81209 -1.8815707 -89.877151 -23.297516 -91.040154
89224000000 -18.041685 -100.6312 -1.9074618 -162.01637 -1.8716675 -89.846878 -23.32542 -91.14032
89272000000 -17.95636 -100.9465 -1.8872179 -161.56769 -1.8677197 -90.16555 -23.212345 -90.924843
89320000000 -17.965105 -101.29827 -1.8962375 -161.39462 -1.871726 -90.717163 -23.255243 -91.197571
89368000000 -17.940641 -101.07454 -1.9020755 -160.97855 -1.8532104 -91.027878 -23.246149 -91.153175
89416000000 -17.980446 -101.2178 -1.8940902 -161.07068 -1.8880295 -91.149628 -23.228083 -91.352509
89464000000 -17.967716 -100.63348 -1.8865036 -161.11264 -1.8856151 -91.17749 -23.20845 -91.65509
89512000000 -17.904423 -100.60085 -1.899942 -161.13095 -1.8826424 -90.878342 -23.16601 -90.980423
89560000000 -17.912071 -100.24815 -1.8999761 -161.49991 -1.901613 -91.096458 -23.316687 -91.003372
89608000000 -17.854067 -101.05768 -1.8803333 -161.88635 -1.8818421 -90.956787 -23.151823 -91.909271
89656000000 -17.788427 -100.18826 -1.9040771 -161.80154 -1.8863041 -90.806335 -23.275803 -90.447151
89704000000 -17.795839 -101.3393 -1.8852671 -162.14311 -1.8682951 -90.939484 -23.056841 -91.85482
89752000000 -17.72801 -101.15268 -1.8964486 -162.19012 -1.8716934 -90.69767 -23.181578 -90.142746
89800000000 -17.756241 -101.86327 -1.8923457 -162.50395 -1.8776536 -90.701721 -23.132755 -90.863693
89848000000 -17.78446 -101.40549 -1.8971429 -162.49545 -1.8739876 -90.615532 -23.022018 -91.286407
89896000000 -17.788055 -101.23181 -1.918716 -162.71919 -1.9119143 -90.496544 -23.297968 -91.038406
89944000000 -17.686489 -101.53386 -1.8793778 -162.4389 -1.8591644 -90.87281 -22.942293 -90.568604
89992000000 -17.675312 -102.33293 -1.8677173 -162.54402 -1.8568145 -91.226952 -22.895624 -90.528854
90040000000 -17.686104 -101.98255 -1.8636823 -162.68408 -1.865144 -91.356659 -22.75176 -91.443474
90088000000 -17.675886 -102.23432 -1.8856003 -162.99069 -1.8829119 -91.064377 -22.805361 -90.520332
90136000000 -17.6509 -101.6618 -1.9272107 -163.27295 -1.8682202 -90.582138 -22.758366 -90.431709
90184000000 -17.561882 -101.94188 -1.9165164 -163.58853 -1.8607951 -90.226669 -22.953552 -91.263474
90232000000 -17.614746 -102.52525 -1.8799233 -164.07829 -1.8782607 -90.642235 -22.813726 -92.979172
90280000000 -17.590988 -102.90533 -1.8966898 -163.86212 -1.8878231 -90.562363 -23.025938 -90.574249
90328000000 -17.608589 -102.96346 -1.8962142 -163.66768 -1.8578122 -90.821861 -22.866096 -89.914749
90376000000 -17.659988 -103.2263 -1.9006802 -163.52267 -1.8650724 -91.203384 -22.838215 -89.901855
90424000000 -17.675547 -102.72581 -1.9097142 -163.58635 -1.8578733 -91.331131 -22.742718 -89.845062
90472000000 -17.65291 -102.72331 -1.9170316 -163.93991 -1.8835613 -90.950233 -22.808123 -89.646461
90520000000 -17.598196 -102.19917 -1.8751487 -163.81635 -1.8835417 -90.880714 -22.59067 -89.108887
90568000000 -17.640779 -103.09333 -1.8496169 -164.50032 -1.8795913 -91.037346 -22.395384 -91.371223
90616000000 -17.504883 -102.2493 -1.8830185 -164.51389 -1.9161333 -90.804527 -22.722202 -91.441185
90664000000 -17.442316 -103.90387 -1.8860831 -164.4313 -1.836126 -90.792831 -22.635891 -90.086075
90712000000 -17.532547 -104.47011 -1.8946952 -164.51437 -1.8369703 -91.42514 -22.631933 -90.789932
90760000000 -17.634071 -104.23505 -1.9243863 -164.55443 -1.8779277 -91.424217 -22.669493 -91.303886
90808000000 -17.593254 -103.90723 -1.8875041 -164.35072 -1.8663599 -91.56395 -22.569262 -91.429008
90856000000 -17.645065 -104.04155 -1.9105486 -164.80603 -1.8771391 -91.438782 -22.67697 -91.945892
90904000000 -17.61331 -103.455 -1.9042071 -164.85092 -1.8855568 -91.382156 -22.710804 -91.714928
90952000000 -17.613657 -103.94913 -1.9122529 -164.93466 -1.8936718 -91.417191 -22.81698 -91.178993
91000000000 -17.558002 -103.23663 -1.9086721 -164.72191 -1.8822857 -91.551018 -22.77387 -90.505608
91048000000 -17.576679 -104.14609 -1.9035923 -164.59369 -1.872281 -91.981857 -22.64616 -90.575348
91096000000 -17.543392 -103.59434 -1.9085274 -164.49199 -1.8726484 -92.120132 -22.656679 -90.171272
91144000000 -17.564171 -104.20125 -1.895885 -164.53893 -1.8782077 -92.153885 -22.547943 -90.129448
91192000000 -17.58173 -104.16866 -1.9038837 -164.97061 -1.8766909 -92.020355 -22.527609 -90.519905
91240000000 -17.626989 -104.27952 -1.8947123 -165.2879 -1.8712924 -91.88028 -22.372993 -90.864784
91288000000 -17.661131 -104.72501 -1.9146205 -165.51935 -1.8883469 -91.914085 -22.563276 -91.075424
91336000000 -17.662689 -104.11855 -1.9007713 -165.47813 -1.8831983 -91.814598 -22.398716 -90.722221
91384000000 -17.688505 -104.35382 -1.9154859 -165.57056 -1.8824834 -91.929207 -22.44887 -90.527451
91432000000 -17.657001 -103.86758 -1.9107796 -165.45526 -1.8776085 -92.228165 -22.386189 -90.725479
91480000000 -17.641577 -104.26157 -1.9130181 -165.5728 -1.8808485 -92.253929 -22.455402 -90.748032
91528000000 -17.587177 -103.89909 -1.9204546 -165.59415 -1.8828285 -92.279549 -22.454241 -90.644264
91576000000 -17.568909 -104.31046 -1.913308 -165.71988 -1.8775827 -92.276299 -22.446388 -90.574409
91624000000 -17.534557 -104.37701 -1.9161611 -165.81976 -1.8789976 -92.361008 -22.484591 -90.407494
91672000000 -17.551966 -104.6088 -1.9205029 -165.94505 -1.8817651 -92.309639 -22.52327 -90.232185
91720000000 -17.570225 -104.47935 -1.9090155 -166.07597 -1.8866906 -92.422348 -22.422592 -90.138779
91768000000 -17.549477 -104.42182 -1.9059753 -166.13237 -1.8848519 -92.230171 -22.457222 -89.495682
91816000000 -17.587751 -104.35162 -1.9071398 -166.23312 -1.8910415 -92.452919 -22.350286 -89.696823
91864000000 -17.595074 -104.13741 -1.9062105 -166.3387 -1.8896025 -92.542206 -22.251728 -90.09269
91912000000 -17.554066 -104.22643 -1.9071361 -166.41588 -1.8918982 -92.564728 -22.291002 -90.061806
91960000000 -17.543032 -103.8047 -1.9130933 -166.60114 -1.8973866 -92.625954 -22.212557 -90.845886
92008000000 -17.504297 -103.97169 -1.9145058 -166.55591 -1.9002252 -92.643883 -22.239914 -90.518242
92056000000 -17.504852 -104.17851 -1.9193474 -166.52956 -1.8953551 -92.807846 -22.238079 -91.061066
92104000000 -17.510283 -104.5251 -1.9252851 -166.70795 -1.8925905 -92.716675 -22.245003 -90.731628
92152000000 -17.542238 -104.45515 -1.9165394 -166.77733 -1.8852328 -92.955116 -22.212749 -91.326668
92200000000 -17.535561 -105.05854 -1.9236764 -166.90865 -1.8879211 -92.834328 -22.302429 -90.905045
92248000000 -17.548574 -104.38581 -1.9246786 -166.8981 -1.8933979 -92.896904 -22.279919 -91.002258
92296000000 -17.519459 -104.98721 -1.9301081 -166.99255 -1.8937215 -92.929382 -22.286982 -90.628647
92344000000 -17.498802 -104.3269 -1.9120201 -167.08041 -1.8996806 -93.060036 -22.150488 -90.731201
92392000000 -17.454748 -105.14156 -1.9151897 -167.12538 -1.9069875 -93.138969 -22.137777 -90.4524
92440000000 -17.407343 -104.74103 -1.9176902 -167.09949 -1.9084977 -93.218216 -22.057093 -90.580681
92488000000 -17.375175 -105.35598 -1.9107684 -167.21027 -1.9044033 -93.164818 -21.975307 -90.366318
92536000000 -17.355766 -105.19585 -1.9068578 -167.37112 -1.8977416 -93.252304 -21.87604 -90.705452
92584000000 -17.345533 -105.43349 -1.9135389 -167.47289 -1.9012817 -93.166275 -21.896626 -90.833939
92632000000 -17.361401 -105.34798 -1.9166722 -167.57475 -1.9075875 -93.275093 -21.819435 -91.291573
92680000000 -17.371386 -105.42178 -1.9102978 -167.82027 -1.8975965 -93.12764 -21.782047 -91.439674
92728000000 -17.379581 -105.31859 -1.91678 -168.04037 -1.901137 -93.113823 -21.801956 -91.703758
92776000000 -17.383495 -105.34998 -1.922904 -168.2041 -1.8929288 -93.098511 -21.802736 -91.874992
92824000000 -17.362812 -105.25068 -1.9193056 -168.16287 -1.8936237 -93.25679 -21.811888 -91.868675
92872000000 -17.357409 -105.5133 -1.9211129 -168.07722 -1.891258 -93.52523 -21.827911 -91.993256
92920000000 -17.317146 -105.482 -1.9064823 -167.92551 -1.8901814 -93.713692 -21.792582 -92.184799
92968000000 -17.304367 -105.98409 -1.9091316 -167.97168 -1.8963116 -93.917747 -21.816219 -92.129852
93016000000 -17.308203 -105.96507 -1.9100076 -167.99725 -1.889541 -93.854973 -21.760048 -92.318718
93064000000 -17.333998 -106.69628 -1.9158738 -168.43825 -1.9047281 -93.846336 -21.825409 -92.388176
93112000000 -17.340441 -106.70777 -1.9155133 -168.78677 -1.8920155 -93.440475 -21.716425 -92.380882
93160000000 -17.37027 -107.01854 -1.9113942 -169.34348 -1.915279 -93.177162 -21.800901 -92.481071
93208000000 -17.378641 -106.89079 -1.9190946 -169.57681 -1.9079252 -93.035706 -21.687731 -92.652763
93256000000 -17.391977 -106.82169 -1.9186556 -169.41528 -1.9120816 -93.309631 -21.685656 -92.893936
93304000000 -17.379862 -107.02236 -1.9228859 -169.06123 -1.9075224 -93.822861 -21.65991 -93.247177
93352000000 -17.343615 -106.81678 -1.9163877 -168.61201 -1.9068338 -94.34919 -21.633965 -93.623535
93400000000 -17.347073 -107.24721 -1.928546 -168.47931 -1.895879 -94.79248 -21.663828 -94.030052
93448000000 -17.344152 -106.82826 -1.9271498 -168.41235 -1.9132638 -94.827568 -21.639723 -94.122772
93496000000 -17.29307 -106.80065 -1.9173174 -168.77664 -1.8906043 -94.415894 -21.634035 -94.400536
93544000000 -17.32288 -106.98863 -1.9340961 -169.30446 -1.8840446 -94.21965 -21.683857 -94.374413
93592000000 -17.347719 -107.15644 -1.9463427 -169.709 -1.9153849 -94.039085 -21.738573 -94.989601
93640000000 -17.36647 -107.1198 -1.9342562 -169.98019 -1.9268444 -93.825958 -21.78063 -94.711601
93688000000 -17.378771 -107.10772 -1.9183254 -170.05511 -1.935011 -93.811172 -21.772556 -94.371765
93736000000 -17.401302 -106.80686 -1.9122092 -170.12065 -1.9241291 -93.798935 -21.718912 -94.089439
93784000000 -17.360813 -107.11826 -1.9206585 -170.17703 -1.9213191 -93.965569 -21.692083 -93.965614
93832000000 -17.389132 -107.02631 -1.9221492 -170.22177 -1.9225993 -94.070168 -21.604755 -94.173553
93880000000 -17.343626 -107.27586 -1.9183935 -170.13185 -1.9186109 -94.325539 -21.565208 -94.174934
93928000000 -17.373806 -107.44963 -1.9226929 -170.00182 -1.9289153 -94.74379 -21.541868 -94.764862
93976000000 -17.368811 -107.40948 -1.9339826 -169.61484 -1.9252548 -95.006432 -21.528801 -94.886269
94024000000 -17.373978 -107.58238 -1.939051 -169.50105 -1.9317923 -95.353951 -21.548859 -95.34436
94072000000 -17.406988 -107.54198 -1.9420708 -169.53888 -1.9296728 -95.405319 -21.571121 -95.576447
94120000000 -17.390467 -107.51356 -1.9503924 -169.9165 -1.9307233 -95.184929 -21.609526 -95.71862
94168000000 -17.387081 -107.36768 -1.948426 -170.55594 -1.9197909 -94.646095 -21.616003 -96.000786
94216000000 -17.330555 -107.17284 -1.9456031 -171.19643 -1.9172574 -94.154259 -21.642597 -95.977486
94264000000 -17.331562 -107.06231 -1.9375197 -171.47743 -1.9242339 -93.96534 -21.637249 -96.231743
94312000000 -17.302151 -107.007 -1.9297782 -171.56621 -1.934508 -94.148636 -21.678215 -96.219421
94360000000 -17.291847 -107.05078 -1.9497491 -171.03987 -1.9240355 -94.765778 -21.677361 -96.216858
94408000000 -17.301474 -107.03446 -1.9513006 -170.44496 -1.9273403 -95.474144 -21.679163 -96.234909
94456000000 -17.30438 -107.1907 -1.9550098 -170.08595 -1.9233257 -95.924698 -21.656216 -96.268448
94504000000 -17.345438 -107.06924 -1.9639286 -170.16483 -1.9359233 -95.905067 -21.668987 -96.096573
94552000000 -17.350834 -107.20877 -1.9611014 -170.56812 -1.9351622 -95.548538 -21.62167 -96.208244
94600000000 -17.390457 -107.30443 -1.9688985 -171.36438 -1.9405218 -95.018456 -21.646383 -96.219872
94648000000 -17.413101 -107.08533 -1.9637955 -171.72426 -1.9513984 -94.622894 -21.589649 -96.467041
94696000000 -17.409056 -107.25852 -1.972225 -171.92972 -1.9526387 -94.650383 -21.610594 -96.435341
94744000000 -17.395527 -107.14906 -1.9692912 -171.56693 -1.9467268 -95.044685 -21.547483 -97.095604
94792000000 -17.362843 -107.49516 -1.9678787 -171.1624 -1.9522159 -95.634865 -21.569302 -97.206886
94840000000 -17.305002 -107.44048 -1.9775116 -170.88432 -1.9490354 -96.079643 -21.580872 -97.533104
94888000000 -17.297619 -106.87362 -1.955707 -170.62958 -1.9588383 -96.137383 -21.538904 -98.039124
94936000000 -17.122787 -107.11283 -1.901625 -171.06352 -1.9854966 -95.701424 -21.601055 -97.958725
94984000000 -17.111032 -107.87473 -1.9051929 -172.18306 -1.9136447 -95.528297 -21.650459 -99.197678
95032000000 -17.111847 -107.88089 -1.9827007 -172.14436 -1.9322875 -95.672104 -21.73271 -98.476059
95080000000 -17.193001 -107.46209 -1.9674445 -171.92606 -1.9479123 -95.643997 -21.690767 -98.1437
95128000000 -17.117489 -107.36279 -1.9625121 -171.8712 -1.9491372 -95.835487 -21.644154 -98.299591
95176000000 -17.159513 -107.1385 -1.953843 -171.74039 -1.94513 -96.056557 -21.623634 -98.49823
95224000000 -17.109413 -107.22887 -1.9573232 -171.7421 -1.9497771 -96.196518 -21.593155 -98.403717
95272000000 -17.169783 -106.80688 -1.9518999 -171.84781 -1.9578131 -96.135063 -21.54583 -98.472832
95320000000 -17.114794 -107.04781 -1.9493675 -172.0591 -1.9523997 -96.057335 -21.506069 -98.666519
95368000000 -17.158661 -106.81323 -1.9517221 -172.22264 -1.9552827 -96.030159 -21.464817 -99.115517
95416000000 -17.119482 -107.02854 -1.9528933 -172.37881 -1.9477661 -95.946335 -21.44639 -99.383377
95464000000 -17.149372 -106.9569 -1.9646281 -172.60161 -1.9491416 -95.906143 -21.47595 -99.654343
95512000000 -17.1094 -107.0995 -1.9589537 -172.89523 -1.9424279 -95.739487 -21.47574 -100.09387
95560000000 -17.141609 -107.12752 -1.9621449 -173.3136 -1.9465805 -95.388802 -21.495932 -100.20011
95608000000 -17.081764 -107.07499 -1.9635214 -173.58623 -1.9443146 -95.226341 -21.516731 -100.24953
95656000000 -17.086088 -107.27489 -1.9634204 -173.52246 -1.9428709 -95.440208 -21.541183 -100.15916
95704000000 -17.005688 -107.40314 -1.9727341 -173.15761 -1.9416234 -95.967613 -21.534706 -99.972786
95752000000 -17.02001 -107.54066 -1.9802308 -172.36111 -1.9338161 -96.837173 -21.490732 -99.846001
95800000000 -16.963839 -107.63734 -1.9885587 -171.72661 -1.9536721 -97.53418 -21.501432 -99.639854
95848000000 -16.962425 -107.52944 -1.967684 -171.53575 -1.9608501 -97.730087 -21.439247 -99.591835
95896000000 -16.894127 -107.81245 -1.9559788 -172.06412 -1.9605516 -97.38485 -21.39472 -99.712387
95944000000 -16.918825 -107.77564 -1.9604907 -173.16325 -1.9586669 -96.488243 -21.382126 -99.904984
95992000000 -16.883041 -107.85041 -1.9550407 -174.35878 -1.9553326 -95.378319 -21.344452 -100.00649
96040000000 -16.848614 -107.86203 -1.9544195 -175.28053 -1.9473866 -94.634712 -21.329855 -100.21877
96088000000 -16.87719 -107.67115 -1.9608297 -175.44023 -1.9450173 -94.60408 -21.309446 -100.38898
96136000000 -16.818369 -107.75365 -1.9580382 -174.70741 -1.9451332 -95.419495 -21.272659 -100.755
96184000000 -16.869621 -107.76218 -1.9628042 -173.69336 -1.9401718 -96.610077 -21.297865 -101.15148
96232000000 -16.807125 -107.69343 -1.9584478 -172.59535 -1.9388754 -97.682961 -21.280174 -101.09908
96280000000 -16.831282 -107.9529 -1.9604772 -172.23044 -1.937415 -98.260597 -21.28229 -101.17702
96328000000 -16.793493 -108.05743 -1.9606838 -172.54778 -1.9389439 -98.033058 -21.267233 -101.06272
96376000000 -16.792088 -108.23148 -1.9546634 -173.33606 -1.9395936 -97.397202 -21.28042 -101.27057
96424000000 -16.80131 -108.34142 -1.9699275 -174.36118 -1.9407427 -96.580177 -21.289232 -101.35544
96472000000 -16.803612 -108.6469 -1.9654888 -174.89609 -1.9266948 -96.197433 -21.291151 -101.71613
96520000000 -16.794004 -108.74207 -1.9646374 -174.93607 -1.9590338 -96.421333 -21.301426 -101.50318
96568000000 -16.703506 -109.11152 -1.8530042 -174.69978 -1.9904557 -96.514687 -20.971447 -101.72085
96616000000 -16.795673 -108.91138 -2.0145175 -174.12717 -1.914256 -97.291183 -21.205872 -101.6835
96664000000 -16.733637 -108.97836 -1.9635746 -173.6904 -1.9317688 -97.760681 -21.111721 -101.66534
96712000000 -16.744473 -108.90652 -1.9519136 -173.65605 -1.9366636 -98.053665 -21.060808 -101.85812
96760000000 -16.699657 -109.13629 -1.9506276 -173.99062 -1.9369236 -97.887238 -21.02754 -102.41988
96808000000 -16.750019 -108.84222 -1.9517404 -174.43759 -1.9521624 -97.621689 -20.998028 -102.27614
96856000000 -16.668716 -109.10493 -1.9343964 -174.78896 -1.9491469 -97.262238 -20.946005 -102.96132
96904000000 -16.698923 -108.98111 -1.9473875 -174.95111 -1.9370462 -97.250916 -20.878529 -102.35921
96952000000 -16.700516 -109.06006 -1.955809 -174.94464 -1.9296478 -97.441704 -20.895866 -102.97536
97000000000 -16.724998 -109.15968 -1.9578148 -174.89412 -1.9404972 -97.625191 -20.878088 -102.5912
97048000000 -16.736513 -109.21109 -1.9473652 -174.84885 -1.9431672 -97.865051 -20.921442 -103.02843
97096000000 -16.72123 -109.75074 -1.9505976 -175.16881 -1.9286427 -97.819649 -20.769917 -103.17992
97144000000 -16.748226 -109.6467 -1.9475148 -175.29108 -1.9354484 -97.598518 -20.765465 -102.47738
97192000000 -16.750574 -110.07854 -1.954031 -175.6236 -1.9263781 -97.627373 -20.750231 -103.3467
97240000000 -16.834049 -110.02818 -1.9895036 -175.74158 -1.9576186 -97.717049 -20.835987 -103.33909
97288000000 -16.734489 -110.2727 -1.9599817 -175.61508 -1.9296889 -97.729347 -20.714735 -102.63628
97336000000 -16.757082 -110.37112 -1.9698706 -175.69023 -1.9378092 -97.839714 -20.687389 -103.0231
97384000000 -16.754559 -110.52711 -1.9775598 -175.83786 -1.9348328 -97.901894 -20.649679 -103.08071
97432000000 -16.705442 -110.69189 -1.9718328 -176.00357 -1.94173 -97.770859 -20.634428 -103.20175
97480000000 -16.727165 -110.57692 -1.9645138 -176.23819 -1.9488477 -97.739296 -20.609392 -103.32412
97528000000 -16.682823 -110.80289 -1.9578383 -176.33223 -1.9442359 -97.690559 -20.581825 -103.6272
97576000000 -16.701269 -110.35401 -1.9757338 -176.38196 -1.9542003 -97.800423 -20.635513 -103.37291
97624000000 -16.661207 -110.54629 -1.9598455 -176.444 -1.9515599 -97.945877 -20.561253 -103.51237
97672000000 -16.695354 -110.25996 -1.9552749 -176.46272 -1.9534042 -98.01989 -20.526754 -103.73115
97720000000 -16.670938 -110.21311 -1.9617585 -176.59601 -1.9523904 -98.06144 -20.519749 -103.7906
97768000000 -16.712557 -109.97668 -1.9885972 -176.64182 -1.9650745 -97.929893 -20.565392 -103.64328
97816000000 -16.713655 -109.55627 -1.9512929 -176.68311 -1.9950237 -97.981476 -20.678553 -104.21292
97864000000 -16.699137 -109.81873 -1.9774586 -177.0694 -1.9240819 -97.774323 -20.49085 -103.1483
97912000000 -16.709206 -110.41363 -1.9477615 -176.94576 -1.9191095 -98.385353 -20.23518 -103.74093
97960000000 -16.790325 -109.91748 -1.9771361 -176.79907 -1.9658467 -98.608788 -20.477558 -104.3352
98008000000 -16.776657 -110.21248 -1.9514929 -176.62671 -1.9671698 -98.832275 -20.366156 -104.1368
98056000000 -16.806482 -110.10007 -1.9493282 -176.8658 -1.9942448 -98.836449 -20.482744 -104.46812
98104000000 -16.769892 -110.32723 -1.9564003 -177.01596 -1.9810795 -98.672325 -20.444387 -104.23719
98152000000 -16.82164 -110.30863 -1.9838711 -177.31134 -1.9697332 -98.550926 -20.417717 -104.5118
98200000000 -16.786247 -110.64104 -1.9625862 -177.44626 -1.9578103 -98.609077 -20.293171 -104.4765
98248000000 -16.783913 -110.70177 -1.9814937 -177.3597 -1.9347916 -98.818214 -20.231316 -104.45532
98296000000 -16.716162 -110.79126 -1.9792176 -177.02823 -1.950491 -99.040215 -20.286444 -104.10962
98344000000 -16.753822 -110.31633 -1.9835119 -177.05197 -1.975704 -99.398544 -20.278368 -105.05292
98392000000 -16.709593 -110.72005 -1.9743378 -176.9977 -1.9690782 -99.382668 -20.233389 -104.86917
98440000000 -16.673079 -110.36028 -1.9831653 -177.43092 -1.9789461 -99.053467 -20.236942 -104.59367
98488000000 -16.664991 -110.95037 -1.9608647 -178.07399 -1.9571526 -98.61171 -20.125267 -104.64965
98536000000 -16.66502 -110.56709 -1.9584999 -178.59885 -1.952791 -98.37101 -20.110067 -104.891
98584000000 -16.673803 -110.73194 -1.9692391 -178.715 -1.9505197 -98.431526 -20.157883 -104.97502
98632000000 -16.713833 -110.31627 -1.9928269 -178.39966 -1.9681568 -99.019455 -20.189745 -105.43108
98680000000 -16.707771 -110.40963 -1.9997702 -177.73447 -1.9743305 -99.663269 -20.226736 -104.98198
98728000000 -16.712723 -110.01144 -2.0025043 -177.19897 -1.9720272 -100.21619 -20.218674 -104.6512
98776000000 -16.721325 -110.06386 -2.0013883 -177.03029 -1.9571977 -100.48666 -20.139505 -104.48399
98824000000 -16.732748 -110.25546 -1.9978974 -177.39687 -1.9430234 -100.23473 -20.039063 -104.58689
98872000000 -16.755283 -110.09351 -2.001862 -178.13971 -1.9636035 -99.691704 -20.03652 -105.00941
98920000000 -16.713116 -110.09829 -1.993169 -178.95522 -1.9693108 -98.864586 -20.056849 -105.08907
98968000000 -16.720976 -110.11918 -1.9983386 -179.64174 -1.972646 -98.475098 -20.061815 -105.28457
99016000000 -16.682539 -110.31918 -2.0062199 -179.63464 -1.9635124 -98.511902 -20.005489 -105.30628
99064000000 -16.720083 -110.64317 -1.9870675 -179.40889 -1.9686105 -99.099411 -19.964506 -105.39223
99112000000 -16.664433 -110.32828 -2.0037522 -178.66306 -1.9866973 -99.754967 -20.074106 -105.67223
99160000000 -16.673927 -110.64816 -1.9585592 -178.41644 -2.0118616 -100.17698 -19.987007 -105.37891
99208000000 -16.648779 -110.25575 -1.9653097 -178.32492 -2.0051346 -100.47356 -19.899874 -105.44479
99256000000 -16.628382 -110.3728 -1.9816767 -178.52299 -2.0004377 -100.29952 -19.921705 -105.45782
99304000000 -16.617264 -110.16498 -1.996721 -179.01581 -2.0010269 -99.996788 -19.943703 -105.51781
99352000000 -16.56641 -110.21469 -1.9900504 -179.3452 -1.9682672 -99.55722 -19.819355 -104.94872
99400000000 -16.61055 -110.34928 -1.9843796 -179.81128 -1.9886303 -99.599724 -19.835575 -105.73702
99448000000 -16.58717 -110.03706 -1.9672112 -179.84657 -2.0083051 -99.533852 -19.813005 -105.38876
99496000000 -16.608109 -109.96223 -1.9971913 -179.97922 -2.0259418 -99.649612 -19.840164 -106.13416
99544000000 -16.582178 -109.9002 -1.9819174 -179.78627 -2.0202587 -99.825104 -19.822035 -105.64672
99592000000 -16.564695 -109.85264 -1.9929613 -179.78432 -2.0106885 -99.906296 -19.808544 -105.47439
99640000000 -16.640934 -109.95773 -1.983789 -179.7795 -2.0032113 -100.22876 -19.72456 -105.26142
99688000000 -16.607706 -109.7917 -2.0144615 -179.8903 -1.9893092 -100.16431 -19.734848 -105.41623
99736000000 -16.619101 -109.69594 -2.0270729 -179.93633 -1.9937544 -100.30475 -19.683704 -105.54976
99784000000 -16.555122 -110.10321 -2.0213709 -179.92734 -1.998853 -100.20988 -19.756067 -105.50671
99832000000 -16.554432 -110.4213 -1.9786612 179.96472 -2.0035069 -100.31326 -19.674253 -105.18918
99880000000 -16.491293 -110.2776 -2.0282946 179.99895 -2.0086465 -100.3912 -19.718752 -106.0566
99928000000 -16.506769 -110.93233 -2.002871 179.93001 -2.0016146 -100.45815 -19.735699 -105.39251
99976000000 -16.513393 -111.07384 -1.9750949 179.71626 -2.0050576 -100.6205 -19.662693 -105.3333
100024000000 -16.407358 -111.06628 -2.005883 179.8925 -1.9901044 -100.55672 -19.718349 -105.82439
100072000000 -16.49563 -111.17674 -2.0237455 179.52257 -1.9927508 -100.60284 -19.727938 -105.46337
100120000000 -16.422693 -110.90797 -2.024328 179.2834 -1.9902482 -100.42524 -19.666946 -105.91151
100168000000 -16.41363 -111.14088 -2.0166278 178.92537 -1.9958868 -100.18588 -19.695866 -105.92558
100216000000 -16.350489 -110.61105 -2.0197308 178.63225 -1.9967415 -99.947662 -19.683767 -106.28796
100264000000 -16.348507 -110.63757 -2.0236268 178.61559 -2.0093832 -99.847504 -19.67886 -106.0724
100312000000 -16.36042 -110.36076 -2.051935 178.78711 -2.0125799 -100.29555 -19.708654 -106.21862
100360000000 -16.314121 -110.69955 -1.9492937 179.11444 -2.0305784 -100.67689 -19.565348 -106.27618
100408000000 -16.443838 -110.3151 -2.003062 179.30531 -2.0857623 -101.23231 -19.685036 -106.51909
100456000000 -16.424911 -110.05252 -2.0187449 179.49969 -2.0167954 -101.59618 -19.505785 -106.84365
100504000000 -16.365908 -111.50777 -1.986539 179.23251 -2.0093057 -101.47735 -19.63085 -107.31079
100552000000 -16.335335 -110.52876 -1.9854701 178.62762 -1.9786893 -100.79121 -19.48373 -106.86846
100600000000 -16.504387 -111.08847 -2.0647626 177.81793 -1.9940907 -100.3128 -19.63599 -106.96012
100648000000 -16.290789 -110.45112 -2.0430686 177.45015 -2.0198903 -99.712326 -19.610868 -107.83614
100696000000 -16.592508 -110.80728 -2.0208898 177.05504 -2.0935845 -99.973824 -19.584009 -106.76919
100744000000 -16.445517 -111.3299 -1.9947504 177.51843 -1.9706354 -100.45358 -19.422422 -106.42345
100792000000 -16.342434 -111.30517 -2.0520358 177.93259 -2.0091798 -100.79916 -19.546257 -107.50488
100840000000 -16.369242 -111.1391 -2.0331602 178.41585 -2.0210259 -101.26142 -19.478724 -107.10069
100888000000 -16.351557 -111.3473 -2.0424652 178.45634 -2.0491457 -101.65196 -19.566956 -107.55586
100936000000 -16.353125 -111.47022 -2.0045345 178.3756 -2.0316215 -101.6299 -19.488615 -106.74791
100984000000 -16.345633 -111.55714 -2.0087547 177.93033 -2.0409153 -101.56271 -19.49612 -106.93056
101032000000 -16.257088 -111.23917 -2.0117366 177.77994 -2.0494452 -101.25458 -19.496241 -106.9796
101080000000 -16.258009 -111.48944 -2.0131075 177.41832 -2.0478303 -101.09528 -19.507626 -107.02004
101128000000 -16.215271 -111.27437 -2.0134144 177.25638 -2.0408673 -101.10119 -19.481606 -106.87963
101176000000 -16.132713 -111.51772 -1.9864286 177.17844 -2.0350306 -100.93321 -19.446095 -107.23383
101224000000 -16.223511 -110.84332 -2.0467076 177.10063 -2.0319128 -101.12048 -19.454382 -106.75426
101272000000 -16.159866 -111.15366 -2.0177777 177.14479 -2.0274878 -101.21 -19.439875 -107.42689
101320000000 -16.188095 -111.33981 -2.0300522 177.0033 -2.0274031 -101.14555 -19.476799 -107.551
101368000000 -16.160629 -110.91112 -2.0328712 177.0788 -2.0251937 -101.23916 -19.452225 -107.69959
101416000000 -16.136889 -111.52631 -2.00401 177.21028 -2.0435286 -101.52344 -19.48418 -108.12431
101464000000 -16.136868 -111.41662 -2.0052314 177.28297 -2.0139554 -101.6516 -19.530233 -107.82335
101512000000 -16.128666 -111.74004 -2.0008879 177.34923 -2.0041397 -102.15458 -19.476738 -107.89381
101560000000 -16.116777 -111.31228 -2.0375679 177.40442 -2.04334 -102.19126 -19.454124 -107.98299
101608000000 -16.12192 -111.57463 -2.0620067 177.23923 -2.0662055 -102.04517 -19.442532 -108.23532
101656000000 -16.073265 -112.07591 -2.0616469 176.74522 -2.034205 -101.86897 -19.402306 -108.69444
101704000000 -16.073086 -112.15398 -2.066952 176.63698 -2.0534098 -101.66881 -19.413319 -108.58865
101752000000 -16.064955 -112.1889 -2.0143692 176.63152 -2.0245521 -101.43162 -19.431328 -108.31837
101800000000 -16.061646 -112.21257 -1.9721295 176.31108 -1.9912151 -101.57444 -19.357386 -108.06595
101848000000 -15.863544 -110.89917 -2.0475335 176.47665 -1.9728943 -101.42857 -19.212393 -108.36253
101896000000 -15.81232 -111.46083 -2.0687027 176.66161 -2.0035763 -101.9492 -19.232014 -109.38403
101944000000 -16.032799 -112.59601 -2.0158651 176.53561 -2.0558677 -101.62778 -19.445845 -109.20702
101992000000 -15.856801 -110.97592 -1.9559815 176.70723 -1.9929532 -101.85851 -19.270309 -108.48212
102040000000 -15.883562 -111.05424 -2.0712881 176.8118 -2.0023448 -102.54562 -19.25041 -108.68053
102088000000 -15.935677 -112.03301 -2.0954521 176.78577 -2.0363927 -103.12469 -19.309601 -109.61082
102136000000 -16.043135 -112.75637 -2.086452 176.73601 -2.071665 -102.85207 -19.374079 -109.91068
102184000000 -16.021818 -112.52023 -2.0535228 176.33093 -2.0290439 -102.53768 -19.410252 -109.811
102232000000 -16.041769 -112.62144 -2.0309217 175.59384 -2.0150342 -101.95084 -19.410963 -109.95331
102280000000 -15.993514 -112.5013 -2.0114298 174.90663 -2.0059853 -101.56454 -19.414799 -110.02871
102328000000 -15.997751 -112.2421 -1.9979199 174.83614 -2.0081298 -101.17577 -19.428057 -110.29179
102376000000 -15.944807 -111.79339 -1.9915599 174.6483 -2.0152261 -101.56483 -19.406464 -109.84563
102424000000 -15.954575 -112.97659 -2.0510588 175.40591 -2.0175948 -102.6236 -19.403511 -110.50194
102472000000 -15.947343 -113.62054 -2.0662038 176.00359 -2.0205762 -103.60971 -19.490351 -110.4323
102520000000 -16.051176 -113.90143 -2.0665879 176.72696 -2.0343485 -104.28436 -19.475775 -110.59097
102568000000 -15.976408 -114.20773 -2.0629287 176.27821 -2.0690215 -103.87898 -19.54859 -110.35432
102616000000 -15.995341 -113.51298 -2.0401397 175.63313 -2.0325146 -102.79403 -19.40004 -110.7289
102664000000 -15.925559 -114.15904 -2.0492978 174.48552 -2.0563498 -102.31229 -19.522234 -110.41961
102712000000 -16.00658 -113.22367 -2.0497444 174.13443 -2.0303946 -102.00372 -19.430128 -110.65121
102760000000 -15.903879 -113.63877 -2.0633001 174.23262 -2.0332215 -102.12887 -19.455135 -110.71436
102808000000 -15.866868 -113.94608 -2.0521967 174.50346 -2.0244837 -102.72931 -19.438511 -111.47424
102856000000 -15.85754 -113.87007 -2.0711863 175.15738 -2.0597222 -103.13902 -19.432302 -111.29413
102904000000 -15.811961 -113.36698 -2.0682321 175.65784 -2.0347891 -104.02095 -19.431604 -111.72141
102952000000 -15.785703 -114.1748 -2.066967 175.25156 -2.0318148 -103.99446 -19.494553 -111.72838
103000000000 -15.836993 -113.0481 -2.0889654 175.31207 -2.0298166 -103.48095 -19.428381 -111.6029
103048000000 -15.797295 -113.67584 -2.0657315 174.09081 -2.0524788 -102.82818 -19.488068 -111.56013
103096000000 -15.844253 -113.53831 -2.0296493 174.01965 -2.0573919 -102.71335 -19.415159 -111.68924
103144000000 -15.828522 -113.84945 -2.0291846 174.07669 -2.0687034 -103.04978 -19.473383 -111.48363
103192000000 -15.91889 -113.5399 -2.0385139 174.47926 -2.0615308 -103.2964 -19.359501 -111.62363
103240000000 -15.890914 -114.40759 -2.0522001 174.55025 -2.0569489 -103.86769 -19.437695 -111.64216
103288000000 -15.925385 -114.2694 -2.056319 174.57848 -2.0424993 -104.03598 -19.370872 -112.08701
103336000000 -15.841008 -114.73371 -2.0721147 174.22566 -2.0402617 -103.99124 -19.423958 -111.93345
103384000000 -15.900589 -114.63673 -2.0722749 174.00064 -2.0427649 -103.60663 -19.372698 -112.36028
103432000000 -15.869249 -115.11588 -2.0770886 173.59789 -2.059818 -103.49387 -19.41135 -112.18603
103480000000 -15.873289 -115.09652 -2.0670617 173.53244 -2.0617816 -103.27642 -19.391766 -112.4776
103528000000 -15.780276 -115.2159 -2.0425138 173.61481 -2.0687389 -103.73409 -19.430017 -112.54762
103576000000 -15.809931 -114.97319 -2.0614009 174.19853 -2.0570095 -104.11874 -19.405123 -112.60961
103624000000 -15.751585 -115.16259 -2.0573118 174.26271 -2.0544991 -104.4714 -19.430994 -112.71993
103672000000 -15.70088 -115.22972 -2.05001 174.28214 -2.0489709 -104.6949 -19.465399 -112.82699
103720000000 -15.679664 -115.28378 -2.0555315 174.12271 -2.0502768 -104.68775 -19.464066 -112.89421
103768000000 -15.62998 -115.26377 -2.0581353 173.79478 -2.0432377 -104.54068 -19.492765 -112.94107
103816000000 -15.631524 -115.35934 -2.0599873 173.30943 -2.0516944 -104.35147 -19.517332 -113.05274
103864000000 -15.583767 -115.30383 -2.0590985 172.7547 -2.0401683 -103.75647 -19.484564 -113.16392
103912000000 -15.707032 -115.32626 -2.0820971 172.45506 -2.0673938 -103.55573 -19.476925 -112.97953
103960000000 -15.633945 -115.42892 -2.0736754 172.21501 -2.0509863 -103.28452 -19.416414 -113.10987
104008000000 -15.737703 -114.64418 -2.0756559 172.63124 -2.0604823 -103.50615 -19.37146 -113.07099
104056000000 -15.635581 -116.01875 -2.0650849 172.40425 -2.0491543 -103.94316 -19.382969 -113.67233
104104000000 -15.720654 -116.1646 -2.0675194 172.93309 -2.044795 -104.83318 -19.390081 -114.35595
104152000000 -15.641912 -115.69249 -2.0705819 173.71506 -2.0435877 -105.32227 -19.348942 -114.04309
104200000000 -15.693807 -116.19759 -2.0399222 173.75415 -2.0597484 -105.75091 -19.292376 -114.71569
104248000000 -15.642993 -116.06828 -2.04247 173.27945 -2.0445514 -105.29544 -19.282351 -115.23372
104296000000 -15.665853 -116.58314 -2.0671873 172.09511 -2.0467966 -104.51231 -19.33415 -115.49906
104344000000 -15.643068 -116.6237 -2.0769362 170.91937 -2.0595522 -103.40233 -19.36043 -115.40405
104392000000 -15.661134 -116.79642 -2.085043 170.06023 -2.0608916 -102.5705 -19.332058 -115.23503
104440000000 -15.61055 -116.78519 -2.0726323 169.94806 -2.0605874 -102.49945 -19.298071 -115.21223
104488000000 -15.589625 -116.83366 -2.0614784 170.72768 -2.0529273 -103.28958 -19.211275 -115.25024
104536000000 -15.612874 -116.82201 -2.0924635 171.81438 -2.0422859 -104.4556 -19.206291 -115.20323
104584000000 -15.61993 -117.04115 -2.067287 172.65398 -2.0602398 -105.71413 -19.210518 -115.92877
104632000000 -15.610089 -116.66956 -2.0899546 173.05426 -2.0773549 -105.94626 -19.232258 -115.02286
104680000000 -15.585724 -117.06564 -2.0599957 172.27554 -2.0539258 -105.54667 -19.081766 -115.92707
104728000000 -15.606179 -116.81486 -2.04404 171.1389 -2.0931592 -104.5723 -19.143312 -116.01347
104776000000 -15.577743 -116.94656 -2.0540831 170.00313 -2.0672715 -103.7445 -19.089346 -116.5668
104824000000 -15.544532 -116.75847 -2.0521786 169.62773 -2.0289021 -102.89651 -18.917944 -116.07892
104872000000 -15.551371 -117.16692 -2.064199 169.56281 -2.0331495 -103.34174 -18.950203 -116.69443
104920000000 -15.606236 -117.05337 -2.125294 170.20488 -2.0711272 -104.04165 -19.191519 -116.22463
104968000000 -15.619246 -117.08894 -2.0428867 171.15108 -2.0827112 -105.00439 -18.954935 -117.16409
105016000000 -15.635649 -117.6011 -2.0686502 171.43645 -2.0739417 -105.60752 -19.016235 -116.92708
105064000000 -15.594598 -117.21358 -2.0453656 171.39117 -2.049922 -105.44655 -18.931503 -117.47331
105112000000 -15.664598 -117.53488 -2.0788033 170.83002 -2.0558968 -105.3138 -19.058815 -117.58641
105160000000 -15.588822 -117.4749 -2.0751123 170.41023 -2.0550005 -104.93112 -19.039757 -117.64243
105208000000 -15.637262 -117.58553 -2.0805967 170.14059 -2.0586979 -104.80642 -19.024559 -117.34509
105256000000 -15.53906 -117.81632 -2.0807722 170.38177 -2.0515554 -105.13925 -18.979322 -117.40359
105304000000 -15.572234 -117.84582 -2.082339 170.67569 -2.0622342 -105.6058 -18.964119 -117.40227
105352000000 -15.522159 -118.04949 -2.0894759 170.93451 -2.0485859 -105.96671 -18.933346 -117.75829
105400000000 -15.567226 -118.02831 -2.0875654 171.045 -2.0391145 -106.19826 -18.891928 -117.79344
105448000000 -15.525993 -118.26369 -2.1060116 170.77995 -2.0573835 -106.13468 -18.909948 -118.08201
105496000000 -15.594769 -118.10617 -2.1138752 170.59166 -2.0244365 -105.87254 -18.832472 -117.91232
105544000000 -15.499712 -118.15302 -2.0604527 169.87804 -2.0763423 -105.3209 -18.781626 -118.23785
105592000000 -15.631639 -117.72487 -2.1018641 169.68784 -2.0914452 -105.14129 -18.927036 -118.05528
105640000000 -15.530065 -117.90407 -2.0496244 169.40262 -2.0811002 -105.19743 -18.717607 -118.93822
105688000000 -15.615608 -117.86327 -2.0540235 169.57619 -2.0740118 -105.50391 -18.686327 -118.95691
105736000000 -15.520854 -117.67769 -2.1253793 169.98521 -2.079262 -106.22916 -18.927879 -118.42635
105784000000 -15.626792 -117.65874 -2.0566432 170.77858 -2.0629275 -106.74799 -18.572649 -119.24535
105832000000 -15.540874 -117.71289 -2.0754998 171.23514 -2.0718224 -107.49945 -18.682598 -119.25182
105880000000 -15.609143 -117.56332 -2.0630195 171.34358 -2.0755279 -107.64307 -18.712627 -119.27399
105928000000 -15.523956 -117.93314 -2.074868 170.74556 -2.0748198 -107.39753 -18.734951 -119.53647
105976000000 -15.597552 -117.86411 -2.1097825 169.59242 -2.0715659 -106.48906 -18.788967 -119.56483
106024000000 -15.555037 -118.15693 -2.0942101 168.45198 -2.0783348 -105.34354 -18.771616 -119.50144
106072000000 -15.580675 -118.25646 -2.0811832 167.4156 -2.0864024 -104.45544 -18.669697 -118.96639
106120000000 -15.520188 -118.90294 -2.0662506 167.14056 -2.0714753 -104.16551 -18.544983 -118.54118
106168000000 -15.573781 -118.40155 -2.1069968 167.87721 -2.083576 -105.03232 -18.635592 -118.68842
106216000000 -15.512607 -118.67242 -2.0646145 169.48204 -2.0530207 -106.26015 -18.393307 -117.97036
106264000000 -15.55973 -118.33886 -2.0656323 170.05688 -2.1008239 -107.74784 -18.514654 -120.19938
106312000000 -15.462002 -118.73737 -2.0350976 171.01036 -2.0550594 -108.45749 -18.323036 -119.40691
106360000000 -15.529132 -118.33057 -2.0985789 170.38805 -2.0623765 -108.36725 -18.527559 -120.94572
106408000000 -15.49769 -118.43893 -2.1064606 168.94286 -2.1470101 -106.92675 -18.738482 -120.43774
106456000000 -15.393629 -119.01561 -2.0145047 167.28398 -2.000459 -104.74962 -18.030495 -118.24526
106504000000 -15.639108 -118.42899 -2.1850183 165.17206 -2.0802338 -103.99968 -18.660656 -122.38373
106552000000 -15.495947 -118.13294 -2.1157219 165.54596 -2.1172302 -103.5449 -18.554953 -119.85818
106600000000 -15.416149 -118.91959 -1.9913989 166.53763 -2.0967193 -104.62495 -18.158646 -118.23021
106648000000 -15.444969 -118.57683 -2.1719627 167.81052 -2.0139561 -106.22826 -18.38245 -119.48482
106696000000 -15.492408 -117.1883 -2.0759616 169.56825 -2.1537983 -108.01451 -18.699537 -119.8996
106744000000 -15.475922 -119.09227 -2.0538642 169.89336 -2.0872731 -108.69845 -18.133772 -119.52763
106792000000 -15.548131 -118.38375 -2.1311233 169.67015 -2.0882516 -108.31979 -18.312763 -120.12168
106840000000 -15.515727 -118.51026 -2.0848444 168.7579 -2.116802 -107.63038 -18.250198 -119.87357
106888000000 -15.460717 -118.58547 -2.1087017 167.86137 -2.0651712 -106.64303 -18.229862 -119.65825
106936000000 -15.493863 -118.40475 -2.1421518 167.04109 -2.1288388 -106.69775 -18.422377 -121.47721
106984000000 -15.470692 -119.33121 -2.0495493 167.34265 -2.0786107 -106.83148 -18.025131 -119.70437
107032000000 -15.51221 -119.01715 -2.0820684 167.59038 -2.0879118 -107.61413 -18.09635 -120.68634
107080000000 -15.461099 -118.96897 -2.1068108 168.2076 -2.075026 -107.99197 -18.178247 -120.13255
107128000000 -15.490792 -118.7195 -2.1221366 168.33997 -2.0838182 -108.39233 -18.163643 -120.55974
107176000000 -15.483056 -118.31857 -2.1211519 168.16705 -2.1050999 -107.94673 -18.095274 -121.0927
107224000000 -15.432449 -118.60528 -2.0942781 167.8985 -2.0933621 -107.78844 -18.072571 -120.12453
107272000000 -15.422163 -118.34035 -2.099942 167.46257 -2.0925145 -107.38653 -18.027237 -120.52089
107320000000 -15.381223 -118.6563 -2.1119382 167.08507 -2.072206 -107.17672 -18.051357 -120.49947
107368000000 -15.364331 -118.43428 -2.1365514 167.16173 -2.0712221 -107.39019 -18.129124 -120.52694
107416000000 -15.354884 -118.63659 -2.1439776 167.08583 -2.1039672 -107.50481 -18.191126 -120.95448
107464000000 -15.355566 -118.46442 -2.0921922 167.66669 -2.1283655 -107.79725 -18.176464 -120.00174
107512000000 -15.3925 -119.11696 -2.0762568 168.00404 -2.0832825 -108.25795 -18.009392 -119.17857
107560000000 -15.381235 -118.152 -2.1488202 168.15485 -2.1008408 -108.75523 -18.081507 -120.79783
107608000000 -15.380184 -118.63441 -2.1103911 168.23204 -2.1050868 -108.73941 -18.021334 -120.15389
107656000000 -15.337206 -118.57639 -2.1052012 167.78131 -2.1163645 -108.05658 -18.094637 -119.60052
107704000000 -15.387203 -118.77516 -2.1006534 166.32632 -2.1052134 -107.3614 -17.83783 -121.40833
107752000000 -15.350174 -118.73785 -2.0874979 165.89673 -2.1136658 -106.87961 -17.866812 -121.0103
107800000000 -15.345991 -119.01907 -2.0695417 164.88155 -2.1214104 -106.2794 -17.786554 -121.69847
107848000000 -15.33266 -119.20385 -2.0757487 164.84062 -2.109412 -106.28056 -17.830521 -121.65178
107896000000 -15.329414 -119.21026 -2.0892444 165.54053 -2.0959764 -107.10229 -17.834101 -121.97315
107944000000 -15.319609 -119.12659 -2.1755719 167.1145 -2.1058772 -108.78301 -18.074345 -122.20976
107992000000 -15.301901 -119.22311 -2.1143818 168.57613 -2.0966349 -109.95928 -17.918493 -121.27341
108040000000 -15.282883 -119.44075 -2.1089709 168.7999 -2.0948949 -110.27913 -17.946577 -121.38571
108088000000 -15.343371 -118.70355 -2.1776092 168.33873 -2.078975 -110.27061 -17.962175 -122.43865
108136000000 -15.270812 -119.08559 -2.1044014 166.98917 -2.1135564 -108.84589 -17.875319 -121.81516
108184000000 -15.282246 -119.1532 -2.0722277 165.19102 -2.1218252 -107.32437 -17.812658 -121.35977
108232000000 -15.230216 -119.262 -2.0781863 163.99977 -2.1050019 -105.9838 -17.714485 -121.21005
108280000000 -15.213115 -119.27312 -2.0914283 163.74649 -2.1118679 -106.04036 -17.76952 -121.42922
108328000000 -15.176756 -119.50711 -2.0977933 164.68195 -2.1218412 -106.73112 -17.798189 -121.4745
108376000000 -15.1661 -119.49899 -2.1084061 166.00298 -2.098496 -107.90462 -17.797758 -121.00333
108424000000 -15.17608 -119.72532 -2.0886018 167.32918 -2.0402701 -109.27155 -17.670111 -120.95037
108472000000 -15.206773 -119.4984 -2.1298892 167.29143 -2.045958 -110.53524 -17.564741 -123.14478
108520000000 -15.218962 -119.59671 -2.1350434 167.3503 -2.1078429 -110.46216 -17.740477 -123.51933
108568000000 -15.214641 -119.35426 -2.1300933 166.11096 -2.1228573 -109.39021 -17.718283 -123.6576
108616000000 -15.200171 -119.42829 -2.1325569 165.20361 -2.1232579 -108.30939 -17.833414 -123.34364
108664000000 -15.167773 -119.51893 -2.1068642 164.52679 -2.115061 -107.48412 -17.908861 -122.56799
108712000000 -15.150445 -119.53545 -2.060456 164.71796 -2.1294889 -107.79118 -17.82892 -122.13781
108760000000 -15.132172 -119.67819 -2.083395 165.17072 -2.1063552 -108.5397 -17.821924 -122.2782
108808000000 -15.118779 -120.07508 -2.0940044 165.79771 -2.0932343 -109.26318 -17.827633 -122.3091
108856000000 -15.100023 -120.0203 -2.1053441 166.08926 -2.0842347 -109.61889 -17.810188 -122.20893
108904000000 -15.118285 -120.51711 -2.1157532 166.17093 -2.0690594 -109.82733 -17.807798 -122.26469
108952000000 -15.110139 -120.23495 -2.1233022 165.88112 -2.0773437 -109.9639 -17.728895 -122.72536
109000000000 -15.158734 -120.5687 -2.1411736 165.53612 -2.1048136 -110.01608 -17.698515 -123.3873
109048000000 -15.115621 -119.73103 -2.1422384 165.04007 -2.1470623 -109.91475 -17.733744 -124.15083
109096000000 -15.140726 -119.9558 -2.1276848 164.61037 -2.1318591 -109.81971 -17.692387 -123.6537
109144000000 -15.108751 -119.50924 -2.1133862 164.39537 -2.121392 -109.87183 -17.638815 -123.37704
109192000000 -15.164621 -120.17565 -2.1024408 164.24182 -2.1156774 -109.67435 -17.55423 -123.96243
109240000000 -15.130819 -120.63247 -2.0976272 164.76981 -2.1097093 -109.94497 -17.700296 -123.87389
109288000000 -15.107958 -120.93637 -2.0994389 164.8732 -2.1020174 -110.06292 -17.724884 -124.00368
109336000000 -15.083055 -120.94714 -2.1103275 164.86601 -2.1124907 -110.30296 -17.739794 -124.41768
109384000000 -15.080141 -121.2963 -2.0828681 165.01315 -2.1017361 -110.34186 -17.757128 -124.09849
109432000000 -15.071899 -121.38317 -2.0993946 164.87735 -2.1000192 -110.26625 -17.808121 -124.04857
109480000000 -15.007848 -121.47997 -2.1036408 164.67506 -2.098958 -109.21278 -18.022625 -122.85284
109528000000 -15.036861 -121.67677 -2.1248808 163.77345 -2.102813 -108.9761 -17.945635 -123.60806
109576000000 -15.118179 -121.22186 -2.1280198 163.01958 -2.1280723 -109.27465 -17.690855 -124.92935
109624000000 -15.13524 -121.2803 -2.0752618 162.46919 -2.1154923 -109.06701 -17.534491 -124.27149
109672000000 -15.080127 -121.3231 -2.093863 162.60579 -2.0972672 -109.18525 -17.502621 -124.48914
109720000000 -15.038733 -120.89381 -2.1130705 162.43887 -2.1150413 -109.92284 -17.33427 -124.37004
109768000000 -15.048475 -122.07891 -2.1190553 163.68134 -2.0831721 -110.41133 -17.578175 -124.59861
109816000000 -15.002342 -121.75194 -2.1484542 164.06836 -2.0978172 -110.75961 -17.641815 -124.87535
109864000000 -15.062881 -122.20961 -2.140537 163.87122 -2.096998 -110.78957 -17.615929 -124.73688
109912000000 -15.041421 -122.10404 -2.1132259 163.23569 -2.0890291 -110.20157 -17.654652 -124.88031
109960000000 -15.08598 -122.44803 -2.1581736 162.39001 -2.1046114 -109.76653 -17.645689 -125.26019
110008000000 -15.056648 -122.14855 -2.076977 162.15054 -2.1019297 -109.12656 -17.752956 -124.88058
110056000000 -15.069084 -122.34287 -2.1096673 162.01418 -2.1234579 -109.50149 -17.733717 -125.23614
110104000000 -15.038277 -122.24799 -2.0803998 162.64 -2.1123583 -109.88493 -17.838497 -125.32761
110152000000 -15.041236 -122.90713 -2.0880351 162.83569 -2.0920594 -110.8721 -17.843494 -125.21995
110200000000 -15.086514 -122.73418 -2.1537435 163.54346 -2.1173799 -111.30875 -17.837479 -125.63987
110248000000 -15.068817 -123.03828 -2.126442 163.95937 -2.118983 -111.65203 -17.974445 -125.40334
110296000000 -15.085126 -122.75425 -2.089427 163.78711 -2.1135404 -111.47548 -17.891468 -124.80187
110344000000 -15.086429 -123.2565 -2.0987356 163.14621 -2.1134212 -111.36551 -17.908426 -124.83882
110392000000 -15.1012 -122.88368 -2.0949574 162.94672 -2.1114626 -111.16996 -17.801453 -124.92036
110440000000 -15.139771 -123.50616 -2.1047943 162.49821 -2.1199915 -111.14523 -17.823492 -125.29712
110488000000 -15.117258 -122.93457 -2.1099837 162.76241 -2.1273422 -111.18158 -17.780352 -125.28642
110536000000 -15.139555 -123.13628 -2.1359522 163.13054 -2.1017919 -111.61048 -17.770288 -125.39253
110584000000 -15.167287 -123.38129 -2.1228583 162.65823 -2.1274612 -111.90186 -17.800289 -125.81878
110632000000 -15.160655 -122.86826 -2.1289279 162.82944 -2.1076009 -111.84083 -17.730267 -125.89659
110680000000 -15.14227 -122.68395 -2.1375377 163.0544 -2.1164367 -112.07201 -17.765526 -125.7475
110728000000 -15.135426 -122.52872 -2.137727 162.91473 -2.1069345 -112.14224 -17.740572 -125.96451
110776000000 -15.074675 -122.64225 -2.1362777 162.88531 -2.1238329 -112.3209 -17.790987 -126.13433
110824000000 -15.0997 -122.90642 -2.1438317 162.82961 -2.1182313 -112.26938 -17.824358 -126.05988
110872000000 -15.049029 -122.93861 -2.1370847 162.95137 -2.1186016 -112.56656 -17.849794 -126.02844
110920000000 -15.082748 -123.523 -2.1321766 162.69878 -2.1299434 -112.82726 -17.827877 -126.02008
110968000000 -15.082273 -123.40359 -2.1310108 163.032 -2.1411302 -112.85865 -17.887104 -125.77731
111016000000 -15.060187 -122.96495 -2.1093285 162.76349 -2.1315312 -112.91368 -17.84421 -125.19827
111064000000 -15.062411 -122.94424 -2.1408455 162.20497 -2.1304603 -112.44493 -17.812204 -125.16187
111112000000 -15.042472 -123.07766 -2.1468301 161.61124 -2.13482 -112.0502 -17.857323 -125.18204
111160000000 -15.047007 -123.07069 -2.159632 161.05757 -2.1424761 -111.48844 -17.846363 -125.1782
111208000000 -15.002295 -123.16584 -2.1235664 160.56767 -2.1493537 -110.96222 -17.892559 -125.16446
111256000000 -15.041839 -123.56107 -2.1378479 160.00352 -2.1498451 -110.93446 -17.884884 -125.25959
111304000000 -15.021789 -123.779 -2.1585932 160.64816 -2.1345179 -111.55392 -17.94302 -125.52924
111352000000 -15.005524 -123.75623 -2.1568522 161.10355 -2.1617696 -112.33552 -17.93688 -125.54633
111400000000 -15.004471 -123.68864 -2.1716771 162.0414 -2.1553602 -113.09666 -17.938618 -125.86555
111448000000 -14.999328 -123.8751 -2.1619692 162.30482 -2.1483221 -113.24731 -17.937956 -126.17377
111496000000 -14.993371 -123.81731 -2.1555517 161.51495 -2.1426075 -112.71028 -17.930147 -126.55197
111544000000 -14.986967 -123.83573 -2.1474702 160.26022 -2.1376445 -111.59698 -17.947258 -126.71178
111592000000 -14.983908 -123.88545 -2.1489356 158.82291 -2.1372194 -110.33969 -17.956274 -127.03986
111640000000 -15.00168 -123.90356 -2.1577225 158.01634 -2.133358 -109.5252 -17.927979 -127.14714
111688000000 -14.990383 -124.18448 -2.1559885 158.23462 -2.1552107 -109.90557 -17.899754 -127.22884
111736000000 -15.025247 -123.90591 -2.138134 158.66307 -2.1805973 -110.43594 -17.885487 -127.35142
111784000000 -15.004436 -123.87824 -2.1546681 159.89645 -2.1641562 -111.75263 -17.85198 -127.42178
111832000000 -14.994312 -124.1143 -2.1615627 161.11076 -2.165746 -112.99276 -17.787806 -127.41553
111880000000 -14.965103 -124.01263 -2.1588378 161.49377 -2.1678269 -113.47516 -17.747608 -127.60835
111928000000 -14.987219 -124.42348 -2.168474 161.13684 -2.159729 -113.16422 -17.672583 -127.67405
111976000000 -14.953342 -123.97848 -2.1636789 160.31966 -2.1646214 -112.44686 -17.643476 -127.89809
112024000000 -14.985392 -124.34858 -2.1592622 159.35988 -2.1550963 -111.5193 -17.562037 -128.16238
112072000000 -14.902161 -123.96333 -2.1613901 158.70757 -2.1633003 -111.12772 -17.612846 -128.2099
112120000000 -14.935819 -124.263 -2.1701188 158.71098 -2.1534302 -111.14777 -17.554672 -128.30029
112168000000 -14.855043 -123.89276 -2.1698952 159.34332 -2.1451042 -111.75952 -17.543526 -128.11992
112216000000 -14.810649 -124.33088 -2.1607852 160.03081 -2.1366324 -112.69713 -17.547558 -128.45749
112264000000 -14.770838 -124.65322 -2.1884553 160.76141 -2.1232643 -113.6039 -17.610144 -128.23358
112312000000 -15.021579 -124.14527 -2.1652799 161.96004 -2.2303879 -114.40187 -17.528378 -127.1554
112360000000 -14.716455 -124.02135 -2.0871303 161.43523 -2.1709428 -114.1642 -17.544081 -128.08055
112408000000 -14.720023 -125.12225 -2.15118 160.45528 -2.1309385 -113.98148 -17.590912 -127.92472
112456000000 -14.748266 -124.85309 -2.14165 160.32321 -2.1686163 -113.33585 -17.630955 -127.55816
112504000000 -14.906875 -125.48775 -2.1985993 159.01711 -2.171416 -112.65297 -17.617699 -127.39764
112552000000 -14.862243 -124.82831 -2.1983349 158.74677 -2.1506584 -112.09212 -17.602171 -127.44719
112600000000 -14.885715 -124.57943 -2.2206955 158.96387 -2.1261311 -112.17563 -17.613359 -127.4039
112648000000 -14.904546 -124.78791 -2.2259099 159.8925 -2.1524911 -113.34949 -17.65593 -127.31683
112696000000 -15.026427 -124.84927 -2.1600308 161.20259 -2.216784 -114.61273 -17.647917 -127.09873
112744000000 -14.913067 -124.36574 -2.1221316 161.97359 -2.2098794 -115.50817 -17.622688 -127.51624
112792000000 -14.893539 -125.03563 -2.1450214 161.5585 -2.1775315 -115.62349 -17.663473 -128.11844
112840000000 -14.842925 -125.05583 -2.1479414 160.32256 -2.1875699 -114.74703 -17.742018 -128.4801
112888000000 -14.835342 -125.50179 -2.2101376 158.81139 -2.1442804 -113.14402 -17.723986 -128.73354
112936000000 -14.766853 -125.32595 -2.1656122 156.49393 -2.1664622 -111.16208 -17.792595 -129.2937
112984000000 -14.803425 -125.34753 -2.1592009 155.55896 -2.1616797 -109.87997 -17.710739 -129.75674
113032000000 -14.74085 -124.84782 -2.1462727 156.22168 -2.1734605 -110.50059 -17.690496 -129.73929
113080000000 -14.762843 -125.21715 -2.1259942 158.22359 -2.1743751 -112.49665 -17.649866 -130.28053
113128000000 -14.69152 -125.01555 -2.1388032 160.76775 -2.1480258 -115.34665 -17.658531 -130.61783
113176000000 -14.699212 -125.69928 -2.1419251 162.33551 -2.1306996 -117.399 -17.68663 -131.31313
113224000000 -14.694645 -125.89689 -2.1425126 162.04088 -2.1658416 -117.49744 -17.676878 -131.66266
113272000000 -14.750773 -125.46947 -2.1403952 160.00594 -2.1447744 -115.2969 -17.608173 -132.32509
113320000000 -14.652865 -126.06221 -2.1609809 156.37756 -2.1430409 -112.10787 -17.623714 -131.98729
113368000000 -14.663963 -126.65287 -2.1387258 152.71498 -2.1336911 -108.27443 -17.439899 -131.69432
113416000000 -14.648502 -126.83575 -2.1405666 150.72047 -2.1372843 -106.50414 -17.414473 -131.48297
113464000000 -14.723426 -127.03367 -2.1388636 151.50288 -2.1359975 -107.25057 -17.306038 -131.84665
113512000000 -14.678613 -127.02692 -2.1303253 154.67664 -2.1409168 -110.72711 -17.30946 -131.63051
113560000000 -14.751725 -126.90623 -2.1443906 158.73596 -2.1356492 -114.59772 -17.255499 -131.84024
113608000000 -14.707965 -127.22193 -2.1435201 161.50296 -2.141201 -117.79817 -17.232992 -131.87
113656000000 -14.770587 -126.92475 -2.1507854 162.24646 -2.1326115 -118.5704 -17.206551 -132.59685
113704000000 -14.736361 -127.06708 -2.1463876 160.60559 -2.1346741 -117.25877 -17.141703 -132.85231
113752000000 -14.694988 -127.24016 -2.1295054 157.80063 -2.1324515 -114.67844 -17.199465 -132.7043
113800000000 -14.665327 -127.08318 -2.1397634 154.63985 -2.1265781 -111.39895 -17.185457 -132.47844
113848000000 -14.675982 -126.98542 -2.1345055 152.19908 -2.1332595 -109.06815 -17.221743 -132.17274
113896000000 -14.662308 -127.36505 -2.1404755 151.82191 -2.1358371 -108.81902 -17.241076 -131.97734
113944000000 -14.612879 -127.17027 -2.1220231 153.31908 -2.135915 -110.37359 -17.249681 -131.61978
113992000000 -14.649207 -127.52474 -2.1270456 155.86156 -2.1388576 -113.10996 -17.266764 -131.69318
114040000000 -14.672626 -127.77645 -2.1335833 158.48332 -2.1303389 -115.91382 -17.267149 -131.79332
114088000000 -14.611021 -127.27048 -2.1348062 160.19003 -2.1294796 -117.68773 -17.269464 -131.64931
114136000000 -14.669065 -127.77241 -2.1315105 160.59943 -2.1271043 -118.20364 -17.285746 -131.79482
114184000000 -14.653169 -127.32776 -2.1343012 159.58002 -2.1281729 -117.4963 -17.277903 -132.13811
114232000000 -14.714862 -127.76114 -2.1277189 157.46275 -2.1347713 -115.72174 -17.284086 -132.91675
114280000000 -14.674633 -127.54923 -2.1390004 155.55679 -2.1321378 -113.81436 -17.313587 -133.22676
114328000000 -14.655885 -127.6905 -2.1426063 153.87251 -2.136409 -112.33594 -17.326168 -133.21626
114376000000 -14.68983 -127.54712 -2.1413944 153.35031 -2.135612 -111.66942 -17.35499 -133.62772
114424000000 -14.620441 -127.97847 -2.141588 154.01543 -2.1366525 -112.60044 -17.372993 -133.31168
114472000000 -14.683105 -127.98956 -2.1400933 155.86403 -2.1363688 -114.53537 -17.386217 -133.84183
114520000000 -14.685966 -128.1465 -2.1426437 157.78015 -2.1371393 -116.5527 -17.405115 -134.0107
114568000000 -14.710081 -128.21671 -2.1437447 158.91791 -2.1350777 -117.97914 -17.387634 -134.34499
114616000000 -14.740987 -128.34283 -2.1463196 158.76073 -2.1297624 -118.03844 -17.373096 -134.81021
114664000000 -14.729963 -128.3866 -2.1507204 157.32986 -2.1363633 -117.01395 -17.349524 -134.94673
114712000000 -14.735242 -128.30235 -2.159497 155.33946 -2.1477494 -115.01368 -17.331921 -134.58414
114760000000 -14.698768 -128.38051 -2.1470304 153.63672 -2.1389418 -113.41505 -17.231424 -134.46268
114808000000 -14.705433 -128.23936 -2.143353 153.19415 -2.1428971 -112.92984 -17.208532 -133.95448
114856000000 -14.680614 -128.35291 -2.1385169 154.30055 -2.1413896 -114.0697 -17.142668 -133.90477
114904000000 -14.701921 -128.25661 -2.1399951 156.15685 -2.1451597 -116.16757 -17.067316 -134.158
114952000000 -14.685924 -128.43159 -2.1127682 157.3183 -2.1336555 -117.76271 -16.910366 -134.23979
115000000000 -14.708866 -128.05194 -2.1402137 157.81696 -2.1391752 -118.06483 -16.960995 -134.67537
