!QAlibria Port Mapping:1,2
!QAlibria TraceName:S11,S21,S12,S22
# Hz S RI R 50
!
+1.700000000000000e+008   -2.393366836819850e-001 +3.469728826881290e-001   +0.000000000000000e+000 +0.000000000000000e+000   +0.000000000000000e+000 +0.000000000000000e+000   -2.394903556512490e-001 +3.470373454404810e-001   
+3.400000000000000e+008   -6.422136667413950e-002 +3.267415589311420e-001   +0.000000000000000e+000 +0.000000000000000e+000   +0.000000000000000e+000 +0.000000000000000e+000   -6.400488943552610e-002 +3.269632726660140e-001   
+5.100000000000000e+008   +2.817593779374340e-002 +2.979401436534180e-001   +0.000000000000000e+000 +0.000000000000000e+000   +0.000000000000000e+000 +0.000000000000000e+000   +2.885008515520180e-002 +2.979008727084550e-001   
+6.800000000000000e+008   +8.578411103760490e-002 +2.715944935628490e-001   +0.000000000000000e+000 +0.000000000000000e+000   +0.000000000000000e+000 +0.000000000000000e+000   +8.667742462332090e-002 +2.710501008295230e-001   
+8.500000000000000e+008   +1.251219900630870e-001 +2.489655216376170e-001   +0.000000000000000e+000 +0.000000000000000e+000   +0.000000000000000e+000 +0.000000000000000e+000   +1.259671953009090e-001 +2.479291287361790e-001   
+1.020000000000000e+009   +1.537218753321740e-001 +2.296824923237660e-001   +0.000000000000000e+000 +0.000000000000000e+000   +0.000000000000000e+000 +0.000000000000000e+000   +1.543752521948010e-001 +2.283063470352860e-001   
+1.190000000000000e+009   +1.754819300829390e-001 +2.131178515765230e-001   +0.000000000000000e+000 +0.000000000000000e+000   +0.000000000000000e+000 +0.000000000000000e+000   +1.759370137732840e-001 +2.115666992037040e-001   
+1.360000000000000e+009   +1.925940118617320e-001 +1.987256563532910e-001   +0.000000000000000e+000 +0.000000000000000e+000   +0.000000000000000e+000 +0.000000000000000e+000   +1.929309198209870e-001 +1.971055144098290e-001   
+1.530000000000000e+009   +2.063846604204380e-001 +1.860933582996050e-001   +0.000000000000000e+000 +0.000000000000000e+000   +0.000000000000000e+000 +0.000000000000000e+000   +2.067109321950140e-001 +1.844338009949570e-001   
+1.700000000000000e+009   +2.177132981719440e-001 +1.749176630809050e-001   +0.000000000000000e+000 +0.000000000000000e+000   +0.000000000000000e+000 +0.000000000000000e+000   +2.181213464418330e-001 +1.731856960394570e-001   
+1.870000000000000e+009   +2.271700946590710e-001 +1.649709399982250e-001   +0.000000000000000e+000 +0.000000000000000e+000   +0.000000000000000e+000 +0.000000000000000e+000   +2.277159065640470e-001 +1.630964301039370e-001   
+2.040000000000000e+009   +2.351789382926400e-001 +1.560752809651960e-001   +0.000000000000000e+000 +0.000000000000000e+000   +0.000000000000000e+000 +0.000000000000000e+000   +2.358775629500270e-001 +1.539756096419660e-001   
+2.210000000000000e+009   +2.420540749141120e-001 +1.480856414818790e-001   +0.000000000000000e+000 +0.000000000000000e+000   +0.000000000000000e+000 +0.000000000000000e+000   +2.428852646182480e-001 +1.456840986873060e-001   
+2.380000000000000e+009   +2.480333557888030e-001 +1.408796941940530e-001   +0.000000000000000e+000 +0.000000000000000e+000   +0.000000000000000e+000 +0.000000000000000e+000   +2.489516870671770e-001 +1.381165008080060e-001   
+2.550000000000000e+009   +2.532991388750590e-001 +1.343519034212350e-001   +0.000000000000000e+000 +0.000000000000000e+000   +0.000000000000000e+000 +0.000000000000000e+000   +2.542447965669910e-001 +1.311889309239570e-001   
+2.720000000000000e+009   +2.579922818454440e-001 +1.284100353112770e-001   +0.000000000000000e+000 +0.000000000000000e+000   +0.000000000000000e+000 +0.000000000000000e+000   +2.589004139834470e-001 +1.248310302646940e-001   
+2.890000000000000e+009   +2.622219992805310e-001 +1.229730007757710e-001   +0.000000000000000e+000 +0.000000000000000e+000   +0.000000000000000e+000 +0.000000000000000e+000   +2.630298011355280e-001 +1.189810817065680e-001   
+3.060000000000000e+009   +2.660730687100950e-001 +1.179694047834780e-001   +0.000000000000000e+000 +0.000000000000000e+000   +0.000000000000000e+000 +0.000000000000000e+000   +2.667245197312730e-001 +1.135832337740170e-001   
+3.230000000000000e+009   +2.696112343082450e-001 +1.133364680895670e-001   +0.000000000000000e+000 +0.000000000000000e+000   +0.000000000000000e+000 +0.000000000000000e+000   +2.700598013048860e-001 +1.085860661228120e-001   
+3.400000000000000e+009   +2.728873295194530e-001 +1.090191526906060e-001   +0.000000000000000e+000 +0.000000000000000e+000   +0.000000000000000e+000 +0.000000000000000e+000   +2.730970919616360e-001 +1.039419483362180e-001   
+3.570000000000000e+009   +2.759404614539520e-001 +1.049694092968590e-001   +0.000000000000000e+000 +0.000000000000000e+000   +0.000000000000000e+000 +0.000000000000000e+000   +2.758861167695940e-001 +9.960682557884980e-002   
+3.740000000000000e+009   +2.788004950888510e-001 +1.011455088220430e-001   +0.000000000000000e+000 +0.000000000000000e+000   +0.000000000000000e+000 +0.000000000000000e+000   +2.784666367001400e-001 +9.554020149984700e-002   
+3.910000000000000e+009   +2.814900085502450e-001 +9.751143934513930e-002   +0.000000000000000e+000 +0.000000000000000e+000   +0.000000000000000e+000 +0.000000000000000e+000   +2.808699828733440e-001 +9.170518428367400e-002   
+4.080000000000000e+009   +2.840258455850490e-001 +9.403635863963920e-002   +0.000000000000000e+000 +0.000000000000000e+000   +0.000000000000000e+000 +0.000000000000000e+000   +2.831204098026450e-001 +8.806852456663390e-002   
+4.250000000000000e+009   +2.864203589820420e-001 +9.069409525834910e-002   +0.000000000000000e+000 +0.000000000000000e+000   +0.000000000000000e+000 +0.000000000000000e+000   +2.852362905922200e-001 +8.460061241948250e-002   
+4.420000000000000e+009   +2.886824150421530e-001 +8.746269199358540e-002   +0.000000000000000e+000 +0.000000000000000e+000   +0.000000000000000e+000 +0.000000000000000e+000   +2.872311689677510e-001 +8.127542306265790e-002   
+4.590000000000000e+009   +2.908182113835140e-001 +8.432398606223910e-002   +0.000000000000000e+000 +0.000000000000000e+000   +0.000000000000000e+000 +0.000000000000000e+000   +2.891146805526560e-001 +7.807041229777360e-002   
+4.760000000000000e+009   +2.928319468262890e-001 +8.126322033804860e-002   +0.000000000000000e+000 +0.000000000000000e+000   +0.000000000000000e+000 +0.000000000000000e+000   +2.908933550164530e-001 +7.496636834646280e-002   
+4.930000000000000e+009   +2.947263726188130e-001 +7.826868102446530e-002   +0.000000000000000e+000 +0.000000000000000e+000   +0.000000000000000e+000 +0.000000000000000e+000   +2.925713102290760e-001 +7.194722833943540e-002   
+5.100000000000000e+009   +2.965032460803610e-001 +7.533135735378200e-002   +0.000000000000000e+000 +0.000000000000000e+000   +0.000000000000000e+000 +0.000000000000000e+000   +2.941508488807290e-001 +6.899986764270260e-002   
+5.270000000000000e+009   +2.981637031336240e-001 +7.244462034563320e-002   +0.000000000000000e+000 +0.000000000000000e+000   +0.000000000000000e+000 +0.000000000000000e+000   +2.956329676473360e-001 +6.611386945634100e-002   
+5.440000000000000e+009   +2.997085614267390e-001 +6.960391835826700e-002   +0.000000000000000e+000 +0.000000000000000e+000   +0.000000000000000e+000 +0.000000000000000e+000   +2.970177875008340e-001 +6.328128120627900e-002   
+5.610000000000000e+009   +3.011385635626770e-001 +6.680648817525270e-002   +0.000000000000000e+000 +0.000000000000000e+000   +0.000000000000000e+000 +0.000000000000000e+000   +2.983049136287950e-001 +6.049636322757350e-002   
+5.780000000000000e+009   +3.024545678129960e-001 +6.405108141390580e-002   +0.000000000000000e+000 +0.000000000000000e+000   +0.000000000000000e+000 +0.000000000000000e+000   +2.994937317334750e-001 +5.775533440034120e-002   
+5.950000000000000e+009   +3.036576924517800e-001 +6.133770641334360e-002   +0.000000000000000e+000 +0.000000000000000e+000   +0.000000000000000e+000 +0.000000000000000e+000   +3.005836474665460e-001 +5.505611908552670e-002   
+6.120000000000000e+009   +3.047494192860120e-001 +5.866738660281460e-002   +0.000000000000000e+000 +0.000000000000000e+000   +0.000000000000000e+000 +0.000000000000000e+000   +3.015742747571230e-001 +5.239809897498560e-002   
+6.290000000000000e+009   +3.057316613957470e-001 +5.604193650216660e-002   +0.000000000000000e+000 +0.000000000000000e+000   +0.000000000000000e+000 +0.000000000000000e+000   +3.024655785242600e-001 +4.978187327888980e-002   
+6.460000000000000e+009   +3.066067997760600e-001 +5.346375651920820e-002   +0.000000000000000e+000 +0.000000000000000e+000   +0.000000000000000e+000 +0.000000000000000e+000   +3.032579770377830e-001 +4.720903023138930e-002   
+6.630000000000000e+009   +3.073776937920730e-001 +5.093564773954920e-002   +0.000000000000000e+000 +0.000000000000000e+000   +0.000000000000000e+000 +0.000000000000000e+000   +3.039524088327410e-001 +4.468193248036090e-002   
+6.800000000000000e+009   +3.080476698308380e-001 +4.846064768223050e-002   +0.000000000000000e+000 +0.000000000000000e+000   +0.000000000000000e+000 +0.000000000000000e+000   +3.045503691339410e-001 +4.220351874260150e-002   
+6.970000000000000e+009   +3.086204927344270e-001 +4.604188736412740e-002   +0.000000000000000e+000 +0.000000000000000e+000   +0.000000000000000e+000 +0.000000000000000e+000   +3.050539203503890e-001 +3.977712325894820e-002   
+7.140000000000000e+009   +3.091003240616130e-001 +4.368246985972060e-002   +0.000000000000000e+000 +0.000000000000000e+000   +0.000000000000000e+000 +0.000000000000000e+000   +3.054656812962650e-001 +3.740631437870750e-002   
+7.310000000000000e+009   +3.094916713034380e-001 +4.138536987863390e-002   +0.000000000000000e+000 +0.000000000000000e+000   +0.000000000000000e+000 +0.000000000000000e+000   +3.057887992723080e-001 +3.509475302873900e-002   
+7.480000000000000e+009   +3.097993315673000e-001 +3.915335351739490e-002   +0.000000000000000e+000 +0.000000000000000e+000   +0.000000000000000e+000 +0.000000000000000e+000   +3.060269093707930e-001 +3.284607112505730e-002   
+7.650000000000000e+009   +3.100283326750670e-001 +3.698891679014630e-002   +0.000000000000000e+000 +0.000000000000000e+000   +0.000000000000000e+000 +0.000000000000000e+000   +3.061840842440800e-001 +3.066376966386290e-002   
+7.820000000000000e+009   +3.101838746109920e-001 +3.489424129806530e-002   +0.000000000000000e+000 +0.000000000000000e+000   +0.000000000000000e+000 +0.000000000000000e+000   +3.062647781238530e-001 +2.855113566701950e-002   
+7.990000000000000e+009   +3.102712733037160e-001 +3.287116517210860e-002   +0.000000000000000e+000 +0.000000000000000e+000   +0.000000000000000e+000 +0.000000000000000e+000   +3.062737675861900e-001 +2.651117678166990e-002   
+8.160000000000000e+009   +3.102959083419450e-001 +3.092116712822190e-002   +0.000000000000000e+000 +0.000000000000000e+000   +0.000000000000000e+000 +0.000000000000000e+000   +3.062160918153070e-001 +2.454657209462280e-002   
+8.330000000000000e+009   +3.102631758695970e-001 +2.904536148475530e-002   +0.000000000000000e+000 +0.000000000000000e+000   +0.000000000000000e+000 +0.000000000000000e+000   +3.060969940662430e-001 +2.265963735909690e-002   
+8.500000000000000e+009   +3.101784474035860e-001 +2.724450205641590e-002   +0.000000000000000e+000 +0.000000000000000e+000   +0.000000000000000e+000 +0.000000000000000e+000   +3.059218661297480e-001 +2.085230290914120e-002   
+8.670000000000000e+009   +3.100470347553250e-001 +2.551899286697800e-002   +0.000000000000000e+000 +0.000000000000000e+000   +0.000000000000000e+000 +0.000000000000000e+000   +3.056961966670480e-001 +1.912610225556590e-002   
+8.840000000000000e+009   +3.098741612201190e-001 +2.386890375219930e-002   +0.000000000000000e+000 +0.000000000000000e+000   +0.000000000000000e+000 +0.000000000000000e+000   +3.054255243319220e-001 +1.748216953823240e-002   
+9.010000000000000e+009   +3.096649386646700e-001 +2.229398928958910e-002   +0.000000000000000e+000 +0.000000000000000e+000   +0.000000000000000e+000 +0.000000000000000e+000   +3.051153960040730e-001 +1.592124410452120e-002   
+9.180000000000000e+009   +3.094243501387590e-001 +2.079370947415820e-002   +0.000000000000000e+000 +0.000000000000000e+000   +0.000000000000000e+000 +0.000000000000000e+000   +3.047713303016750e-001 +1.444368053757170e-002   
+9.350000000000000e+009   +3.091572372948710e-001 +1.936725100269670e-002   +0.000000000000000e+000 +0.000000000000000e+000   +0.000000000000000e+000 +0.000000000000000e+000   +3.043987862160990e-001 +1.304946257371130e-002   
+9.520000000000000e+009   +3.088682921194660e-001 +1.801354815985760e-002   +0.000000000000000e+000 +0.000000000000000e+000   +0.000000000000000e+000 +0.000000000000000e+000   +3.040031367412610e-001 +1.173821974945460e-002   
+9.690000000000000e+009   +3.085620520914540e-001 +1.673130254603910e-002   +0.000000000000000e+000 +0.000000000000000e+000   +0.000000000000000e+000 +0.000000000000000e+000   +3.035896468948330e-001 +1.050924560911070e-002   
+9.860000000000000e+009   +3.082428981090580e-001 +1.551900110802120e-002   +0.000000000000000e+000 +0.000000000000000e+000   +0.000000000000000e+000 +0.000000000000000e+000   +3.031634558549440e-001 +9.361516539119870e-003   
+1.003000000000000e+010   +3.079135880913120e-001 +1.430516531842550e-002   +0.000000000000000e+000 +0.000000000000000e+000   +0.000000000000000e+000 +0.000000000000000e+000   +3.027379904813110e-001 +8.225630055861670e-003   
+1.020000000000000e+010   +3.075565016552820e-001 +1.280816351778200e-002   +0.000000000000000e+000 +0.000000000000000e+000   +0.000000000000000e+000 +0.000000000000000e+000   +3.023329027461190e-001 +6.823514044336870e-003   
+1.037000000000000e+010   +3.071683797250270e-001 +1.133593082282210e-002   +0.000000000000000e+000 +0.000000000000000e+000   +0.000000000000000e+000 +0.000000000000000e+000   +3.018992167058890e-001 +5.453397601401760e-003   
+1.054000000000000e+010   +3.067494973806300e-001 +9.888018184367190e-003   +0.000000000000000e+000 +0.000000000000000e+000   +0.000000000000000e+000 +0.000000000000000e+000   +3.014373402098680e-001 +4.115015225032920e-003   
+1.071000000000000e+010   +3.063000983261490e-001 +8.464022866729210e-003   +0.000000000000000e+000 +0.000000000000000e+000   +0.000000000000000e+000 +0.000000000000000e+000   +3.009476552218950e-001 +2.808141449523860e-003   
+1.088000000000000e+010   +3.058203965923150e-001 +7.063586013203690e-003   +0.000000000000000e+000 +0.000000000000000e+000   +0.000000000000000e+000 +0.000000000000000e+000   +3.004305189471310e-001 +1.532588359205560e-003   
+1.105000000000000e+010   +3.053105782542960e-001 +5.686390624495690e-003   +0.000000000000000e+000 +0.000000000000000e+000   +0.000000000000000e+000 +0.000000000000000e+000   +2.998862650162950e-001 +2.882033914070240e-004   
+1.122000000000000e+010   +3.047708031381460e-001 +4.332159768133080e-003   +0.000000000000000e+000 +0.000000000000000e+000   +0.000000000000000e+000 +0.000000000000000e+000   +2.993152047278380e-001 -9.251325881554020e-004   
+1.139000000000000e+010   +3.042012065597990e-001 +3.000655071192510e-003   +0.000000000000000e+000 +0.000000000000000e+000   +0.000000000000000e+000 +0.000000000000000e+000   +2.987176282985650e-001 -2.107507014863360e-003   
+1.156000000000000e+010   +3.036019010600540e-001 +1.691675413273090e-003   +0.000000000000000e+000 +0.000000000000000e+000   +0.000000000000000e+000 +0.000000000000000e+000   +2.980938061586160e-001 -3.258977185418660e-003   
+1.173000000000000e+010   +3.029729781699880e-001 +4.050558051450860e-004   +0.000000000000000e+000 +0.000000000000000e+000   +0.000000000000000e+000 +0.000000000000000e+000   +2.974439903488310e-001 -4.379571662806390e-003   
+1.190000000000000e+010   +3.023145102414900e-001 -8.593335953985050e-004   +0.000000000000000e+000 +0.000000000000000e+000   +0.000000000000000e+000 +0.000000000000000e+000   +2.967684159316320e-001 -5.469291611924430e-003   
+1.207000000000000e+010   +3.016265522889690e-001 -2.101588340174010e-003   +0.000000000000000e+000 +0.000000000000000e+000   +0.000000000000000e+000 +0.000000000000000e+000   +2.960673024470600e-001 -6.528112034834760e-003   
+1.224000000000000e+010   +3.009091439152730e-001 -3.321770426073130e-003   +0.000000000000000e+000 +0.000000000000000e+000   +0.000000000000000e+000 +0.000000000000000e+000   +2.953408554697710e-001 -7.555982942879510e-003   
+1.241000000000000e+010   +3.001623112960800e-001 -4.519908994668420e-003   +0.000000000000000e+000 +0.000000000000000e+000   +0.000000000000000e+000 +0.000000000000000e+000   +2.945892682039400e-001 -8.552830547698440e-003   
+1.258000000000000e+010   +2.993860692032150e-001 -5.696000925820260e-003   +0.000000000000000e+000 +0.000000000000000e+000   +0.000000000000000e+000 +0.000000000000000e+000   +2.938127231398950e-001 -9.518558366782490e-003   
+1.275000000000000e+010   +2.985804231501930e-001 -6.850011403702870e-003   +0.000000000000000e+000 +0.000000000000000e+000   +0.000000000000000e+000 +0.000000000000000e+000   +2.930113937665730e-001 -1.045304843193140e-002   
+1.292000000000000e+010   +2.977453715668050e-001 -7.981874448489710e-003   +0.000000000000000e+000 +0.000000000000000e+000   +0.000000000000000e+000 +0.000000000000000e+000   +2.921854463684900e-001 -1.135616239323490e-002   
+1.309000000000000e+010   +2.968809081109190e-001 -9.091493470536950e-003   +0.000000000000000e+000 +0.000000000000000e+000   +0.000000000000000e+000 +0.000000000000000e+000   +2.913350418958700e-001 -1.222774279199260e-002   
+1.326000000000000e+010   +2.959870240185070e-001 -1.017874172945990e-002   +0.000000000000000e+000 +0.000000000000000e+000   +0.000000000000000e+000 +0.000000000000000e+000   +2.904603378821560e-001 -1.306761427095830e-002   
+1.343000000000000e+010   +2.950637106100550e-001 -1.124346290629080e-002   +0.000000000000000e+000 +0.000000000000000e+000   +0.000000000000000e+000 +0.000000000000000e+000   +2.895614904659980e-001 -1.387558492748150e-002   
+1.360000000000000e+010   +2.941109618252030e-001 -1.228547160554420e-002   +0.000000000000000e+000 +0.000000000000000e+000   +0.000000000000000e+000 +0.000000000000000e+000   +2.886386564427950e-001 -1.465144767341680e-002   
+1.377000000000000e+010   +2.931287769375410e-001 -1.330455398306930e-002   +0.000000000000000e+000 +0.000000000000000e+000   +0.000000000000000e+000 +0.000000000000000e+000   +2.876919954611610e-001 -1.539498171749520e-002   
+1.394000000000000e+010   +2.921171633431580e-001 -1.430046831451660e-002   +0.000000000000000e+000 +0.000000000000000e+000   +0.000000000000000e+000 +0.000000000000000e+000   +2.867216722442440e-001 -1.610595410405490e-002   
+1.411000000000000e+010   +2.910761394499350e-001 -1.527294566456710e-002   +0.000000000000000e+000 +0.000000000000000e+000   +0.000000000000000e+000 +0.000000000000000e+000   +2.857278589182840e-001 -1.678412139374240e-002   
+1.428000000000000e+010   +2.900057377588580e-001 -1.622169063702670e-002   +0.000000000000000e+000 +0.000000000000000e+000   +0.000000000000000e+000 +0.000000000000000e+000   +2.847107374113680e-001 -1.742923138078650e-002   
+1.445000000000000e+010   +2.889060079414990e-001 -1.714638213157650e-002   +0.000000000000000e+000 +0.000000000000000e+000   +0.000000000000000e+000 +0.000000000000000e+000   +2.836705019807220e-001 -1.804102501323270e-002   
+1.462000000000000e+010   +2.877770201813580e-001 -1.804667426128080e-002   +0.000000000000000e+000 +0.000000000000000e+000   +0.000000000000000e+000 +0.000000000000000e+000   +2.826073617628340e-001 -1.861923832164960e-002   
+1.479000000000000e+010   +2.866188685533410e-001 -1.892219725943830e-002   +0.000000000000000e+000 +0.000000000000000e+000   +0.000000000000000e+000 +0.000000000000000e+000   +2.815215434837430e-001 -1.916360455923740e-002   
+1.496000000000000e+010   +2.854316745740370e-001 -1.977255854512840e-002   +0.000000000000000e+000 +0.000000000000000e+000   +0.000000000000000e+000 +0.000000000000000e+000   +2.804132941965720e-001 -1.967385643514360e-002   
+1.513000000000000e+010   +2.842155908337720e-001 -2.059734392465580e-002   +0.000000000000000e+000 +0.000000000000000e+000   +0.000000000000000e+000 +0.000000000000000e+000   +2.792828841486170e-001 -2.014972846336900e-002   
+1.530000000000000e+010   +2.829708048350670e-001 -2.139611878306570e-002   +0.000000000000000e+000 +0.000000000000000e+000   +0.000000000000000e+000 +0.000000000000000e+000   +2.781306097410600e-001 -2.059095947484660e-002   
+1.547000000000000e+010   +2.816975428632460e-001 -2.216842955828900e-002   +0.000000000000000e+000 +0.000000000000000e+000   +0.000000000000000e+000 +0.000000000000000e+000   +2.769567965245230e-001 -2.099729522377030e-002   
+1.564000000000000e+010   +2.803960740618320e-001 -2.291380518605640e-002   +0.000000000000000e+000 +0.000000000000000e+000   +0.000000000000000e+000 +0.000000000000000e+000   +2.757618023248600e-001 -2.136849117485770e-002   
+1.581000000000000e+010   +2.790667145292040e-001 -2.363175882165300e-002   +0.000000000000000e+000 +0.000000000000000e+000   +0.000000000000000e+000 +0.000000000000000e+000   +2.745460204372350e-001 -2.170431538817320e-002   
+1.598000000000000e+010   +2.777098316268560e-001 -2.432178960188020e-002   +0.000000000000000e+000 +0.000000000000000e+000   +0.000000000000000e+000 +0.000000000000000e+000   +2.733098828756890e-001 -2.200455156124900e-002   
+1.615000000000000e+010   +2.763258482696070e-001 -2.498338464428000e-002   +0.000000000000000e+000 +0.000000000000000e+000   +0.000000000000000e+000 +0.000000000000000e+000   +2.720538636705220e-001 -2.226900217003090e-002   
+1.632000000000000e+010   +2.749152473749070e-001 -2.561602114221510e-002   +0.000000000000000e+000 +0.000000000000000e+000   +0.000000000000000e+000 +0.000000000000000e+000   +2.707784822510710e-001 -2.249749177876590e-002   
+1.649000000000000e+010   +2.734785763280750e-001 -2.621916867693620e-002   +0.000000000000000e+000 +0.000000000000000e+000   +0.000000000000000e+000 +0.000000000000000e+000   +2.694843068305300e-001 -2.268987041729530e-002   
+1.666000000000000e+010   +2.720164515020100e-001 -2.679229169849910e-002   +0.000000000000000e+000 +0.000000000000000e+000   +0.000000000000000e+000 +0.000000000000000e+000   +2.681719578029100e-001 -2.284601712199220e-002   
+1.683000000000000e+010   +2.705295627435040e-001 -2.733485217568310e-002   +0.000000000000000e+000 +0.000000000000000e+000   +0.000000000000000e+000 +0.000000000000000e+000   +2.668421111679880e-001 -2.296584354069230e-002   
+1.700000000000000e+010   +2.690186779290370e-001 -2.784631246493130e-002   +0.000000000000000e+000 +0.000000000000000e+000   +0.000000000000000e+000 +0.000000000000000e+000   +2.654955018728340e-001 -2.304929763704630e-002   
+1.717000000000000e+010   +2.674846473783370e-001 -2.832613834083430e-002   +0.000000000000000e+000 +0.000000000000000e+000   +0.000000000000000e+000 +0.000000000000000e+000   +2.641329271454460e-001 -2.309636750329920e-002   
+1.734000000000000e+010   +2.659284081941300e-001 -2.877380228147210e-002   +0.000000000000000e+000 +0.000000000000000e+000   +0.000000000000000e+000 +0.000000000000000e+000   +2.627552497262030e-001 -2.310708516544420e-002   
+1.751000000000000e+010   +2.643509884643960e-001 -2.918878691557140e-002   +0.000000000000000e+000 +0.000000000000000e+000   +0.000000000000000e+000 +0.000000000000000e+000   +2.613634009170830e-001 -2.308153052747550e-002   
+1.768000000000000e+010   +2.627535112891730e-001 -2.957058869453130e-002   +0.000000000000000e+000 +0.000000000000000e+000   +0.000000000000000e+000 +0.000000000000000e+000   +2.599583835271160e-001 -2.301983525394940e-002   
+1.785000000000000e+010   +2.611371985366840e-001 -2.991872178177350e-002   +0.000000000000000e+000 +0.000000000000000e+000   +0.000000000000000e+000 +0.000000000000000e+000   +2.585412745782200e-001 -2.292218671522270e-002   
+1.802000000000000e+010   +2.595033742071170e-001 -3.023272213744500e-002   +0.000000000000000e+000 +0.000000000000000e+000   +0.000000000000000e+000 +0.000000000000000e+000   +2.571132277043580e-001 -2.278883189059030e-002   
+1.819000000000000e+010   +2.578534675752010e-001 -3.051215181042270e-002   +0.000000000000000e+000 +0.000000000000000e+000   +0.000000000000000e+000 +0.000000000000000e+000   +2.556754752576890e-001 -2.262008120909030e-002   
+1.836000000000000e+010   +2.561890156791900e-001 -3.075660343189660e-002   +0.000000000000000e+000 +0.000000000000000e+000   +0.000000000000000e+000 +0.000000000000000e+000   +2.542293300223590e-001 -2.241631232794730e-002   
+1.853000000000000e+010   +2.545116654013590e-001 -3.096570488274050e-002   +0.000000000000000e+000 +0.000000000000000e+000   +0.000000000000000e+000 +0.000000000000000e+000   +2.527761864291100e-001 -2.217797379563360e-002   
+1.870000000000000e+010   +2.528231748438140e-001 -3.113912412588010e-002   +0.000000000000000e+000 +0.000000000000000e+000   +0.000000000000000e+000 +0.000000000000000e+000   +2.513175212843550e-001 -2.190558855005730e-002   
+1.887000000000000e+010   +2.511254139781970e-001 -3.127657422085190e-002   +0.000000000000000e+000 +0.000000000000000e+000   +0.000000000000000e+000 +0.000000000000000e+000   +2.498548938953890e-001 -2.159975725324350e-002   
+1.904000000000000e+010   +2.494203645351620e-001 -3.137781840304940e-002   +0.000000000000000e+000 +0.000000000000000e+000   +0.000000000000000e+000 +0.000000000000000e+000   +2.483899454770160e-001 -2.126116137306250e-002   
+1.921000000000000e+010   +2.477101189179780e-001 -3.144267528840320e-002   +0.000000000000000e+000 +0.000000000000000e+000   +0.000000000000000e+000 +0.000000000000000e+000   +2.469243978124670e-001 -2.089056598466050e-002   
+1.938000000000000e+010   +2.459968781394100e-001 -3.147102414034660e-002   +0.000000000000000e+000 +0.000000000000000e+000   +0.000000000000000e+000 +0.000000000000000e+000   +2.454600511307370e-001 -2.048882225259710e-002   
+1.955000000000000e+010   +2.442829486714680e-001 -3.146281012403410e-002   +0.000000000000000e+000 +0.000000000000000e+000   +0.000000000000000e+000 +0.000000000000000e+000   +2.439987810114880e-001 -2.005686954971320e-002   
+1.972000000000000e+010   +2.425707380813570e-001 -3.141804950906140e-002   +0.000000000000000e+000 +0.000000000000000e+000   +0.000000000000000e+000 +0.000000000000000e+000   +2.425425343755530e-001 -1.959573710762480e-002   
+1.989000000000000e+010   +2.408627494480150e-001 -3.133683477814420e-002   +0.000000000000000e+000 +0.000000000000000e+000   +0.000000000000000e+000 +0.000000000000000e+000   +2.410933243828620e-001 -1.910654521137720e-002   
+2.006000000000000e+010   +2.391615744424770e-001 -3.121933957506780e-002   +0.000000000000000e+000 +0.000000000000000e+000   +0.000000000000000e+000 +0.000000000000000e+000   +2.396532242817120e-001 -1.859050582531400e-002   
+2.023000000000000e+010   +2.374698849968240e-001 -3.106582337995150e-002   +0.000000000000000e+000 +0.000000000000000e+000   +0.000000000000000e+000 +0.000000000000000e+000   +2.382243601550610e-001 -1.804892265469470e-002   
+2.040000000000000e+010   +2.357904235956260e-001 -3.087663586313350e-002   +0.000000000000000e+000 +0.000000000000000e+000   +0.000000000000000e+000 +0.000000000000000e+000   +2.368089024470330e-001 -1.748319049481620e-002   
+2.057000000000000e+010   +2.341259921289700e-001 -3.065222085510250e-002   +0.000000000000000e+000 +0.000000000000000e+000   +0.000000000000000e+000 +0.000000000000000e+000   +2.354090564035460e-001 -1.689479390563220e-002   
+2.074000000000000e+010   +2.324794393550120e-001 -3.039311976558860e-002   +0.000000000000000e+000 +0.000000000000000e+000   +0.000000000000000e+000 +0.000000000000000e+000   +2.340270513297920e-001 -1.628530510171410e-002   
+2.091000000000000e+010   +2.308536468889550e-001 -3.009997445272670e-002   +0.000000000000000e+000 +0.000000000000000e+000   +0.000000000000000e+000 +0.000000000000000e+000   +2.326651287820980e-001 -1.565638105319250e-002   
+2.108000000000000e+010   +2.292515139970500e-001 -2.977352934725670e-002   +0.000000000000000e+000 +0.000000000000000e+000   +0.000000000000000e+000 +0.000000000000000e+000   +2.313255297030280e-001 -1.500975967390670e-002   
+2.125000000000000e+010   +2.276759410877590e-001 -2.941463286022990e-002   +0.000000000000000e+000 +0.000000000000000e+000   +0.000000000000000e+000 +0.000000000000000e+000   +2.300104805956650e-001 -1.434725518179770e-002   
+2.142000000000000e+010   +2.261298121217210e-001 -2.902423784831500e-002   +0.000000000000000e+000 +0.000000000000000e+000   +0.000000000000000e+000 +0.000000000000000e+000   +2.287221788842900e-001 -1.367075251064290e-002   
+2.159000000000000e+010   +2.246159761197690e-001 -2.860340119557620e-002   +0.000000000000000e+000 +0.000000000000000e+000   +0.000000000000000e+000 +0.000000000000000e+000   +2.274627776003190e-001 -1.298220078981260e-002   
+2.176000000000000e+010   +2.231372279169880e-001 -2.815328230082850e-002   +0.000000000000000e+000 +0.000000000000000e+000   +0.000000000000000e+000 +0.000000000000000e+000   +2.262343695237610e-001 -1.228360592321870e-002   
+2.193000000000000e+010   +2.216962883966150e-001 -2.767514054437620e-002   +0.000000000000000e+000 +0.000000000000000e+000   +0.000000000000000e+000 +0.000000000000000e+000   +2.250389710295210e-001 -1.157702222503010e-002   
+2.210000000000000e+010   +2.202957844500770e-001 -2.717033161851330e-002   +0.000000000000000e+000 +0.000000000000000e+000   +0.000000000000000e+000 +0.000000000000000e+000   +2.238785058359420e-001 -1.086454322658870e-002   
+2.227000000000000e+010   +2.189382289983480e-001 -2.664030266210730e-002   +0.000000000000000e+000 +0.000000000000000e+000   +0.000000000000000e+000 +0.000000000000000e+000   +2.227547888703960e-001 -1.014829158660320e-002   
+2.244000000000000e+010   +2.176260012403620e-001 -2.608658632500780e-002   +0.000000000000000e+000 +0.000000000000000e+000   +0.000000000000000e+000 +0.000000000000000e+000   +2.216695105482750e-001 -9.430408330820860e-003   
+2.261000000000000e+010   +2.163613276052810e-001 -2.551079363646990e-002   +0.000000000000000e+000 +0.000000000000000e+000   +0.000000000000000e+000 +0.000000000000000e+000   +2.206242216577130e-001 -8.713041348780850e-003   
+2.278000000000000e+010   +2.151462634952110e-001 -2.491460585248080e-002   +0.000000000000000e+000 +0.000000000000000e+000   +0.000000000000000e+000 +0.000000000000000e+000   +2.196203192156210e-001 -7.998333389927580e-003   
+2.295000000000000e+010   +2.139826763573630e-001 -2.429976523412680e-002   +0.000000000000000e+000 +0.000000000000000e+000   +0.000000000000000e+000 +0.000000000000000e+000   +2.186590333937190e-001 -7.288409579589110e-003   
+2.312000000000000e+010   +2.128722302086700e-001 -2.366806495850320e-002   +0.000000000000000e+000 +0.000000000000000e+000   +0.000000000000000e+000 +0.000000000000000e+000   +2.177414159391300e-001 -6.585364678598900e-003   
+2.329000000000000e+010   +2.118163719424790e-001 -2.302133819953220e-002   +0.000000000000000e+000 +0.000000000000000e+000   +0.000000000000000e+000 +0.000000000000000e+000   +2.168683301391540e-001 -5.891250168556830e-003   
+2.346000000000000e+010   +2.108163197008420e-001 -2.236144656098080e-002   +0.000000000000000e+000 +0.000000000000000e+000   +0.000000000000000e+000 +0.000000000000000e+000   +2.160404426433020e-001 -5.208061399151590e-003   
+2.363000000000000e+010   +2.098730534592690e-001 -2.169026800686780e-002   +0.000000000000000e+000 +0.000000000000000e+000   +0.000000000000000e+000 +0.000000000000000e+000   +2.152582172622110e-001 -4.537724887554470e-003   
+2.380000000000000e+010   +2.089873079983750e-001 -2.100968445640300e-002   +0.000000000000000e+000 +0.000000000000000e+000   +0.000000000000000e+000 +0.000000000000000e+000   +2.145219108883160e-001 -3.882086027570470e-003   
+2.397000000000000e+010   +2.081595684692120e-001 -2.032156922702260e-002   +0.000000000000000e+000 +0.000000000000000e+000   +0.000000000000000e+000 +0.000000000000000e+000   +2.138315715659580e-001 -3.242897319017660e-003   
+2.414000000000000e+010   +2.073900685112110e-001 -1.962777451155600e-002   +0.000000000000000e+000 +0.000000000000000e+000   +0.000000000000000e+000 +0.000000000000000e+000   +2.131870388437680e-001 -2.621807290200330e-003   
+2.431000000000000e+010   +2.066787910074990e-001 -1.893011907542090e-002   +0.000000000000000e+000 +0.000000000000000e+000   +0.000000000000000e+000 +0.000000000000000e+000   +2.125879463371790e-001 -2.020350325367760e-003   
+2.448000000000000e+010   +2.060254714468820e-001 -1.823037636326220e-002   +0.000000000000000e+000 +0.000000000000000e+000   +0.000000000000000e+000 +0.000000000000000e+000   +2.120337264418420e-001 -1.439937465363630e-003   
+2.465000000000000e+010   +2.054296037679680e-001 -1.753026316691730e-002   +0.000000000000000e+000 +0.000000000000000e+000   +0.000000000000000e+000 +0.000000000000000e+000   +2.115236171970840e-001 -8.818483462253830e-004   
+2.482000000000000e+010   +2.048904486172380e-001 -1.683142903148080e-002   +0.000000000000000e+000 +0.000000000000000e+000   +0.000000000000000e+000 +0.000000000000000e+000   +2.110566710407880e-001 -3.472243712690200e-004   
+2.499000000000000e+010   +2.044070437992310e-001 -1.613544653682160e-002   +0.000000000000000e+000 +0.000000000000000e+000   +0.000000000000000e+000 +0.000000000000000e+000   +2.106317653536770e-001 +1.629367960929850e-004   
+2.516000000000000e+010   +2.039782166878580e-001 -1.544380256320210e-002   +0.000000000000000e+000 +0.000000000000000e+000   +0.000000000000000e+000 +0.000000000000000e+000   +2.102476146337250e-001 +6.477853891170600e-004   
+2.533000000000000e+010   +2.036025984337360e-001 -1.475789064669990e-002   +0.000000000000000e+000 +0.000000000000000e+000   +0.000000000000000e+000 +0.000000000000000e+000   +2.099027839464030e-001 +1.106622286591940e-003   
+2.550000000000000e+010   +2.032786396381070e-001 -1.407900448286790e-002   +0.000000000000000e+000 +0.000000000000000e+000   +0.000000000000000e+000 +0.000000000000000e+000   +2.095957035588630e-001 +1.538900381042960e-003   
+2.567000000000000e+010   +2.030046272193630e-001 -1.340833263770340e-002   +0.000000000000000e+000 +0.000000000000000e+000   +0.000000000000000e+000 +0.000000000000000e+000   +2.093246843952380e-001 +1.944224556564510e-003   
+2.584000000000000e+010   +2.027787021705170e-001 -1.274695449348060e-002   +0.000000000000000e+000 +0.000000000000000e+000   +0.000000000000000e+000 +0.000000000000000e+000   +2.090879341243780e-001 +2.322350354312580e-003   
+2.601000000000000e+010   +2.025988780003820e-001 -1.209583736022600e-002   +0.000000000000000e+000 +0.000000000000000e+000   +0.000000000000000e+000 +0.000000000000000e+000   +2.088835735644230e-001 +2.673181391477300e-003   
+2.618000000000000e+010   +2.024630594462340e-001 -1.145583484654590e-002   +0.000000000000000e+000 +0.000000000000000e+000   +0.000000000000000e+000 +0.000000000000000e+000   +2.087096532056890e-001 +2.996765569110280e-003   
+2.635000000000000e+010   +2.023690612864110e-001 -1.082768631085230e-002   +0.000000000000000e+000 +0.000000000000000e+000   +0.000000000000000e+000 +0.000000000000000e+000   +2.085641696290680e-001 +3.293290275136460e-003   
+2.652000000000000e+010   +2.023146269365410e-001 -1.021201742583930e-002   +0.000000000000000e+000 +0.000000000000000e+000   +0.000000000000000e+000 +0.000000000000000e+000   +2.084450815685840e-001 +3.563076581461490e-003   
+2.669000000000000e+010   +2.022974466867930e-001 -9.609341722607450e-003   +0.000000000000000e+000 +0.000000000000000e+000   +0.000000000000000e+000 +0.000000000000000e+000   +2.083503254349910e-001 +3.806572644392580e-003   
+2.686000000000000e+010   +2.023151752566280e-001 -9.020063026501510e-003   +0.000000000000000e+000 +0.000000000000000e+000   +0.000000000000000e+000 +0.000000000000000e+000   +2.082778301684320e-001 +4.024346398555950e-003   
+2.703000000000000e+010   +2.023654485760220e-001 -8.444478776086700e-003   +0.000000000000000e+000 +0.000000000000000e+000   +0.000000000000000e+000 +0.000000000000000e+000   +2.082255312491500e-001 +4.217077679518720e-003   
+2.720000000000000e+010   +2.024458996433980e-001 -7.882783935192270e-003   +0.000000000000000e+000 +0.000000000000000e+000   +0.000000000000000e+000 +0.000000000000000e+000   +2.081913837643700e-001 +4.385549915627320e-003   
+2.737000000000000e+010   +2.025541733048980e-001 -7.335075585694000e-003   +0.000000000000000e+000 +0.000000000000000e+000   +0.000000000000000e+000 +0.000000000000000e+000   +2.081733744389600e-001 +4.530641519488610e-003   
+2.754000000000000e+010   +2.026879398925800e-001 -6.801358002438090e-003   +0.000000000000000e+000 +0.000000000000000e+000   +0.000000000000000e+000 +0.000000000000000e+000   +2.081695325657120e-001 +4.653317069778920e-003   
+2.771000000000000e+010   +2.028449076456170e-001 -6.281548064958860e-003   +0.000000000000000e+000 +0.000000000000000e+000   +0.000000000000000e+000 +0.000000000000000e+000   +2.081779398462510e-001 +4.754618442387510e-003   
+2.788000000000000e+010   +2.030228339361930e-001 -5.775481061787330e-003   +0.000000000000000e+000 +0.000000000000000e+000   +0.000000000000000e+000 +0.000000000000000e+000   +2.081967390225610e-001 +4.835655943238450e-003   
+2.805000000000000e+010   +2.032195351673680e-001 -5.282916572615020e-003   +0.000000000000000e+000 +0.000000000000000e+000   +0.000000000000000e+000 +0.000000000000000e+000   +2.082241414383430e-001 +4.897599598591500e-003   
+2.822000000000000e+010   +2.034328955059400e-001 -4.803544571566450e-003   +0.000000000000000e+000 +0.000000000000000e+000   +0.000000000000000e+000 +0.000000000000000e+000   +2.082584334456690e-001 +4.941670618336670e-003   
+2.839000000000000e+010   +2.036608743520230e-001 -4.336991506964270e-003   +0.000000000000000e+000 +0.000000000000000e+000   +0.000000000000000e+000 +0.000000000000000e+000   +2.082979817536790e-001 +4.969133164019850e-003   
+2.856000000000000e+010   +2.039015126640420e-001 -3.882826377732900e-003   +0.000000000000000e+000 +0.000000000000000e+000   +0.000000000000000e+000 +0.000000000000000e+000   +2.083412377524410e-001 +4.981286413998380e-003   
+2.873000000000000e+010   +2.041529381683740e-001 -3.440566690950570e-003   +0.000000000000000e+000 +0.000000000000000e+000   +0.000000000000000e+000 +0.000000000000000e+000   +2.083867408531730e-001 +4.979457069312280e-003   
+2.890000000000000e+010   +2.044133694898090e-001 -3.009684316735980e-003   +0.000000000000000e+000 +0.000000000000000e+000   +0.000000000000000e+000 +0.000000000000000e+000   +2.084331209600570e-001 +4.964992207123700e-003   
+2.907000000000000e+010   +2.046811193578920e-001 -2.589611135820620e-003   +0.000000000000000e+000 +0.000000000000000e+000   +0.000000000000000e+000 +0.000000000000000e+000   +2.084791001302400e-001 +4.939252673511630e-003   
+2.924000000000000e+010   +2.049545968812310e-001 -2.179744466572680e-003   +0.000000000000000e+000 +0.000000000000000e+000   +0.000000000000000e+000 +0.000000000000000e+000   +2.085234934294020e-001 +4.903606848902560e-003   
+2.941000000000000e+010   +2.052323090042170e-001 -1.779452265359590e-003   +0.000000000000000e+000 +0.000000000000000e+000   +0.000000000000000e+000 +0.000000000000000e+000   +2.085652091828550e-001 +4.859424971235440e-003   
+2.958000000000000e+010   +2.055128612433490e-001 -1.388078050953770e-003   +0.000000000000000e+000 +0.000000000000000e+000   +0.000000000000000e+000 +0.000000000000000e+000   +2.086032486035490e-001 +4.808073881158120e-003   
+2.975000000000000e+010   +2.057949577652200e-001 -1.004945537256430e-003   +0.000000000000000e+000 +0.000000000000000e+000   +0.000000000000000e+000 +0.000000000000000e+000   +2.086367049118920e-001 +4.750912256890990e-003   
+2.992000000000000e+010   +2.060774008810390e-001 -6.293630408317050e-004   +0.000000000000000e+000 +0.000000000000000e+000   +0.000000000000000e+000 +0.000000000000000e+000   +2.086647619970470e-001 +4.689286350444830e-003   
+3.009000000000000e+010   +2.063590900504630e-001 -2.606275092349960e-004   +0.000000000000000e+000 +0.000000000000000e+000   +0.000000000000000e+000 +0.000000000000000e+000   +2.086866927462680e-001 +4.624526107200170e-003   
+3.026000000000000e+010   +2.066390204640740e-001 +1.019716235399480e-004   +0.000000000000000e+000 +0.000000000000000e+000   +0.000000000000000e+000 +0.000000000000000e+000   +2.087018570181730e-001 +4.557941754234620e-003   
+3.043000000000000e+010   +2.069162812500790e-001 +4.591489688043170e-004   +0.000000000000000e+000 +0.000000000000000e+000   +0.000000000000000e+000 +0.000000000000000e+000   +2.087096994104530e-001 +4.490820807771700e-003   
+3.060000000000000e+010   +2.071900534216140e-001 +8.116199023931760e-004   +0.000000000000000e+000 +0.000000000000000e+000   +0.000000000000000e+000 +0.000000000000000e+000   +2.087097468183380e-001 +4.424425416674550e-003   
+3.077000000000000e+010   +2.074596075521950e-001 +1.160097581149420e-003   +0.000000000000000e+000 +0.000000000000000e+000   +0.000000000000000e+000 +0.000000000000000e+000   +2.087016058399670e-001 +4.359990109964080e-003   
+3.094000000000000e+010   +2.077243013063490e-001 +1.505290186409540e-003   +0.000000000000000e+000 +0.000000000000000e+000   +0.000000000000000e+000 +0.000000000000000e+000   +2.086849601404610e-001 +4.298719834289400e-003   
+3.111000000000000e+010   +2.079835768104540e-001 +1.847898412461170e-003   +0.000000000000000e+000 +0.000000000000000e+000   +0.000000000000000e+000 +0.000000000000000e+000   +2.086595677069470e-001 +4.241788318099700e-003   
+3.128000000000000e+010   +2.082369579618110e-001 +2.188613148359900e-003   +0.000000000000000e+000 +0.000000000000000e+000   +0.000000000000000e+000 +0.000000000000000e+000   +2.086252581200870e-001 +4.190336703739790e-003   
+3.145000000000000e+010   +2.084840476585180e-001 +2.528113366878660e-003   +0.000000000000000e+000 +0.000000000000000e+000   +0.000000000000000e+000 +0.000000000000000e+000   +2.085819298567360e-001 +4.145472393074220e-003   
+3.162000000000000e+010   +2.087245250505880e-001 +2.867064211275830e-003   +0.000000000000000e+000 +0.000000000000000e+000   +0.000000000000000e+000 +0.000000000000000e+000   +2.085295475951990e-001 +4.108268148815910e-003   
+3.179000000000000e+010   +2.089581427757270e-001 +3.206115178207640e-003   +0.000000000000000e+000 +0.000000000000000e+000   +0.000000000000000e+000 +0.000000000000000e+000   +2.084681396145080e-001 +4.079761351395710e-003   
+3.196000000000000e+010   +2.091847242503220e-001 +3.545898535916490e-003   +0.000000000000000e+000 +0.000000000000000e+000   +0.000000000000000e+000 +0.000000000000000e+000   +2.083977953121700e-001 +4.060953438447720e-003   
+3.213000000000000e+010   +2.094041610286220e-001 +3.887027799413190e-003   +0.000000000000000e+000 +0.000000000000000e+000   +0.000000000000000e+000 +0.000000000000000e+000   +2.083186627507000e-001 +4.052809461826690e-003   
+3.230000000000000e+010   +2.096164102192010e-001 +4.230096322041130e-003   +0.000000000000000e+000 +0.000000000000000e+000   +0.000000000000000e+000 +0.000000000000000e+000   +2.082309463893960e-001 +4.056257773361310e-003   
+3.247000000000000e+010   +2.098214920147060e-001 +4.575676035147580e-003   +0.000000000000000e+000 +0.000000000000000e+000   +0.000000000000000e+000 +0.000000000000000e+000   +2.081349049137300e-001 +4.072189782943590e-003   
+3.264000000000000e+010   +2.100194873204000e-001 +4.924316194678330e-003   +0.000000000000000e+000 +0.000000000000000e+000   +0.000000000000000e+000 +0.000000000000000e+000   +2.080308491908330e-001 +4.101459792503430e-003   
+3.281000000000000e+010   +2.102105355147550e-001 +5.276542240667080e-003   +0.000000000000000e+000 +0.000000000000000e+000   +0.000000000000000e+000 +0.000000000000000e+000   +2.079191403856090e-001 +4.144884872392120e-003   
+3.298000000000000e+010   +2.103948322903160e-001 +5.632854679196710e-003   +0.000000000000000e+000 +0.000000000000000e+000   +0.000000000000000e+000 +0.000000000000000e+000   +2.078001882131010e-001 +4.203244775381190e-003   
+3.315000000000000e+010   +2.105726276698000e-001 +5.993728017340480e-003   +0.000000000000000e+000 +0.000000000000000e+000   +0.000000000000000e+000 +0.000000000000000e+000   +2.076744492949400e-001 +4.277281838478920e-003   
+3.332000000000000e+010   +2.107442241084630e-001 +6.359609702785700e-003   +0.000000000000000e+000 +0.000000000000000e+000   +0.000000000000000e+000 +0.000000000000000e+000   +2.075424257406930e-001 +4.367700906397130e-003   
+3.349000000000000e+010   +2.109099747517420e-001 +6.730919098516370e-003   +0.000000000000000e+000 +0.000000000000000e+000   +0.000000000000000e+000 +0.000000000000000e+000   +2.074046637633840e-001 +4.475169195740640e-003   
+3.366000000000000e+010   +2.110702818201550e-001 +7.108046420222120e-003   +0.000000000000000e+000 +0.000000000000000e+000   +0.000000000000000e+000 +0.000000000000000e+000   +2.072617525312180e-001 +4.600316162886890e-003   
+3.383000000000000e+010   +2.112255951009110e-001 +7.491351705214250e-003   +0.000000000000000e+000 +0.000000000000000e+000   +0.000000000000000e+000 +0.000000000000000e+000   +2.071143230735550e-001 +4.743733279897160e-003   
+3.400000000000000e+010   +2.113764105656690e-001 +7.881163729517600e-003   +0.000000000000000e+000 +0.000000000000000e+000   +0.000000000000000e+000 +0.000000000000000e+000   +2.069630473711510e-001 +4.905973783555330e-003   
+3.417000000000000e+010   +2.115232691305730e-001 +8.277778912640030e-003   +0.000000000000000e+000 +0.000000000000000e+000   +0.000000000000000e+000 +0.000000000000000e+000   +2.068086375172590e-001 +5.087552327310670e-003   
+3.434000000000000e+010   +2.116667554995170e-001 +8.681460164903380e-003   +0.000000000000000e+000 +0.000000000000000e+000   +0.000000000000000e+000 +0.000000000000000e+000   +2.066518450384240e-001 +5.288944542093700e-003   
+3.451000000000000e+010   +2.118074971155830e-001 +9.092435708995670e-003   +0.000000000000000e+000 +0.000000000000000e+000   +0.000000000000000e+000 +0.000000000000000e+000   +2.064934602771370e-001 +5.510586529211790e-003   
+3.468000000000000e+010   +2.119461632319960e-001 +9.510897842552580e-003   +0.000000000000000e+000 +0.000000000000000e+000   +0.000000000000000e+000 +0.000000000000000e+000   +2.063343119060130e-001 +5.752874217510090e-003   
+3.485000000000000e+010   +2.120834640278890e-001 +9.937001618862810e-003   +0.000000000000000e+000 +0.000000000000000e+000   +0.000000000000000e+000 +0.000000000000000e+000   +2.061752665109380e-001 +6.016162627701480e-003   
+3.502000000000000e+010   +2.122201498549010e-001 +1.037086350403660e-002   +0.000000000000000e+000 +0.000000000000000e+000   +0.000000000000000e+000 +0.000000000000000e+000   +2.060172282285960e-001 +6.300764990827970e-003   
+3.519000000000000e+010   +2.123570105113680e-001 +1.081255992637160e-002   +0.000000000000000e+000 +0.000000000000000e+000   +0.000000000000000e+000 +0.000000000000000e+000   +2.058611385219560e-001 +6.606951775719450e-003   
+3.536000000000000e+010   +2.124948746094000e-001 +1.126212576222030e-002   +0.000000000000000e+000 +0.000000000000000e+000   +0.000000000000000e+000 +0.000000000000000e+000   +2.057079759007220e-001 +6.934949525317120e-003   
+3.553000000000000e+010   +2.126346089355930e-001 +1.171955275004640e-002   +0.000000000000000e+000 +0.000000000000000e+000   +0.000000000000000e+000 +0.000000000000000e+000   +2.055587557966140e-001 +7.284939601590410e-003   
+3.570000000000000e+010   +2.127771178934490e-001 +1.218478779627270e-002   +0.000000000000000e+000 +0.000000000000000e+000   +0.000000000000000e+000 +0.000000000000000e+000   +2.054145303703510e-001 +7.657056746343620e-003   
+3.587000000000000e+010   +2.129233429612840e-001 +1.265773123676400e-002   +0.000000000000000e+000 +0.000000000000000e+000   +0.000000000000000e+000 +0.000000000000000e+000   +2.052763884038750e-001 +8.051387501227550e-003   
+3.604000000000000e+010   +2.130742620929010e-001 +1.313823497048120e-002   +0.000000000000000e+000 +0.000000000000000e+000   +0.000000000000000e+000 +0.000000000000000e+000   +2.051454551190160e-001 +8.467968463879550e-003   
+3.621000000000000e+010   +2.132308891838810e-001 +1.362610051861400e-002   +0.000000000000000e+000 +0.000000000000000e+000   +0.000000000000000e+000 +0.000000000000000e+000   +2.050228920388880e-001 +8.906784377023860e-003   
+3.638000000000000e+010   +2.133942734589150e-001 +1.412107701640380e-002   +0.000000000000000e+000 +0.000000000000000e+000   +0.000000000000000e+000 +0.000000000000000e+000   +2.049098967769120e-001 +9.367766067992400e-003   
+3.655000000000000e+010   +2.135654987789740e-001 +1.462285907377260e-002   +0.000000000000000e+000 +0.000000000000000e+000   +0.000000000000000e+000 +0.000000000000000e+000   +2.048077027503810e-001 +9.850788182792090e-003   
+3.672000000000000e+010   +2.137456829587960e-001 +1.513108459791190e-002   +0.000000000000000e+000 +0.000000000000000e+000   +0.000000000000000e+000 +0.000000000000000e+000   +2.047175788429260e-001 +1.035566678972500e-002   
+3.689000000000000e+010   +2.139359768885530e-001 +1.564533250247940e-002   +0.000000000000000e+000 +0.000000000000000e+000   +0.000000000000000e+000 +0.000000000000000e+000   +2.046408289505110e-001 +1.088215679003870e-002   
+3.706000000000000e+010   +2.141375636020970e-001 +1.616512036285410e-002   +0.000000000000000e+000 +0.000000000000000e+000   +0.000000000000000e+000 +0.000000000000000e+000   +2.045787913685260e-001 +1.142994915641190e-002   
+3.723000000000000e+010   +2.143516571618170e-001 +1.668990198861440e-002   +0.000000000000000e+000 +0.000000000000000e+000   +0.000000000000000e+000 +0.000000000000000e+000   +2.045328380468370e-001 +1.199866802352320e-002   
+3.740000000000000e+010   +2.145795013750390e-001 +1.721906495385440e-002   +0.000000000000000e+000 +0.000000000000000e+000   +0.000000000000000e+000 +0.000000000000000e+000   +2.045043736493260e-001 +1.258786760341700e-002   
+3.757000000000000e+010   +2.148223682937960e-001 +1.775192806857770e-002   +0.000000000000000e+000 +0.000000000000000e+000   +0.000000000000000e+000 +0.000000000000000e+000   +2.044948343818200e-001 +1.319702896274080e-002   
+3.774000000000000e+010   +2.150815564574490e-001 +1.828773883315700e-002   +0.000000000000000e+000 +0.000000000000000e+000   +0.000000000000000e+000 +0.000000000000000e+000   +2.045056865590060e-001 +1.382555665123540e-002   
+3.791000000000000e+010   +2.153583888908860e-001 +1.882567087271660e-002   +0.000000000000000e+000 +0.000000000000000e+000   +0.000000000000000e+000 +0.000000000000000e+000   +2.045384248602130e-001 +1.447277519673380e-002   
+3.808000000000000e+010   +2.156542107716770e-001 +1.936482138874590e-002   +0.000000000000000e+000 +0.000000000000000e+000   +0.000000000000000e+000 +0.000000000000000e+000   +2.045945703187550e-001 +1.513792550623670e-002   
+3.825000000000000e+010   +2.159703867061560e-001 +1.990420862682430e-002   +0.000000000000000e+000 +0.000000000000000e+000   +0.000000000000000e+000 +0.000000000000000e+000   +2.046756678514550e-001 +1.582016117186530e-002   
+3.842000000000000e+010   +2.163082976700580e-001 +2.044276944441090e-002   +0.000000000000000e+000 +0.000000000000000e+000   +0.000000000000000e+000 +0.000000000000000e+000   +2.047832834144830e-001 +1.651854472630940e-002   
+3.859000000000000e+010   +2.166693374813820e-001 +2.097935692688420e-002   +0.000000000000000e+000 +0.000000000000000e+000   +0.000000000000000e+000 +0.000000000000000e+000   +2.049190007163680e-001 +1.723204383432530e-002   
+3.876000000000000e+010   +2.170549087941100e-001 +2.151273819529870e-002   +0.000000000000000e+000 +0.000000000000000e+000   +0.000000000000000e+000 +0.000000000000000e+000   +2.050844173910590e-001 +1.795952753368190e-002   
+3.893000000000000e+010   +2.174664186002650e-001 +2.204159233867280e-002   +0.000000000000000e+000 +0.000000000000000e+000   +0.000000000000000e+000 +0.000000000000000e+000   +2.052811406442810e-001 +1.869976249104260e-002   
+3.910000000000000e+010   +2.179052731466940e-001 +2.256450861282270e-002   +0.000000000000000e+000 +0.000000000000000e+000   +0.000000000000000e+000 +0.000000000000000e+000   +2.055107823298580e-001 +1.945140937215250e-002   
+3.927000000000000e+010   +2.183728722739920e-001 +2.307998488415290e-002   +0.000000000000000e+000 +0.000000000000000e+000   +0.000000000000000e+000 +0.000000000000000e+000   +2.057749533438840e-001 +2.021301933277410e-002   
+3.944000000000000e+010   +2.188706031289400e-001 +2.358642645156880e-002   +0.000000000000000e+000 +0.000000000000000e+000   +0.000000000000000e+000 +0.000000000000000e+000   +2.060752574034660e-001 +2.098303074968120e-002   
+3.961000000000000e+010   +2.193998331997390e-001 +2.408214522288080e-002   +0.000000000000000e+000 +0.000000000000000e+000   +0.000000000000000e+000 +0.000000000000000e+000   +2.064132841101930e-001 +2.175976621483450e-002   
+3.978000000000000e+010   +2.199619026897470e-001 +2.456535939926970e-002   +0.000000000000000e+000 +0.000000000000000e+000   +0.000000000000000e+000 +0.000000000000000e+000   +2.067906012357490e-001 +2.254142985448370e-002   
+3.995000000000000e+010   +2.205581161543670e-001 +2.503419366351680e-002   +0.000000000000000e+000 +0.000000000000000e+000   +0.000000000000000e+000 +0.000000000000000e+000   +2.072087463342980e-001 +2.332610512076980e-002   
+4.012000000000000e+010   +2.211897334603580e-001 +2.548668000609470e-002   +0.000000000000000e+000 +0.000000000000000e+000   +0.000000000000000e+000 +0.000000000000000e+000   +2.076692174969670e-001 +2.411175303717650e-002   
+4.029000000000000e+010   +2.218579599999890e-001 +2.592075925755520e-002   +0.000000000000000e+000 +0.000000000000000e+000   +0.000000000000000e+000 +0.000000000000000e+000   +2.081734633798610e-001 +2.489621109597890e-002   
+4.046000000000000e+010   +2.225639361804750e-001 +2.633428334304830e-002   +0.000000000000000e+000 +0.000000000000000e+000   +0.000000000000000e+000 +0.000000000000000e+000   +2.087228724647550e-001 +2.567719282490280e-002   
+4.063000000000000e+010   +2.233087262986200e-001 +2.672501844560670e-002   +0.000000000000000e+000 +0.000000000000000e+000   +0.000000000000000e+000 +0.000000000000000e+000   +2.093187615187800e-001 +2.645228814175130e-002   
+4.080000000000000e+010   +2.240933067036930e-001 +2.709064909324040e-002   +0.000000000000000e+000 +0.000000000000000e+000   +0.000000000000000e+000 +0.000000000000000e+000   +2.099623633846810e-001 +2.721896462447690e-002   
+4.097000000000000e+010   +2.249185533836300e-001 +2.742878321447610e-002   +0.000000000000000e+000 +0.000000000000000e+000   +0.000000000000000e+000 +0.000000000000000e+000   +2.106548140646500e-001 +2.797456975173690e-002   
+4.114000000000000e+010   +2.257852290830610e-001 +2.773695834533400e-002   +0.000000000000000e+000 +0.000000000000000e+000   +0.000000000000000e+000 +0.000000000000000e+000   +2.113971392317710e-001 +2.871633423320950e-002   
+4.131000000000000e+010   +2.266939699160360e-001 +2.801264894594120e-002   +0.000000000000000e+000 +0.000000000000000e+000   +0.000000000000000e+000 +0.000000000000000e+000   +2.121902401527870e-001 +2.944137653989020e-002   
+4.148000000000000e+010   +2.276452717294780e-001 +2.825327491277170e-002   +0.000000000000000e+000 +0.000000000000000e+000   +0.000000000000000e+000 +0.000000000000000e+000   +2.130348792965900e-001 +3.014670868971420e-002   
+4.165000000000000e+010   +2.286394762491960e-001 +2.845621140054190e-002   +0.000000000000000e+000 +0.000000000000000e+000   +0.000000000000000e+000 +0.000000000000000e+000   +2.139316655409030e-001 +3.082924340546960e-002   
+4.182000000000000e+010   +2.296767572409260e-001 +2.861879987892860e-002   +0.000000000000000e+000 +0.000000000000000e+000   +0.000000000000000e+000 +0.000000000000000e+000   +2.148810393245010e-001 +3.148580267615170e-002   
+4.199000000000000e+010   +2.307571067076920e-001 +2.873836050813630e-002   +0.000000000000000e+000 +0.000000000000000e+000   +0.000000000000000e+000 +0.000000000000000e+000   +2.158832577302650e-001 +3.211312781320070e-002   
+4.216000000000000e+010   +2.318803215606240e-001 +2.881220581794050e-002   +0.000000000000000e+000 +0.000000000000000e+000   +0.000000000000000e+000 +0.000000000000000e+000   +2.169383798416760e-001 +3.270789099420960e-002   
+4.233000000000000e+010   +2.330459906890010e-001 +2.883765566681490e-002   +0.000000000000000e+000 +0.000000000000000e+000   +0.000000000000000e+000 +0.000000000000000e+000   +2.180462524441370e-001 +3.326670840929600e-002   
+4.250000000000000e+010   +2.342534828877290e-001 +2.881205342112900e-002   +0.000000000000000e+000 +0.000000000000000e+000   +0.000000000000000e+000 +0.000000000000000e+000   +2.192064963462960e-001 +3.378615488691620e-002   
+4.267000000000000e+010   +2.355019357097610e-001 +2.873278329812630e-002   +0.000000000000000e+000 +0.000000000000000e+000   +0.000000000000000e+000 +0.000000000000000e+000   +2.204184935471050e-001 +3.426278005095560e-002   
+4.284000000000000e+010   +2.367902455917760e-001 +2.859728876930950e-002   +0.000000000000000e+000 +0.000000000000000e+000   +0.000000000000000e+000 +0.000000000000000e+000   +2.216813754821540e-001 +3.469312596478800e-002   
+4.301000000000000e+010   +2.381170594090340e-001 +2.840309191793070e-002   +0.000000000000000e+000 +0.000000000000000e+000   +0.000000000000000e+000 +0.000000000000000e+000   +2.229940125321380e-001 +3.507374615464480e-002   
+4.318000000000000e+010   +2.394807677763740e-001 +2.814781357671550e-002   +0.000000000000000e+000 +0.000000000000000e+000   +0.000000000000000e+000 +0.000000000000000e+000   +2.243550051241800e-001 +3.540122593439440e-002   
+4.335000000000000e+010   +2.408795002630860e-001 +2.782919407552580e-002   +0.000000000000000e+000 +0.000000000000000e+000   +0.000000000000000e+000 +0.000000000000000e+000   +2.257626766021900e-001 +3.567220386526280e-002   
+4.352000000000000e+010   +2.423111227877380e-001 +2.744511442707190e-002   +0.000000000000000e+000 +0.000000000000000e+000   +0.000000000000000e+000 +0.000000000000000e+000   +2.272150680500960e-001 +3.588339425301490e-002   
+4.369000000000000e+010   +2.437732373619740e-001 +2.699361770747660e-002   +0.000000000000000e+000 +0.000000000000000e+000   +0.000000000000000e+000 +0.000000000000000e+000   +2.287099353730910e-001 +3.603161045825370e-002   
+4.386000000000000e+010   +2.452631843268940e-001 +2.647293038573630e-002   +0.000000000000000e+000 +0.000000000000000e+000   +0.000000000000000e+000 +0.000000000000000e+000   +2.302447487198140e-001 +3.611378881783960e-002   
+4.403000000000000e+010   +2.467780473613650e-001 +2.588148334886700e-002   +0.000000000000000e+000 +0.000000000000000e+000   +0.000000000000000e+000 +0.000000000000000e+000   +2.318166945048230e-001 +3.612701293663530e-002   
+4.420000000000000e+010   +2.483146611479170e-001 +2.521793237132840e-002   +0.000000000000000e+000 +0.000000000000000e+000   +0.000000000000000e+000 +0.000000000000000e+000   +2.334226800210170e-001 +3.606853815168660e-002   
+4.437000000000000e+010   +2.498696219427760e-001 +2.448117770459880e-002   +0.000000000000000e+000 +0.000000000000000e+000   +0.000000000000000e+000 +0.000000000000000e+000   +2.350593408521300e-001 +3.593581582923060e-002   
+4.454000000000000e+010   +2.514393009930200e-001 +2.367038258291620e-002   +0.000000000000000e+000 +0.000000000000000e+000   +0.000000000000000e+000 +0.000000000000000e+000   +2.367230511032240e-001 +3.572651728422020e-002   
+4.471000000000000e+010   +2.530198607420380e-001 +2.278499024385760e-002   +0.000000000000000e+000 +0.000000000000000e+000   +0.000000000000000e+000 +0.000000000000000e+000   +2.384099364253810e-001 +3.543855699061580e-002   
+4.488000000000000e+010   +2.546072738250360e-001 +2.182473931984420e-002   +0.000000000000000e+000 +0.000000000000000e+000   +0.000000000000000e+000 +0.000000000000000e+000   +2.401158898186490e-001 +3.507011481301110e-002   
+4.505000000000000e+010   +2.561973445970620e-001 +2.078967722776220e-002   +0.000000000000000e+000 +0.000000000000000e+000   +0.000000000000000e+000 +0.000000000000000e+000   +2.418365901623240e-001 +3.461965698385840e-002   
+4.522000000000000e+010   +2.577857331317270e-001 +1.968017139725780e-002   +0.000000000000000e+000 +0.000000000000000e+000   +0.000000000000000e+000 +0.000000000000000e+000   +2.435675232587540e-001 +3.408595552673510e-002   
+4.539000000000000e+010   +2.593679814088730e-001 +1.849691804359280e-002   +0.000000000000000e+000 +0.000000000000000e+000   +0.000000000000000e+000 +0.000000000000000e+000   +2.453040053935550e-001 +3.346810583837500e-002   
+4.556000000000000e+010   +2.609395413484070e-001 +1.724094833597590e-002   +0.000000000000000e+000 +0.000000000000000e+000   +0.000000000000000e+000 +0.000000000000000e+000   +2.470412089883670e-001 +3.276554222734420e-002   
+4.573000000000000e+010   +2.624958044936900e-001 +1.591363177590960e-002   +0.000000000000000e+000 +0.000000000000000e+000   +0.000000000000000e+000 +0.000000000000000e+000   +2.487741902574160e-001 +3.197805111188510e-002   
+4.590000000000000e+010   +2.640321328815000e-001 +1.451667666939640e-002   +0.000000000000000e+000 +0.000000000000000e+000   +0.000000000000000e+000 +0.000000000000000e+000   +2.504979185733150e-001 +3.110578172310960e-002   
+4.607000000000000e+010   +2.655438907859610e-001 +1.305212757356300e-002   +0.000000000000000e+000 +0.000000000000000e+000   +0.000000000000000e+000 +0.000000000000000e+000   +2.522073071500820e-001 +3.014925405792780e-002   
+4.624000000000000e+010   +2.670264769065080e-001 +1.152235972237460e-002   +0.000000000000000e+000 +0.000000000000000e+000   +0.000000000000000e+000 +0.000000000000000e+000   +2.538972447459320e-001 +2.910936398874930e-002   
+4.641000000000000e+010   +2.684753565579450e-001 +9.930070370841270e-003   +0.000000000000000e+000 +0.000000000000000e+000   +0.000000000000000e+000 +0.000000000000000e+000   +2.555626281540240e-001 +2.798738539620160e-002   
+4.658000000000000e+010   +2.698860934971810e-001 +8.278267136155760e-003   +0.000000000000000e+000 +0.000000000000000e+000   +0.000000000000000e+000 +0.000000000000000e+000   +2.571983948749920e-001 +2.678496920856620e-002   
+4.675000000000000e+010   +2.712543809422970e-001 +6.570253374557810e-003   +0.000000000000000e+000 +0.000000000000000e+000   +0.000000000000000e+000 +0.000000000000000e+000   +2.587995558145780e-001 +2.550413930928200e-002   
+4.692000000000000e+010   +2.725760713572680e-001 +4.809610828232690e-003   +0.000000000000000e+000 +0.000000000000000e+000   +0.000000000000000e+000 +0.000000000000000e+000   +2.603612275375560e-001 +2.414728534908730e-002   
+4.709000000000000e+010   +2.738472046899180e-001 +3.000179577417050e-003   +0.000000000000000e+000 +0.000000000000000e+000   +0.000000000000000e+000 +0.000000000000000e+000   +2.618786637302090e-001 +2.271715245870830e-002   
+4.726000000000000e+010   +2.750640345949320e-001 +1.146035583644110e-003   +0.000000000000000e+000 +0.000000000000000e+000   +0.000000000000000e+000 +0.000000000000000e+000   +2.633472854858310e-001 +2.121682788611450e-002   
+4.743000000000000e+010   +2.762230524788790e-001 -7.485338720132100e-004   +0.000000000000000e+000 +0.000000000000000e+000   +0.000000000000000e+000 +0.000000000000000e+000   +2.647627101225320e-001 +1.964972481954660e-002   
+4.760000000000000e+010   +2.773210089325210e-001 -2.679056681219760e-003   +0.000000000000000e+000 +0.000000000000000e+000   +0.000000000000000e+000 +0.000000000000000e+000   +2.661207781630950e-001 +1.801956337809950e-002   
+4.777000000000000e+010   +2.783549324322600e-001 -4.640903938435550e-003   +0.000000000000000e+000 +0.000000000000000e+000   +0.000000000000000e+000 +0.000000000000000e+000   +2.674175782441730e-001 +1.633034909836730e-002   
+4.794000000000000e+010   +2.793221450957220e-001 -6.629319201384590e-003   +0.000000000000000e+000 +0.000000000000000e+000   +0.000000000000000e+000 +0.000000000000000e+000   +2.686494696171190e-001 +1.458634904107980e-002   
+4.811000000000000e+010   +2.802202753123000e-001 -8.639448619835280e-003   +0.000000000000000e+000 +0.000000000000000e+000   +0.000000000000000e+000 +0.000000000000000e+000   +2.698131021075110e-001 +1.279206587408690e-002   
+4.828000000000000e+010   +2.810472672883190e-001 -1.066637153344620e-002   +0.000000000000000e+000 +0.000000000000000e+000   +0.000000000000000e+000 +0.000000000000000e+000   +2.709054332494390e-001 +1.095221014391590e-002   
+4.845000000000000e+010   +2.818013873317870e-001 -1.270513126479050e-002   +0.000000000000000e+000 +0.000000000000000e+000   +0.000000000000000e+000 +0.000000000000000e+000   +2.719237425599030e-001 +9.071671103065280e-003   
+4.862000000000000e+010   +2.824812270629940e-001 -1.475076563378020e-002   +0.000000000000000e+000 +0.000000000000000e+000   +0.000000000000000e+000 +0.000000000000000e+000   +2.728656427342690e-001 +7.155486375793290e-003   
+4.879000000000000e+010   +2.830857035014930e-001 -1.679833689722570e-002   +0.000000000000000e+000 +0.000000000000000e+000   +0.000000000000000e+000 +0.000000000000000e+000   +2.737290878034690e-001 +5.208810849026780e-003   
+4.896000000000000e+010   +2.836140562128350e-001 -1.884296076873560e-002   +0.000000000000000e+000 +0.000000000000000e+000   +0.000000000000000e+000 +0.000000000000000e+000   +2.745123781929490e-001 +3.236885136072260e-003   
+4.913000000000000e+010   +2.840658417158410e-001 -2.087983419107790e-002   +0.000000000000000e+000 +0.000000000000000e+000   +0.000000000000000e+000 +0.000000000000000e+000   +2.752141627194080e-001 +1.245003949346370e-003   
+4.930000000000000e+010   +2.844409251985640e-001 -2.290426159436260e-002   +0.000000000000000e+000 +0.000000000000000e+000   +0.000000000000000e+000 +0.000000000000000e+000   +2.758334376014520e-001 -7.615152663292440e-004   
+4.947000000000000e+010   +2.847394699968020e-001 -2.491167933635380e-002   +0.000000000000000e+000 +0.000000000000000e+000   +0.000000000000000e+000 +0.000000000000000e+000   +2.763695426117500e-001 -2.777363064228880e-003   
+4.964000000000000e+010   +2.849619249021760e-001 -2.689767819810970e-002   +0.000000000000000e+000 +0.000000000000000e+000   +0.000000000000000e+000 +0.000000000000000e+000   +2.768221544913870e-001 -4.797267824540530e-003   
+4.981000000000000e+010   +2.851090096116940e-001 -2.885802364690550e-002   +0.000000000000000e+000 +0.000000000000000e+000   +0.000000000000000e+000 +0.000000000000000e+000   +2.771912778716050e-001 -6.816024322056110e-003   
+4.998000000000000e+010   +2.851816987142320e-001 -3.078867380548810e-002   +0.000000000000000e+000 +0.000000000000000e+000   +0.000000000000000e+000 +0.000000000000000e+000   +2.774772337964530e-001 -8.828520817947010e-003   
+5.015000000000000e+010   +2.851812042956450e-001 -3.268579503561620e-002   +0.000000000000000e+000 +0.000000000000000e+000   +0.000000000000000e+000 +0.000000000000000e+000   +2.776806462576900e-001 -1.082976437001100e-002   
+5.032000000000000e+010   +2.851089576815200e-001 -3.454577500122590e-002   +0.000000000000000e+000 +0.000000000000000e+000   +0.000000000000000e+000 +0.000000000000000e+000   +2.778024268360200e-001 -1.281490421058150e-002   
+5.049000000000000e+010   +2.849665903893280e-001 -3.636523329843020e-002   +0.000000000000000e+000 +0.000000000000000e+000   +0.000000000000000e+000 +0.000000000000000e+000   +2.778437577554280e-001 -1.477925301787550e-002   
+5.066000000000000e+010   +2.847559147065570e-001 -3.814102959663500e-002   +0.000000000000000e+000 +0.000000000000000e+000   +0.000000000000000e+000 +0.000000000000000e+000   +2.778060737680750e-001 -1.671830586762210e-002   
+5.083000000000000e+010   +2.844789040681380e-001 -3.987026942519200e-002   +0.000000000000000e+000 +0.000000000000000e+000   +0.000000000000000e+000 +0.000000000000000e+000   +2.776910428753640e-001 -1.862775690504730e-002   
+5.100000000000000e+010   +2.841376735048670e-001 -4.155030760337200e-002   +0.000000000000000e+000 +0.000000000000000e+000   +0.000000000000000e+000 +0.000000000000000e+000   +2.775005464702480e-001 -2.050351358541980e-002   
+5.117000000000000e+010   +2.837344604015770e-001 -4.317874950042400e-002   +0.000000000000000e+000 +0.000000000000000e+000   +0.000000000000000e+000 +0.000000000000000e+000   +2.772366588939680e-001 -2.234170847265900e-002   
+5.134000000000000e+010   +2.832716056607540e-001 -4.475345027931320e-002   +0.000000000000000e+000 +0.000000000000000e+000   +0.000000000000000e+000 +0.000000000000000e+000   +2.769016268744140e-001 -2.413870869790120e-002   
+5.151000000000000e+010   +2.827515355943700e-001 -4.627251220300200e-002   +0.000000000000000e+000 +0.000000000000000e+000   +0.000000000000000e+000 +0.000000000000000e+000   +2.764978489443240e-001 -2.589112304502480e-002   
+5.168000000000000e+010   +2.821767445192910e-001 -4.773428026791480e-002   +0.000000000000000e+000 +0.000000000000000e+000   +0.000000000000000e+000 +0.000000000000000e+000   +2.760278551373950e-001 -2.759580675118490e-002   
+5.185000000000000e+010   +2.815497783223820e-001 -4.913733628319540e-002   +0.000000000000000e+000 +0.000000000000000e+000   +0.000000000000000e+000 +0.000000000000000e+000   +2.754942871371680e-001 -2.924986420993270e-002   
+5.202000000000000e+010   +2.808732190047820e-001 -5.048049163816500e-002   +0.000000000000000e+000 +0.000000000000000e+000   +0.000000000000000e+000 +0.000000000000000e+000   +2.748998790520900e-001 -3.085064962198730e-002   
+5.219000000000000e+010   +2.801496702738830e-001 -5.176277887445330e-002   +0.000000000000000e+000 +0.000000000000000e+000   +0.000000000000000e+000 +0.000000000000000e+000   +2.742474390118810e-001 -3.239576579720580e-002   
+5.236000000000000e+010   +2.793817443235240e-001 -5.298344238888770e-002   +0.000000000000000e+000 +0.000000000000000e+000   +0.000000000000000e+000 +0.000000000000000e+000   +2.735398315929620e-001 -3.388306123250680e-002   
+5.253000000000000e+010   +2.785720496845960e-001 -5.414192826240770e-002   +0.000000000000000e+000 +0.000000000000000e+000   +0.000000000000000e+000 +0.000000000000000e+000   +2.727799613994570e-001 -3.531062567412860e-002   
+5.270000000000000e+010   +2.777231802870890e-001 -5.523787357518730e-002   +0.000000000000000e+000 +0.000000000000000e+000   +0.000000000000000e+000 +0.000000000000000e+000   +2.719707576014900e-001 -3.667678431657420e-002   
+5.287000000000000e+010   +2.768377057049490e-001 -5.627109524299460e-002   +0.000000000000000e+000 +0.000000000000000e+000   +0.000000000000000e+000 +0.000000000000000e+000   +2.711151597295710e-001 -3.798009085989420e-002   
+5.304000000000000e+010   +2.759181624390130e-001 -5.724157864039260e-002   +0.000000000000000e+000 +0.000000000000000e+000   +0.000000000000000e+000 +0.000000000000000e+000   +2.702161046197410e-001 -3.921931952321970e-002   
+5.321000000000000e+010   +2.749670464092760e-001 -5.814946603450770e-002   +0.000000000000000e+000 +0.000000000000000e+000   +0.000000000000000e+000 +0.000000000000000e+000   +2.692765145727110e-001 -4.039345627819250e-002   
+5.338000000000000e+010   +2.739868064261950e-001 -5.899504505217270e-002   +0.000000000000000e+000 +0.000000000000000e+000   +0.000000000000000e+000 +0.000000000000000e+000   +2.682992867513930e-001 -4.150168942082910e-002   
+5.355000000000000e+010   +2.729798387408100e-001 -5.977873727898170e-002   +0.000000000000000e+000 +0.000000000000000e+000   +0.000000000000000e+000 +0.000000000000000e+000   +2.672872837208190e-001 -4.254339967685240e-002   
+5.372000000000000e+010   +2.719484824696490e-001 -6.050108707014810e-002   +0.000000000000000e+000 +0.000000000000000e+000   +0.000000000000000e+000 +0.000000000000000e+000   +2.662433251601570e-001 -4.351814992865800e-002   
+5.389000000000000e+010   +2.708950159570110e-001 -6.116275063534300e-002   +0.000000000000000e+000 +0.000000000000000e+000   +0.000000000000000e+000 +0.000000000000000e+000   +2.651701807492190e-001 -4.442567475554910e-002   
+5.406000000000000e+010   +2.698216539273650e-001 -6.176448553447670e-002   +0.000000000000000e+000 +0.000000000000000e+000   +0.000000000000000e+000 +0.000000000000000e+000   +2.640705640358090e-001 -4.526586993435230e-002   
+5.423000000000000e+010   +2.687305454180440e-001 -6.230714062618110e-002   +0.000000000000000e+000 +0.000000000000000e+000   +0.000000000000000e+000 +0.000000000000000e+000   +2.629471273808900e-001 -4.603878190667060e-002   
+5.440000000000000e+010   +2.676237723913760e-001 -6.279164646827000e-002   +0.000000000000000e+000 +0.000000000000000e+000   +0.000000000000000e+000 +0.000000000000000e+000   +2.618024578191900e-001 -4.674459741815370e-002   
+5.457000000000000e+010   +2.665033489102290e-001 -6.321900623916850e-002   +0.000000000000000e+000 +0.000000000000000e+000   +0.000000000000000e+000 +0.000000000000000e+000   +2.606390737841100e-001 -4.738363341877690e-002   
+5.474000000000000e+010   +2.653712209402590e-001 -6.359028724866510e-002   +0.000000000000000e+000 +0.000000000000000e+000   +0.000000000000000e+000 +0.000000000000000e+000   +2.594594226599880e-001 -4.795632715687080e-002   
+5.491000000000000e+010   +2.642292665897860e-001 -6.390661298672540e-002   +0.000000000000000e+000 +0.000000000000000e+000   +0.000000000000000e+000 +0.000000000000000e+000   +2.582658790581980e-001 -4.846322670535380e-002   
+5.508000000000000e+010   +2.630792968014600e-001 -6.416915573018810e-002   +0.000000000000000e+000 +0.000000000000000e+000   +0.000000000000000e+000 +0.000000000000000e+000   +2.570607437541470e-001 -4.890498188905170e-002   
+5.525000000000000e+010   +2.619230563749990e-001 -6.437912973973860e-002   +0.000000000000000e+000 +0.000000000000000e+000   +0.000000000000000e+000 +0.000000000000000e+000   +2.558462432264420e-001 -4.928233561489580e-002   
+5.542000000000000e+010   +2.607622253261090e-001 -6.453778504886960e-002   +0.000000000000000e+000 +0.000000000000000e+000   +0.000000000000000e+000 +0.000000000000000e+000   +2.546245296996320e-001 -4.959611569047810e-002   
+5.559000000000000e+010   +2.595984205117900e-001 -6.464640176177110e-002   +0.000000000000000e+000 +0.000000000000000e+000   +0.000000000000000e+000 +0.000000000000000e+000   +2.533976816493410e-001 -4.984722716348170e-002   
+5.576000000000000e+010   +2.584331974184870e-001 -6.470628492809300e-002   +0.000000000000000e+000 +0.000000000000000e+000   +0.000000000000000e+000 +0.000000000000000e+000   +2.521677047374760e-001 -5.003664514631490e-002   
+5.593000000000000e+010   +2.572680521867920e-001 -6.471875992045210e-002   +0.000000000000000e+000 +0.000000000000000e+000   +0.000000000000000e+000 +0.000000000000000e+000   +2.509365330112920e-001 -5.016540811811030e-002   
+5.610000000000000e+010   +2.561044237333900e-001 -6.468516833688050e-002   +0.000000000000000e+000 +0.000000000000000e+000   +0.000000000000000e+000 +0.000000000000000e+000   +2.497060304415160e-001 -5.023461181312660e-002   
+5.627000000000000e+010   +2.549436958906710e-001 -6.460686435681500e-002   +0.000000000000000e+000 +0.000000000000000e+000   +0.000000000000000e+000 +0.000000000000000e+000   +2.484779926742800e-001 -5.024540354408390e-002   
+5.644000000000000e+010   +2.537871997397120e-001 -6.448521154143460e-002   +0.000000000000000e+000 +0.000000000000000e+000   +0.000000000000000e+000 +0.000000000000000e+000   +2.472541489298760e-001 -5.019897706178450e-002   
+5.661000000000000e+010   +2.526362158389080e-001 -6.432158010504080e-002   +0.000000000000000e+000 +0.000000000000000e+000   +0.000000000000000e+000 +0.000000000000000e+000   +2.460361640724700e-001 -5.009656786574220e-002   
+5.678000000000000e+010   +2.514919765334130e-001 -6.411734454440290e-002   +0.000000000000000e+000 +0.000000000000000e+000   +0.000000000000000e+000 +0.000000000000000e+000   +2.448256407538760e-001 -4.993944902570250e-002   
+5.695000000000000e+010   +2.503556681878070e-001 -6.387388162739060e-002   +0.000000000000000e+000 +0.000000000000000e+000   +0.000000000000000e+000 +0.000000000000000e+000   +2.436241216244920e-001 -4.972892738515940e-002   
+5.712000000000000e+010   +2.492284333833760e-001 -6.359256877191420e-002   +0.000000000000000e+000 +0.000000000000000e+000   +0.000000000000000e+000 +0.000000000000000e+000   +2.424330914975270e-001 -4.946634022601750e-002   
+5.729000000000000e+010   +2.481113730263550e-001 -6.327478268335140e-002   +0.000000000000000e+000 +0.000000000000000e+000   +0.000000000000000e+000 +0.000000000000000e+000   +2.412539796471470e-001 -4.915305233329570e-002   
+5.746000000000000e+010   +2.470055484116430e-001 -6.292189831865430e-002   +0.000000000000000e+000 +0.000000000000000e+000   +0.000000000000000e+000 +0.000000000000000e+000   +2.400881618805260e-001 -4.879045341329100e-002   
+5.763000000000000e+010   +2.459119830999850e-001 -6.253528812191640e-002   +0.000000000000000e+000 +0.000000000000000e+000   +0.000000000000000e+000 +0.000000000000000e+000   +2.389369627168800e-001 -4.837995587527070e-002   
+5.780000000000000e+010   +2.448316647687140e-001 -6.211632143044630e-002   +0.000000000000000e+000 +0.000000000000000e+000   +0.000000000000000e+000 +0.000000000000000e+000   +2.378016573458240e-001 -4.792299292301550e-002   
+5.797000000000000e+010   +2.437655468177040e-001 -6.166636415610250e-002   +0.000000000000000e+000 +0.000000000000000e+000   +0.000000000000000e+000 +0.000000000000000e+000   +2.366834735643030e-001 -4.742101696873420e-002   
+5.814000000000000e+010   +2.427145499385430e-001 -6.118677861653440e-002   +0.000000000000000e+000 +0.000000000000000e+000   +0.000000000000000e+000 +0.000000000000000e+000   +2.355835935380610e-001 -4.687549827341570e-002   
+5.831000000000000e+010   +2.416795634167500e-001 -6.067892354087080e-002   +0.000000000000000e+000 +0.000000000000000e+000   +0.000000000000000e+000 +0.000000000000000e+000   +2.345031554284820e-001 -4.628792388572070e-002   
+5.848000000000000e+010   +2.406614463723720e-001 -6.014415421507320e-002   +0.000000000000000e+000 +0.000000000000000e+000   +0.000000000000000e+000 +0.000000000000000e+000   +2.334432548984930e-001 -4.565979672564380e-002   
+5.865000000000000e+010   +2.396610287018980e-001 -5.958382270688170e-002   +0.000000000000000e+000 +0.000000000000000e+000   +0.000000000000000e+000 +0.000000000000000e+000   +2.324049463876010e-001 -4.499263495398230e-002   
+5.882000000000000e+010   +2.386791119834500e-001 -5.899927820914000e-002   +0.000000000000000e+000 +0.000000000000000e+000   +0.000000000000000e+000 +0.000000000000000e+000   +2.313892442277370e-001 -4.428797139607360e-002   
+5.899000000000000e+010   +2.377164700284460e-001 -5.839186749001310e-002   +0.000000000000000e+000 +0.000000000000000e+000   +0.000000000000000e+000 +0.000000000000000e+000   +2.303971236130120e-001 -4.354735319169650e-002   
+5.916000000000000e+010   +2.367738493890150e-001 -5.776293528843130e-002   +0.000000000000000e+000 +0.000000000000000e+000   +0.000000000000000e+000 +0.000000000000000e+000   +2.294295213107380e-001 -4.277234152291300e-002   
+5.933000000000000e+010   +2.358519695629990e-001 -5.711382481665710e-002   +0.000000000000000e+000 +0.000000000000000e+000   +0.000000000000000e+000 +0.000000000000000e+000   +2.284873361855440e-001 -4.196451139926970e-002   
+5.950000000000000e+010   +2.349515230413940e-001 -5.644587826093930e-002   +0.000000000000000e+000 +0.000000000000000e+000   +0.000000000000000e+000 +0.000000000000000e+000   +2.275714295417900e-001 -4.112545155940440e-002   
+5.967000000000000e+010   +2.340731751472930e-001 -5.576043721458780e-002   +0.000000000000000e+000 +0.000000000000000e+000   +0.000000000000000e+000 +0.000000000000000e+000   +2.266826252174380e-001 -4.025676438590000e-002   
+5.984000000000000e+010   +2.332175636971110e-001 -5.505884313299620e-002   +0.000000000000000e+000 +0.000000000000000e+000   +0.000000000000000e+000 +0.000000000000000e+000   +2.258217095233620e-001 -3.936006579389320e-002   
+6.001000000000000e+010   +2.323852984275830e-001 -5.434243767947960e-002   +0.000000000000000e+000 +0.000000000000000e+000   +0.000000000000000e+000 +0.000000000000000e+000   +2.249894308849660e-001 -3.843698516815570e-002   
+6.018000000000000e+010   +2.315769602363930e-001 -5.361256304419670e-002   +0.000000000000000e+000 +0.000000000000000e+000   +0.000000000000000e+000 +0.000000000000000e+000   +2.241864993748160e-001 -3.748916522155380e-002   
+6.035000000000000e+010   +2.307931002665270e-001 -5.287056210640860e-002   +0.000000000000000e+000 +0.000000000000000e+000   +0.000000000000000e+000 +0.000000000000000e+000   +2.234135859797480e-001 -3.651826180834410e-002   
+6.052000000000000e+010   +2.300342387735810e-001 -5.211777854217420e-002   +0.000000000000000e+000 +0.000000000000000e+000   +0.000000000000000e+000 +0.000000000000000e+000   +2.226713217150130e-001 -3.552594367385350e-002   
+6.069000000000000e+010   +2.293008638669340e-001 -5.135555678481710e-002   +0.000000000000000e+000 +0.000000000000000e+000   +0.000000000000000e+000 +0.000000000000000e+000   +2.219602964941160e-001 -3.451389204681960e-002   
+6.086000000000000e+010   +2.285934300606270e-001 -5.058524177403350e-002   +0.000000000000000e+000 +0.000000000000000e+000   +0.000000000000000e+000 +0.000000000000000e+000   +2.212810579307470e-001 -3.348380017793310e-002   
+6.103000000000000e+010   +2.279123566778670e-001 -4.980817865464740e-002   +0.000000000000000e+000 +0.000000000000000e+000   +0.000000000000000e+000 +0.000000000000000e+000   +2.206341098725760e-001 -3.243737268746180e-002   
+6.120000000000000e+010   +2.272580261687270e-001 -4.902571219345830e-002   +0.000000000000000e+000 +0.000000000000000e+000   +0.000000000000000e+000 +0.000000000000000e+000   +2.200199108594020e-001 -3.137632477301210e-002   
+6.137000000000000e+010   +2.266307822974000e-001 -4.823918607418260e-002   +0.000000000000000e+000 +0.000000000000000e+000   +0.000000000000000e+000 +0.000000000000000e+000   +2.194388724361240e-001 -3.030238125533570e-002   
+6.154000000000000e+010   +2.260309282584090e-001 -4.744994196509000e-002   +0.000000000000000e+000 +0.000000000000000e+000   +0.000000000000000e+000 +0.000000000000000e+000   +2.188913573835930e-001 -2.921727539818370e-002   
+6.171000000000000e+010   +2.254587246969310e-001 -4.665931836673140e-002   +0.000000000000000e+000 +0.000000000000000e+000   +0.000000000000000e+000 +0.000000000000000e+000   +2.183776778326810e-001 -2.812274757555920e-002   
+6.188000000000000e+010   +2.249143877401370e-001 -4.586864928609990e-002   +0.000000000000000e+000 +0.000000000000000e+000   +0.000000000000000e+000 +0.000000000000000e+000   +2.178980933695680e-001 -2.702054370588450e-002   
+6.205000000000000e+010   +2.243980870021000e-001 -4.507926265304520e-002   +0.000000000000000e+000 +0.000000000000000e+000   +0.000000000000000e+000 +0.000000000000000e+000   +2.174528090600330e-001 -2.591241345952210e-002   
+6.222000000000000e+010   +2.239099435667920e-001 -4.429247855482140e-002   +0.000000000000000e+000 +0.000000000000000e+000   +0.000000000000000e+000 +0.000000000000000e+000   +2.170419734973710e-001 -2.480010829229570e-002   
+6.239000000000000e+010   +2.234500280958060e-001 -4.350960724969580e-002   +0.000000000000000e+000 +0.000000000000000e+000   +0.000000000000000e+000 +0.000000000000000e+000   +2.166656769041390e-001 -2.368537921023610e-002   
+6.256000000000000e+010   +2.230183589354460e-001 -4.273194692297710e-002   +0.000000000000000e+000 +0.000000000000000e+000   +0.000000000000000e+000 +0.000000000000000e+000   +2.163239492199870e-001 -2.256997434880850e-002   
+6.273000000000000e+010   +2.226149003630920e-001 -4.196078133042580e-002   +0.000000000000000e+000 +0.000000000000000e+000   +0.000000000000000e+000 +0.000000000000000e+000   +2.160167583570360e-001 -2.145563632386310e-002   
+6.290000000000000e+010   +2.222395609534350e-001 -4.119737720659020e-002   +0.000000000000000e+000 +0.000000000000000e+000   +0.000000000000000e+000 +0.000000000000000e+000   +2.157440084804290e-001 -2.034409940130020e-002   
+6.307000000000000e+010   +2.218921921310600e-001 -4.044298149047990e-002   +0.000000000000000e+000 +0.000000000000000e+000   +0.000000000000000e+000 +0.000000000000000e+000   +2.155055385197820e-001 -1.923708644028090e-002   
+6.324000000000000e+010   +2.215725868887030e-001 -3.969881842829250e-002   +0.000000000000000e+000 +0.000000000000000e+000   +0.000000000000000e+000 +0.000000000000000e+000   +2.153011207783580e-001 -1.813630570362010e-002   
+6.341000000000000e+010   +2.212804787191990e-001 -3.896608652110840e-002   +0.000000000000000e+000 +0.000000000000000e+000   +0.000000000000000e+000 +0.000000000000000e+000   +2.151304597971340e-001 -1.704344746371550e-002   
+6.358000000000000e+010   +2.210155407895450e-001 -3.824595539572800e-002   +0.000000000000000e+000 +0.000000000000000e+000   +0.000000000000000e+000 +0.000000000000000e+000   +2.149931914002750e-001 -1.596018049930390e-002   
+6.375000000000000e+010   +2.207773854034110e-001 -3.753956254424720e-002   +0.000000000000000e+000 +0.000000000000000e+000   +0.000000000000000e+000 +0.000000000000000e+000   +2.148888820436720e-001 -1.488814845633040e-002   
+6.392000000000000e+010   +2.205655636828790e-001 -3.684801005537680e-002   +0.000000000000000e+000 +0.000000000000000e+000   +0.000000000000000e+000 +0.000000000000000e+000   +2.148170283469720e-001 -1.382896613886480e-002   
+6.409000000000000e+010   +2.203795656229990e-001 -3.617236130343850e-002   +0.000000000000000e+000 +0.000000000000000e+000   +0.000000000000000e+000 +0.000000000000000e+000   +2.147770570280130e-001 -1.278421569483690e-002   
+6.426000000000000e+010   +2.202188203752550e-001 -3.551363763663230e-002   +0.000000000000000e+000 +0.000000000000000e+000   +0.000000000000000e+000 +0.000000000000000e+000   +2.147683250168580e-001 -1.175544279846050e-002   
+6.443000000000000e+010   +2.200826969116120e-001 -3.487281510115410e-002   +0.000000000000000e+000 +0.000000000000000e+000   +0.000000000000000e+000 +0.000000000000000e+000   +2.147901200121840e-001 -1.074415280289970e-002   
+6.460000000000000e+010   +2.199705049858120e-001 -3.425082124975130e-002   +0.000000000000000e+000 +0.000000000000000e+000   +0.000000000000000e+000 +0.000000000000000e+000   +2.148416612404580e-001 -9.751806921588120e-003   
+6.477000000000000e+010   +2.198814963888320e-001 -3.364853205966380e-002   +0.000000000000000e+000 +0.000000000000000e+000   +0.000000000000000e+000 +0.000000000000000e+000   +2.149221006542190e-001 -8.779818449057110e-003   
+6.494000000000000e+010   +2.198148666073150e-001 -3.306676891949550e-002   +0.000000000000000e+000 +0.000000000000000e+000   +0.000000000000000e+000 +0.000000000000000e+000   +2.150305243790310e-001 -7.829549059403680e-003   
+6.511000000000000e+010   +2.197697567075540e-001 -3.250629586366550e-002   +0.000000000000000e+000 +0.000000000000000e+000   +0.000000000000000e+000 +0.000000000000000e+000   +2.151659545526340e-001 -6.902305223364610e-003   
+6.528000000000000e+010   +2.197452555875180e-001 -3.196781692298590e-002   +0.000000000000000e+000 +0.000000000000000e+000   +0.000000000000000e+000 +0.000000000000000e+000   +2.153273514347730e-001 -5.999334743678210e-003   
+6.545000000000000e+010   +2.197404024837200e-001 -3.145197373170630e-002   +0.000000000000000e+000 +0.000000000000000e+000   +0.000000000000000e+000 +0.000000000000000e+000   +2.155136158748160e-001 -5.121823457240010e-003   
+6.562000000000000e+010   +2.197541898023160e-001 -3.095934334090600e-002   +0.000000000000000e+000 +0.000000000000000e+000   +0.000000000000000e+000 +0.000000000000000e+000   +2.157235920697720e-001 -4.270892115284470e-003   
+6.579000000000000e+010   +2.197855661505750e-001 -3.049043631209890e-002   +0.000000000000000e+000 +0.000000000000000e+000   +0.000000000000000e+000 +0.000000000000000e+000   +2.159560706005450e-001 -3.447593477933620e-003   
+6.596000000000000e+010   +2.198334396412500e-001 -3.004569507410320e-002   +0.000000000000000e+000 +0.000000000000000e+000   +0.000000000000000e+000 +0.000000000000000e+000   +2.162097917520010e-001 -2.652909643647460e-003   
+6.613000000000000e+010   +2.198966814180550e-001 -2.962549256928640e-002   +0.000000000000000e+000 +0.000000000000000e+000   +0.000000000000000e+000 +0.000000000000000e+000   +2.164834490553370e-001 -1.887749570199780e-003   
+6.630000000000000e+010   +2.199741293175130e-001 -2.923013118267090e-002   +0.000000000000000e+000 +0.000000000000000e+000   +0.000000000000000e+000 +0.000000000000000e+000   +2.167756931029220e-001 -1.152946929674130e-003   
+6.647000000000000e+010   +2.200645917523780e-001 -2.885984200630390e-002   +0.000000000000000e+000 +0.000000000000000e+000   +0.000000000000000e+000 +0.000000000000000e+000   +2.170851355308490e-001 -4.492581598558890e-004   
+6.664000000000000e+010   +2.201668516650160e-001 -2.851478439108130e-002   +0.000000000000000e+000 +0.000000000000000e+000   +0.000000000000000e+000 +0.000000000000000e+000   +2.174103531628250e-001 +2.226391406202310e-004   
+6.681000000000000e+010   +2.202796706363580e-001 -2.819504581087200e-002   +0.000000000000000e+000 +0.000000000000000e+000   +0.000000000000000e+000 +0.000000000000000e+000   +2.177498923504130e-001 +8.621476127848780e-004   
+6.698000000000000e+010   +2.204017929992610e-001 -2.790064204234220e-002   +0.000000000000000e+000 +0.000000000000000e+000   +0.000000000000000e+000 +0.000000000000000e+000   +2.181022734046980e-001 +1.468751180644490e-003   
+6.715000000000000e+010   +2.205319500760880e-001 -2.763151762801300e-002   +0.000000000000000e+000 +0.000000000000000e+000   +0.000000000000000e+000 +0.000000000000000e+000   +2.184659950882960e-001 +2.042015830982100e-003   
+6.732000000000000e+010   +2.206688643545520e-001 -2.738754664670280e-002   +0.000000000000000e+000 +0.000000000000000e+000   +0.000000000000000e+000 +0.000000000000000e+000   +2.188395392432080e-001 +2.581590127332300e-003   
+6.749000000000000e+010   +2.208112536792440e-001 -2.716853376641690e-002   +0.000000000000000e+000 +0.000000000000000e+000   +0.000000000000000e+000 +0.000000000000000e+000   +2.192213754080710e-001 +3.087205426056220e-003   
+6.766000000000000e+010   +2.209578354169910e-001 -2.697421554289810e-002   +0.000000000000000e+000 +0.000000000000000e+000   +0.000000000000000e+000 +0.000000000000000e+000   +2.196099654297970e-001 +3.558675815084530e-003   
+6.783000000000000e+010   +2.211073305108120e-001 -2.680426197340530e-002   +0.000000000000000e+000 +0.000000000000000e+000   +0.000000000000000e+000 +0.000000000000000e+000   +2.200037681119450e-001 +3.995897807665590e-003   
+6.800000000000000e+010   +2.212584674789240e-001 -2.665827832024050e-002   +0.000000000000000e+000 +0.000000000000000e+000   +0.000000000000000e+000 +0.000000000000000e+000   +2.204012437603980e-001 +4.398849752661070e-003   
+6.817000000000000e+010   +2.214099863010800e-001 -2.653580709713900e-002   +0.000000000000000e+000 +0.000000000000000e+000   +0.000000000000000e+000 +0.000000000000000e+000   +2.208008587077210e-001 +4.767591022029210e-003   
+6.834000000000000e+010   +2.215606421406840e-001 -2.643633024865590e-002   +0.000000000000000e+000 +0.000000000000000e+000   +0.000000000000000e+000 +0.000000000000000e+000   +2.212010897249420e-001 +5.102260976668590e-003   
+6.851000000000000e+010   +2.217092089331370e-001 -2.635927156344980e-002   +0.000000000000000e+000 +0.000000000000000e+000   +0.000000000000000e+000 +0.000000000000000e+000   +2.216004283465440e-001 +5.403077679057820e-003   
+6.868000000000000e+010   +2.218544828364190e-001 -2.630399917221280e-002   +0.000000000000000e+000 +0.000000000000000e+000   +0.000000000000000e+000 +0.000000000000000e+000   +2.219973850312260e-001 +5.670336433164150e-003   
+6.885000000000000e+010   +2.219952854248260e-001 -2.626982821300790e-002   +0.000000000000000e+000 +0.000000000000000e+000   +0.000000000000000e+000 +0.000000000000000e+000   +2.223904932149400e-001 +5.904408129230330e-003   
+6.902000000000000e+010   +2.221304667834010e-001 -2.625602357169150e-002   +0.000000000000000e+000 +0.000000000000000e+000   +0.000000000000000e+000 +0.000000000000000e+000   +2.227783132018380e-001 +6.105737422164130e-003   
+6.919000000000000e+010   +2.222589083374570e-001 -2.626180274513500e-002   +0.000000000000000e+000 +0.000000000000000e+000   +0.000000000000000e+000 +0.000000000000000e+000   +2.231594358385140e-001 +6.274840727003630e-003   
+6.936000000000000e+010   +2.223795254871420e-001 -2.628633876195570e-002   +0.000000000000000e+000 +0.000000000000000e+000   +0.000000000000000e+000 +0.000000000000000e+000   +2.235324860828270e-001 +6.412304114801480e-003   
+6.953000000000000e+010   +2.224912700685330e-001 -2.632876311079260e-002   +0.000000000000000e+000 +0.000000000000000e+000   +0.000000000000000e+000 +0.000000000000000e+000   +2.238961263097530e-001 +6.518781028880310e-003   
+6.970000000000000e+010   +2.225931325296130e-001 -2.638816875777690e-002   +0.000000000000000e+000 +0.000000000000000e+000   +0.000000000000000e+000 +0.000000000000000e+000   +2.242490594479830e-001 +6.594989944536540e-003   
+6.987000000000000e+010   +2.226841439528880e-001 -2.646361313572690e-002   +0.000000000000000e+000 +0.000000000000000e+000   +0.000000000000000e+000 +0.000000000000000e+000   +2.245900319410760e-001 +6.641711874752790e-003   
+7.004000000000000e+010   +2.227633778368370e-001 -2.655412111838750e-002   +0.000000000000000e+000 +0.000000000000000e+000   +0.000000000000000e+000 +0.000000000000000e+000   +2.249178364262050e-001 +6.659787846101300e-003   
+7.021000000000000e+010   +2.228299516766600e-001 -2.665868799732710e-002   +0.000000000000000e+000 +0.000000000000000e+000   +0.000000000000000e+000 +0.000000000000000e+000   +2.252313142838970e-001 +6.650116238297180e-003   
+7.038000000000000e+010   +2.228830282978660e-001 -2.677628239898860e-002   +0.000000000000000e+000 +0.000000000000000e+000   +0.000000000000000e+000 +0.000000000000000e+000   +2.255293579341380e-001 +6.613650148670110e-003   
+7.055000000000000e+010   +2.229218170491710e-001 -2.690584918411990e-002   +0.000000000000000e+000 +0.000000000000000e+000   +0.000000000000000e+000 +0.000000000000000e+000   +2.258109129283110e-001 +6.551394614609440e-003   
+7.072000000000000e+010   +2.229455747664540e-001 -2.704631222242240e-002   +0.000000000000000e+000 +0.000000000000000e+000   +0.000000000000000e+000 +0.000000000000000e+000   +2.260749798520630e-001 +6.464403870654380e-003   
+7.089000000000000e+010   +2.229536065173030e-001 -2.719657716016030e-002   +0.000000000000000e+000 +0.000000000000000e+000   +0.000000000000000e+000 +0.000000000000000e+000   +2.263206159946460e-001 +6.353778544132260e-003   
+7.106000000000000e+010   +2.229452662424030e-001 -2.735553406659420e-002   +0.000000000000000e+000 +0.000000000000000e+000   +0.000000000000000e+000 +0.000000000000000e+000   +2.265469368518330e-001 +6.220662848886190e-003   
+7.123000000000000e+010   +2.229199571591250e-001 -2.752205998907110e-002   +0.000000000000000e+000 +0.000000000000000e+000   +0.000000000000000e+000 +0.000000000000000e+000   +2.267531174263100e-001 +6.066241751312340e-003   
+7.140000000000000e+010   +2.228771320198080e-001 -2.769502143057460e-002   +0.000000000000000e+000 +0.000000000000000e+000   +0.000000000000000e+000 +0.000000000000000e+000   +2.269383933230070e-001 +5.891738159272170e-003   
+7.157000000000000e+010   +2.228162932616470e-001 -2.787327671322720e-002   +0.000000000000000e+000 +0.000000000000000e+000   +0.000000000000000e+000 +0.000000000000000e+000   +2.271020617045730e-001 +5.698410102625910e-003   
+7.174000000000000e+010   +2.227369929747220e-001 -2.805567820558860e-002   +0.000000000000000e+000 +0.000000000000000e+000   +0.000000000000000e+000 +0.000000000000000e+000   +2.272434820391390e-001 +5.487547930629030e-003   
+7.191000000000000e+010   +2.226388327671350e-001 -2.824107448276960e-002   +0.000000000000000e+000 +0.000000000000000e+000   +0.000000000000000e+000 +0.000000000000000e+000   +2.273620767066030e-001 +5.260471525127630e-003   
+7.208000000000000e+010   +2.225214635115940e-001 -2.842831234475300e-002   +0.000000000000000e+000 +0.000000000000000e+000   +0.000000000000000e+000 +0.000000000000000e+000   +2.274573314520880e-001 +5.018527544861070e-003   
+7.225000000000000e+010   +2.223845850118910e-001 -2.861623872359770e-002   +0.000000000000000e+000 +0.000000000000000e+000   +0.000000000000000e+000 +0.000000000000000e+000   +2.275287956932330e-001 +4.763086710263150e-003   
+7.242000000000000e+010   +2.222279455679180e-001 -2.880370245952610e-002   +0.000000000000000e+000 +0.000000000000000e+000   +0.000000000000000e+000 +0.000000000000000e+000   +2.275760826977630e-001 +4.495541081105720e-003   
+7.259000000000000e+010   +2.220513414509470e-001 -2.898955598273160e-002   +0.000000000000000e+000 +0.000000000000000e+000   +0.000000000000000e+000 +0.000000000000000e+000   +2.275988696254140e-001 +4.217301421056380e-003   
+7.276000000000000e+010   +2.218546163849170e-001 -2.917265686935180e-002   +0.000000000000000e+000 +0.000000000000000e+000   +0.000000000000000e+000 +0.000000000000000e+000   +2.275968975126260e-001 +3.929794566905660e-003   
+7.293000000000000e+010   +2.216376609258270e-001 -2.935186929267530e-002   +0.000000000000000e+000 +0.000000000000000e+000   +0.000000000000000e+000 +0.000000000000000e+000   +2.275699710520560e-001 +3.634460854999750e-003   
+7.310000000000000e+010   +2.214004118145260e-001 -2.952606531326240e-002   +0.000000000000000e+000 +0.000000000000000e+000   +0.000000000000000e+000 +0.000000000000000e+000   +2.275179584195480e-001 +3.332751571988130e-003   
+7.327000000000000e+010   +2.211428513754700e-001 -2.969412616811140e-002   +0.000000000000000e+000 +0.000000000000000e+000   +0.000000000000000e+000 +0.000000000000000e+000   +2.274407908938930e-001 +3.026126499229150e-003   
+7.344000000000000e+010   +2.208650068129200e-001 -2.985494334961710e-002   +0.000000000000000e+000 +0.000000000000000e+000   +0.000000000000000e+000 +0.000000000000000e+000   +2.273384625110480e-001 +2.716051406909070e-003   
+7.361000000000000e+010   +2.205669496172470e-001 -3.000741966256420e-002   +0.000000000000000e+000 +0.000000000000000e+000   +0.000000000000000e+000 +0.000000000000000e+000   +2.272110295977070e-001 +2.403995689288260e-003   
+7.378000000000000e+010   +2.202487949242690e-001 -3.015047020252420e-002   +0.000000000000000e+000 +0.000000000000000e+000   +0.000000000000000e+000 +0.000000000000000e+000   +2.270586102887830e-001 +2.091429977806990e-003   
+7.395000000000000e+010   +2.199107009355500e-001 -3.028302316348990e-002   +0.000000000000000e+000 +0.000000000000000e+000   +0.000000000000000e+000 +0.000000000000000e+000   +2.268813839871210e-001 +1.779823779631810e-003   
+7.412000000000000e+010   +2.195528683740090e-001 -3.040402074287940e-002   +0.000000000000000e+000 +0.000000000000000e+000   +0.000000000000000e+000 +0.000000000000000e+000   +2.266795908120640e-001 +1.470643204948390e-003   
+7.429000000000000e+010   +2.191755399865790e-001 -3.051241986632120e-002   +0.000000000000000e+000 +0.000000000000000e+000   +0.000000000000000e+000 +0.000000000000000e+000   +2.264535310176750e-001 +1.165348639561900e-003   
+7.446000000000000e+010   +2.187790000719060e-001 -3.060719290041170e-002   +0.000000000000000e+000 +0.000000000000000e+000   +0.000000000000000e+000 +0.000000000000000e+000   +2.262035643657380e-001 +8.653924959695270e-004   
+7.463000000000000e+010   +2.183635740893170e-001 -3.068732842467180e-002   +0.000000000000000e+000 +0.000000000000000e+000   +0.000000000000000e+000 +0.000000000000000e+000   +2.259301094836780e-001 +5.722169280282310e-004   
+7.480000000000000e+010   +2.179296282452640e-001 -3.075183189999020e-002   +0.000000000000000e+000 +0.000000000000000e+000   +0.000000000000000e+000 +0.000000000000000e+000   +2.256336431692390e-001 +2.872515489074810e-004   
+7.497000000000000e+010   +2.174775691070930e-001 -3.079972638241440e-002   +0.000000000000000e+000 +0.000000000000000e+000   +0.000000000000000e+000 +0.000000000000000e+000   +2.253146996587960e-001 +1.191114980411580e-005   
+7.514000000000000e+010   +2.170078431629680e-001 -3.083005329979250e-002   +0.000000000000000e+000 +0.000000000000000e+000   +0.000000000000000e+000 +0.000000000000000e+000   +2.249738697324230e-001 -2.524066101808520e-004   
+7.531000000000000e+010   +2.165209362559120e-001 -3.084187315506100e-002   +0.000000000000000e+000 +0.000000000000000e+000   +0.000000000000000e+000 +0.000000000000000e+000   +2.246117996878120e-001 -5.043235712810060e-004   
+7.548000000000000e+010   +2.160173727942810e-001 -3.083426630671460e-002   +0.000000000000000e+000 +0.000000000000000e+000   +0.000000000000000e+000 +0.000000000000000e+000   +2.242291900688560e-001 -7.424834154889000e-004   
+7.565000000000000e+010   +2.154977145925410e-001 -3.080633369302910e-002   +0.000000000000000e+000 +0.000000000000000e+000   +0.000000000000000e+000 +0.000000000000000e+000   +2.238267939427260e-001 -9.655540317661150e-004   
+7.582000000000000e+010   +2.149625591248660e-001 -3.075719741764920e-002   +0.000000000000000e+000 +0.000000000000000e+000   +0.000000000000000e+000 +0.000000000000000e+000   +2.234054145852340e-001 -1.172229841027680e-003   
+7.599000000000000e+010   +2.144125368489920e-001 -3.068600106251280e-002   +0.000000000000000e+000 +0.000000000000000e+000   +0.000000000000000e+000 +0.000000000000000e+000   +2.229659023608160e-001 -1.361233932387350e-003   
+7.616000000000000e+010   +2.138483072425890e-001 -3.059190948884860e-002   +0.000000000000000e+000 +0.000000000000000e+000   +0.000000000000000e+000 +0.000000000000000e+000   +2.225091501919030e-001 -1.531319922813670e-003   
+7.633000000000000e+010   +2.132705530166030e-001 -3.047410760180870e-002   +0.000000000000000e+000 +0.000000000000000e+000   +0.000000000000000e+000 +0.000000000000000e+000   +2.220360873643460e-001 -1.681273119338690e-003   
+7.650000000000000e+010   +2.126799717838550e-001 -3.033179748778840e-002   +0.000000000000000e+000 +0.000000000000000e+000   +0.000000000000000e+000 +0.000000000000000e+000   +2.215476708267880e-001 -1.809910629692960e-003   
+7.667000000000000e+010   +2.120772644966600e-001 -3.016419281407880e-002   +0.000000000000000e+000 +0.000000000000000e+000   +0.000000000000000e+000 +0.000000000000000e+000   +2.210448732563390e-001 -1.916079549498500e-003   
+7.684000000000000e+010   +2.114631199927130e-001 -2.997050904916260e-002   +0.000000000000000e+000 +0.000000000000000e+000   +0.000000000000000e+000 +0.000000000000000e+000   +2.205286671555160e-001 -1.998652158271470e-003   
+7.701000000000000e+010   +2.108381953832640e-001 -2.974994746599940e-002   +0.000000000000000e+000 +0.000000000000000e+000   +0.000000000000000e+000 +0.000000000000000e+000   +2.200000044640620e-001 -2.056516543193660e-003   
+7.718000000000000e+010   +2.102030931719200e-001 -2.950167058061690e-002   +0.000000000000000e+000 +0.000000000000000e+000   +0.000000000000000e+000 +0.000000000000000e+000   +2.194597921643370e-001 -2.088560692794490e-003   
+7.735000000000000e+010   +2.095583385002180e-001 -2.922476682809420e-002   +0.000000000000000e+000 +0.000000000000000e+000   +0.000000000000000e+000 +0.000000000000000e+000   +2.189088663538930e-001 -2.093648000396870e-003   
+7.752000000000000e+010   +2.089043638197940e-001 -2.891820393119120e-002   +0.000000000000000e+000 +0.000000000000000e+000   +0.000000000000000e+000 +0.000000000000000e+000   +2.183479711671060e-001 -2.070583073692120e-003   
+7.769000000000000e+010   +2.082415151317440e-001 -2.858077485588610e-002   +0.000000000000000e+000 +0.000000000000000e+000   +0.000000000000000e+000 +0.000000000000000e+000   +2.177777548681000e-001 -2.018069589279370e-003   
+7.786000000000000e+010   +2.075701004353200e-001 -2.821104868587820e-002   +0.000000000000000e+000 +0.000000000000000e+000   +0.000000000000000e+000 +0.000000000000000e+000   +2.171988027179170e-001 -1.934668037666400e-003   
+7.803000000000000e+010   +2.068905046894560e-001 -2.780735147705030e-002   +0.000000000000000e+000 +0.000000000000000e+000   +0.000000000000000e+000 +0.000000000000000e+000   +2.166117306189660e-001 -1.818770951473380e-003   
+7.820000000000000e+010   +2.062033853561190e-001 -2.736781374029480e-002   +0.000000000000000e+000 +0.000000000000000e+000   +0.000000000000000e+000 +0.000000000000000e+000   +2.160173566365050e-001 -1.668623269757950e-003   
+7.837000000000000e+010   +2.055099295291840e-001 -2.689051968161400e-002   +0.000000000000000e+000 +0.000000000000000e+000   +0.000000000000000e+000 +0.000000000000000e+000   +2.154169389951110e-001 -1.482417444691030e-003   
+7.854000000000000e+010   +2.048120988367710e-001 -2.637376237089620e-002   +0.000000000000000e+000 +0.000000000000000e+000   +0.000000000000000e+000 +0.000000000000000e+000   +2.148124182093780e-001 -1.258473379065900e-003   
+7.871000000000000e+010   +2.041127426631490e-001 -2.581634632431540e-002   +0.000000000000000e+000 +0.000000000000000e+000   +0.000000000000000e+000 +0.000000000000000e+000   +2.142065532483180e-001 -9.954681093974580e-004   
+7.888000000000000e+010   +2.034154771176600e-001 -2.521781909070660e-002   +0.000000000000000e+000 +0.000000000000000e+000   +0.000000000000000e+000 +0.000000000000000e+000   +2.136028480180990e-001 -6.926310225205810e-004   
+7.905000000000000e+010   +2.027243306067230e-001 -2.457851428970820e-002   +0.000000000000000e+000 +0.000000000000000e+000   +0.000000000000000e+000 +0.000000000000000e+000   +2.130052528536260e-001 -3.498115366782220e-004   
+7.922000000000000e+010   +2.020432896591220e-001 -2.389937589592150e-002   +0.000000000000000e+000 +0.000000000000000e+000   +0.000000000000000e+000 +0.000000000000000e+000   +2.124177507093710e-001 +3.261727338166580e-005   
+7.939000000000000e+010   +2.013759322048410e-001 -2.318164932963660e-002   +0.000000000000000e+000 +0.000000000000000e+000   +0.000000000000000e+000 +0.000000000000000e+000   +2.118439999947280e-001 +4.539687085532750e-004   
+7.956000000000000e+010   +2.007252681271750e-001 -2.242657911498210e-002   +0.000000000000000e+000 +0.000000000000000e+000   +0.000000000000000e+000 +0.000000000000000e+000   +2.112871552549310e-001 +9.134667893811690e-004   
+7.973000000000000e+010   +2.000937841551170e-001 -2.163521552559050e-002   +0.000000000000000e+000 +0.000000000000000e+000   +0.000000000000000e+000 +0.000000000000000e+000   +2.107498774067110e-001 +1.410403369183220e-003   
+7.990000000000000e+010   +1.994836079388140e-001 -2.080835393146950e-002   +0.000000000000000e+000 +0.000000000000000e+000   +0.000000000000000e+000 +0.000000000000000e+000   +2.102344641520070e-001 +1.944201443282870e-003   
+8.007000000000000e+010   +1.988966973742350e-001 -1.994657235411550e-002   +0.000000000000000e+000 +0.000000000000000e+000   +0.000000000000000e+000 +0.000000000000000e+000   +2.097430155112950e-001 +2.514402916755190e-003   
+8.024000000000000e+010   +1.983349961603780e-001 -1.905031665408010e-002   +0.000000000000000e+000 +0.000000000000000e+000   +0.000000000000000e+000 +0.000000000000000e+000   +2.092775772710210e-001 +3.120615593165990e-003   
+8.041000000000000e+010   +1.978005358433800e-001 -1.811999402296250e-002   +0.000000000000000e+000 +0.000000000000000e+000   +0.000000000000000e+000 +0.000000000000000e+000   +2.088402400674080e-001 +3.762448410916050e-003   
+8.058000000000000e+010   +1.972954890056030e-001 -1.715605413856880e-002   +0.000000000000000e+000 +0.000000000000000e+000   +0.000000000000000e+000 +0.000000000000000e+000   +2.084331952497820e-001 +4.439451985859900e-003   
+8.075000000000000e+010   +1.968221871350750e-001 -1.615905140485230e-002   +0.000000000000000e+000 +0.000000000000000e+000   +0.000000000000000e+000 +0.000000000000000e+000   +2.080587581655380e-001 +5.151070633847400e-003   
+8.092000000000000e+010   +1.963831163086370e-001 -1.512968939095470e-002   +0.000000000000000e+000 +0.000000000000000e+000   +0.000000000000000e+000 +0.000000000000000e+000   +2.077193703348980e-001 +5.896606347529310e-003   
+8.109000000000000e+010   +1.959809007630660e-001 -1.406885135628450e-002   +0.000000000000000e+000 +0.000000000000000e+000   +0.000000000000000e+000 +0.000000000000000e+000   +2.074175894275040e-001 +6.675192571427700e-003   
+8.126000000000000e+010   +1.956182804047220e-001 -1.297762067092770e-002   +0.000000000000000e+000 +0.000000000000000e+000   +0.000000000000000e+000 +0.000000000000000e+000   +2.071560729718200e-001 +7.485775178215330e-003   
+8.143000000000000e+010   +1.952980857716650e-001 -1.185729446785350e-002   +0.000000000000000e+000 +0.000000000000000e+000   +0.000000000000000e+000 +0.000000000000000e+000   +2.069375589825560e-001 +8.327098386590360e-003   
+8.160000000000000e+010   +1.950232121459240e-001 -1.070939260291520e-002   +0.000000000000000e+000 +0.000000000000000e+000   +0.000000000000000e+000 +0.000000000000000e+000   +2.067648453582090e-001 +9.197694157390200e-003   
+8.177000000000000e+010   +1.947965934999640e-001 -9.535663287924210e-003   +0.000000000000000e+000 +0.000000000000000e+000   +0.000000000000000e+000 +0.000000000000000e+000   +2.066407686376090e-001 +1.009587392097130e-002   
+8.194000000000000e+010   +1.946211763626030e-001 -8.338086141624900e-003   +0.000000000000000e+000 +0.000000000000000e+000   +0.000000000000000e+000 +0.000000000000000e+000   +2.065681823563990e-001 +1.101972220642810e-002   
+8.211000000000000e+010   +1.944998937283440e-001 -7.118873010072070e-003   +0.000000000000000e+000 +0.000000000000000e+000   +0.000000000000000e+000 +0.000000000000000e+000   +2.065499349455160e-001 +1.196709172640910e-002   
+8.228000000000000e+010   +1.944356388177780e-001 -5.880466677214210e-003   +0.000000000000000e+000 +0.000000000000000e+000   +0.000000000000000e+000 +0.000000000000000e+000   +2.065888470068560e-001 +1.293560006094620e-002   
+8.245000000000000e+010   +1.944312386413470e-001 -4.625537379371040e-003   +0.000000000000000e+000 +0.000000000000000e+000   +0.000000000000000e+000 +0.000000000000000e+000   +2.066876878575420e-001 +1.392262791044900e-002   
+8.262000000000000e+010   +1.944894274505190e-001 -3.356977091884890e-003   +0.000000000000000e+000 +0.000000000000000e+000   +0.000000000000000e+000 +0.000000000000000e+000   +2.068491511824020e-001 +1.492531901655720e-002   
+8.279000000000000e+010   +1.946128200739560e-001 -2.077891458329990e-003   +0.000000000000000e+000 +0.000000000000000e+000   +0.000000000000000e+000 +0.000000000000000e+000   +2.070758298454190e-001 +1.594058207907530e-002   
+8.296000000000000e+010   +1.948038853849930e-001 -7.915892206466930e-004   +0.000000000000000e+000 +0.000000000000000e+000   +0.000000000000000e+000 +0.000000000000000e+000   +2.073701898033230e-001 +1.696509475870310e-002   
+8.313000000000000e+010   +1.950649200148290e-001 +4.984308250168380e-004   +0.000000000000000e+000 +0.000000000000000e+000   +0.000000000000000e+000 +0.000000000000000e+000   +2.077345432985350e-001 +1.799531001052970e-002   
+8.330000000000000e+010   +1.953980226839850e-001 +1.788495442199930e-003   +0.000000000000000e+000 +0.000000000000000e+000   +0.000000000000000e+000 +0.000000000000000e+000   +2.081710214495220e-001 +1.902746497201080e-002   
+8.347000000000000e+010   +1.958050693831370e-001 +3.074774991248410e-003   +0.000000000000000e+000 +0.000000000000000e+000   +0.000000000000000e+000 +0.000000000000000e+000   +2.086815464885570e-001 +2.005759252650020e-002   
+8.364000000000000e+010   +1.962876897831000e-001 +4.353303863737860e-003   +0.000000000000000e+000 +0.000000000000000e+000   +0.000000000000000e+000 +0.000000000000000e+000   +2.092678039374400e-001 +2.108153568033590e-002   
+8.381000000000000e+010   +1.968472451626910e-001 +5.620003080552920e-003   +0.000000000000000e+000 +0.000000000000000e+000   +0.000000000000000e+000 +0.000000000000000e+000   +2.099312150805980e-001 +2.209496488379550e-002   
+8.398000000000000e+010   +1.974848082374800e-001 +6.870704799901760e-003   +0.000000000000000e+000 +0.000000000000000e+000   +0.000000000000000e+000 +0.000000000000000e+000   +2.106729101361880e-001 +2.309339830374030e-002   
+8.415000000000000e+010   +1.982011451913410e-001 +8.101178508386180e-003   +0.000000000000000e+000 +0.000000000000000e+000   +0.000000000000000e+000 +0.000000000000000e+000   +2.114937025300320e-001 +2.407222503067760e-002   
+8.432000000000000e+010   +1.989967001981270e-001 +9.307158439910860e-003   +0.000000000000000e+000 +0.000000000000000e+000   +0.000000000000000e+000 +0.000000000000000e+000   +2.123940647874970e-001 +2.502673118636220e-002   
+8.449000000000000e+010   +1.998715826889190e-001 +1.048437193245930e-002   +0.000000000000000e+000 +0.000000000000000e+000   +0.000000000000000e+000 +0.000000000000000e+000   +2.133741065208490e-001 +2.595212869878430e-002   
+8.466000000000000e+010   +2.008255575896350e-001 +1.162856823171340e-002   +0.000000000000000e+000 +0.000000000000000e+000   +0.000000000000000e+000 +0.000000000000000e+000   +2.144335550105340e-001 +2.684358667151590e-002   
+8.483000000000000e+010   +2.018580386414080e-001 +1.273554731392920e-002   +0.000000000000000e+000 +0.000000000000000e+000   +0.000000000000000e+000 +0.000000000000000e+000   +2.155717389246100e-001 +2.769626493756030e-002   
+8.500000000000000e+010   +2.029680848971040e-001 +1.380118832876730e-002   +0.000000000000000e+000 +0.000000000000000e+000   +0.000000000000000e+000 +0.000000000000000e+000   +2.167875755975350e-001 +2.850534946478870e-002   
+8.517000000000000e+010   +2.041544004454710e-001 +1.482147719306530e-002   +0.000000000000000e+000 +0.000000000000000e+000   +0.000000000000000e+000 +0.000000000000000e+000   +2.180795624336860e-001 +2.926608924545990e-002   
+8.534000000000000e+010   +2.054153373243920e-001 +1.579253293100870e-002   +0.000000000000000e+000 +0.000000000000000e+000   +0.000000000000000e+000 +0.000000000000000e+000   +2.194457727293940e-001 +2.997383404969670e-002   
+8.551000000000000e+010   +2.067489014277650e-001 +1.671063244766420e-002   +0.000000000000000e+000 +0.000000000000000e+000   +0.000000000000000e+000 +0.000000000000000e+000   +2.208838563812280e-001 +3.062407258134610e-002   
+8.568000000000000e+010   +2.081527613746680e-001 +1.757223337136330e-002   +0.000000000000000e+000 +0.000000000000000e+000   +0.000000000000000e+000 +0.000000000000000e+000   +2.223910456281790e-001 +3.121247032139210e-002   
+8.585000000000000e+010   +2.096242600474010e-001 +1.837399476153850e-002   +0.000000000000000e+000 +0.000000000000000e+000   +0.000000000000000e+000 +0.000000000000000e+000   +2.239641660860470e-001 +3.173490640591740e-002   
+8.602000000000000e+010   +2.111604285771860e-001 +1.911279547410840e-002   +0.000000000000000e+000 +0.000000000000000e+000   +0.000000000000000e+000 +0.000000000000000e+000   +2.255996530021000e-001 +3.218750883592820e-002   
+8.619000000000000e+010   +2.127580024765760e-001 +1.978575009684160e-002   +0.000000000000000e+000 +0.000000000000000e+000   +0.000000000000000e+000 +0.000000000000000e+000   +2.272935727947400e-001 +3.256668730471300e-002   
+8.636000000000000e+010   +2.144134396868250e-001 +2.039022243979150e-002   +0.000000000000000e+000 +0.000000000000000e+000   +0.000000000000000e+000 +0.000000000000000e+000   +2.290416494005010e-001 +3.286916283502480e-002   
+8.653000000000000e+010   +2.161229401205320e-001 +2.092383654889010e-002   +0.000000000000000e+000 +0.000000000000000e+000   +0.000000000000000e+000 +0.000000000000000e+000   +2.308392952563690e-001 +3.309199368776060e-002   
+8.670000000000000e+010   +2.178824666074020e-001 +2.138448547521830e-002   +0.000000000000000e+000 +0.000000000000000e+000   +0.000000000000000e+000 +0.000000000000000e+000   +2.326816461917570e-001 +3.323259680927450e-002   
+8.687000000000000e+010   +2.196877667487500e-001 +2.177033781756290e-002   +0.000000000000000e+000 +0.000000000000000e+000   +0.000000000000000e+000 +0.000000000000000e+000   +2.345635996285390e-001 +3.328876436820370e-002   
+8.704000000000000e+010   +2.215343956507350e-001 +2.207984232932670e-002   +0.000000000000000e+000 +0.000000000000000e+000   +0.000000000000000e+000 +0.000000000000000e+000   +2.364798550890650e-001 +3.325867494731830e-002   
+8.721000000000000e+010   +2.234177392093560e-001 +2.231173080223920e-002   +0.000000000000000e+000 +0.000000000000000e+000   +0.000000000000000e+000 +0.000000000000000e+000   +2.384249562690000e-001 +3.314089928673290e-002   
+8.738000000000000e+010   +2.253330379026310e-001 +2.246501945292320e-002   +0.000000000000000e+000 +0.000000000000000e+000   +0.000000000000000e+000 +0.000000000000000e+000   +2.403933334002340e-001 +3.293440041255750e-002   
+8.755000000000000e+010   +2.272754108540300e-001 +2.253900902579680e-002   +0.000000000000000e+000 +0.000000000000000e+000   +0.000000000000000e+000 +0.000000000000000e+000   +2.423793450481780e-001 +3.263852850435600e-002   
+8.772000000000000e+010   +2.292398802885110e-001 +2.253328387263690e-002   +0.000000000000000e+000 +0.000000000000000e+000   +0.000000000000000e+000 +0.000000000000000e+000   +2.443773181851060e-001 +3.225301084432500e-002   
+8.789000000000000e+010   +2.312213961369160e-001 +2.244771008371400e-002   +0.000000000000000e+000 +0.000000000000000e+000   +0.000000000000000e+000 +0.000000000000000e+000   +2.463815856534830e-001 +3.177793752428390e-002   
+8.806000000000000e+010   +2.332148609883990e-001 +2.228243292495550e-002   +0.000000000000000e+000 +0.000000000000000e+000   +0.000000000000000e+000 +0.000000000000000e+000   +2.483865202593880e-001 +3.121374373110900e-002   
+8.823000000000000e+010   +2.352151552058290e-001 +2.203787344590010e-002   +0.000000000000000e+000 +0.000000000000000e+000   +0.000000000000000e+000 +0.000000000000000e+000   +2.503865648734700e-001 +3.056118967153500e-002   
+8.840000000000000e+010   +2.372171622994400e-001 +2.171472442634480e-002   +0.000000000000000e+000 +0.000000000000000e+000   +0.000000000000000e+000 +0.000000000000000e+000   +2.523762582357330e-001 +2.982133907280510e-002   
+8.857000000000000e+010   +2.392157943993130e-001 +2.131394543518260e-002   +0.000000000000000e+000 +0.000000000000000e+000   +0.000000000000000e+000 +0.000000000000000e+000   +2.543502564534130e-001 +2.899553750295170e-002   
+8.874000000000000e+010   +2.412060178320610e-001 +2.083675699346520e-002   +0.000000000000000e+000 +0.000000000000000e+000   +0.000000000000000e+000 +0.000000000000000e+000   +2.563033503766630e-001 +2.808539138893860e-002   
+8.891000000000000e+010   +2.431828785391590e-001 +2.028463361574210e-002   +0.000000000000000e+000 +0.000000000000000e+000   +0.000000000000000e+000 +0.000000000000000e+000   +2.582304793779240e-001 +2.709274868696360e-002   
+8.908000000000000e+010   +2.451415271471040e-001 +1.965929558606790e-002   +0.000000000000000e+000 +0.000000000000000e+000   +0.000000000000000e+000 +0.000000000000000e+000   +2.601267421283500e-001 +2.601968175152260e-002   
+8.925000000000000e+010   +2.470772434193030e-001 +1.896269929983450e-002   +0.000000000000000e+000 +0.000000000000000e+000   +0.000000000000000e+000 +0.000000000000000e+000   +2.619874053569110e-001 +2.486847285573990e-002   
+8.942000000000000e+010   +2.489854597009570e-001 +1.819702604528010e-002   +0.000000000000000e+000 +0.000000000000000e+000   +0.000000000000000e+000 +0.000000000000000e+000   +2.638079112415770e-001 +2.364160233904060e-002   
+8.959000000000000e+010   +2.508617830568730e-001 +1.736466922792210e-002   +0.000000000000000e+000 +0.000000000000000e+000   +0.000000000000000e+000 +0.000000000000000e+000   +2.655838843799620e-001 +2.234173923953260e-002   
+8.976000000000000e+010   +2.527020157022220e-001 +1.646821986648230e-002   +0.000000000000000e+000 +0.000000000000000e+000   +0.000000000000000e+000 +0.000000000000000e+000   +2.673111390064500e-001 +2.097173388417240e-002   
+8.993000000000000e+010   +2.545021733905330e-001 +1.551045068266300e-002   +0.000000000000000e+000 +0.000000000000000e+000   +0.000000000000000e+000 +0.000000000000000e+000   +2.689856869342130e-001 +1.953461182082970e-002   
+9.010000000000000e+010   +2.562585014487260e-001 +1.449429868691760e-002   +0.000000000000000e+000 +0.000000000000000e+000   +0.000000000000000e+000 +0.000000000000000e+000   +2.706037465408420e-001 +1.803356830315430e-002   
+9.027000000000000e+010   +2.579674882253260e-001 +1.342284666601390e-002   +0.000000000000000e+000 +0.000000000000000e+000   +0.000000000000000e+000 +0.000000000000000e+000   +2.721617528322730e-001 +1.647196260509910e-002   
+9.044000000000000e+010   +2.596258758819050e-001 +1.229930380214660e-002   +0.000000000000000e+000 +0.000000000000000e+000   +0.000000000000000e+000 +0.000000000000000e+000   +2.736563684454880e-001 +1.485331128971470e-002   
+9.061000000000000e+010   +2.612306682946450e-001 +1.112698564748650e-002   +0.000000000000000e+000 +0.000000000000000e+000   +0.000000000000000e+000 +0.000000000000000e+000   +2.750844951794610e-001 +1.318128003306820e-002   
+9.078000000000000e+010   +2.627791362897640e-001 +9.909293936296720e-003   +0.000000000000000e+000 +0.000000000000000e+000   +0.000000000000000e+000 +0.000000000000000e+000   +2.764432857079040e-001 +1.145967337016560e-002   
+9.095000000000000e+010   +2.642688201740950e-001 +8.649696399129560e-003   +0.000000000000000e+000 +0.000000000000000e+000   +0.000000000000000e+000 +0.000000000000000e+000   +2.777301547301180e-001 +9.692422267770230e-003   
+9.112000000000000e+010   +2.656975297652040e-001 +7.351707027496040e-003   +0.000000000000000e+000 +0.000000000000000e+000   +0.000000000000000e+000 +0.000000000000000e+000   +2.789427891805420e-001 +7.883569308582840e-003   
+9.129000000000000e+010   +2.670633422158100e-001 +6.018866951267430e-003   +0.000000000000000e+000 +0.000000000000000e+000   +0.000000000000000e+000 +0.000000000000000e+000   +2.800791568530340e-001 +6.037251861705890e-003   
+9.146000000000000e+010   +2.683645977841550e-001 +4.654726200613390e-003   +0.000000000000000e+000 +0.000000000000000e+000   +0.000000000000000e+000 +0.000000000000000e+000   +2.811375130435660e-001 +4.157683288180170e-003   
+9.163000000000000e+010   +2.695998938672820e-001 +3.262826564496390e-003   +0.000000000000000e+000 +0.000000000000000e+000   +0.000000000000000e+000 +0.000000000000000e+000   +2.821164047915480e-001 +2.249132664927180e-003   
+9.180000000000000e+010   +2.707680776312220e-001 +1.846685586833600e-003   +0.000000000000000e+000 +0.000000000000000e+000   +0.000000000000000e+000 +0.000000000000000e+000   +2.830146726881150e-001 +3.159035799479320e-004   
+9.197000000000000e+010   +2.718682373792880e-001 +4.097819036193670e-004   +0.000000000000000e+000 +0.000000000000000e+000   +0.000000000000000e+000 +0.000000000000000e+000   +2.838314498190730e-001 -1.637687672895010e-003   
+9.214000000000000e+010   +2.728996930376360e-001 -1.044458152874330e-003   +0.000000000000000e+000 +0.000000000000000e+000   +0.000000000000000e+000 +0.000000000000000e+000   +2.845661582330090e-001 -3.607333821023580e-003   
+9.231000000000000e+010   +2.738619858629070e-001 -2.512672513379700e-003   +0.000000000000000e+000 +0.000000000000000e+000   +0.000000000000000e+000 +0.000000000000000e+000   +2.852185027469900e-001 -5.588757965965940e-003   
+9.248000000000000e+010   +2.747548677069880e-001 -3.991574161629120e-003   +0.000000000000000e+000 +0.000000000000000e+000   +0.000000000000000e+000 +0.000000000000000e+000   +2.857884624134710e-001 -7.577734020158240e-003   
+9.265000000000000e+010   +2.755782898020180e-001 -5.477960449575190e-003   +0.000000000000000e+000 +0.000000000000000e+000   +0.000000000000000e+000 +0.000000000000000e+000   +2.862762799286990e-001 -9.570105991148010e-003   
+9.282000000000000e+010   +2.763323914592070e-001 -6.968721357333000e-003   +0.000000000000000e+000 +0.000000000000000e+000   +0.000000000000000e+000 +0.000000000000000e+000   +2.866824491665020e-001 -1.156180570706510e-002   
+9.299000000000000e+010   +2.770174886226610e-001 -8.460846448875390e-003   +0.000000000000000e+000 +0.000000000000000e+000   +0.000000000000000e+000 +0.000000000000000e+000   +2.870077012118830e-001 -1.354886894856120e-002   
+9.316000000000000e+010   +2.776340623351910e-001 -9.951430807306730e-003   +0.000000000000000e+000 +0.000000000000000e+000   +0.000000000000000e+000 +0.000000000000000e+000   +2.872529892516130e-001 -1.552744968990140e-002   
+9.333000000000000e+010   +2.781827474399370e-001 -1.143767989995500e-002   +0.000000000000000e+000 +0.000000000000000e+000   +0.000000000000000e+000 +0.000000000000000e+000   +2.874194725501490e-001 -1.749383253039170e-002   
+9.350000000000000e+010   +2.786643212621990e-001 -1.291691354054020e-002   +0.000000000000000e+000 +0.000000000000000e+000   +0.000000000000000e+000 +0.000000000000000e+000   +2.875084998378830e-001 -1.944444312701890e-002   
+9.367000000000000e+010   +2.790796925867060e-001 -1.438656891491290e-002   +0.000000000000000e+000 +0.000000000000000e+000   +0.000000000000000e+000 +0.000000000000000e+000   +2.875215924204070e-001 -2.137585686407440e-002   
+9.384000000000000e+010   +2.794298908218750e-001 -1.584420282687160e-002   +0.000000000000000e+000 +0.000000000000000e+000   +0.000000000000000e+000 +0.000000000000000e+000   +2.874604271779130e-001 -2.328480562416720e-002   
+9.401000000000000e+010   +2.797160553804360e-001 -1.728749320871950e-002   +0.000000000000000e+000 +0.000000000000000e+000   +0.000000000000000e+000 +0.000000000000000e+000   +2.873268197503910e-001 -2.516818289805430e-002   
+9.418000000000000e+010   +2.799394254517770e-001 -1.871423993103940e-002   +0.000000000000000e+000 +0.000000000000000e+000   +0.000000000000000e+000 +0.000000000000000e+000   +2.871227080069120e-001 -2.702304728524930e-002   
+9.435000000000000e+010   +2.801013299707680e-001 -2.012236498446680e-002   +0.000000000000000e+000 +0.000000000000000e+000   +0.000000000000000e+000 +0.000000000000000e+000   +2.868501360794260e-001 -2.884662450798690e-002   
+9.452000000000000e+010   +2.802031780085560e-001 -2.150991214223030e-002   +0.000000000000000e+000 +0.000000000000000e+000   +0.000000000000000e+000 +0.000000000000000e+000   +2.865112388838280e-001 -3.063630808123000e-002   
+9.469000000000000e+010   +2.802464494722390e-001 -2.287504607093610e-002   +0.000000000000000e+000 +0.000000000000000e+000   +0.000000000000000e+000 +0.000000000000000e+000   +2.861082274529090e-001 -3.238965882748590e-002   
+9.486000000000000e+010   +2.802326861824990e-001 -2.421605099350720e-002   +0.000000000000000e+000 +0.000000000000000e+000   +0.000000000000000e+000 +0.000000000000000e+000   +2.856433749997960e-001 -3.410440323787550e-002   
+9.503000000000000e+010   +2.801634833055390e-001 -2.553132893963380e-002   +0.000000000000000e+000 +0.000000000000000e+000   +0.000000000000000e+000 +0.000000000000000e+000   +2.851190038475960e-001 -3.577843101697330e-002   
+9.520000000000000e+010   +2.800404812533760e-001 -2.681939764079180e-002   +0.000000000000000e+000 +0.000000000000000e+000   +0.000000000000000e+000 +0.000000000000000e+000   +2.845374731760070e-001 -3.740979174684580e-002   
+9.537000000000000e+010   +2.798653578907290e-001 -2.807888808304540e-002   +0.000000000000000e+000 +0.000000000000000e+000   +0.000000000000000e+000 +0.000000000000000e+000   +2.839011677823810e-001 -3.899669089045790e-002   
+9.554000000000000e+010   +2.796398212335680e-001 -2.930854180638630e-002   +0.000000000000000e+000 +0.000000000000000e+000   +0.000000000000000e+000 +0.000000000000000e+000   +2.832124875922820e-001 -4.053748521386650e-002   
+9.571000000000000e+010   +2.793656024992300e-001 -3.050720790170800e-002   +0.000000000000000e+000 +0.000000000000000e+000   +0.000000000000000e+000 +0.000000000000000e+000   +2.824738381853750e-001 -4.203067781998610e-002   
+9.588000000000000e+010   +2.790444496523590e-001 -3.167383986184810e-002   +0.000000000000000e+000 +0.000000000000000e+000   +0.000000000000000e+000 +0.000000000000000e+000   +2.816876221478850e-001 -4.347491270639950e-002   
+9.605000000000000e+010   +2.786781213419090e-001 -3.280749222651530e-002   +0.000000000000000e+000 +0.000000000000000e+000   +0.000000000000000e+000 +0.000000000000000e+000   +2.808562312985760e-001 -4.486896914976690e-002   
+9.622000000000000e+010   +2.782683812314480e-001 -3.390731708326980e-002   +0.000000000000000e+000 +0.000000000000000e+000   +0.000000000000000e+000 +0.000000000000000e+000   +2.799820397399210e-001 -4.621175583179660e-002   
+9.639000000000000e+010   +2.778169928141380e-001 -3.497256048092770e-002   +0.000000000000000e+000 +0.000000000000000e+000   +0.000000000000000e+000 +0.000000000000000e+000   +2.790673976892520e-001 -4.750230484723790e-002   
+9.656000000000000e+010   +2.773257146341170e-001 -3.600255870476850e-002   +0.000000000000000e+000 +0.000000000000000e+000   +0.000000000000000e+000 +0.000000000000000e+000   +2.781146261636190e-001 -4.873976571553400e-002   
+9.673000000000000e+010   +2.767962958874970e-001 -3.699673459615860e-002   +0.000000000000000e+000 +0.000000000000000e+000   +0.000000000000000e+000 +0.000000000000000e+000   +2.771260121920220e-001 -4.992339925500480e-002   
+9.690000000000000e+010   +2.762304724861260e-001 -3.795459371898890e-002   +0.000000000000000e+000 +0.000000000000000e+000   +0.000000000000000e+000 +0.000000000000000e+000   +2.761038049308800e-001 -5.105257166525310e-002   
+9.707000000000000e+010   +2.756299634766150e-001 -3.887572062969090e-002   +0.000000000000000e+000 +0.000000000000000e+000   +0.000000000000000e+000 +0.000000000000000e+000   +2.750502122317340e-001 -5.212674854110770e-002   
+9.724000000000000e+010   +2.749964678874680e-001 -3.975977510821780e-002   +0.000000000000000e+000 +0.000000000000000e+000   +0.000000000000000e+000 +0.000000000000000e+000   +2.739673979413720e-001 -5.314548911454590e-002   
+9.741000000000000e+010   +2.743316619227600e-001 -4.060648840807860e-002   +0.000000000000000e+000 +0.000000000000000e+000   +0.000000000000000e+000 +0.000000000000000e+000   +2.728574796348000e-001 -5.410844062301860e-002   
+9.758000000000000e+010   +2.736371965510880e-001 -4.141565959406500e-002   +0.000000000000000e+000 +0.000000000000000e+000   +0.000000000000000e+000 +0.000000000000000e+000   +2.717225269208660e-001 -5.501533284732610e-002   
+9.775000000000000e+010   +2.729146954163760e-001 -4.218715197842840e-002   +0.000000000000000e+000 +0.000000000000000e+000   +0.000000000000000e+000 +0.000000000000000e+000   +2.705645601957750e-001 -5.586597284890060e-002   
+9.792000000000000e+010   +2.721657530974880e-001 -4.292088957013510e-002   +0.000000000000000e+000 +0.000000000000000e+000   +0.000000000000000e+000 +0.000000000000000e+000   +2.693855498484890e-001 -5.666023996896190e-002   
+9.809000000000000e+010   +2.713919336999440e-001 -4.361685365927130e-002   +0.000000000000000e+000 +0.000000000000000e+000   +0.000000000000000e+000 +0.000000000000000e+000   +2.681874158137190e-001 -5.739808103117590e-002   
+9.826000000000000e+010   +2.705947697512520e-001 -4.427507956108560e-002   +0.000000000000000e+000 +0.000000000000000e+000   +0.000000000000000e+000 +0.000000000000000e+000   +2.669720274847630e-001 -5.807950581418880e-002   
+9.843000000000000e+010   +2.697757613440230e-001 -4.489565338890530e-002   +0.000000000000000e+000 +0.000000000000000e+000   +0.000000000000000e+000 +0.000000000000000e+000   +2.657412039815090e-001 -5.870458277347810e-002   
+9.860000000000000e+010   +2.689363756315490e-001 -4.547870907498520e-002   +0.000000000000000e+000 +0.000000000000000e+000   +0.000000000000000e+000 +0.000000000000000e+000   +2.644967146279950e-001 -5.927343503516550e-002   
+9.877000000000000e+010   +2.680780464932700e-001 -4.602442541823110e-002   +0.000000000000000e+000 +0.000000000000000e+000   +0.000000000000000e+000 +0.000000000000000e+000   +2.632402797826440e-001 -5.978623666471320e-002   
+9.894000000000000e+010   +2.672021744957280e-001 -4.653302336837660e-002   +0.000000000000000e+000 +0.000000000000000e+000   +0.000000000000000e+000 +0.000000000000000e+000   +2.619735717836500e-001 -6.024320922589050e-002   
+9.911000000000000e+010   +2.663101270599890e-001 -4.700476345617690e-002   +0.000000000000000e+000 +0.000000000000000e+000   +0.000000000000000e+000 +0.000000000000000e+000   +2.606982161774250e-001 -6.064461859292230e-002   
+9.928000000000000e+010   +2.654032388431360e-001 -4.743994333093260e-002   +0.000000000000000e+000 +0.000000000000000e+000   +0.000000000000000e+000 +0.000000000000000e+000   +2.594157930549550e-001 -6.099077205230660e-002   
+9.945000000000000e+010   +2.644828122795590e-001 -4.783889555214670e-002   +0.000000000000000e+000 +0.000000000000000e+000   +0.000000000000000e+000 +0.000000000000000e+000   +2.581278385735370e-001 -6.128201571404270e-002   
+9.962000000000000e+010   +2.635501183306450e-001 -4.820198547368940e-002   +0.000000000000000e+000 +0.000000000000000e+000   +0.000000000000000e+000 +0.000000000000000e+000   +2.568358465887560e-001 -6.151873213749470e-002   
+9.979000000000000e+010   +2.626063973869140e-001 -4.852960937444120e-002   +0.000000000000000e+000 +0.000000000000000e+000   +0.000000000000000e+000 +0.000000000000000e+000   +2.555412703853100e-001 -6.170133827223450e-002   
+9.996000000000000e+010   +2.616528602797310e-001 -4.882219270822080e-002   +0.000000000000000e+000 +0.000000000000000e+000   +0.000000000000000e+000 +0.000000000000000e+000   +2.542455244861470e-001 -6.183028370712860e-002   
+1.001300000000000e+011   +2.606906894896750e-001 -4.908018858683900e-002   +0.000000000000000e+000 +0.000000000000000e+000   +0.000000000000000e+000 +0.000000000000000e+000   +2.529499865507870e-001 -6.190604910882730e-002   
+1.003000000000000e+011   +2.597210403737990e-001 -4.930407641151460e-002   +0.000000000000000e+000 +0.000000000000000e+000   +0.000000000000000e+000 +0.000000000000000e+000   +2.516559992750710e-001 -6.192914499134810e-002   
+1.004700000000000e+011   +2.587450425597000e-001 -4.949436069060570e-002   +0.000000000000000e+000 +0.000000000000000e+000   +0.000000000000000e+000 +0.000000000000000e+000   +2.503648723532060e-001 -6.190011068587770e-002   
+1.006400000000000e+011   +2.577638014070400e-001 -4.965157006805980e-002   +0.000000000000000e+000 +0.000000000000000e+000   +0.000000000000000e+000 +0.000000000000000e+000   +2.490778844719280e-001 -6.181951366241750e-002   
+1.008100000000000e+011   +2.567783994880090e-001 -4.977625649763430e-002   +0.000000000000000e+000 +0.000000000000000e+000   +0.000000000000000e+000 +0.000000000000000e+000   +2.477962852596660e-001 -6.168794897506690e-002   
+1.009800000000000e+011   +2.557898981926740e-001 -4.986899461572100e-002   +0.000000000000000e+000 +0.000000000000000e+000   +0.000000000000000e+000 +0.000000000000000e+000   +2.465212972114810e-001 -6.150603906649260e-002   
+1.011500000000000e+011   +2.547993392836800e-001 -4.993038129573410e-002   +0.000000000000000e+000 +0.000000000000000e+000   +0.000000000000000e+000 +0.000000000000000e+000   +2.452541176613230e-001 -6.127443372519050e-002   
+1.013200000000000e+011   +2.538077465532910e-001 -4.996103536893060e-002   +0.000000000000000e+000 +0.000000000000000e+000   +0.000000000000000e+000 +0.000000000000000e+000   +2.439959206508200e-001 -6.099381031048570e-002   
+1.014900000000000e+011   +2.528161274145670e-001 -4.996159749332600e-002   +0.000000000000000e+000 +0.000000000000000e+000   +0.000000000000000e+000 +0.000000000000000e+000   +2.427478586801040e-001 -6.066487420570660e-002   
+1.016600000000000e+011   +2.518254745173470e-001 -4.993273022769840e-002   +0.000000000000000e+000 +0.000000000000000e+000   +0.000000000000000e+000 +0.000000000000000e+000   +2.415110645794630e-001 -6.028835944708450e-002   
+1.018300000000000e+011   +2.508367673246080e-001 -4.987511821418690e-002   +0.000000000000000e+000 +0.000000000000000e+000   +0.000000000000000e+000 +0.000000000000000e+000   +2.402866530692780e-001 -5.986502956419250e-002   
+1.020000000000000e+011   +2.498509736354180e-001 -4.978946851559820e-002   +0.000000000000000e+000 +0.000000000000000e+000   +0.000000000000000e+000 +0.000000000000000e+000   +2.390757224034400e-001 -5.939567859598510e-002   
+1.021700000000000e+011   +2.488690510841990e-001 -4.967651109064620e-002   +0.000000000000000e+000 +0.000000000000000e+000   +0.000000000000000e+000 +0.000000000000000e+000   +2.378793558129660e-001 -5.888113233026780e-002   
+1.023400000000000e+011   +2.478919484930640e-001 -4.953699938084190e-002   +0.000000000000000e+000 +0.000000000000000e+000   +0.000000000000000e+000 +0.000000000000000e+000   +2.366986228456670e-001 -5.832224958714160e-002   
+1.025100000000000e+011   +2.469206072249610e-001 -4.937171099332370e-002   +0.000000000000000e+000 +0.000000000000000e+000   +0.000000000000000e+000 +0.000000000000000e+000   +2.355345806256300e-001 -5.771992375935300e-002   
+1.026800000000000e+011   +2.459559623892520e-001 -4.918144842816800e-002   +0.000000000000000e+000 +0.000000000000000e+000   +0.000000000000000e+000 +0.000000000000000e+000   +2.343882749146700e-001 -5.707508436525200e-002   
+1.028500000000000e+011   +2.449989438952690e-001 -4.896703995016250e-002   +0.000000000000000e+000 +0.000000000000000e+000   +0.000000000000000e+000 +0.000000000000000e+000   +2.332607410473160e-001 -5.638869875254150e-002   
+1.030200000000000e+011   +2.440504774532570e-001 -4.872934036961860e-002   +0.000000000000000e+000 +0.000000000000000e+000   +0.000000000000000e+000 +0.000000000000000e+000   +2.321530047910970e-001 -5.566177378867880e-002   
+1.031900000000000e+011   +2.431114854243030e-001 -4.846923188332650e-002   +0.000000000000000e+000 +0.000000000000000e+000   +0.000000000000000e+000 +0.000000000000000e+000   +2.310660829313120e-001 -5.489535766037890e-002   
+1.033600000000000e+011   +2.421828874722600e-001 -4.818762491576280e-002   +0.000000000000000e+000 +0.000000000000000e+000   +0.000000000000000e+000 +0.000000000000000e+000   +2.300009837846770e-001 -5.409054156982620e-002   
+1.035300000000000e+011   +2.412656011746040e-001 -4.788545875872590e-002   +0.000000000000000e+000 +0.000000000000000e+000   +0.000000000000000e+000 +0.000000000000000e+000   +2.289587075646930e-001 -5.324846143987990e-002   
+1.037000000000000e+011   +2.403605424185160e-001 -4.756370214015950e-002   +0.000000000000000e+000 +0.000000000000000e+000   +0.000000000000000e+000 +0.000000000000000e+000   +2.279402466147460e-001 -5.237029937532450e-002   
+1.038700000000000e+011   +2.394686257279750e-001 -4.722335361348580e-002   +0.000000000000000e+000 +0.000000000000000e+000   +0.000000000000000e+000 +0.000000000000000e+000   +2.269465855256870e-001 -5.145728505743840e-002   
+1.040400000000000e+011   +2.385907645125710e-001 -4.686544160568950e-002   +0.000000000000000e+000 +0.000000000000000e+000   +0.000000000000000e+000 +0.000000000000000e+000   +2.259787012169950e-001 -5.051069671345180e-002   
+1.042100000000000e+011   +2.377278711770570e-001 -4.649102411771030e-002   +0.000000000000000e+000 +0.000000000000000e+000   +0.000000000000000e+000 +0.000000000000000e+000   +2.250375630024200e-001 -4.953186177954070e-002   
+1.043800000000000e+011   +2.368808574472700e-001 -4.610118786771460e-002   +0.000000000000000e+000 +0.000000000000000e+000   +0.000000000000000e+000 +0.000000000000000e+000   +2.241241328117360e-001 -4.852215683640560e-002   
+1.045500000000000e+011   +2.360506345996900e-001 -4.569704683169030e-002   +0.000000000000000e+000 +0.000000000000000e+000   +0.000000000000000e+000 +0.000000000000000e+000   +2.232393656157980e-001 -4.748300688668880e-002   
+1.047200000000000e+011   +2.352381142272400e-001 -4.527973976979910e-002   +0.000000000000000e+000 +0.000000000000000e+000   +0.000000000000000e+000 +0.000000000000000e+000   +2.223842104924090e-001 -4.641588337593280e-002   
+1.048900000000000e+011   +2.344442094881130e-001 -4.485042656739240e-002   +0.000000000000000e+000 +0.000000000000000e+000   +0.000000000000000e+000 +0.000000000000000e+000   +2.215596125576720e-001 -4.532230071106570e-002   
+1.050600000000000e+011   +2.336698374543490e-001 -4.441028285142390e-002   +0.000000000000000e+000 +0.000000000000000e+000   +0.000000000000000e+000 +0.000000000000000e+000   +2.207665165413670e-001 -4.420381052625730e-002   
+1.052300000000000e+011   +2.329159232329940e-001 -4.396049217976170e-002   +0.000000000000000e+000 +0.000000000000000e+000   +0.000000000000000e+000 +0.000000000000000e+000   +2.200058731912960e-001 -4.306199258402290e-002   
+1.054000000000000e+011   +2.321834072015300e-001 -4.350223477122360e-002   +0.000000000000000e+000 +0.000000000000000e+000   +0.000000000000000e+000 +0.000000000000000e+000   +2.192786503628900e-001 -4.189844095429910e-002   
+1.055700000000000e+011   +2.314732574792940e-001 -4.303667114495030e-002   +0.000000000000000e+000 +0.000000000000000e+000   +0.000000000000000e+000 +0.000000000000000e+000   +2.185858525008940e-001 -4.071474255609040e-002   
+1.057400000000000e+011   +2.307864917164040e-001 -4.256491821850150e-002   +0.000000000000000e+000 +0.000000000000000e+000   +0.000000000000000e+000 +0.000000000000000e+000   +2.179285551291370e-001 -3.951244428790330e-002   
+1.059100000000000e+011   +2.301242158200140e-001 -4.208801376596910e-002   +0.000000000000000e+000 +0.000000000000000e+000   +0.000000000000000e+000 +0.000000000000000e+000   +2.173079677720580e-001 -3.829300147679230e-002   
+1.060800000000000e+011   +2.294876945351080e-001 -4.160686362318470e-002   +0.000000000000000e+000 +0.000000000000000e+000   +0.000000000000000e+000 +0.000000000000000e+000   +2.167255527176990e-001 -3.705769675614920e-002   
+1.062500000000000e+011   +2.288784858603170e-001 -4.112216355169620e-002   +0.000000000000000e+000 +0.000000000000000e+000   +0.000000000000000e+000 +0.000000000000000e+000   +2.161832612018740e-001 -3.580751198951100e-002   
+1.064200000000000e+011   +2.282987087409250e-001 -4.063429121312100e-002   +0.000000000000000e+000 +0.000000000000000e+000   +0.000000000000000e+000 +0.000000000000000e+000   +2.156840330594620e-001 -3.454293489408890e-002   
+1.065900000000000e+011   +2.277516070590510e-001 -4.014319420974190e-002   +0.000000000000000e+000 +0.000000000000000e+000   +0.000000000000000e+000 +0.000000000000000e+000   +2.152329362702740e-001 -3.326372435656700e-002   
+1.067600000000000e+011   +2.272427950282490e-001 -3.964847198051740e-002   +0.000000000000000e+000 +0.000000000000000e+000   +0.000000000000000e+000 +0.000000000000000e+000   +2.148399871743560e-001 -3.196898426482750e-002   
+1.069300000000000e+011   +2.267829769823840e-001 -3.915069686394600e-002   +0.000000000000000e+000 +0.000000000000000e+000   +0.000000000000000e+000 +0.000000000000000e+000   +2.145275500296700e-001 -3.065996557953400e-002   
+1.071000000000000e+011   +2.263919795313350e-001 -3.865865237838830e-002   +0.000000000000000e+000 +0.000000000000000e+000   +0.000000000000000e+000 +0.000000000000000e+000   +2.143471418448650e-001 -2.936087508392310e-002   
+1.072700000000000e+011   +2.260876303085020e-001 -3.821201665208770e-002   +0.000000000000000e+000 +0.000000000000000e+000   +0.000000000000000e+000 +0.000000000000000e+000   +2.143556363768490e-001 -2.822597786829910e-002   
+1.074400000000000e+011   +2.258549441006460e-001 -3.793785855721500e-002   +0.000000000000000e+000 +0.000000000000000e+000   +0.000000000000000e+000 +0.000000000000000e+000   +2.141729137424510e-001 -2.752516833524340e-002   
+1.076100000000000e+011   +2.253341677680850e-001 -3.804342776302930e-002   +0.000000000000000e+000 +0.000000000000000e+000   +0.000000000000000e+000 +0.000000000000000e+000   +2.134075331475230e-001 -2.658527877141740e-002   
+1.077800000000000e+011   +2.246250414780580e-001 -3.775352735247390e-002   +0.000000000000000e+000 +0.000000000000000e+000   +0.000000000000000e+000 +0.000000000000000e+000   +2.129194559777520e-001 -2.525039484340130e-002   
+1.079500000000000e+011   +2.241553930187810e-001 -3.729556395812670e-002   +0.000000000000000e+000 +0.000000000000000e+000   +0.000000000000000e+000 +0.000000000000000e+000   +2.126746570585870e-001 -2.394802864694180e-002   
+1.081200000000000e+011   +2.237982688840190e-001 -3.685822572229350e-002   +0.000000000000000e+000 +0.000000000000000e+000   +0.000000000000000e+000 +0.000000000000000e+000   +2.125184738575820e-001 -2.269693883927280e-002   
+1.082900000000000e+011   +2.234970772630320e-001 -3.645755255075350e-002   +0.000000000000000e+000 +0.000000000000000e+000   +0.000000000000000e+000 +0.000000000000000e+000   +2.124161301892070e-001 -2.148406730401850e-002   
+1.084600000000000e+011   +2.232351137435570e-001 -3.609028482617920e-002   +0.000000000000000e+000 +0.000000000000000e+000   +0.000000000000000e+000 +0.000000000000000e+000   +2.123582596635350e-001 -2.030422276064860e-002   
+1.086300000000000e+011   +2.230066318635450e-001 -3.575328324307150e-002   +0.000000000000000e+000 +0.000000000000000e+000   +0.000000000000000e+000 +0.000000000000000e+000   +2.123412631391120e-001 -1.915584452842400e-002   
+1.088000000000000e+011   +2.228092350979240e-001 -3.544483020387040e-002   +0.000000000000000e+000 +0.000000000000000e+000   +0.000000000000000e+000 +0.000000000000000e+000   +2.123632592782940e-001 -1.803905464926860e-002   
+1.089700000000000e+011   +2.226416852201080e-001 -3.516419510102010e-002   +0.000000000000000e+000 +0.000000000000000e+000   +0.000000000000000e+000 +0.000000000000000e+000   +2.124229533344050e-001 -1.695483993621050e-002   
+1.091400000000000e+011   +2.225031669931710e-001 -3.491122591762740e-002   +0.000000000000000e+000 +0.000000000000000e+000   +0.000000000000000e+000 +0.000000000000000e+000   +2.125192409503700e-001 -1.590465382533180e-002   
+1.093100000000000e+011   +2.223930076441590e-001 -3.468608876057960e-002   +0.000000000000000e+000 +0.000000000000000e+000   +0.000000000000000e+000 +0.000000000000000e+000   +2.126510468096600e-001 -1.489020065782780e-002   
+1.094800000000000e+011   +2.223105587108380e-001 -3.448910944639020e-002   +0.000000000000000e+000 +0.000000000000000e+000   +0.000000000000000e+000 +0.000000000000000e+000   +2.128172518788900e-001 -1.391330900384280e-002   
+1.096500000000000e+011   +2.222551424059210e-001 -3.432067564856790e-002   +0.000000000000000e+000 +0.000000000000000e+000   +0.000000000000000e+000 +0.000000000000000e+000   +2.130166582835630e-001 -1.297585208549300e-002   
+1.098200000000000e+011   +2.222260263507400e-001 -3.418117445983510e-002   +0.000000000000000e+000 +0.000000000000000e+000   +0.000000000000000e+000 +0.000000000000000e+000   +2.132479717904470e-001 -1.207969435527700e-002   
+1.099900000000000e+011   +2.222224116319250e-001 -3.407095109193420e-002   +0.000000000000000e+000 +0.000000000000000e+000   +0.000000000000000e+000 +0.000000000000000e+000   +2.135097934025460e-001 -1.122665357495930e-002   
+1.101600000000000e+011   +2.222434277604450e-001 -3.399028061239440e-002   +0.000000000000000e+000 +0.000000000000000e+000   +0.000000000000000e+000 +0.000000000000000e+000   +2.138006159815090e-001 -1.041847244711170e-002   
+1.103300000000000e+011   +2.222881315747110e-001 -3.393934804641180e-002   +0.000000000000000e+000 +0.000000000000000e+000   +0.000000000000000e+000 +0.000000000000000e+000   +2.141188241082240e-001 -9.656796302478070e-003   
+1.105000000000000e+011   +2.223555084206850e-001 -3.391823424118970e-002   +0.000000000000000e+000 +0.000000000000000e+000   +0.000000000000000e+000 +0.000000000000000e+000   +2.144626960462760e-001 -8.943155072484360e-003   
+1.106700000000000e+011   +2.224444750039100e-001 -3.392690566447670e-002   +0.000000000000000e+000 +0.000000000000000e+000   +0.000000000000000e+000 +0.000000000000000e+000   +2.148304074377460e-001 -8.278948266042190e-003   
+1.108400000000000e+011   +2.225538833038020e-001 -3.396520729520360e-002   +0.000000000000000e+000 +0.000000000000000e+000   +0.000000000000000e+000 +0.000000000000000e+000   +2.152200363193400e-001 -7.665432348130450e-003   
+1.110100000000000e+011   +2.226825254950650e-001 -3.403285792587630e-002   +0.000000000000000e+000 +0.000000000000000e+000   +0.000000000000000e+000 +0.000000000000000e+000   +2.156295692863980e-001 -7.103710043720050e-003   
+1.111800000000000e+011   +2.228291394400150e-001 -3.412944741416530e-002   +0.000000000000000e+000 +0.000000000000000e+000   +0.000000000000000e+000 +0.000000000000000e+000   +2.160569087262960e-001 -6.594721337207380e-003   
+1.113500000000000e+011   +2.229924149220330e-001 -3.425443567437640e-002   +0.000000000000000e+000 +0.000000000000000e+000   +0.000000000000000e+000 +0.000000000000000e+000   +2.164998809326360e-001 -6.139236053293240e-003   
+1.115200000000000e+011   +2.231710002263030e-001 -3.440715323162960e-002   +0.000000000000000e+000 +0.000000000000000e+000   +0.000000000000000e+000 +0.000000000000000e+000   +2.169562450296950e-001 -5.737847890544040e-003   
+1.116900000000000e+011   +2.233635092462660e-001 -3.458680309107530e-002   +0.000000000000000e+000 +0.000000000000000e+000   +0.000000000000000e+000 +0.000000000000000e+000   +2.174237026836450e-001 -5.390969832094570e-003   
+1.118600000000000e+011   +2.235685287893340e-001 -3.479246381726840e-002   +0.000000000000000e+000 +0.000000000000000e+000   +0.000000000000000e+000 +0.000000000000000e+000   +2.178999084116410e-001 -5.098830969994260e-003   
+1.120300000000000e+011   +2.237846261424630e-001 -3.502309390914270e-002   +0.000000000000000e+000 +0.000000000000000e+000   +0.000000000000000e+000 +0.000000000000000e+000   +2.183824803662130e-001 -4.861474608335910e-003   
+1.122000000000000e+011   +2.240103567166460e-001 -3.527753707878270e-002   +0.000000000000000e+000 +0.000000000000000e+000   +0.000000000000000e+000 +0.000000000000000e+000   +2.188690116041910e-001 -4.678757779547320e-003   
+1.123700000000000e+011   +2.242442717837860e-001 -3.555452847118500e-002   +0.000000000000000e+000 +0.000000000000000e+000   +0.000000000000000e+000 +0.000000000000000e+000   +2.193570816142500e-001 -4.550351857426610e-003   
+1.125400000000000e+011   +2.244849261312710e-001 -3.585270182665590e-002   +0.000000000000000e+000 +0.000000000000000e+000   +0.000000000000000e+000 +0.000000000000000e+000   +2.198442680008860e-001 -4.475744608670260e-003   
+1.127100000000000e+011   +2.247308855933960e-001 -3.617059723207330e-002   +0.000000000000000e+000 +0.000000000000000e+000   +0.000000000000000e+000 +0.000000000000000e+000   +2.203281582951090e-001 -4.454243192821830e-003   
+1.128800000000000e+011   +2.249807343467220e-001 -3.650666959830380e-002   +0.000000000000000e+000 +0.000000000000000e+000   +0.000000000000000e+000 +0.000000000000000e+000   +2.208063616480710e-001 -4.484978502061820e-003   
+1.130500000000000e+011   +2.252330819699950e-001 -3.685929758873040e-002   +0.000000000000000e+000 +0.000000000000000e+000   +0.000000000000000e+000 +0.000000000000000e+000   +2.212765203784860e-001 -4.566910352998030e-003   
+1.132200000000000e+011   +2.254865701060800e-001 -3.722679294841600e-002   +0.000000000000000e+000 +0.000000000000000e+000   +0.000000000000000e+000 +0.000000000000000e+000   +2.217363212546870e-001 -4.698833782483930e-003   
+1.133900000000000e+011   +2.257398787926000e-001 -3.760741010591460e-002   +0.000000000000000e+000 +0.000000000000000e+000   +0.000000000000000e+000 +0.000000000000000e+000   +2.221835063352780e-001 -4.879386116389280e-003   
+1.135600000000000e+011   +2.259917322045800e-001 -3.799935597721710e-002   +0.000000000000000e+000 +0.000000000000000e+000   +0.000000000000000e+000 +0.000000000000000e+000   +2.226158833895000e-001 -5.107054947743110e-003   
+1.137300000000000e+011   +2.262409040584170e-001 -3.840079983466990e-002   +0.000000000000000e+000 +0.000000000000000e+000   +0.000000000000000e+000 +0.000000000000000e+000   +2.230313356932220e-001 -5.380186735013190e-003   
+1.139000000000000e+011   +2.264862223422310e-001 -3.880988302871600e-002   +0.000000000000000e+000 +0.000000000000000e+000   +0.000000000000000e+000 +0.000000000000000e+000   +2.234278311925600e-001 -5.696996009699510e-003   
+1.140700000000000e+011   +2.267265735948480e-001 -3.922472874679200e-002   +0.000000000000000e+000 +0.000000000000000e+000   +0.000000000000000e+000 +0.000000000000000e+000   +2.238034309572960e-001 -6.055575126325540e-003   
+1.142400000000000e+011   +2.269609065551010e-001 -3.964345140255520e-002   +0.000000000000000e+000 +0.000000000000000e+000   +0.000000000000000e+000 +0.000000000000000e+000   +2.241562967943210e-001 -6.453904403523470e-003   
+1.144100000000000e+011   +2.271882352714510e-001 -4.006416572831530e-002   +0.000000000000000e+000 +0.000000000000000e+000   +0.000000000000000e+000 +0.000000000000000e+000   +2.244846981526490e-001 -6.889862530093150e-003   
+1.145800000000000e+011   +2.274076416016150e-001 -4.048499554078720e-002   +0.000000000000000e+000 +0.000000000000000e+000   +0.000000000000000e+000 +0.000000000000000e+000   +2.247870180808560e-001 -7.361237242745700e-003   
+1.147500000000000e+011   +2.276182771770360e-001 -4.090408202820820e-002   +0.000000000000000e+000 +0.000000000000000e+000   +0.000000000000000e+000 +0.000000000000000e+000   +2.250617582845320e-001 -7.865736140642610e-003   
+1.149200000000000e+011   +2.278193648615400e-001 -4.131959146782730e-002   +0.000000000000000e+000 +0.000000000000000e+000   +0.000000000000000e+000 +0.000000000000000e+000   +2.253075434011280e-001 -8.400997427662090e-003   
+1.150900000000000e+011   +2.280101995799020e-001 -4.172972248579120e-002   +0.000000000000000e+000 +0.000000000000000e+000   +0.000000000000000e+000 +0.000000000000000e+000   +2.255231243076170e-001 -8.964600744490680e-003   
+1.152600000000000e+011   +2.281901487664230e-001 -4.213271264767010e-002   +0.000000000000000e+000 +0.000000000000000e+000   +0.000000000000000e+000 +0.000000000000000e+000   +2.257073805513230e-001 -9.554077764011210e-003   
+1.154300000000000e+011   +2.283586522447350e-001 -4.252684449715130e-002   +0.000000000000000e+000 +0.000000000000000e+000   +0.000000000000000e+000 +0.000000000000000e+000   +2.258593219404590e-001 -1.016692271347300e-002   
+1.156000000000000e+011   +2.285152218083770e-001 -4.291045087940690e-002   +0.000000000000000e+000 +0.000000000000000e+000   +0.000000000000000e+000 +0.000000000000000e+000   +2.259780892765120e-001 -1.080060249680050e-002   
+1.157700000000000e+011   +2.286594402902300e-001 -4.328191969242780e-002   +0.000000000000000e+000 +0.000000000000000e+000   +0.000000000000000e+000 +0.000000000000000e+000   +2.260629543846010e-001 -1.145256660117310e-002   
+1.159400000000000e+011   +2.287909603397290e-001 -4.363969801175700e-002   +0.000000000000000e+000 +0.000000000000000e+000   +0.000000000000000e+000 +0.000000000000000e+000   +2.261133191761370e-001 -1.212025665394610e-002   
+1.161100000000000e+011   +2.289095028753490e-001 -4.398229545271030e-002   +0.000000000000000e+000 +0.000000000000000e+000   +0.000000000000000e+000 +0.000000000000000e+000   +2.261287142306260e-001 -1.280111548691130e-002   
+1.162800000000000e+011   +2.290148553063140e-001 -4.430828704024790e-002   +0.000000000000000e+000 +0.000000000000000e+000   +0.000000000000000e+000 +0.000000000000000e+000   +2.261087965679470e-001 -1.349259582306850e-002   
+1.164500000000000e+011   +2.291068694449870e-001 -4.461631544468890e-002   +0.000000000000000e+000 +0.000000000000000e+000   +0.000000000000000e+000 +0.000000000000000e+000   +2.260533468649260e-001 -1.419216845163240e-002   
+1.166200000000000e+011   +2.291854593109800e-001 -4.490509255824580e-002   +0.000000000000000e+000 +0.000000000000000e+000   +0.000000000000000e+000 +0.000000000000000e+000   +2.259622661010290e-001 -1.489732992008370e-002   
+1.167900000000000e+011   +2.292505987326330e-001 -4.517340064250610e-002   +0.000000000000000e+000 +0.000000000000000e+000   +0.000000000000000e+000 +0.000000000000000e+000   +2.258355717160800e-001 -1.560560971321230e-002   
+1.169600000000000e+011   +2.293023188632740e-001 -4.542009280341530e-002   +0.000000000000000e+000 +0.000000000000000e+000   +0.000000000000000e+000 +0.000000000000000e+000   +2.256733933443010e-001 -1.631457681963660e-002   
+1.171300000000000e+011   +2.293407055786750e-001 -4.564409316985070e-002   +0.000000000000000e+000 +0.000000000000000e+000   +0.000000000000000e+000 +0.000000000000000e+000   +2.254759681181800e-001 -1.702184588001310e-002   
+1.173000000000000e+011   +2.293658968363290e-001 -4.584439643604900e-002   +0.000000000000000e+000 +0.000000000000000e+000   +0.000000000000000e+000 +0.000000000000000e+000   +2.252436357535920e-001 -1.772508268584160e-002   
+1.174700000000000e+011   +2.293780800854150e-001 -4.602006709144620e-002   +0.000000000000000e+000 +0.000000000000000e+000   +0.000000000000000e+000 +0.000000000000000e+000   +2.249768332681770e-001 -1.842200912639830e-002   
+1.176400000000000e+011   +2.293774895536550e-001 -4.617023828377260e-002   +0.000000000000000e+000 +0.000000000000000e+000   +0.000000000000000e+000 +0.000000000000000e+000   +2.246760895296840e-001 -1.911040767474800e-002   
+1.178100000000000e+011   +2.293644036476190e-001 -4.629411029244410e-002   +0.000000000000000e+000 +0.000000000000000e+000   +0.000000000000000e+000 +0.000000000000000e+000   +2.243420197226530e-001 -1.978812522055900e-002   
+1.179800000000000e+011   +2.293391424514460e-001 -4.639094873689740e-002   +0.000000000000000e+000 +0.000000000000000e+000   +0.000000000000000e+000 +0.000000000000000e+000   +2.239753195980440e-001 -2.045307645580590e-002   
+1.181500000000000e+011   +2.293020651735210e-001 -4.646008254826370e-002   +0.000000000000000e+000 +0.000000000000000e+000   +0.000000000000000e+000 +0.000000000000000e+000   +2.235767597747290e-001 -2.110324672062510e-002   
+1.183200000000000e+011   +2.292535677805070e-001 -4.650090172003270e-002   +0.000000000000000e+000 +0.000000000000000e+000   +0.000000000000000e+000 +0.000000000000000e+000   +2.231471799556790e-001 -2.173669435706040e-002   
+1.184900000000000e+011   +2.291940807652160e-001 -4.651285478453950e-002   +0.000000000000000e+000 +0.000000000000000e+000   +0.000000000000000e+000 +0.000000000000000e+000   +2.226874832869340e-001 -2.235155252132240e-002   
+1.186600000000000e+011   +2.291240669205650e-001 -4.649544633393270e-002   +0.000000000000000e+000 +0.000000000000000e+000   +0.000000000000000e+000 +0.000000000000000e+000   +2.221986306901170e-001 -2.294603067443460e-002   
+1.188300000000000e+011   +2.290440193850310e-001 -4.644823421589480e-002   +0.000000000000000e+000 +0.000000000000000e+000   +0.000000000000000e+000 +0.000000000000000e+000   +2.216816353883780e-001 -2.351841546710720e-002   
+1.190000000000000e+011   +2.289544597456730e-001 -4.637082683420460e-002   +0.000000000000000e+000 +0.000000000000000e+000   +0.000000000000000e+000 +0.000000000000000e+000   +2.211375575573010e-001 -2.406707137486810e-002   
+1.191700000000000e+011   +2.288559362978600e-001 -4.626288029533320e-002   +0.000000000000000e+000 +0.000000000000000e+000   +0.000000000000000e+000 +0.000000000000000e+000   +2.205674991595160e-001 -2.459044086013530e-002   
+1.193400000000000e+011   +2.287490225553370e-001 -4.612409555799930e-002   +0.000000000000000e+000 +0.000000000000000e+000   +0.000000000000000e+000 +0.000000000000000e+000   +2.199725990124840e-001 -2.508704415150010e-002   
+1.195100000000000e+011   +2.286343158147610e-001 -4.595421563805700e-002   +0.000000000000000e+000 +0.000000000000000e+000   +0.000000000000000e+000 +0.000000000000000e+000   +2.193540280518490e-001 -2.555547882845850e-002   
+1.196800000000000e+011   +2.285124359997240e-001 -4.575302281964070e-002   +0.000000000000000e+000 +0.000000000000000e+000   +0.000000000000000e+000 +0.000000000000000e+000   +2.187129849030570e-001 -2.599441896991760e-002   
+1.198500000000000e+011   +2.283840246563840e-001 -4.552033592443990e-002   +0.000000000000000e+000 +0.000000000000000e+000   +0.000000000000000e+000 +0.000000000000000e+000   +2.180506916986060e-001 -2.640261413054000e-002   
+1.200200000000000e+011   +2.282497440594480e-001 -4.525600770688410e-002   +0.000000000000000e+000 +0.000000000000000e+000   +0.000000000000000e+000 +0.000000000000000e+000   +2.173683901961400e-001 -2.677888806458960e-002   
+1.201900000000000e+011   +2.281102766798000e-001 -4.495992237120130e-002   +0.000000000000000e+000 +0.000000000000000e+000   +0.000000000000000e+000 +0.000000000000000e+000   +2.166673382170170e-001 -2.712213727391460e-002   
+1.203600000000000e+011   +2.279663247572440e-001 -4.463199317087370e-002   +0.000000000000000e+000 +0.000000000000000e+000   +0.000000000000000e+000 +0.000000000000000e+000   +2.159488064017610e-001 -2.743132934387130e-002   
+1.205300000000000e+011   +2.278186101000430e-001 -4.427216028172790e-002   +0.000000000000000e+000 +0.000000000000000e+000   +0.000000000000000e+000 +0.000000000000000e+000   +2.152140753226400e-001 -2.770550128134450e-002   
+1.207000000000000e+011   +2.276678741887670e-001 -4.388038875569180e-002   +0.000000000000000e+000 +0.000000000000000e+000   +0.000000000000000e+000 +0.000000000000000e+000   +2.144644329441390e-001 -2.794375767250550e-002   
+1.208700000000000e+011   +2.275148785204870e-001 -4.345666686331930e-002   +0.000000000000000e+000 +0.000000000000000e+000   +0.000000000000000e+000 +0.000000000000000e+000   +2.137011724496390e-001 -2.814526893775760e-002   
+1.210400000000000e+011   +2.273604053311440e-001 -4.300100453183390e-002   +0.000000000000000e+000 +0.000000000000000e+000   +0.000000000000000e+000 +0.000000000000000e+000   +2.129255905227400e-001 -2.830926951930340e-002   
+1.212100000000000e+011   +2.272052586415580e-001 -4.251343228724460e-002   +0.000000000000000e+000 +0.000000000000000e+000   +0.000000000000000e+000 +0.000000000000000e+000   +2.121389860421470e-001 -2.843505632290850e-002   
+1.213800000000000e+011   +2.270502659370990e-001 -4.199400043219590e-002   +0.000000000000000e+000 +0.000000000000000e+000   +0.000000000000000e+000 +0.000000000000000e+000   +2.113426593221970e-001 -2.852198728867730e-002   
+1.215500000000000e+011   +2.268962803836140e-001 -4.144277885147190e-002   +0.000000000000000e+000 +0.000000000000000e+000   +0.000000000000000e+000 +0.000000000000000e+000   +2.105379119127640e-001 -2.856948036437840e-002   
+1.217200000000000e+011   +2.267441841421660e-001 -4.085985730253320e-002   +0.000000000000000e+000 +0.000000000000000e+000   +0.000000000000000e+000 +0.000000000000000e+000   +2.097260472738740e-001 -2.857701300558970e-002   
+1.218900000000000e+011   +2.265948929411230e-001 -4.024534658289790e-002   +0.000000000000000e+000 +0.000000000000000e+000   +0.000000000000000e+000 +0.000000000000000e+000   +2.089083724088740e-001 -2.854412242875670e-002   
+1.220600000000000e+011   +2.264493627039640e-001 -3.959938071907830e-002   +0.000000000000000e+000 +0.000000000000000e+000   +0.000000000000000e+000 +0.000000000000000e+000   +2.080862009509800e-001 -2.847040705686660e-002   
+1.222300000000000e+011   +2.263085994167440e-001 -3.892212064555090e-002   +0.000000000000000e+000 +0.000000000000000e+000   +0.000000000000000e+000 +0.000000000000000e+000   +2.072608585165240e-001 -2.835552966030760e-002   
+1.224000000000000e+011   +2.261736740290000e-001 -3.821375985562580e-002   +0.000000000000000e+000 +0.000000000000000e+000   +0.000000000000000e+000 +0.000000000000000e+000   +2.064336915024800e-001 -2.819922296492740e-002   
+1.225700000000000e+011   +2.260457458436040e-001 -3.747453304200560e-002   +0.000000000000000e+000 +0.000000000000000e+000   +0.000000000000000e+000 +0.000000000000000e+000   +2.056060817074330e-001 -2.800129915387350e-002   
+1.227400000000000e+011   +2.259261004351370e-001 -3.670472876430250e-002   +0.000000000000000e+000 +0.000000000000000e+000   +0.000000000000000e+000 +0.000000000000000e+000   +2.047794710641730e-001 -2.776166501609260e-002   
+1.229100000000000e+011   +2.258162134161630e-001 -3.590470770346610e-002   +0.000000000000000e+000 +0.000000000000000e+000   +0.000000000000000e+000 +0.000000000000000e+000   +2.039554049213010e-001 -2.748034547098260e-002   
+1.230800000000000e+011   +2.257178615791650e-001 -3.507492711676400e-002   +0.000000000000000e+000 +0.000000000000000e+000   +0.000000000000000e+000 +0.000000000000000e+000   +2.031356106117140e-001 -2.715751863070910e-002   
+1.232500000000000e+011   +2.256333231386300e-001 -3.421596731307520e-002   +0.000000000000000e+000 +0.000000000000000e+000   +0.000000000000000e+000 +0.000000000000000e+000   +2.023221459406870e-001 -2.679356223066710e-002   
+1.234200000000000e+011   +2.255657452977230e-001 -3.332853324196830e-002   +0.000000000000000e+000 +0.000000000000000e+000   +0.000000000000000e+000 +0.000000000000000e+000   +2.015176900087850e-001 -2.638909187389130e-002   
+1.235900000000000e+011   +2.255197995247520e-001 -3.241331282355050e-002   +0.000000000000000e+000 +0.000000000000000e+000   +0.000000000000000e+000 +0.000000000000000e+000   +2.007261179951230e-001 -2.594488066188690e-002   
+1.237600000000000e+011   +2.255026116123290e-001 -3.147020796756430e-002   +0.000000000000000e+000 +0.000000000000000e+000   +0.000000000000000e+000 +0.000000000000000e+000   +1.999535391529560e-001 -2.546115509753860e-002   
+1.239300000000000e+011   +2.255233209537670e-001 -3.049513885479160e-002   +0.000000000000000e+000 +0.000000000000000e+000   +0.000000000000000e+000 +0.000000000000000e+000   +1.992091998851910e-001 -2.493422069413310e-002   
+1.241000000000000e+011   +2.255803258658010e-001 -2.947024955863340e-002   +0.000000000000000e+000 +0.000000000000000e+000   +0.000000000000000e+000 +0.000000000000000e+000   +1.984992211877420e-001 -2.434491746691850e-002   
+1.242700000000000e+011   +2.256139184090970e-001 -2.835983549870250e-002   +0.000000000000000e+000 +0.000000000000000e+000   +0.000000000000000e+000 +0.000000000000000e+000   +1.977906756280030e-001 -2.364937091036380e-002   
+1.244400000000000e+011   +2.255400403065330e-001 -2.718238625501600e-002   +0.000000000000000e+000 +0.000000000000000e+000   +0.000000000000000e+000 +0.000000000000000e+000   +1.970101214968730e-001 -2.285754114052680e-002   
+1.246100000000000e+011   +2.254389667254040e-001 -2.601705480021910e-002   +0.000000000000000e+000 +0.000000000000000e+000   +0.000000000000000e+000 +0.000000000000000e+000   +1.961906048857140e-001 -2.205987952618990e-002   
+1.247800000000000e+011   +2.253988674296390e-001 -2.486628592628760e-002   +0.000000000000000e+000 +0.000000000000000e+000   +0.000000000000000e+000 +0.000000000000000e+000   +1.954013763279430e-001 -2.126783450378750e-002   
+1.249500000000000e+011   +2.254190997151030e-001 -2.370329134714340e-002   +0.000000000000000e+000 +0.000000000000000e+000   +0.000000000000000e+000 +0.000000000000000e+000   +1.946527263082100e-001 -2.045305585694480e-002   
+1.251200000000000e+011   +2.254838941468830e-001 -2.251559070575260e-002   +0.000000000000000e+000 +0.000000000000000e+000   +0.000000000000000e+000 +0.000000000000000e+000   +1.939373902665990e-001 -1.960047899790680e-002   
+1.252900000000000e+011   +2.255843488713030e-001 -2.129958966656330e-002   +0.000000000000000e+000 +0.000000000000000e+000   +0.000000000000000e+000 +0.000000000000000e+000   +1.932500808913290e-001 -1.870500213450080e-002   
+1.254600000000000e+011   +2.257168046535880e-001 -2.005470089150130e-002   +0.000000000000000e+000 +0.000000000000000e+000   +0.000000000000000e+000 +0.000000000000000e+000   +1.925884923266760e-001 -1.776519590613630e-002   
+1.256300000000000e+011   +2.258802377634860e-001 -1.878123781241970e-002   +0.000000000000000e+000 +0.000000000000000e+000   +0.000000000000000e+000 +0.000000000000000e+000   +1.919520588973230e-001 -1.678083485879480e-002   
+1.258000000000000e+011   +2.260749044017990e-001 -1.747977181930830e-002   +0.000000000000000e+000 +0.000000000000000e+000   +0.000000000000000e+000 +0.000000000000000e+000   +1.913411351998930e-001 -1.575208377802400e-002   
+1.259700000000000e+011   +2.263017141658370e-001 -1.615094518014230e-002   +0.000000000000000e+000 +0.000000000000000e+000   +0.000000000000000e+000 +0.000000000000000e+000   +1.907565759332020e-001 -1.467923521511610e-002   
+1.261400000000000e+011   +2.265619383579060e-001 -1.479542250978280e-002   +0.000000000000000e+000 +0.000000000000000e+000   +0.000000000000000e+000 +0.000000000000000e+000   +1.901995270313790e-001 -1.356262660104200e-002   
+1.263100000000000e+011   +2.268570694204790e-001 -1.341388447597520e-002   +0.000000000000000e+000 +0.000000000000000e+000   +0.000000000000000e+000 +0.000000000000000e+000   +1.896713200448740e-001 -1.240261732407960e-002   
+1.264800000000000e+011   +2.271887508041530e-001 -1.200703379546620e-002   +0.000000000000000e+000 +0.000000000000000e+000   +0.000000000000000e+000 +0.000000000000000e+000   +1.891734175366490e-001 -1.119958612325620e-002   
+1.266500000000000e+011   +2.275587408879580e-001 -1.057560437326330e-002   +0.000000000000000e+000 +0.000000000000000e+000   +0.000000000000000e+000 +0.000000000000000e+000   +1.887073845412140e-001 -9.953935375052140e-003   
+1.268200000000000e+011   +2.279688944466750e-001 -9.120370808830660e-003   +0.000000000000000e+000 +0.000000000000000e+000   +0.000000000000000e+000 +0.000000000000000e+000   +1.882748738100840e-001 -8.666097710367750e-003   
+1.269900000000000e+011   +2.284211533345310e-001 -7.642157560509240e-003   +0.000000000000000e+000 +0.000000000000000e+000   +0.000000000000000e+000 +0.000000000000000e+000   +1.878776187320710e-001 -7.336543257527300e-003   
+1.271600000000000e+011   +2.289175423019320e-001 -6.141847870452900e-003   +0.000000000000000e+000 +0.000000000000000e+000   +0.000000000000000e+000 +0.000000000000000e+000   +1.875174306016440e-001 -5.965787153735020e-003   
+1.273300000000000e+011   +2.294601677033650e-001 -4.620392603985780e-003   +0.000000000000000e+000 +0.000000000000000e+000   +0.000000000000000e+000 +0.000000000000000e+000   +1.871961985025680e-001 -4.554397443084100e-003   
+1.275000000000000e+011   +2.300512179382960e-001 -3.078819226828520e-003   +0.000000000000000e+000 +0.000000000000000e+000   +0.000000000000000e+000 +0.000000000000000e+000   +1.869158906565190e-001 -3.103003151179700e-003   
+1.276700000000000e+011   +2.306929648548160e-001 -1.518241092979880e-003   +0.000000000000000e+000 +0.000000000000000e+000   +0.000000000000000e+000 +0.000000000000000e+000   +1.866785567824220e-001 -1.612302862852110e-003   
+1.278400000000000e+011   +2.313877656471430e-001 +6.013274264731180e-005   +0.000000000000000e+000 +0.000000000000000e+000   +0.000000000000000e+000 +0.000000000000000e+000   +1.864863309395390e-001 -8.307390512909380e-005   
+1.280100000000000e+011   +2.321380650484210e-001 +1.654987033599180e-003   +0.000000000000000e+000 +0.000000000000000e+000   +0.000000000000000e+000 +0.000000000000000e+000   +1.863414345257800e-001 +1.483817782357510e-003   
+1.281800000000000e+011   +2.329463973919500e-001 +3.264889063119870e-003   +0.000000000000000e+000 +0.000000000000000e+000   +0.000000000000000e+000 +0.000000000000000e+000   +1.862461794263310e-001 +3.087407043796580e-003   
+1.283500000000000e+011   +2.338153885795480e-001 +4.888276552232450e-003   +0.000000000000000e+000 +0.000000000000000e+000   +0.000000000000000e+000 +0.000000000000000e+000   +1.862029709630580e-001 +4.726618010531250e-003   
+1.285200000000000e+011   +2.347477575347420e-001 +6.523444472803960e-003   +0.000000000000000e+000 +0.000000000000000e+000   +0.000000000000000e+000 +0.000000000000000e+000   +1.862143104764220e-001 +6.400251632996980e-003   
+1.286900000000000e+011   +2.357463171284010e-001 +8.168530918693050e-003   +0.000000000000000e+000 +0.000000000000000e+000   +0.000000000000000e+000 +0.000000000000000e+000   +1.862827975393190e-001 +8.106972293040980e-003   
+1.288600000000000e+011   +2.368139743273200e-001 +9.821501719469630e-003   +0.000000000000000e+000 +0.000000000000000e+000   +0.000000000000000e+000 +0.000000000000000e+000   +1.864111314283810e-001 +9.845293293647650e-003   
+1.290300000000000e+011   +2.379537292391070e-001 +1.148013398522360e-002   +0.000000000000000e+000 +0.000000000000000e+000   +0.000000000000000e+000 +0.000000000000000e+000   +1.866021118380210e-001 +1.161356133363180e-002   
+1.292000000000000e+011   +2.391686730145050e-001 +1.314199834372090e-002   +0.000000000000000e+000 +0.000000000000000e+000   +0.000000000000000e+000 +0.000000000000000e+000   +1.868586385875040e-001 +1.340993986254100e-002   
+1.293700000000000e+011   +2.404619841810370e-001 +1.480444000942580e-002   +0.000000000000000e+000 +0.000000000000000e+000   +0.000000000000000e+000 +0.000000000000000e+000   +1.871837100248600e-001 +1.523239140294920e-002   
+1.295400000000000e+011   +2.418369231553770e-001 +1.646455865472170e-002   +0.000000000000000e+000 +0.000000000000000e+000   +0.000000000000000e+000 +0.000000000000000e+000   +1.875804200897580e-001 +1.707865882191880e-002   
+1.297100000000000e+011   +2.432968246396360e-001 +1.811918696116310e-002   +0.000000000000000e+000 +0.000000000000000e+000   +0.000000000000000e+000 +0.000000000000000e+000   +1.880519535208000e-001 +1.894624556073900e-002   
+1.298800000000000e+011   +2.448450875235230e-001 +1.976486825836780e-002   +0.000000000000000e+000 +0.000000000000000e+000   +0.000000000000000e+000 +0.000000000000000e+000   +1.886015791369200e-001 +2.083239509174190e-002   
+1.300500000000000e+011   +2.464851618029930e-001 +2.139783297310980e-002   +0.000000000000000e+000 +0.000000000000000e+000   +0.000000000000000e+000 +0.000000000000000e+000   +1.892326407469750e-001 +2.273406951968030e-002   
+1.302200000000000e+011   +2.482205323111460e-001 +2.301397442272080e-002   +0.000000000000000e+000 +0.000000000000000e+000   +0.000000000000000e+000 +0.000000000000000e+000   +1.899485453980130e-001 +2.464792773666790e-002   
+1.303900000000000e+011   +2.500546984955510e-001 +2.460882376924550e-002   +0.000000000000000e+000 +0.000000000000000e+000   +0.000000000000000e+000 +0.000000000000000e+000   +1.907527486050000e-001 +2.657030316699340e-002   
+1.305600000000000e+011   +2.519911499984720e-001 +2.617752485148300e-002   +0.000000000000000e+000 +0.000000000000000e+000   +0.000000000000000e+000 +0.000000000000000e+000   +1.916487361354420e-001 +2.849718157055290e-002   
+1.307300000000000e+011   +2.540333374481270e-001 +2.771480890807790e-002   +0.000000000000000e+000 +0.000000000000000e+000   +0.000000000000000e+000 +0.000000000000000e+000   +1.926400019870310e-001 +3.042417917189740e-002   
+1.309000000000000e+011   +2.561846378102180e-001 +2.921496972698970e-002   +0.000000000000000e+000 +0.000000000000000e+000   +0.000000000000000e+000 +0.000000000000000e+000   +1.937300221900160e-001 +3.234652167848620e-002   
+1.310700000000000e+011   +2.584483140234680e-001 +3.067183990767280e-002   +0.000000000000000e+000 +0.000000000000000e+000   +0.000000000000000e+000 +0.000000000000000e+000   +1.949222238943150e-001 +3.425902462513080e-002   
+1.312400000000000e+011   +2.608274681309340e-001 +3.207876854779720e-002   +0.000000000000000e+000 +0.000000000000000e+000   +0.000000000000000e+000 +0.000000000000000e+000   +1.962199495741800e-001 +3.615607574841400e-002   
+1.314100000000000e+011   +2.633249877415680e-001 +3.342860149367430e-002   +0.000000000000000e+000 +0.000000000000000e+000   +0.000000000000000e+000 +0.000000000000000e+000   +1.976264158504540e-001 +3.803162017844650e-002   
+1.315800000000000e+011   +2.659434851114230e-001 +3.471366467736740e-002   +0.000000000000000e+000 +0.000000000000000e+000   +0.000000000000000e+000 +0.000000000000000e+000   +1.991446667515950e-001 +3.987914916928570e-002   
+1.317500000000000e+011   +2.686852288341360e-001 +3.592575162807840e-002   +0.000000000000000e+000 +0.000000000000000e+000   +0.000000000000000e+000 +0.000000000000000e+000   +2.007775212201500e-001 +4.169169342211660e-002   
+1.319200000000000e+011   +2.715520678248330e-001 +3.705611638646550e-002   +0.000000000000000e+000 +0.000000000000000e+000   +0.000000000000000e+000 +0.000000000000000e+000   +2.025275149318060e-001 +4.346182198853650e-002   
+1.320900000000000e+011   +2.745453477617140e-001 +3.809547271222700e-002   +0.000000000000000e+000 +0.000000000000000e+000   +0.000000000000000e+000 +0.000000000000000e+000   +2.043968365030250e-001 +4.518164777704820e-002   
+1.322600000000000e+011   +2.776658202087510e-001 +3.903400112818780e-002   +0.000000000000000e+000 +0.000000000000000e+000   +0.000000000000000e+000 +0.000000000000000e+000   +2.063872586229030e-001 +4.684284096990360e-002   
+1.324300000000000e+011   +2.809135450539430e-001 +3.986136495430990e-002   +0.000000000000000e+000 +0.000000000000000e+000   +0.000000000000000e+000 +0.000000000000000e+000   +2.085000647613300e-001 +4.843665136362830e-002   
+1.326000000000000e+011   +2.842877873296390e-001 +4.056673663771440e-002   +0.000000000000000e+000 +0.000000000000000e+000   +0.000000000000000e+000 +0.000000000000000e+000   +2.107359727900880e-001 +4.995394071862210e-002   
+1.327700000000000e+011   +2.877869096000810e-001 +4.113883574668940e-002   +0.000000000000000e+000 +0.000000000000000e+000   +0.000000000000000e+000 +0.000000000000000e+000   +2.130950570037540e-001 +5.138522635121170e-002   
+1.329400000000000e+011   +2.914082619002000e-001 +4.156597951243520e-002   +0.000000000000000e+000 +0.000000000000000e+000   +0.000000000000000e+000 +0.000000000000000e+000   +2.155766709612070e-001 +5.272073635726350e-002   
+1.331100000000000e+011   +2.951480714847330e-001 +4.183614681546640e-002   +0.000000000000000e+000 +0.000000000000000e+000   +0.000000000000000e+000 +0.000000000000000e+000   +2.181793742501230e-001 +5.395047731058740e-002   
+1.332800000000000e+011   +2.990013348758840e-001 +4.193705558770720e-002   +0.000000000000000e+000 +0.000000000000000e+000   +0.000000000000000e+000 +0.000000000000000e+000   +2.209008671478760e-001 +5.506431378931920e-002   
+1.334500000000000e+011   +3.029617154091580e-001 +4.185625341110860e-002   +0.000000000000000e+000 +0.000000000000000e+000   +0.000000000000000e+000 +0.000000000000000e+000   +2.237379388271180e-001 +5.605205907374020e-002   
+1.336200000000000e+011   +3.070214489480570e-001 +4.158121904762080e-002   +0.000000000000000e+000 +0.000000000000000e+000   +0.000000000000000e+000 +0.000000000000000e+000   +2.266864360035640e-001 +5.690357392643090e-002   
+1.337900000000000e+011   +3.111712600600680e-001 +4.109947146896450e-002   +0.000000000000000e+000 +0.000000000000000e+000   +0.000000000000000e+000 +0.000000000000000e+000   +2.297412617212560e-001 +5.760886833329010e-002   
+1.339600000000000e+011   +3.154002887400490e-001 +4.039867992089290e-002   +0.000000000000000e+000 +0.000000000000000e+000   +0.000000000000000e+000 +0.000000000000000e+000   +2.328964168841700e-001 +5.815819563735730e-002   
+1.341300000000000e+011   +3.196960230433710e-001 +3.946676485045890e-002   +0.000000000000000e+000 +0.000000000000000e+000   +0.000000000000000e+000 +0.000000000000000e+000   +2.361451012459880e-001 +5.854211942748490e-002   
+1.343000000000000e+011   +3.240442224149160e-001 +3.829197469696970e-002   +0.000000000000000e+000 +0.000000000000000e+000   +0.000000000000000e+000 +0.000000000000000e+000   +2.394798945075530e-001 +5.875151479312240e-002   
+1.344700000000000e+011   +3.284287924394960e-001 +3.686292072335080e-002   +0.000000000000000e+000 +0.000000000000000e+000   +0.000000000000000e+000 +0.000000000000000e+000   +2.428930363695050e-001 +5.877742826610770e-002   
+1.346400000000000e+011   +3.328315204675900e-001 +3.516855820465660e-002   +0.000000000000000e+000 +0.000000000000000e+000   +0.000000000000000e+000 +0.000000000000000e+000   +2.463767994249750e-001 +5.861064566073830e-002   
+1.348100000000000e+011   +3.372314715193170e-001 +3.319815594576640e-002   +0.000000000000000e+000 +0.000000000000000e+000   +0.000000000000000e+000 +0.000000000000000e+000   +2.499238365913650e-001 +5.824067591705070e-002   
+1.349800000000000e+011   +3.416036367799290e-001 +3.094150265677820e-002   +0.000000000000000e+000 +0.000000000000000e+000   +0.000000000000000e+000 +0.000000000000000e+000   +2.535269959123040e-001 +5.765364457570650e-002   
+1.351500000000000e+011   +3.459161870483120e-001 +2.839027406942790e-002   +0.000000000000000e+000 +0.000000000000000e+000   +0.000000000000000e+000 +0.000000000000000e+000   +2.571769345183770e-001 +5.682855289148970e-002   
+1.353200000000000e+011   +3.501262227253410e-001 +2.554314933745070e-002   +0.000000000000000e+000 +0.000000000000000e+000   +0.000000000000000e+000 +0.000000000000000e+000   +2.608532348023190e-001 +5.573299571562990e-002   
+1.354900000000000e+011   +3.541787053523870e-001 +2.241881779352170e-002   +0.000000000000000e+000 +0.000000000000000e+000   +0.000000000000000e+000 +0.000000000000000e+000   +2.645031677032430e-001 +5.432753186180640e-002   
+1.356600000000000e+011   +3.580260618992950e-001 +1.907121725942830e-002   +0.000000000000000e+000 +0.000000000000000e+000   +0.000000000000000e+000 +0.000000000000000e+000   +2.680210141854700e-001 +5.260283111596530e-002   
+1.358300000000000e+011   +3.616762724171370e-001 +1.556672463972750e-002   +0.000000000000000e+000 +0.000000000000000e+000   +0.000000000000000e+000 +0.000000000000000e+000   +2.712960076027440e-001 +5.064222882220290e-002   
+1.360000000000000e+011   +3.651927771589790e-001 +1.191035602977940e-002   +0.000000000000000e+000 +0.000000000000000e+000   +0.000000000000000e+000 +0.000000000000000e+000   +2.743347620538860e-001 +4.858535035904010e-002   
+1.361700000000000e+011   +3.686045472091960e-001 +8.043105144237530e-003   +0.000000000000000e+000 +0.000000000000000e+000   +0.000000000000000e+000 +0.000000000000000e+000   +2.772473773630620e-001 +4.648723136626740e-002   
+1.363400000000000e+011   +3.718739366598150e-001 +3.922120119545850e-003   +0.000000000000000e+000 +0.000000000000000e+000   +0.000000000000000e+000 +0.000000000000000e+000   +2.801076950676810e-001 +4.430699237713520e-002   
+1.365100000000000e+011   +3.749441020586020e-001 -4.521104884055230e-004   +0.000000000000000e+000 +0.000000000000000e+000   +0.000000000000000e+000 +0.000000000000000e+000   +2.829180385518250e-001 +4.199409968191980e-002   
+1.366800000000000e+011   +3.777693608614040e-001 -5.056476908262640e-003   +0.000000000000000e+000 +0.000000000000000e+000   +0.000000000000000e+000 +0.000000000000000e+000   +2.856500823484630e-001 +3.952466427769880e-002   
+1.368500000000000e+011   +3.803174940859650e-001 -9.861961768059990e-003   +0.000000000000000e+000 +0.000000000000000e+000   +0.000000000000000e+000 +0.000000000000000e+000   +2.882730269069230e-001 +3.689613292322000e-002   
+1.370200000000000e+011   +3.825652390573700e-001 -1.483918468044250e-002   +0.000000000000000e+000 +0.000000000000000e+000   +0.000000000000000e+000 +0.000000000000000e+000   +2.907616261194980e-001 +3.411697000395230e-002   
+1.371900000000000e+011   +3.844949820737690e-001 -1.995923369393200e-002   +0.000000000000000e+000 +0.000000000000000e+000   +0.000000000000000e+000 +0.000000000000000e+000   +2.930965464309180e-001 +3.120060432737870e-002   
+1.373600000000000e+011   +3.860931464677690e-001 -2.519339696572490e-002   +0.000000000000000e+000 +0.000000000000000e+000   +0.000000000000000e+000 +0.000000000000000e+000   +2.952631891836090e-001 +2.816262815946440e-002   
+1.375300000000000e+011   +3.873495361524880e-001 -3.051288127999230e-002   +0.000000000000000e+000 +0.000000000000000e+000   +0.000000000000000e+000 +0.000000000000000e+000   +2.972506280559320e-001 +2.501956868239480e-002   
+1.377000000000000e+011   +3.882571068081100e-001 -3.588871548701460e-002   +0.000000000000000e+000 +0.000000000000000e+000   +0.000000000000000e+000 +0.000000000000000e+000   +2.990508854331940e-001 +2.178832389683930e-002   
+1.378700000000000e+011   +3.888118980031030e-001 -4.129181800891540e-002   +0.000000000000000e+000 +0.000000000000000e+000   +0.000000000000000e+000 +0.000000000000000e+000   +3.006584645081250e-001 +1.848586501834590e-002   
+1.380400000000000e+011   +3.890130034935490e-001 -4.669317481659450e-002   +0.000000000000000e+000 +0.000000000000000e+000   +0.000000000000000e+000 +0.000000000000000e+000   +3.020700360394360e-001 +1.512904504074030e-002   
+1.382100000000000e+011   +3.888625259823170e-001 -5.206408374101350e-002   +0.000000000000000e+000 +0.000000000000000e+000   +0.000000000000000e+000 +0.000000000000000e+000   +3.032842093791040e-001 +1.173445139812820e-002   
+1.383800000000000e+011   +3.883654932365590e-001 -5.737643253491760e-002   +0.000000000000000e+000 +0.000000000000000e+000   +0.000000000000000e+000 +0.000000000000000e+000   +3.043013464650520e-001 +8.318280310377570e-003   
+1.385500000000000e+011   +3.875297269424500e-001 -6.260298718246930e-002   +0.000000000000000e+000 +0.000000000000000e+000   +0.000000000000000e+000 +0.000000000000000e+000   +3.051233962842130e-001 +4.896225904326460e-003   
+1.387200000000000e+011   +3.863656622247110e-001 -6.771767291701720e-002   +0.000000000000000e+000 +0.000000000000000e+000   +0.000000000000000e+000 +0.000000000000000e+000   +3.057537386868180e-001 +1.483382982857270e-003   
+1.388900000000000e+011   +3.848861186369760e-001 -7.269583345763770e-002   +0.000000000000000e+000 +0.000000000000000e+000   +0.000000000000000e+000 +0.000000000000000e+000   +3.061970337835270e-001 -1.905836132271230e-003   
+1.390600000000000e+011   +3.831060231649710e-001 -7.751445657404720e-002   +0.000000000000000e+000 +0.000000000000000e+000   +0.000000000000000e+000 +0.000000000000000e+000   +3.064590770857000e-001 -5.257769088423280e-003   
+1.392300000000000e+011   +3.810420852621350e-001 -8.215235418288170e-002   +0.000000000000000e+000 +0.000000000000000e+000   +0.000000000000000e+000 +0.000000000000000e+000   +3.065466633702590e-001 -8.559553969595520e-003   
+1.394000000000000e+011   +3.787124188813570e-001 -8.659028577237190e-002   +0.000000000000000e+000 +0.000000000000000e+000   +0.000000000000000e+000 +0.000000000000000e+000   +3.064674644746400e-001 -1.179916040753150e-002   
+1.395700000000000e+011   +3.761360968180130e-001 -9.081101197548000e-002   +0.000000000000000e+000 +0.000000000000000e+000   +0.000000000000000e+000 +0.000000000000000e+000   +3.062299293993830e-001 -1.496539679749460e-002   
+1.397400000000000e+011   +3.733326037916290e-001 -9.479926127790300e-002   +0.000000000000000e+000 +0.000000000000000e+000   +0.000000000000000e+000 +0.000000000000000e+000   +3.058432185580770e-001 -1.804788424728060e-002   
+1.399100000000000e+011   +3.703211115194130e-001 -9.854158875951130e-002   +0.000000000000000e+000 +0.000000000000000e+000   +0.000000000000000e+000 +0.000000000000000e+000   +3.053171923621630e-001 -2.103697692200550e-002   
+1.400800000000000e+011   +3.671194053927980e-001 -1.020261005539000e-001   +0.000000000000000e+000 +0.000000000000000e+000   +0.000000000000000e+000 +0.000000000000000e+000   +3.046624878897110e-001 -2.392358077297810e-002   
+1.402500000000000e+011   +3.637420649185750e-001 -1.052420368983750e-001   +0.000000000000000e+000 +0.000000000000000e+000   +0.000000000000000e+000 +0.000000000000000e+000   +3.038907427141240e-001 -2.669875303630070e-002   
+1.404200000000000e+011   +3.601969173178850e-001 -1.081793488606310e-001   +0.000000000000000e+000 +0.000000000000000e+000   +0.000000000000000e+000 +0.000000000000000e+000   +3.030150586246970e-001 -2.935277019811800e-002   
+1.405900000000000e+011   +3.564771741671770e-001 -1.108291881173010e-001   +0.000000000000000e+000 +0.000000000000000e+000   +0.000000000000000e+000 +0.000000000000000e+000   +3.020507658704430e-001 -3.187275367153310e-002   
+1.407600000000000e+011   +3.525421086704680e-001 -1.131904971711120e-001   +0.000000000000000e+000 +0.000000000000000e+000   +0.000000000000000e+000 +0.000000000000000e+000   +3.010158004253970e-001 -3.423593953159990e-002   
+1.409300000000000e+011   +3.482695666841900e-001 -1.153127234838430e-001   +0.000000000000000e+000 +0.000000000000000e+000   +0.000000000000000e+000 +0.000000000000000e+000   +2.999233259041640e-001 -3.638906897524630e-002   
+1.411000000000000e+011   +3.434177505497000e-001 -1.175410972910540e-001   +0.000000000000000e+000 +0.000000000000000e+000   +0.000000000000000e+000 +0.000000000000000e+000   +2.987079377517450e-001 -3.820010074998080e-002   
+1.412700000000000e+011   +3.385985477612250e-001 -1.210564327707820e-001   +0.000000000000000e+000 +0.000000000000000e+000   +0.000000000000000e+000 +0.000000000000000e+000   +2.969213684065280e-001 -3.966941911306610e-002   
+1.414400000000000e+011   +3.362803424895670e-001 -1.243854662906130e-001   +0.000000000000000e+000 +0.000000000000000e+000   +0.000000000000000e+000 +0.000000000000000e+000   +2.947202067347910e-001 -4.174472718377990e-002   
+1.416100000000000e+011   +3.339519311721490e-001 -1.254816432399650e-001   +0.000000000000000e+000 +0.000000000000000e+000   +0.000000000000000e+000 +0.000000000000000e+000   +2.931011427680340e-001 -4.397695672201490e-002   
+1.417800000000000e+011   +3.307520709608990e-001 -1.260658624394450e-001   +0.000000000000000e+000 +0.000000000000000e+000   +0.000000000000000e+000 +0.000000000000000e+000   +2.916441948644580e-001 -4.585593997011450e-002   
+1.419500000000000e+011   +3.272311353003130e-001 -1.265747044675150e-001   +0.000000000000000e+000 +0.000000000000000e+000   +0.000000000000000e+000 +0.000000000000000e+000   +2.901500519145740e-001 -4.747741077465780e-002   
+1.421200000000000e+011   +3.236259768768300e-001 -1.269980470333540e-001   +0.000000000000000e+000 +0.000000000000000e+000   +0.000000000000000e+000 +0.000000000000000e+000   +2.886018119255990e-001 -4.891179907512010e-002   
+1.422900000000000e+011   +3.200223809373610e-001 -1.273040308093530e-001   +0.000000000000000e+000 +0.000000000000000e+000   +0.000000000000000e+000 +0.000000000000000e+000   +2.870092681080470e-001 -5.018930075449470e-002   
+1.424600000000000e+011   +3.164572217036430e-001 -1.274761865596370e-001   +0.000000000000000e+000 +0.000000000000000e+000   +0.000000000000000e+000 +0.000000000000000e+000   +2.853834854655120e-001 -5.132428686072340e-002   
+1.426300000000000e+011   +3.129498235762420e-001 -1.275091937373700e-001   +0.000000000000000e+000 +0.000000000000000e+000   +0.000000000000000e+000 +0.000000000000000e+000   +2.837338899258480e-001 -5.232506380383210e-002   
+1.428000000000000e+011   +3.095120895032640e-001 -1.274040854744990e-001   +0.000000000000000e+000 +0.000000000000000e+000   +0.000000000000000e+000 +0.000000000000000e+000   +2.820683924313670e-001 -5.319748032532880e-002   
+1.429700000000000e+011   +3.061521895893300e-001 -1.271654169579310e-001   +0.000000000000000e+000 +0.000000000000000e+000   +0.000000000000000e+000 +0.000000000000000e+000   +2.803937687109120e-001 -5.394635026312380e-002   
+1.431400000000000e+011   +3.028760806116300e-001 -1.267996870417230e-001   +0.000000000000000e+000 +0.000000000000000e+000   +0.000000000000000e+000 +0.000000000000000e+000   +2.787159431325960e-001 -5.457605320543330e-002   
+1.433100000000000e+011   +2.996882134537820e-001 -1.263144386941900e-001   +0.000000000000000e+000 +0.000000000000000e+000   +0.000000000000000e+000 +0.000000000000000e+000   +2.770401743869510e-001 -5.509079863805700e-002   
+1.434800000000000e+011   +2.965919070421730e-001 -1.257177263550140e-001   +0.000000000000000e+000 +0.000000000000000e+000   +0.000000000000000e+000 +0.000000000000000e+000   +2.753711761724290e-001 -5.549474162388720e-002   
+1.436500000000000e+011   +2.935895731672350e-001 -1.250177887959600e-001   +0.000000000000000e+000 +0.000000000000000e+000   +0.000000000000000e+000 +0.000000000000000e+000   +2.737131980037000e-001 -5.579202937778080e-002   
+1.438200000000000e+011   +2.906828689017720e-001 -1.242228419297690e-001   +0.000000000000000e+000 +0.000000000000000e+000   +0.000000000000000e+000 +0.000000000000000e+000   +2.720700823682510e-001 -5.598681399650210e-002   
+1.439900000000000e+011   +2.878728107323060e-001 -1.233409454208410e-001   +0.000000000000000e+000 +0.000000000000000e+000   +0.000000000000000e+000 +0.000000000000000e+000   +2.704453071279590e-001 -5.608324896441950e-002   
+1.441600000000000e+011   +2.851598663591130e-001 -1.223799162784860e-001   +0.000000000000000e+000 +0.000000000000000e+000   +0.000000000000000e+000 +0.000000000000000e+000   +2.688420190243260e-001 -5.608547785359050e-002   
+1.443300000000000e+011   +2.825440318497140e-001 -1.213472737550830e-001   +0.000000000000000e+000 +0.000000000000000e+000   +0.000000000000000e+000 +0.000000000000000e+000   +2.672630614541000e-001 -5.599761991992010e-002   
+1.445000000000000e+011   +2.800248984870970e-001 -1.202502056477440e-001   +0.000000000000000e+000 +0.000000000000000e+000   +0.000000000000000e+000 +0.000000000000000e+000   +2.657109985212710e-001 -5.582375512235850e-002   
+1.446700000000000e+011   +2.776017112350060e-001 -1.190955497381660e-001   +0.000000000000000e+000 +0.000000000000000e+000   +0.000000000000000e+000 +0.000000000000000e+000   +2.641881365199980e-001 -5.556790978589820e-002   
+1.448400000000000e+011   +2.752734204846100e-001 -1.178897858945840e-001   +0.000000000000000e+000 +0.000000000000000e+000   +0.000000000000000e+000 +0.000000000000000e+000   +2.626965435103490e-001 -5.523404379799490e-002   
+1.450100000000000e+011   +2.730387277796830e-001 -1.166390360018630e-001   +0.000000000000000e+000 +0.000000000000000e+000   +0.000000000000000e+000 +0.000000000000000e+000   +2.612380675891050e-001 -5.482603952786610e-002   
+1.451800000000000e+011   +2.708961261360350e-001 -1.153490694174200e-001   +0.000000000000000e+000 +0.000000000000000e+000   +0.000000000000000e+000 +0.000000000000000e+000   +2.598143538477920e-001 -5.434769275776020e-002   
+1.453500000000000e+011   +2.688439356570320e-001 -1.140253125452620e-001   +0.000000000000000e+000 +0.000000000000000e+000   +0.000000000000000e+000 +0.000000000000000e+000   +2.584268604359920e-001 -5.380270554274430e-002   
+1.455200000000000e+011   +2.668803347961180e-001 -1.126728610338920e-001   +0.000000000000000e+000 +0.000000000000000e+000   +0.000000000000000e+000 +0.000000000000000e+000   +2.570768734590660e-001 -5.319468079085800e-002   
+1.456900000000000e+011   +2.650033875802160e-001 -1.112964940063460e-001   +0.000000000000000e+000 +0.000000000000000e+000   +0.000000000000000e+000 +0.000000000000000e+000   +2.557655211009900e-001 -5.252711881464090e-002   
+1.458600000000000e+011   +2.632110673718850e-001 -1.099006894556580e-001   +0.000000000000000e+000 +0.000000000000000e+000   +0.000000000000000e+000 +0.000000000000000e+000   +2.544937867433460e-001 -5.180341521598800e-002   
+1.460300000000000e+011   +2.615012772943540e-001 -1.084896402749550e-001   +0.000000000000000e+000 +0.000000000000000e+000   +0.000000000000000e+000 +0.000000000000000e+000   +2.532625211600510e-001 -5.102686030565940e-002   
+1.462000000000000e+011   +2.598718678948960e-001 -1.070672705569350e-001   +0.000000000000000e+000 +0.000000000000000e+000   +0.000000000000000e+000 +0.000000000000000e+000   +2.520724537462120e-001 -5.020063966393190e-002   
+1.463700000000000e+011   +2.583206520047770e-001 -1.056372518083140e-001   +0.000000000000000e+000 +0.000000000000000e+000   +0.000000000000000e+000 +0.000000000000000e+000   +2.509242027883630e-001 -4.932783582808680e-002   
+1.465400000000000e+011   +2.568454173967340e-001 -1.042030188255160e-001   +0.000000000000000e+000 +0.000000000000000e+000   +0.000000000000000e+000 +0.000000000000000e+000   +2.498182848813210e-001 -4.841143072236140e-002   
+1.467100000000000e+011   +2.554439373080310e-001 -1.027677851146960e-001   +0.000000000000000e+000 +0.000000000000000e+000   +0.000000000000000e+000 +0.000000000000000e+000   +2.487551233266110e-001 -4.745430890872380e-002   
+1.468800000000000e+011   +2.541139791135720e-001 -1.013345575080970e-001   +0.000000000000000e+000 +0.000000000000000e+000   +0.000000000000000e+000 +0.000000000000000e+000   +2.477350555965890e-001 -4.645926121177820e-002   
+1.470500000000000e+011   +2.528533113520440e-001 -9.990615010406950e-002   +0.000000000000000e+000 +0.000000000000000e+000   +0.000000000000000e+000 +0.000000000000000e+000   +2.467583400503560e-001 -4.542898886302930e-002   
+1.472200000000000e+011   +2.516597093055530e-001 -9.848519730522820e-002   +0.000000000000000e+000 +0.000000000000000e+000   +0.000000000000000e+000 +0.000000000000000e+000   +2.458251616966230e-001 -4.436610772861170e-002   
+1.473900000000000e+011   +2.505309594391610e-001 -9.707416584342250e-002   +0.000000000000000e+000 +0.000000000000000e+000   +0.000000000000000e+000 +0.000000000000000e+000   +2.449356372977350e-001 -4.327315277866610e-002   
+1.475600000000000e+011   +2.494648626438730e-001 -9.567536587553890e-002   +0.000000000000000e+000 +0.000000000000000e+000   +0.000000000000000e+000 +0.000000000000000e+000   +2.440898197551250e-001 -4.215258232328550e-002   
+1.477300000000000e+011   +2.484592368245620e-001 -9.429096103807120e-002   +0.000000000000000e+000 +0.000000000000000e+000   +0.000000000000000e+000 +0.000000000000000e+000   +2.432877020720110e-001 -4.100678234777550e-002   
+1.479000000000000e+011   +2.475119186252760e-001 -9.292297748602740e-002   +0.000000000000000e+000 +0.000000000000000e+000   +0.000000000000000e+000 +0.000000000000000e+000   +2.425292208064520e-001 -3.983807050895190e-002   
+1.480700000000000e+011   +2.466207648207500e-001 -9.157331189986570e-002   +0.000000000000000e+000 +0.000000000000000e+000   +0.000000000000000e+000 +0.000000000000000e+000   +2.418142594283980e-001 -3.864869977232870e-002   
+1.482400000000000e+011   +2.457836533381870e-001 -9.024373858294880e-002   +0.000000000000000e+000 +0.000000000000000e+000   +0.000000000000000e+000 +0.000000000000000e+000   +2.411426516439860e-001 -3.744086197966020e-002   
+1.484100000000000e+011   +2.449984841931780e-001 -8.893591568863490e-002   +0.000000000000000e+000 +0.000000000000000e+000   +0.000000000000000e+000 +0.000000000000000e+000   +2.405141849692670e-001 -3.621669096752090e-002   
+1.485800000000000e+011   +2.442631804506310e-001 -8.765139061698990e-002   +0.000000000000000e+000 +0.000000000000000e+000   +0.000000000000000e+000 +0.000000000000000e+000   +2.399286049129530e-001 -3.497826530425030e-002   
+1.487500000000000e+011   +2.435756894603920e-001 -8.639160500439500e-002   +0.000000000000000e+000 +0.000000000000000e+000   +0.000000000000000e+000 +0.000000000000000e+000   +2.393856199390070e-001 -3.372761097501050e-002   
+1.489200000000000e+011   +2.429339844362390e-001 -8.515789914442190e-002   +0.000000000000000e+000 +0.000000000000000e+000   +0.000000000000000e+000 +0.000000000000000e+000   +2.388849077093060e-001 -3.246670365573490e-002   
+1.490900000000000e+011   +2.423360665839520e-001 -8.395151641693010e-002   +0.000000000000000e+000 +0.000000000000000e+000   +0.000000000000000e+000 +0.000000000000000e+000   +2.384261229963290e-001 -3.119747077213210e-002   
+1.492600000000000e+011   +2.417799679169000e-001 -8.277360786207940e-002   +0.000000000000000e+000 +0.000000000000000e+000   +0.000000000000000e+000 +0.000000000000000e+000   +2.380089076152240e-001 -2.992179328281740e-002   
+1.494300000000000e+011   +2.412637548550860e-001 -8.162523723713780e-002   +0.000000000000000e+000 +0.000000000000000e+000   +0.000000000000000e+000 +0.000000000000000e+000   +2.376329028682490e-001 -2.864150688850600e-002   
+1.496000000000000e+011   +2.407855328604450e-001 -8.050738697444800e-002   +0.000000000000000e+000 +0.000000000000000e+000   +0.000000000000000e+000 +0.000000000000000e+000   +2.372977650085590e-001 -2.735840221656800e-002   
+1.497700000000000e+011   +2.403434521889340e-001 -7.942096517902050e-002   +0.000000000000000e+000 +0.000000000000000e+000   +0.000000000000000e+000 +0.000000000000000e+000   +2.370031839788310e-001 -2.607422328054670e-002   
+1.499400000000000e+011   +2.399357151869480e-001 -7.836681427621150e-002   +0.000000000000000e+000 +0.000000000000000e+000   +0.000000000000000e+000 +0.000000000000000e+000   +2.367489054758970e-001 -2.479066305410740e-002   
+1.501100000000000e+011   +2.395605853610410e-001 -7.734572094298480e-002   +0.000000000000000e+000 +0.000000000000000e+000   +0.000000000000000e+000 +0.000000000000000e+000   +2.365347560755710e-001 -2.350935414387810e-002   
+1.502800000000000e+011   +2.392163989483760e-001 -7.635842739301830e-002   +0.000000000000000e+000 +0.000000000000000e+000   +0.000000000000000e+000 +0.000000000000000e+000   +2.363606699822690e-001 -2.223185248847560e-002   
+1.504500000000000e+011   +2.389015792630900e-001 -7.540564327200850e-002   +0.000000000000000e+000 +0.000000000000000e+000   +0.000000000000000e+000 +0.000000000000000e+000   +2.362267147793000e-001 -2.095961126889320e-002   
+1.506200000000000e+011   +2.386146545488590e-001 -7.448805663684700e-002   +0.000000000000000e+000 +0.000000000000000e+000   +0.000000000000000e+000 +0.000000000000000e+000   +2.361331112681730e-001 -1.969394264258240e-002   
+1.507900000000000e+011   +2.383542791086050e-001 -7.360634163863490e-002   +0.000000000000000e+000 +0.000000000000000e+000   +0.000000000000000e+000 +0.000000000000000e+000   +2.360802402851330e-001 -1.843596637606730e-002   
+1.509600000000000e+011   +2.381192569139290e-001 -7.276115980602660e-002   +0.000000000000000e+000 +0.000000000000000e+000   +0.000000000000000e+000 +0.000000000000000e+000   +2.360686267305270e-001 -1.718654795252980e-002   
+1.511300000000000e+011   +2.379085646409130e-001 -7.195315105556570e-002   +0.000000000000000e+000 +0.000000000000000e+000   +0.000000000000000e+000 +0.000000000000000e+000   +2.360988907366660e-001 -1.594623462814730e-002   
+1.513000000000000e+011   +2.377213693581330e-001 -7.118291134719400e-002   +0.000000000000000e+000 +0.000000000000000e+000   +0.000000000000000e+000 +0.000000000000000e+000   +2.361716594469930e-001 -1.471520561802120e-002   
+1.514700000000000e+011   +2.375570341040320e-001 -7.045095662554730e-002   +0.000000000000000e+000 +0.000000000000000e+000   +0.000000000000000e+000 +0.000000000000000e+000   +2.362874427035230e-001 -1.349325880098660e-002   
+1.516400000000000e+011   +2.374151045732580e-001 -6.975767689570700e-002   +0.000000000000000e+000 +0.000000000000000e+000   +0.000000000000000e+000 +0.000000000000000e+000   +2.364464919922660e-001 -1.227985678003470e-002   
+1.518100000000000e+011   +2.372952742863920e-001 -6.910328970192360e-002   +0.000000000000000e+000 +0.000000000000000e+000   +0.000000000000000e+000 +0.000000000000000e+000   +2.366486795390040e-001 -1.107424303843070e-002   
+1.519800000000000e+011   +2.371973327051570e-001 -6.848780511087030e-002   +0.000000000000000e+000 +0.000000000000000e+000   +0.000000000000000e+000 +0.000000000000000e+000   +2.368934435704800e-001 -9.875614663598920e-003   
+1.521500000000000e+011   +2.371211104020820e-001 -6.791101129547690e-002   +0.000000000000000e+000 +0.000000000000000e+000   +0.000000000000000e+000 +0.000000000000000e+000   +2.371798358107230e-001 -8.683308552920490e-003   
+1.523200000000000e+011   +2.370664407571450e-001 -6.737248046432870e-002   +0.000000000000000e+000 +0.000000000000000e+000   +0.000000000000000e+000 +0.000000000000000e+000   +2.375066779342390e-001 -7.496939773774050e-003   
+1.524900000000000e+011   +2.370331569175540e-001 -6.687158209676190e-002   +0.000000000000000e+000 +0.000000000000000e+000   +0.000000000000000e+000 +0.000000000000000e+000   +2.378727978086590e-001 -6.316436400615090e-003   
+1.526600000000000e+011   +2.370211354972240e-001 -6.640747990788880e-002   +0.000000000000000e+000 +0.000000000000000e+000   +0.000000000000000e+000 +0.000000000000000e+000   +2.382772946663180e-001 -5.141942582168030e-003   
+1.528300000000000e+011   +2.370303905114720e-001 -6.597908468260000e-002   +0.000000000000000e+000 +0.000000000000000e+000   +0.000000000000000e+000 +0.000000000000000e+000   +2.387197885328910e-001 -3.973593970608890e-003   
+1.530000000000000e+011   +2.370612199589940e-001 -6.558493395814170e-002   +0.000000000000000e+000 +0.000000000000000e+000   +0.000000000000000e+000 +0.000000000000000e+000   +2.392006404955380e-001 -2.811185312320800e-003   
+1.531700000000000e+011   +2.371144175604230e-001 -6.522296570912360e-002   +0.000000000000000e+000 +0.000000000000000e+000   +0.000000000000000e+000 +0.000000000000000e+000   +2.397211740755430e-001 -1.653737173781150e-003   
+1.533400000000000e+011   +2.371915869430540e-001 -6.489013391004160e-002   +0.000000000000000e+000 +0.000000000000000e+000   +0.000000000000000e+000 +0.000000000000000e+000   +2.402839743937320e-001 -4.989262058893770e-004   
+1.535100000000000e+011   +2.372956440539670e-001 -6.458176641144020e-002   +0.000000000000000e+000 +0.000000000000000e+000   +0.000000000000000e+000 +0.000000000000000e+000   +2.408934022436360e-001 +6.577318825442200e-004   
+1.536800000000000e+011   +2.374316903207370e-001 -6.429045786829020e-002   +0.000000000000000e+000 +0.000000000000000e+000   +0.000000000000000e+000 +0.000000000000000e+000   +2.415565722428590e-001 +1.824189553528760e-003   
+1.538500000000000e+011   +2.376086577120760e-001 -6.400404445858460e-002   +0.000000000000000e+000 +0.000000000000000e+000   +0.000000000000000e+000 +0.000000000000000e+000   +2.422853095677850e-001 +3.014175591852600e-003   
+1.540200000000000e+011   +2.378426863037690e-001 -6.370160108641660e-002   +0.000000000000000e+000 +0.000000000000000e+000   +0.000000000000000e+000 +0.000000000000000e+000   +2.431003022169590e-001 +4.251636564473240e-003   
+1.541900000000000e+011   +2.381648195823430e-001 -6.334472595606150e-002   +0.000000000000000e+000 +0.000000000000000e+000   +0.000000000000000e+000 +0.000000000000000e+000   +2.440407337710560e-001 +5.580067022117460e-003   
+1.543600000000000e+011   +2.386411664805960e-001 -6.285603882470460e-002   +0.000000000000000e+000 +0.000000000000000e+000   +0.000000000000000e+000 +0.000000000000000e+000   +2.451897488449690e-001 +7.084227593978380e-003   
+1.545300000000000e+011   +2.394376362901050e-001 -6.205624617717770e-002   +0.000000000000000e+000 +0.000000000000000e+000   +0.000000000000000e+000 +0.000000000000000e+000   +2.467559292947380e-001 +8.947381040467570e-003   
+1.547000000000000e+011   +2.411093396282380e-001 -6.042825145268010e-002   +0.000000000000000e+000 +0.000000000000000e+000   +0.000000000000000e+000 +0.000000000000000e+000   +2.494229006473800e-001 +1.162017030482600e-002   
+1.548700000000000e+011   +2.471188539111830e-001 -5.596675404691140e-002   +0.000000000000000e+000 +0.000000000000000e+000   +0.000000000000000e+000 +0.000000000000000e+000   +2.567720606760890e-001 +1.597383597477110e-002   
+1.550400000000000e+011   +2.488509188133680e-001 -7.880950076463790e-002   +0.000000000000000e+000 +0.000000000000000e+000   +0.000000000000000e+000 +0.000000000000000e+000   +2.625217464526670e-001 -3.431941001113170e-004   
+1.552100000000000e+011   +2.312325126989650e-001 -7.685229460598540e-002   +0.000000000000000e+000 +0.000000000000000e+000   +0.000000000000000e+000 +0.000000000000000e+000   +2.444165646960280e-001 -6.847684403483830e-003   
+1.553800000000000e+011   +2.336402167129430e-001 -7.254111450192370e-002   +0.000000000000000e+000 +0.000000000000000e+000   +0.000000000000000e+000 +0.000000000000000e+000   +2.450152056888490e-001 +1.259448805278530e-004   
+1.555500000000000e+011   +2.346229436344590e-001 -7.125774328029520e-002   +0.000000000000000e+000 +0.000000000000000e+000   +0.000000000000000e+000 +0.000000000000000e+000   +2.462342130225900e-001 +3.122233050939440e-003   
+1.557200000000000e+011   +2.351476636497120e-001 -7.087765792345130e-002   +0.000000000000000e+000 +0.000000000000000e+000   +0.000000000000000e+000 +0.000000000000000e+000   +2.473723495061230e-001 +4.862792760840530e-003   
+1.558900000000000e+011   +2.354622377026340e-001 -7.090580979537530e-002   +0.000000000000000e+000 +0.000000000000000e+000   +0.000000000000000e+000 +0.000000000000000e+000   +2.484317204032240e-001 +6.049504236484930e-003   
+1.560600000000000e+011   +2.356568740080200e-001 -7.116967752701560e-002   +0.000000000000000e+000 +0.000000000000000e+000   +0.000000000000000e+000 +0.000000000000000e+000   +2.494406845614010e-001 +6.929464963808280e-003   
+1.562300000000000e+011   +2.357712493414930e-001 -7.159359572504310e-002   +0.000000000000000e+000 +0.000000000000000e+000   +0.000000000000000e+000 +0.000000000000000e+000   +2.504180762408020e-001 +7.610088479539350e-003   
+1.564000000000000e+011   +2.358247711866760e-001 -7.213899351977550e-002   +0.000000000000000e+000 +0.000000000000000e+000   +0.000000000000000e+000 +0.000000000000000e+000   +2.513749580304550e-001 +8.145037291918030e-003   
+1.565700000000000e+011   +2.358274177257040e-001 -7.278390869797600e-002   +0.000000000000000e+000 +0.000000000000000e+000   +0.000000000000000e+000 +0.000000000000000e+000   +2.523176121442080e-001 +8.563861762240100e-003   
+1.567400000000000e+011   +2.357842928870280e-001 -7.351465496598290e-002   +0.000000000000000e+000 +0.000000000000000e+000   +0.000000000000000e+000 +0.000000000000000e+000   +2.532494266865640e-001 +8.884046777178290e-003   
+1.569100000000000e+011   +2.356977767448670e-001 -7.432199058996080e-002   +0.000000000000000e+000 +0.000000000000000e+000   +0.000000000000000e+000 +0.000000000000000e+000   +2.541719903976440e-001 +9.116532996479210e-003   
+1.570800000000000e+011   +2.355686358933430e-001 -7.519918575670650e-002   +0.000000000000000e+000 +0.000000000000000e+000   +0.000000000000000e+000 +0.000000000000000e+000   +2.550857342610960e-001 +9.268490402325120e-003   
+1.572500000000000e+011   +2.353966407809970e-001 -7.614097439207010e-002   +0.000000000000000e+000 +0.000000000000000e+000   +0.000000000000000e+000 +0.000000000000000e+000   +2.559903195584610e-001 +9.344816035406230e-003   
+1.574200000000000e+011   +2.351809308279890e-001 -7.714295142402870e-002   +0.000000000000000e+000 +0.000000000000000e+000   +0.000000000000000e+000 +0.000000000000000e+000   +2.568848811066630e-001 +9.348991702416810e-003   
+1.575900000000000e+011   +2.349202430760630e-001 -7.820120965561110e-002   +0.000000000000000e+000 +0.000000000000000e+000   +0.000000000000000e+000 +0.000000000000000e+000   +2.577681854916660e-001 +9.283599458290690e-003   
+1.577600000000000e+011   +2.346130628781400e-001 -7.931211219417720e-002   +0.000000000000000e+000 +0.000000000000000e+000   +0.000000000000000e+000 +0.000000000000000e+000   +2.586387377408750e-001 +9.150644410541270e-003   
+1.579300000000000e+011   +2.342577285177790e-001 -8.047214572054600e-002   +0.000000000000000e+000 +0.000000000000000e+000   +0.000000000000000e+000 +0.000000000000000e+000   +2.594948557493680e-001 +8.951763823958940e-003   
+1.581000000000000e+011   +2.338525074185950e-001 -8.167782382500400e-002   +0.000000000000000e+000 +0.000000000000000e+000   +0.000000000000000e+000 +0.000000000000000e+000   +2.603347242681580e-001 +8.688366748251510e-003   
+1.582700000000000e+011   +2.333956542952860e-001 -8.292562257402020e-002   +0.000000000000000e+000 +0.000000000000000e+000   +0.000000000000000e+000 +0.000000000000000e+000   +2.611564351748760e-001 +8.361729530889530e-003   
+1.584400000000000e+011   +2.328854573518090e-001 -8.421193782717060e-002   +0.000000000000000e+000 +0.000000000000000e+000   +0.000000000000000e+000 +0.000000000000000e+000   +2.619580185849440e-001 +7.973062553176670e-003   
+1.586100000000000e+011   +2.323202768185190e-001 -8.553305743932240e-002   +0.000000000000000e+000 +0.000000000000000e+000   +0.000000000000000e+000 +0.000000000000000e+000   +2.627374678424630e-001 +7.523557784323100e-003   
+1.587800000000000e+011   +2.316985775340050e-001 -8.688514447003580e-002   +0.000000000000000e+000 +0.000000000000000e+000   +0.000000000000000e+000 +0.000000000000000e+000   +2.634927598908740e-001 +7.014422927554580e-003   
+1.589500000000000e+011   +2.310189577571030e-001 -8.826422829619770e-002   +0.000000000000000e+000 +0.000000000000000e+000   +0.000000000000000e+000 +0.000000000000000e+000   +2.642218726017800e-001 +6.446906456227680e-003   
+1.591200000000000e+011   +2.302801747167170e-001 -8.966620213580340e-002   +0.000000000000000e+000 +0.000000000000000e+000   +0.000000000000000e+000 +0.000000000000000e+000   +2.649227997395890e-001 +5.822315925520830e-003   
+1.592900000000000e+011   +2.294811676780120e-001 -9.108682556742840e-002   +0.000000000000000e+000 +0.000000000000000e+000   +0.000000000000000e+000 +0.000000000000000e+000   +2.655935641622720e-001 +5.142031309147440e-003   
+1.594600000000000e+011   +2.286210788373100e-001 -9.252173105832040e-002   +0.000000000000000e+000 +0.000000000000000e+000   +0.000000000000000e+000 +0.000000000000000e+000   +2.662322297562870e-001 +4.407514965717410e-003   
+1.596300000000000e+011   +2.276992721003100e-001 -9.396643407332430e-002   +0.000000000000000e+000 +0.000000000000000e+000   +0.000000000000000e+000 +0.000000000000000e+000   +2.668369122716110e-001 +3.620318718677270e-003   
+1.598000000000000e+011   +2.267153500702650e-001 -9.541634612833650e-002   +0.000000000000000e+000 +0.000000000000000e+000   +0.000000000000000e+000 +0.000000000000000e+000   +2.674057893902830e-001 +2.782088861145710e-003   
+1.599700000000000e+011   +2.256691688475040e-001 -9.686679036496150e-002   +0.000000000000000e+000 +0.000000000000000e+000   +0.000000000000000e+000 +0.000000000000000e+000   +2.679371100816980e-001 +1.894569588330750e-003   
+1.601400000000000e+011   +2.245608509398790e-001 -9.831301944835570e-002   +0.000000000000000e+000 +0.000000000000000e+000   +0.000000000000000e+000 +0.000000000000000e+000   +2.684292034551720e-001 +9.596051226544650e-004   
+1.603100000000000e+011   +2.233907959125850e-001 -9.975023526956690e-002   +0.000000000000000e+000 +0.000000000000000e+000   +0.000000000000000e+000 +0.000000000000000e+000   +2.688804870749870e-001 -2.085924080279240e-005   
+1.604800000000000e+011   +2.221596888247850e-001 -1.011736104095790e-001   +0.000000000000000e+000 +0.000000000000000e+000   +0.000000000000000e+000 +0.000000000000000e+000   +2.692894749334420e-001 -1.044776901561400e-003   
+1.606500000000000e+011   +2.208685061388180e-001 -1.025783109321860e-001   +0.000000000000000e+000 +0.000000000000000e+000   +0.000000000000000e+000 +0.000000000000000e+000   +2.696547849659520e-001 -2.110000552485010e-003   
+1.608200000000000e+011   +2.195185192015760e-001 -1.039595202034310e-001   +0.000000000000000e+000 +0.000000000000000e+000   +0.000000000000000e+000 +0.000000000000000e+000   +2.699751463546290e-001 -3.214283364810070e-003   
+1.609900000000000e+011   +2.181112949385730e-001 -1.053124635924180e-001   +0.000000000000000e+000 +0.000000000000000e+000   +0.000000000000000e+000 +0.000000000000000e+000   +2.702494063601580e-001 -4.355280826449330e-003   
+1.611600000000000e+011   +2.166486939393020e-001 -1.066324336817940e-001   +0.000000000000000e+000 +0.000000000000000e+000   +0.000000000000000e+000 +0.000000000000000e+000   +2.704765369972420e-001 -5.530553133612100e-003   
+1.613300000000000e+011   +2.151328654579140e-001 -1.079148155846120e-001   +0.000000000000000e+000 +0.000000000000000e+000   +0.000000000000000e+000 +0.000000000000000e+000   +2.706556412009240e-001 -6.737568234439820e-003   
+1.615000000000000e+011   +2.135662398319300e-001 -1.091551123557510e-001   +0.000000000000000e+000 +0.000000000000000e+000   +0.000000000000000e+000 +0.000000000000000e+000   +2.707859588798020e-001 -7.973705379938250e-003   
+1.616700000000000e+011   +2.119515178063890e-001 -1.103489697771540e-001   +0.000000000000000e+000 +0.000000000000000e+000   +0.000000000000000e+000 +0.000000000000000e+000   +2.708668723915910e-001 -9.236259346194570e-003   
+1.618400000000000e+011   +2.102916571200160e-001 -1.114922006692150e-001   +0.000000000000000e+000 +0.000000000000000e+000   +0.000000000000000e+000 +0.000000000000000e+000   +2.708979118094490e-001 -1.052244536495620e-002   
+1.620100000000000e+011   +2.085898563425330e-001 -1.125808080411570e-001   +0.000000000000000e+000 +0.000000000000000e+000   +0.000000000000000e+000 +0.000000000000000e+000   +2.708787596278250e-001 -1.182940462218460e-002   
+1.621800000000000e+011   +2.068495360681400e-001 -1.136110069315400e-001   +0.000000000000000e+000 +0.000000000000000e+000   +0.000000000000000e+000 +0.000000000000000e+000   +2.708092550059590e-001 -1.315421063965220e-002   
+1.623500000000000e+011   +2.050743177632610e-001 -1.145792447991300e-001   +0.000000000000000e+000 +0.000000000000000e+000   +0.000000000000000e+000 +0.000000000000000e+000   +2.706893975450120e-001 -1.449387641758060e-002   
+1.625200000000000e+011   +2.032680003024510e-001 -1.154822199740460e-001   +0.000000000000000e+000 +0.000000000000000e+000   +0.000000000000000e+000 +0.000000000000000e+000   +2.705193502862450e-001 -1.584536237235470e-002   
+1.626900000000000e+011   +2.014345346645180e-001 -1.163168979963710e-001   +0.000000000000000e+000 +0.000000000000000e+000   +0.000000000000000e+000 +0.000000000000000e+000   +2.702994421413400e-001 -1.720558517071270e-002   
+1.628600000000000e+011   +1.995779969769400e-001 -1.170805257915070e-001   +0.000000000000000e+000 +0.000000000000000e+000   +0.000000000000000e+000 +0.000000000000000e+000   +2.700301694862360e-001 -1.857142748937170e-002   
+1.630300000000000e+011   +1.977025602959650e-001 -1.177706432935510e-001   +0.000000000000000e+000 +0.000000000000000e+000   +0.000000000000000e+000 +0.000000000000000e+000   +2.697121968696260e-001 -1.993974865320240e-002   
+1.632000000000000e+011   +1.958124655508950e-001 -1.183850925934130e-001   +0.000000000000000e+000 +0.000000000000000e+000   +0.000000000000000e+000 +0.000000000000000e+000   +2.693463568472800e-001 -2.130739613598180e-002   
+1.633700000000000e+011   +1.939119918242270e-001 -1.189220243345770e-001   +0.000000000000000e+000 +0.000000000000000e+000   +0.000000000000000e+000 +0.000000000000000e+000   +2.689336486764040e-001 -2.267121799786840e-002   
+1.635400000000000e+011   +1.920054267623760e-001 -1.193799013974950e-001   +0.000000000000000e+000 +0.000000000000000e+000   +0.000000000000000e+000 +0.000000000000000e+000   +2.684752359855470e-001 -2.402807605290270e-002   
+1.637100000000000e+011   +1.900970371397700e-001 -1.197574999426150e-001   +0.000000000000000e+000 +0.000000000000000e+000   +0.000000000000000e+000 +0.000000000000000e+000   +2.679724432564410e-001 -2.537485981804920e-002   
+1.638800000000000e+011   +1.881910402369220e-001 -1.200539077963550e-001   +0.000000000000000e+000 +0.000000000000000e+000   +0.000000000000000e+000 +0.000000000000000e+000   +2.674267510412310e-001 -2.670850110980660e-002   
+1.640500000000000e+011   +1.862915763287430e-001 -1.202685201035810e-001   +0.000000000000000e+000 +0.000000000000000e+000   +0.000000000000000e+000 +0.000000000000000e+000   +2.668397899438760e-001 -2.802598903541520e-002   
+1.642200000000000e+011   +1.844026825831110e-001 -1.204010327692810e-001   +0.000000000000000e+000 +0.000000000000000e+000   +0.000000000000000e+000 +0.000000000000000e+000   +2.662133332520750e-001 -2.932438550140610e-002   
+1.643900000000000e+011   +1.825282689415270e-001 -1.204514334519750e-001   +0.000000000000000e+000 +0.000000000000000e+000   +0.000000000000000e+000 +0.000000000000000e+000   +2.655492883801560e-001 -3.060084076715930e-002   
+1.645600000000000e+011   +1.806720959890430e-001 -1.204199905424290e-001   +0.000000000000000e+000 +0.000000000000000e+000   +0.000000000000000e+000 +0.000000000000000e+000   +2.648496869438990e-001 -3.185260904474780e-002   
+1.647300000000000e+011   +1.788377552392710e-001 -1.203072403490210e-001   +0.000000000000000e+000 +0.000000000000000e+000   +0.000000000000000e+000 +0.000000000000000e+000   +2.641166736338220e-001 -3.307706391930990e-002   
+1.649000000000000e+011   +1.770286520413090e-001 -1.201139726707130e-001   +0.000000000000000e+000 +0.000000000000000e+000   +0.000000000000000e+000 +0.000000000000000e+000   +2.633524939674590e-001 -3.427171330726020e-002   
+1.650700000000000e+011   +1.752479911806650e-001 -1.198412150730200e-001   +0.000000000000000e+000 +0.000000000000000e+000   +0.000000000000000e+000 +0.000000000000000e+000   +2.625594809440180e-001 -3.543421378884650e-002   
+1.652400000000000e+011   +1.734987653339620e-001 -1.194902161319270e-001   +0.000000000000000e+000 +0.000000000000000e+000   +0.000000000000000e+000 +0.000000000000000e+000   +2.617400407943610e-001 -3.656238406765790e-002   
+1.654100000000000e+011   +1.717837462580930e-001 -1.190624280800770e-001   +0.000000000000000e+000 +0.000000000000000e+000   +0.000000000000000e+000 +0.000000000000000e+000   +2.608966378644270e-001 -3.765421749243080e-002   
+1.655800000000000e+011   +1.701054789898380e-001 -1.185594888960030e-001   +0.000000000000000e+000 +0.000000000000000e+000   +0.000000000000000e+000 +0.000000000000000e+000   +2.600317789329470e-001 -3.870789315045520e-002   
+1.657500000000000e+011   +1.684662786329430e-001 -1.179832043715650e-001   +0.000000000000000e+000 +0.000000000000000e+000   +0.000000000000000e+000 +0.000000000000000e+000   +2.591479970089710e-001 -3.972178572793380e-002   
+1.659200000000000e+011   +1.668682298641330e-001 -1.173355302603640e-001   +0.000000000000000e+000 +0.000000000000000e+000   +0.000000000000000e+000 +0.000000000000000e+000   +2.582478348738600e-001 -4.069447366819900e-002   
+1.660900000000000e+011   +1.653131888427160e-001 -1.166185549428100e-001   +0.000000000000000e+000 +0.000000000000000e+000   +0.000000000000000e+000 +0.000000000000000e+000   +2.573338285373020e-001 -4.162474576692140e-002   
+1.662600000000000e+011   +1.638027872984890e-001 -1.158344825805720e-001   +0.000000000000000e+000 +0.000000000000000e+000   +0.000000000000000e+000 +0.000000000000000e+000   +2.564084907586040e-001 -4.251160583256030e-002   
+1.664300000000000e+011   +1.623384386182360e-001 -1.149856173376370e-001   +0.000000000000000e+000 +0.000000000000000e+000   +0.000000000000000e+000 +0.000000000000000e+000   +2.554742948907310e-001 -4.335427577052970e-002   
+1.666000000000000e+011   +1.609213456730320e-001 -1.140743484599580e-001   +0.000000000000000e+000 +0.000000000000000e+000   +0.000000000000000e+000 +0.000000000000000e+000   +2.545336592228520e-001 -4.415219657807030e-002   
+1.667700000000000e+011   +1.595525098619560e-001 -1.131031365699440e-001   +0.000000000000000e+000 +0.000000000000000e+000   +0.000000000000000e+000 +0.000000000000000e+000   +2.535889319106560e-001 -4.490502763351780e-002   
+1.669400000000000e+011   +1.582327413704780e-001 -1.120745014493100e-001   +0.000000000000000e+000 +0.000000000000000e+000   +0.000000000000000e+000 +0.000000000000000e+000   +2.526423767683110e-001 -4.561264426288360e-002   
+1.671100000000000e+011   +1.569626700278280e-001 -1.109910108896760e-001   +0.000000000000000e+000 +0.000000000000000e+000   +0.000000000000000e+000 +0.000000000000000e+000   +2.516961599248920e-001 -4.627513346784160e-002   
+1.672800000000000e+011   +1.557427566451570e-001 -1.098552712457510e-001   +0.000000000000000e+000 +0.000000000000000e+000   +0.000000000000000e+000 +0.000000000000000e+000   +2.507523375430650e-001 -4.689278816602620e-002   
+1.674500000000000e+011   +1.545733043958180e-001 -1.086699191692720e-001   +0.000000000000000e+000 +0.000000000000000e+000   +0.000000000000000e+000 +0.000000000000000e+000   +2.498128446337740e-001 -4.746609992436850e-002   
+1.676200000000000e+011   +1.534544699886250e-001 -1.074376149495630e-001   +0.000000000000000e+000 +0.000000000000000e+000   +0.000000000000000e+000 +0.000000000000000e+000   +2.488794850491200e-001 -4.799575046299040e-002   
+1.677900000000000e+011   +1.523862743132850e-001 -1.061610369996490e-001   +0.000000000000000e+000 +0.000000000000000e+000   +0.000000000000000e+000 +0.000000000000000e+000   +2.479539226039710e-001 -4.848260186107590e-002   
+1.679600000000000e+011   +1.513686123858260e-001 -1.048428776278750e-001   +0.000000000000000e+000 +0.000000000000000e+000   +0.000000000000000e+000 +0.000000000000000e+000   +2.470376734962070e-001 -4.892768587708060e-002   
+1.681300000000000e+011   +1.504012622335300e-001 -1.034858399842770e-001   +0.000000000000000e+000 +0.000000000000000e+000   +0.000000000000000e+000 +0.000000000000000e+000   +2.461320996730040e-001 -4.933219244510530e-002   
+1.683000000000000e+011   +1.494838926000260e-001 -1.020926358031370e-001   +0.000000000000000e+000 +0.000000000000000e+000   +0.000000000000000e+000 +0.000000000000000e+000   +2.452384034708130e-001 -4.969745748300710e-002   
+1.684700000000000e+011   +1.486160693243640e-001 -1.006659841643970e-001   +0.000000000000000e+000 +0.000000000000000e+000   +0.000000000000000e+000 +0.000000000000000e+000   +2.443576231840850e-001 -5.002495027403540e-002   
+1.686400000000000e+011   +1.477972603492670e-001 -9.920861064880790e-002   +0.000000000000000e+000 +0.000000000000000e+000   +0.000000000000000e+000 +0.000000000000000e+000   +2.434906296068870e-001 -5.031626037409500e-002   
+1.688100000000000e+011   +1.470268389077350e-001 -9.772324700400540e-002   +0.000000000000000e+000 +0.000000000000000e+000   +0.000000000000000e+000 +0.000000000000000e+000   +2.426381232851370e-001 -5.057308441359270e-002   
+1.689800000000000e+011   +1.463040854168870e-001 -9.621263114311840e-002   +0.000000000000000e+000 +0.000000000000000e+000   +0.000000000000000e+000 +0.000000000000000e+000   +2.418006326203730e-001 -5.079721280404220e-002   
+1.691500000000000e+011   +1.456281875976410e-001 -9.467950696238700e-002   +0.000000000000000e+000 +0.000000000000000e+000   +0.000000000000000e+000 +0.000000000000000e+000   +2.409785124775980e-001 -5.099051629264050e-002   
+1.693200000000000e+011   +1.449982389518860e-001 -9.312662416797850e-002   +0.000000000000000e+000 +0.000000000000000e+000   +0.000000000000000e+000 +0.000000000000000e+000   +2.401719432240420e-001 -5.115493275570410e-002   
+1.694900000000000e+011   +1.444132359045430e-001 -9.155673763721350e-002   +0.000000000000000e+000 +0.000000000000000e+000   +0.000000000000000e+000 +0.000000000000000e+000   +2.393809302208690e-001 -5.129245392957380e-002   
+1.696600000000000e+011   +1.438720732696090e-001 -8.997260634102980e-002   +0.000000000000000e+000 +0.000000000000000e+000   +0.000000000000000e+000 +0.000000000000000e+000   +2.386053034257690e-001 -5.140511242435400e-002   
+1.698300000000000e+011   +1.433735385848090e-001 -8.837699150071950e-002   +0.000000000000000e+000 +0.000000000000000e+000   +0.000000000000000e+000 +0.000000000000000e+000   +2.378447172164480e-001 -5.149496881245540e-002   
+1.700000000000000e+011   +1.429163050600500e-001 -8.677265392279730e-002   +0.000000000000000e+000 +0.000000000000000e+000   +0.000000000000000e+000 +0.000000000000000e+000   +2.370986502343700e-001 -5.156409882371820e-002   
