!QAlibria Port Mapping:1,2
!QAlibria TraceName:S11,S21,S12,S22
# Hz S RI R 50
!
+1.700000000000000e+008   +9.965484494208710e-001 -5.185437944438960e-003   +0.000000000000000e+000 +0.000000000000000e+000   +0.000000000000000e+000 +0.000000000000000e+000   +9.963755199564080e-001 -4.450370629918430e-003   
+3.400000000000000e+008   +9.949152299015290e-001 -7.832580379181000e-003   +0.000000000000000e+000 +0.000000000000000e+000   +0.000000000000000e+000 +0.000000000000000e+000   +9.961845693374750e-001 -7.752258464557400e-003   
+5.100000000000000e+008   +9.940438225849010e-001 -9.897778798440450e-003   +0.000000000000000e+000 +0.000000000000000e+000   +0.000000000000000e+000 +0.000000000000000e+000   +9.959979110553500e-001 -1.133089448880270e-002   
+6.800000000000000e+008   +9.937438457878880e-001 -1.189554962077370e-002   +0.000000000000000e+000 +0.000000000000000e+000   +0.000000000000000e+000 +0.000000000000000e+000   +9.955010561807020e-001 -1.485434135510070e-002   
+8.500000000000000e+008   +9.937227992003690e-001 -1.409181041311300e-002   +0.000000000000000e+000 +0.000000000000000e+000   +0.000000000000000e+000 +0.000000000000000e+000   +9.947771189652780e-001 -1.810673911890090e-002   
+1.020000000000000e+009   +9.937175514036200e-001 -1.652652895480070e-002   +0.000000000000000e+000 +0.000000000000000e+000   +0.000000000000000e+000 +0.000000000000000e+000   +9.939982804125020e-001 -2.105255480362990e-002   
+1.190000000000000e+009   +9.935661359872500e-001 -1.911541236372510e-002   +0.000000000000000e+000 +0.000000000000000e+000   +0.000000000000000e+000 +0.000000000000000e+000   +9.932929421125410e-001 -2.376771524084380e-002   
+1.360000000000000e+009   +9.932113676258490e-001 -2.173888387863230e-002   +0.000000000000000e+000 +0.000000000000000e+000   +0.000000000000000e+000 +0.000000000000000e+000   +9.927136070829710e-001 -2.636245512487280e-002   
+1.530000000000000e+009   +9.926710046876730e-001 -2.429524548075050e-002   +0.000000000000000e+000 +0.000000000000000e+000   +0.000000000000000e+000 +0.000000000000000e+000   +9.922526718070070e-001 -2.893232441916780e-002   
+1.700000000000000e+009   +9.920020120934770e-001 -2.672130238493660e-002   +0.000000000000000e+000 +0.000000000000000e+000   +0.000000000000000e+000 +0.000000000000000e+000   +9.918705145267080e-001 -3.153875747203980e-002   
+1.870000000000000e+009   +9.912723753973810e-001 -2.899256854956410e-002   +0.000000000000000e+000 +0.000000000000000e+000   +0.000000000000000e+000 +0.000000000000000e+000   +9.915191169605410e-001 -3.420862422193500e-002   
+2.040000000000000e+009   +9.905437473728190e-001 -3.111417318552610e-002   +0.000000000000000e+000 +0.000000000000000e+000   +0.000000000000000e+000 +0.000000000000000e+000   +9.911566418526870e-001 -3.694243676042060e-002   
+2.210000000000000e+009   +9.898633247274740e-001 -3.310965322916090e-002   +0.000000000000000e+000 +0.000000000000000e+000   +0.000000000000000e+000 +0.000000000000000e+000   +9.907539366967340e-001 -3.972453071267610e-002   
+2.380000000000000e+009   +9.892619448272050e-001 -3.501122020307120e-002   +0.000000000000000e+000 +0.000000000000000e+000   +0.000000000000000e+000 +0.000000000000000e+000   +9.902955688815440e-001 -4.253189042591890e-002   
+2.550000000000000e+009   +9.887556442504110e-001 -3.685272129265840e-002   +0.000000000000000e+000 +0.000000000000000e+000   +0.000000000000000e+000 +0.000000000000000e+000   +9.897778775120050e-001 -4.534047520700760e-002   
+2.720000000000000e+009   +9.883487006910530e-001 -3.866526112894120e-002   +0.000000000000000e+000 +0.000000000000000e+000   +0.000000000000000e+000 +0.000000000000000e+000   +9.892058455783260e-001 -4.812906632001620e-002   
+2.890000000000000e+009   +9.880369546166320e-001 -4.047494029287130e-002   +0.000000000000000e+000 +0.000000000000000e+000   +0.000000000000000e+000 +0.000000000000000e+000   +9.885898898470380e-001 -5.088113964323780e-002   
+3.060000000000000e+009   +9.878107894425770e-001 -4.230206622616780e-002   +0.000000000000000e+000 +0.000000000000000e+000   +0.000000000000000e+000 +0.000000000000000e+000   +9.879431209714030e-001 -5.358537323001760e-002   
+3.230000000000000e+009   +9.876575259664770e-001 -4.416127575104750e-002   +0.000000000000000e+000 +0.000000000000000e+000   +0.000000000000000e+000 +0.000000000000000e+000   +9.872792697993120e-001 -5.623532648164850e-002   
+3.400000000000000e+009   +9.875632000535130e-001 -4.606214900364000e-002   +0.000000000000000e+000 +0.000000000000000e+000   +0.000000000000000e+000 +0.000000000000000e+000   +9.866112735332740e-001 -5.882869528796300e-002   
+3.570000000000000e+009   +9.875137953051560e-001 -4.801003149686040e-002   +0.000000000000000e+000 +0.000000000000000e+000   +0.000000000000000e+000 +0.000000000000000e+000   +9.859504208904510e-001 -6.136641470427890e-002   
+3.740000000000000e+009   +9.874960398056380e-001 -5.000689023932040e-002   +0.000000000000000e+000 +0.000000000000000e+000   +0.000000000000000e+000 +0.000000000000000e+000   +9.853059257316480e-001 -6.385177339753240e-002   
+3.910000000000000e+009   +9.874978768240980e-001 -5.205210856844470e-002   +0.000000000000000e+000 +0.000000000000000e+000   +0.000000000000000e+000 +0.000000000000000e+000   +9.846848044039910e-001 -6.628962577476560e-002   
+4.080000000000000e+009   +9.875087054596340e-001 -5.414317592052530e-002   +0.000000000000000e+000 +0.000000000000000e+000   +0.000000000000000e+000 +0.000000000000000e+000   +9.840919524538160e-001 -6.868573712036540e-002   
+4.250000000000000e+009   +9.875194665656130e-001 -5.627626003357390e-002   +0.000000000000000e+000 +0.000000000000000e+000   +0.000000000000000e+000 +0.000000000000000e+000   +9.835303411087050e-001 -7.104626667553690e-002   
+4.420000000000000e+009   +9.875226306638920e-001 -5.844666686721500e-002   +0.000000000000000e+000 +0.000000000000000e+000   +0.000000000000000e+000 +0.000000000000000e+000   +9.830012761265630e-001 -7.337737695836910e-002   
+4.590000000000000e+009   +9.875121278062420e-001 -6.064920114222790e-002   +0.000000000000000e+000 +0.000000000000000e+000   +0.000000000000000e+000 +0.000000000000000e+000   +9.825046803286700e-001 -7.568495143889780e-002   
+4.760000000000000e+009   +9.874832455893490e-001 -6.287844398766200e-002   +0.000000000000000e+000 +0.000000000000000e+000   +0.000000000000000e+000 +0.000000000000000e+000   +9.820393752146730e-001 -7.797440014555470e-002   
+4.930000000000000e+009   +9.874325132911340e-001 -6.512896320175740e-002   +0.000000000000000e+000 +0.000000000000000e+000   +0.000000000000000e+000 +0.000000000000000e+000   +9.816033468169910e-001 -8.025053492466040e-002   
+5.100000000000000e+009   +9.873575816472730e-001 -6.739547025886530e-002   +0.000000000000000e+000 +0.000000000000000e+000   +0.000000000000000e+000 +0.000000000000000e+000   +9.811939877991140e-001 -8.251749788870940e-002   
+5.270000000000000e+009   +9.872571045443850e-001 -6.967293565112650e-002   +0.000000000000000e+000 +0.000000000000000e+000   +0.000000000000000e+000 +0.000000000000000e+000   +9.808083121793540e-001 -8.477873023505880e-002   
+5.440000000000000e+009   +9.871306251109000e-001 -7.195667187032620e-002   +0.000000000000000e+000 +0.000000000000000e+000   +0.000000000000000e+000 +0.000000000000000e+000   +9.804431415686640e-001 -8.703697061514250e-002   
+5.610000000000000e+009   +9.869784669912930e-001 -7.424239129212900e-002   +0.000000000000000e+000 +0.000000000000000e+000   +0.000000000000000e+000 +0.000000000000000e+000   +9.800952638392850e-001 -8.929427516429350e-002   
+5.780000000000000e+009   +9.868016314257590e-001 -7.652624399057720e-002   +0.000000000000000e+000 +0.000000000000000e+000   +0.000000000000000e+000 +0.000000000000000e+000   +9.797615652101890e-001 -9.155205319826630e-002   
+5.950000000000000e+009   +9.866016992406230e-001 -7.880483989746590e-002   +0.000000000000000e+000 +0.000000000000000e+000   +0.000000000000000e+000 +0.000000000000000e+000   +9.794391378926510e-001 -9.381111365272640e-002   
+6.120000000000000e+009   +9.863807378774310e-001 -8.107525803851230e-002   +0.000000000000000e+000 +0.000000000000000e+000   +0.000000000000000e+000 +0.000000000000000e+000   +9.791253649937220e-001 -9.607171909926680e-002   
+6.290000000000000e+009   +9.861412133593110e-001 -8.333504510679510e-002   +0.000000000000000e+000 +0.000000000000000e+000   +0.000000000000000e+000 +0.000000000000000e+000   +9.788179848721290e-001 -9.833364459676570e-002   
+6.460000000000000e+009   +9.858859067016920e-001 -8.558220521749070e-002   +0.000000000000000e+000 +0.000000000000000e+000   +0.000000000000000e+000 +0.000000000000000e+000   +9.785151368448570e-001 -1.005962392256860e-001   
+6.630000000000000e+009   +9.856178359329410e-001 -8.781518244652420e-002   +0.000000000000000e+000 +0.000000000000000e+000   +0.000000000000000e+000 +0.000000000000000e+000   +9.782153903758920e-001 -1.028584890408070e-001   
+6.800000000000000e+009   +9.853401833421950e-001 -9.003283730619930e-002   +0.000000000000000e+000 +0.000000000000000e+000   +0.000000000000000e+000 +0.000000000000000e+000   +9.779177596654900e-001 -1.051190797717800e-001   
+6.970000000000000e+009   +9.850562291391320e-001 -9.223441860767360e-002   +0.000000000000000e+000 +0.000000000000000e+000   +0.000000000000000e+000 +0.000000000000000e+000   +9.776217055731960e-001 -1.073764584317830e-001   
+7.140000000000000e+009   +9.847692915215250e-001 -9.441953190911960e-002   +0.000000000000000e+000 +0.000000000000000e+000   +0.000000000000000e+000 +0.000000000000000e+000   +9.773271270164600e-001 -1.096288930587810e-001   
+7.310000000000000e+009   +9.844826741571490e-001 -9.658810568747500e-002   +0.000000000000000e+000 +0.000000000000000e+000   +0.000000000000000e+000 +0.000000000000000e+000   +9.770343434072440e-001 -1.118745295050260e-001   
+7.480000000000000e+009   +9.841996209782500e-001 -9.874035640402180e-002   +0.000000000000000e+000 +0.000000000000000e+000   +0.000000000000000e+000 +0.000000000000000e+000   +9.767440703999600e-001 -1.141114451192830e-001   
+7.650000000000000e+009   +9.839232785335480e-001 -1.008767535376020e-001   +0.000000000000000e+000 +0.000000000000000e+000   +0.000000000000000e+000 +0.000000000000000e+000   +9.764573900800260e-001 -1.163376984926310e-001   
+7.820000000000000e+009   +9.836566659736210e-001 -1.029979856374700e-001   +0.000000000000000e+000 +0.000000000000000e+000   +0.000000000000000e+000 +0.000000000000000e+000   +9.761757177285480e-001 -1.185513751505900e-001   
+7.990000000000000e+009   +9.834026523885700e-001 -1.051049280427760e-001   +0.000000000000000e+000 +0.000000000000000e+000   +0.000000000000000e+000 +0.000000000000000e+000   +9.759007659259130e-001 -1.207506289096060e-001   
+8.160000000000000e+009   +9.831639407861100e-001 -1.071986130807750e-001   +0.000000000000000e+000 +0.000000000000000e+000   +0.000000000000000e+000 +0.000000000000000e+000   +9.756345078217220e-001 -1.229337186563010e-001   
+8.330000000000000e+009   +9.829430585123160e-001 -1.092802033254170e-001   +0.000000000000000e+000 +0.000000000000000e+000   +0.000000000000000e+000 +0.000000000000000e+000   +9.753791400584320e-001 -1.250990407331800e-001   
+8.500000000000000e+009   +9.827423530594040e-001 -1.113509681594860e-001   +0.000000000000000e+000 +0.000000000000000e+000   +0.000000000000000e+000 +0.000000000000000e+000   +9.751370464348780e-001 -1.272451567273060e-001   
+8.670000000000000e+009   +9.825639926315410e-001 -1.134122639092890e-001   +0.000000000000000e+000 +0.000000000000000e+000   +0.000000000000000e+000 +0.000000000000000e+000   +9.749107628640030e-001 -1.293708170613480e-001   
+8.840000000000000e+009   +9.824099706028890e-001 -1.154655176134180e-001   +0.000000000000000e+000 +0.000000000000000e+000   +0.000000000000000e+000 +0.000000000000000e+000   +9.747029441000170e-001 -1.314749803527750e-001   
+9.010000000000000e+009   +9.822821129625810e-001 -1.175122143692710e-001   +0.000000000000000e+000 +0.000000000000000e+000   +0.000000000000000e+000 +0.000000000000000e+000   +9.745163325696750e-001 -1.335568289443550e-001   
+9.180000000000000e+009   +9.821820879985760e-001 -1.195538880233050e-001   +0.000000000000000e+000 +0.000000000000000e+000   +0.000000000000000e+000 +0.000000000000000e+000   +9.743537294413200e-001 -1.356157805981190e-001   
+9.350000000000000e+009   +9.821114173943110e-001 -1.215921150559350e-001   +0.000000000000000e+000 +0.000000000000000e+000   +0.000000000000000e+000 +0.000000000000000e+000   +9.742179680972730e-001 -1.376514970843550e-001   
+9.520000000000000e+009   +9.820714881130990e-001 -1.236285112194370e-001   +0.000000000000000e+000 +0.000000000000000e+000   +0.000000000000000e+000 +0.000000000000000e+000   +9.741118899438910e-001 -1.396638894778340e-001   
+9.690000000000000e+009   +9.820635645362890e-001 -1.256647305924030e-001   +0.000000000000000e+000 +0.000000000000000e+000   +0.000000000000000e+000 +0.000000000000000e+000   +9.740383225175440e-001 -1.416531206866900e-001   
+9.860000000000000e+009   +9.820888001050340e-001 -1.277024667115620e-001   +0.000000000000000e+000 +0.000000000000000e+000   +0.000000000000000e+000 +0.000000000000000e+000   +9.740000597773480e-001 -1.436196055215820e-001   
+1.003000000000000e+010   +9.821003302483050e-001 -1.297588674442000e-001   +0.000000000000000e+000 +0.000000000000000e+000   +0.000000000000000e+000 +0.000000000000000e+000   +9.739727254297990e-001 -1.455728585256860e-001   
+1.020000000000000e+010   +9.819018844609920e-001 -1.318871760584590e-001   +0.000000000000000e+000 +0.000000000000000e+000   +0.000000000000000e+000 +0.000000000000000e+000   +9.738393081633660e-001 -1.475466979465270e-001   
+1.037000000000000e+010   +9.817023228595850e-001 -1.340121981630360e-001   +0.000000000000000e+000 +0.000000000000000e+000   +0.000000000000000e+000 +0.000000000000000e+000   +9.737131477106410e-001 -1.494998171605770e-001   
+1.054000000000000e+010   +9.815017331241330e-001 -1.361335926879270e-001   +0.000000000000000e+000 +0.000000000000000e+000   +0.000000000000000e+000 +0.000000000000000e+000   +9.735945735141410e-001 -1.514313571495530e-001   
+1.071000000000000e+010   +9.813002052893370e-001 -1.382509908702800e-001   +0.000000000000000e+000 +0.000000000000000e+000   +0.000000000000000e+000 +0.000000000000000e+000   +9.734839221697420e-001 -1.533404309820270e-001   
+1.088000000000000e+010   +9.810978320149750e-001 -1.403639956446560e-001   +0.000000000000000e+000 +0.000000000000000e+000   +0.000000000000000e+000 +0.000000000000000e+000   +9.733815364479670e-001 -1.552261229014790e-001   
+1.105000000000000e+010   +9.808947088162820e-001 -1.424721808836200e-001   +0.000000000000000e+000 +0.000000000000000e+000   +0.000000000000000e+000 +0.000000000000000e+000   +9.732877642414580e-001 -1.570874875739810e-001   
+1.122000000000000e+010   +9.806909342833060e-001 -1.445750905440270e-001   +0.000000000000000e+000 +0.000000000000000e+000   +0.000000000000000e+000 +0.000000000000000e+000   +9.732029576634900e-001 -1.589235492408550e-001   
+1.139000000000000e+010   +9.804866103521940e-001 -1.466722379589760e-001   +0.000000000000000e+000 +0.000000000000000e+000   +0.000000000000000e+000 +0.000000000000000e+000   +9.731274720350890e-001 -1.607333010512430e-001   
+1.156000000000000e+010   +9.802818425513100e-001 -1.487631049109110e-001   +0.000000000000000e+000 +0.000000000000000e+000   +0.000000000000000e+000 +0.000000000000000e+000   +9.730616649348150e-001 -1.625157044206560e-001   
+1.173000000000000e+010   +9.800767401409220e-001 -1.508471407747520e-001   +0.000000000000000e+000 +0.000000000000000e+000   +0.000000000000000e+000 +0.000000000000000e+000   +9.730058952403420e-001 -1.642696884120470e-001   
+1.190000000000000e+010   +9.798714164233910e-001 -1.529237616313110e-001   +0.000000000000000e+000 +0.000000000000000e+000   +0.000000000000000e+000 +0.000000000000000e+000   +9.729605221637510e-001 -1.659941492948240e-001   
+1.207000000000000e+010   +9.796659888340250e-001 -1.549923493624270e-001   +0.000000000000000e+000 +0.000000000000000e+000   +0.000000000000000e+000 +0.000000000000000e+000   +9.729259041073630e-001 -1.676879501644860e-001   
+1.224000000000000e+010   +9.794605792043910e-001 -1.570522506581350e-001   +0.000000000000000e+000 +0.000000000000000e+000   +0.000000000000000e+000 +0.000000000000000e+000   +9.729023976724740e-001 -1.693499206160890e-001   
+1.241000000000000e+010   +9.792553139058060e-001 -1.591027761816000e-001   +0.000000000000000e+000 +0.000000000000000e+000   +0.000000000000000e+000 +0.000000000000000e+000   +9.728903564369600e-001 -1.709788566786440e-001   
+1.258000000000000e+010   +9.790503239397010e-001 -1.611431995778590e-001   +0.000000000000000e+000 +0.000000000000000e+000   +0.000000000000000e+000 +0.000000000000000e+000   +9.728901297193390e-001 -1.725735207233570e-001   
+1.275000000000000e+010   +9.788457451686190e-001 -1.631727565418830e-001   +0.000000000000000e+000 +0.000000000000000e+000   +0.000000000000000e+000 +0.000000000000000e+000   +9.729020612195110e-001 -1.741326417057960e-001   
+1.292000000000000e+010   +9.786417183791650e-001 -1.651906439115460e-001   +0.000000000000000e+000 +0.000000000000000e+000   +0.000000000000000e+000 +0.000000000000000e+000   +9.729264876360480e-001 -1.756549153633990e-001   
+1.309000000000000e+010   +9.784383893246510e-001 -1.671960188716940e-001   +0.000000000000000e+000 +0.000000000000000e+000   +0.000000000000000e+000 +0.000000000000000e+000   +9.729637370429190e-001 -1.771390048324900e-001   
+1.326000000000000e+010   +9.782359088522500e-001 -1.691879979669250e-001   +0.000000000000000e+000 +0.000000000000000e+000   +0.000000000000000e+000 +0.000000000000000e+000   +9.730141272880980e-001 -1.785835412637360e-001   
+1.343000000000000e+010   +9.780344328593220e-001 -1.711656563957270e-001   +0.000000000000000e+000 +0.000000000000000e+000   +0.000000000000000e+000 +0.000000000000000e+000   +9.730779641277160e-001 -1.799871248331170e-001   
+1.360000000000000e+010   +9.778341223232280e-001 -1.731280272069690e-001   +0.000000000000000e+000 +0.000000000000000e+000   +0.000000000000000e+000 +0.000000000000000e+000   +9.731555393376250e-001 -1.813483258921220e-001   
+1.377000000000000e+010   +9.776351432062850e-001 -1.750741007285560e-001   +0.000000000000000e+000 +0.000000000000000e+000   +0.000000000000000e+000 +0.000000000000000e+000   +9.732471285942630e-001 -1.826656864217280e-001   
+1.394000000000000e+010   +9.774376664131670e-001 -1.770028238309020e-001   +0.000000000000000e+000 +0.000000000000000e+000   +0.000000000000000e+000 +0.000000000000000e+000   +9.733529892720610e-001 -1.839377217476590e-001   
+1.411000000000000e+010   +9.772418675850140e-001 -1.789130994962110e-001   +0.000000000000000e+000 +0.000000000000000e+000   +0.000000000000000e+000 +0.000000000000000e+000   +9.734733580344380e-001 -1.851629226829120e-001   
+1.428000000000000e+010   +9.770479270043330e-001 -1.808037864682000e-001   +0.000000000000000e+000 +0.000000000000000e+000   +0.000000000000000e+000 +0.000000000000000e+000   +9.736084482307940e-001 -1.863397578612550e-001   
+1.445000000000000e+010   +9.768560291807460e-001 -1.826736989069760e-001   +0.000000000000000e+000 +0.000000000000000e+000   +0.000000000000000e+000 +0.000000000000000e+000   +9.737584472645330e-001 -1.874666765931790e-001   
+1.462000000000000e+010   +9.766663627371790e-001 -1.845216063952510e-001   +0.000000000000000e+000 +0.000000000000000e+000   +0.000000000000000e+000 +0.000000000000000e+000   +9.739235136524480e-001 -1.885421119795440e-001   
+1.479000000000000e+010   +9.764791198961570e-001 -1.863462338685820e-001   +0.000000000000000e+000 +0.000000000000000e+000   +0.000000000000000e+000 +0.000000000000000e+000   +9.741037740315840e-001 -1.895644845681670e-001   
+1.496000000000000e+010   +9.762944961388750e-001 -1.881462619258990e-001   +0.000000000000000e+000 +0.000000000000000e+000   +0.000000000000000e+000 +0.000000000000000e+000   +9.742993198820440e-001 -1.905322064637790e-001   
+1.513000000000000e+010   +9.761126896390810e-001 -1.899203273360200e-001   +0.000000000000000e+000 +0.000000000000000e+000   +0.000000000000000e+000 +0.000000000000000e+000   +9.745102042537640e-001 -1.914436858449150e-001   
+1.530000000000000e+010   +9.759339007457240e-001 -1.916670235802710e-001   +0.000000000000000e+000 +0.000000000000000e+000   +0.000000000000000e+000 +0.000000000000000e+000   +9.747364382379590e-001 -1.922973321072400e-001   
+1.547000000000000e+010   +9.757583312927630e-001 -1.933849020037580e-001   +0.000000000000000e+000 +0.000000000000000e+000   +0.000000000000000e+000 +0.000000000000000e+000   +9.749779873195150e-001 -1.930915614866560e-001   
+1.564000000000000e+010   +9.755861839632800e-001 -1.950724728544850e-001   +0.000000000000000e+000 +0.000000000000000e+000   +0.000000000000000e+000 +0.000000000000000e+000   +9.752347676565010e-001 -1.938248033198280e-001   
+1.581000000000000e+010   +9.754176613686190e-001 -1.967282069805790e-001   +0.000000000000000e+000 +0.000000000000000e+000   +0.000000000000000e+000 +0.000000000000000e+000   +9.755066422577760e-001 -1.944955068785150e-001   
+1.598000000000000e+010   +9.752529653021040e-001 -1.983505376559530e-001   +0.000000000000000e+000 +0.000000000000000e+000   +0.000000000000000e+000 +0.000000000000000e+000   +9.757934170476040e-001 -1.951021489153820e-001   
+1.615000000000000e+010   +9.750922957377740e-001 -1.999378629070270e-001   +0.000000000000000e+000 +0.000000000000000e+000   +0.000000000000000e+000 +0.000000000000000e+000   +9.760948369385810e-001 -1.956432417394760e-001   
+1.632000000000000e+010   +9.749358497794330e-001 -2.014885481682120e-001   +0.000000000000000e+000 +0.000000000000000e+000   +0.000000000000000e+000 +0.000000000000000e+000   +9.764105818431360e-001 -1.961173421654970e-001   
+1.649000000000000e+010   +9.747838206285920e-001 -2.030009293939170e-001   +0.000000000000000e+000 +0.000000000000000e+000   +0.000000000000000e+000 +0.000000000000000e+000   +9.767402628156470e-001 -1.965230609929160e-001   
+1.666000000000000e+010   +9.746363964184860e-001 -2.044733167000050e-001   +0.000000000000000e+000 +0.000000000000000e+000   +0.000000000000000e+000 +0.000000000000000e+000   +9.770834181024890e-001 -1.968590733077480e-001   
+1.683000000000000e+010   +9.744937588541840e-001 -2.059039984851090e-001   +0.000000000000000e+000 +0.000000000000000e+000   +0.000000000000000e+000 +0.000000000000000e+000   +9.774395095060070e-001 -1.971241295109880e-001   
+1.700000000000000e+010   +9.743560821163710e-001 -2.072912460401130e-001   +0.000000000000000e+000 +0.000000000000000e+000   +0.000000000000000e+000 +0.000000000000000e+000   +9.778079187665880e-001 -1.973170669673980e-001   
+1.717000000000000e+010   +9.742235313758630e-001 -2.086333187707610e-001   +0.000000000000000e+000 +0.000000000000000e+000   +0.000000000000000e+000 +0.000000000000000e+000   +9.781879442888960e-001 -1.974368224975570e-001   
+1.734000000000000e+010   +9.740962614329450e-001 -2.099284701041180e-001   +0.000000000000000e+000 +0.000000000000000e+000   +0.000000000000000e+000 +0.000000000000000e+000   +9.785787981723400e-001 -1.974824453981030e-001   
+1.751000000000000e+010   +9.739744152677180e-001 -2.111749538677960e-001   +0.000000000000000e+000 +0.000000000000000e+000   +0.000000000000000e+000 +0.000000000000000e+000   +9.789796035244780e-001 -1.974531112765540e-001   
+1.768000000000000e+010   +9.738581226080480e-001 -2.123710314070650e-001   +0.000000000000000e+000 +0.000000000000000e+000   +0.000000000000000e+000 +0.000000000000000e+000   +9.793893923022300e-001 -1.973481362982240e-001   
+1.785000000000000e+010   +9.737474984905710e-001 -2.135149794358080e-001   +0.000000000000000e+000 +0.000000000000000e+000   +0.000000000000000e+000 +0.000000000000000e+000   +9.798071037460140e-001 -1.971669921585600e-001   
+1.802000000000000e+010   +9.736426416054760e-001 -2.146050984250380e-001   +0.000000000000000e+000 +0.000000000000000e+000   +0.000000000000000e+000 +0.000000000000000e+000   +9.802315832997020e-001 -1.969093213383140e-001   
+1.819000000000000e+010   +9.735436330539290e-001 -2.156397218190940e-001   +0.000000000000000e+000 +0.000000000000000e+000   +0.000000000000000e+000 +0.000000000000000e+000   +9.806615822769370e-001 -1.965749527840220e-001   
+1.836000000000000e+010   +9.734505347468600e-001 -2.166172258284340e-001   +0.000000000000000e+000 +0.000000000000000e+000   +0.000000000000000e+000 +0.000000000000000e+000   +9.810957583976420e-001 -1.961639177329010e-001   
+1.853000000000000e+010   +9.733633880797060e-001 -2.175360400220340e-001   +0.000000000000000e+000 +0.000000000000000e+000   +0.000000000000000e+000 +0.000000000000000e+000   +9.815326770438820e-001 -1.956764657520960e-001   
+1.870000000000000e+010   +9.732822125969880e-001 -2.183946583954760e-001   +0.000000000000000e+000 +0.000000000000000e+000   +0.000000000000000e+000 +0.000000000000000e+000   +9.819708135753620e-001 -1.951130804750370e-001   
+1.887000000000000e+010   +9.732070046551990e-001 -2.191916512608420e-001   +0.000000000000000e+000 +0.000000000000000e+000   +0.000000000000000e+000 +0.000000000000000e+000   +9.824085566667160e-001 -1.944744952319290e-001   
+1.904000000000000e+010   +9.731377364232020e-001 -2.199256775230880e-001   +0.000000000000000e+000 +0.000000000000000e+000   +0.000000000000000e+000 +0.000000000000000e+000   +9.828442126528590e-001 -1.937617080938150e-001   
+1.921000000000000e+010   +9.730743547214930e-001 -2.205954974634090e-001   +0.000000000000000e+000 +0.000000000000000e+000   +0.000000000000000e+000 +0.000000000000000e+000   +9.832760110023250e-001 -1.929759961222000e-001   
+1.938000000000000e+010   +9.730167802080860e-001 -2.211999860459640e-001   +0.000000000000000e+000 +0.000000000000000e+000   +0.000000000000000e+000 +0.000000000000000e+000   +9.837021111553490e-001 -1.921189287277210e-001   
+1.955000000000000e+010   +9.729649066752160e-001 -2.217381464053950e-001   +0.000000000000000e+000 +0.000000000000000e+000   +0.000000000000000e+000 +0.000000000000000e+000   +9.841206103720410e-001 -1.911923796700800e-001   
+1.972000000000000e+010   +9.729186004147640e-001 -2.222091235552350e-001   +0.000000000000000e+000 +0.000000000000000e+000   +0.000000000000000e+000 +0.000000000000000e+000   +9.845295528650520e-001 -1.901985375436430e-001   
+1.989000000000000e+010   +9.728777000363820e-001 -2.226122180698310e-001   +0.000000000000000e+000 +0.000000000000000e+000   +0.000000000000000e+000 +0.000000000000000e+000   +9.849269401687280e-001 -1.891399142944420e-001   
+2.006000000000000e+010   +9.728420162470970e-001 -2.229468997415860e-001   +0.000000000000000e+000 +0.000000000000000e+000   +0.000000000000000e+000 +0.000000000000000e+000   +9.853107425461850e-001 -1.880193516868730e-001   
+2.023000000000000e+010   +9.728113320532800e-001 -2.232128208610350e-001   +0.000000000000000e+000 +0.000000000000000e+000   +0.000000000000000e+000 +0.000000000000000e+000   +9.856789117595420e-001 -1.868400252671720e-001   
+2.040000000000000e+010   +9.727854031311920e-001 -2.234098289309680e-001   +0.000000000000000e+000 +0.000000000000000e+000   +0.000000000000000e+000 +0.000000000000000e+000   +9.860293944927510e-001 -1.856054453807300e-001   
+2.057000000000000e+010   +9.727639584791340e-001 -2.235379788023150e-001   +0.000000000000000e+000 +0.000000000000000e+000   +0.000000000000000e+000 +0.000000000000000e+000   +9.863601469240970e-001 -1.843194553438290e-001   
+2.074000000000000e+010   +9.727467014559300e-001 -2.235975437810750e-001   +0.000000000000000e+000 +0.000000000000000e+000   +0.000000000000000e+000 +0.000000000000000e+000   +9.866691498865210e-001 -1.829862262025980e-001   
+2.091000000000000e+010   +9.727333108978160e-001 -2.235890255794060e-001   +0.000000000000000e+000 +0.000000000000000e+000   +0.000000000000000e+000 +0.000000000000000e+000   +9.869544247383800e-001 -1.816102479211550e-001   
+2.108000000000000e+010   +9.727234427242420e-001 -2.235131628417210e-001   +0.000000000000000e+000 +0.000000000000000e+000   +0.000000000000000e+000 +0.000000000000000e+000   +9.872140494042290e-001 -1.801963169029280e-001   
+2.125000000000000e+010   +9.727167317482390e-001 -2.233709381571050e-001   +0.000000000000000e+000 +0.000000000000000e+000   +0.000000000000000e+000 +0.000000000000000e+000   +9.874461746810580e-001 -1.787495196980530e-001   
+2.142000000000000e+010   +9.727127937775900e-001 -2.231635830413910e-001   +0.000000000000000e+000 +0.000000000000000e+000   +0.000000000000000e+000 +0.000000000000000e+000   +9.876490403847540e-001 -1.772752127626970e-001   
+2.159000000000000e+010   +9.727112279945300e-001 -2.228925810516700e-001   +0.000000000000000e+000 +0.000000000000000e+000   +0.000000000000000e+000 +0.000000000000000e+000   +9.878209911861090e-001 -1.757789983682210e-001   
+2.176000000000000e+010   +9.727116196172860e-001 -2.225596684938600e-001   +0.000000000000000e+000 +0.000000000000000e+000   +0.000000000000000e+000 +0.000000000000000e+000   +9.879604916844050e-001 -1.742666967650410e-001   
+2.193000000000000e+010   +9.727135427971450e-001 -2.221668328407210e-001   +0.000000000000000e+000 +0.000000000000000e+000   +0.000000000000000e+000 +0.000000000000000e+000   +9.880661407772120e-001 -1.727443146348860e-001   
+2.210000000000000e+010   +9.727165636407300e-001 -2.217163086134650e-001   +0.000000000000000e+000 +0.000000000000000e+000   +0.000000000000000e+000 +0.000000000000000e+000   +9.881366847563000e-001 -1.712180103369410e-001   
+2.227000000000000e+010   +9.727202435581510e-001 -2.212105705377140e-001   +0.000000000000000e+000 +0.000000000000000e+000   +0.000000000000000e+000 +0.000000000000000e+000   +9.881710289848110e-001 -1.696940558752950e-001   
+2.244000000000000e+010   +9.727241426357540e-001 -2.206523242352470e-001   +0.000000000000000e+000 +0.000000000000000e+000   +0.000000000000000e+000 +0.000000000000000e+000   +9.881682480999480e-001 -1.681787966207530e-001   
+2.261000000000000e+010   +9.727278232190330e-001 -2.200444941141760e-001   +0.000000000000000e+000 +0.000000000000000e+000   +0.000000000000000e+000 +0.000000000000000e+000   +9.881275941416150e-001 -1.666786086103830e-001   
+2.278000000000000e+010   +9.727308533840110e-001 -2.193902087755610e-001   +0.000000000000000e+000 +0.000000000000000e+000   +0.000000000000000e+000 +0.000000000000000e+000   +9.880485030631930e-001 -1.651998544579320e-001   
+2.295000000000000e+010   +9.727328106036630e-001 -2.186927839258500e-001   +0.000000000000000e+000 +0.000000000000000e+000   +0.000000000000000e+000 +0.000000000000000e+000   +9.879305987654910e-001 -1.637488383525050e-001   
+2.312000000000000e+010   +9.727332852642310e-001 -2.179557029961510e-001   +0.000000000000000e+000 +0.000000000000000e+000   +0.000000000000000e+000 +0.000000000000000e+000   +9.877736952693830e-001 -1.623317606769940e-001   
+2.329000000000000e+010   +9.727318840769330e-001 -2.171825956696210e-001   +0.000000000000000e+000 +0.000000000000000e+000   +0.000000000000000e+000 +0.000000000000000e+000   +9.875777964975850e-001 -1.609546730794480e-001   
+2.346000000000000e+010   +9.727282334554800e-001 -2.163772146628730e-001   +0.000000000000000e+000 +0.000000000000000e+000   +0.000000000000000e+000 +0.000000000000000e+000   +9.873430939265640e-001 -1.596234347039400e-001   
+2.363000000000000e+010   +9.727219825695430e-001 -2.155434109333880e-001   +0.000000000000000e+000 +0.000000000000000e+000   +0.000000000000000e+000 +0.000000000000000e+000   +9.870699621414920e-001 -1.583436700192820e-001   
+2.380000000000000e+010   +9.727128062163710e-001 -2.146851078056790e-001   +0.000000000000000e+000 +0.000000000000000e+000   +0.000000000000000e+000 +0.000000000000000e+000   +9.867589524655120e-001 -1.571207291946880e-001   
+2.397000000000000e+010   +9.727004074790530e-001 -2.138062742262050e-001   +0.000000000000000e+000 +0.000000000000000e+000   +0.000000000000000e+000 +0.000000000000000e+000   +9.864107845750460e-001 -1.559596513401580e-001   
+2.414000000000000e+010   +9.726845199386320e-001 -2.129108977417150e-001   +0.000000000000000e+000 +0.000000000000000e+000   +0.000000000000000e+000 +0.000000000000000e+000   +9.860263366177860e-001 -1.548651313519610e-001   
+2.431000000000000e+010   +9.726649096675950e-001 -2.120029573517350e-001   +0.000000000000000e+000 +0.000000000000000e+000   +0.000000000000000e+000 +0.000000000000000e+000   +9.856066338951750e-001 -1.538414907106120e-001   
+2.448000000000000e+010   +9.726413767878220e-001 -2.110863968282910e-001   +0.000000000000000e+000 +0.000000000000000e+000   +0.000000000000000e+000 +0.000000000000000e+000   +9.851528362541670e-001 -1.528926526032290e-001   
+2.465000000000000e+010   +9.726137566335830e-001 -2.101650987823210e-001   +0.000000000000000e+000 +0.000000000000000e+000   +0.000000000000000e+000 +0.000000000000000e+000   +9.846662247502580e-001 -1.520221216258020e-001   
+2.482000000000000e+010   +9.725819205727680e-001 -2.092428598475610e-001   +0.000000000000000e+000 +0.000000000000000e+000   +0.000000000000000e+000 +0.000000000000000e+000   +9.841481874728550e-001 -1.512329683846570e-001   
+2.499000000000000e+010   +9.725457765009570e-001 -2.083233673122080e-001   +0.000000000000000e+000 +0.000000000000000e+000   +0.000000000000000e+000 +0.000000000000000e+000   +9.836002051035130e-001 -1.505278187986880e-001   
+2.516000000000000e+010   +9.725052687678720e-001 -2.074101774954670e-001   +0.000000000000000e+000 +0.000000000000000e+000   +0.000000000000000e+000 +0.000000000000000e+000   +9.830238363827210e-001 -1.499088483040800e-001   
+2.533000000000000e+010   +9.724603779321200e-001 -2.065066960784380e-001   +0.000000000000000e+000 +0.000000000000000e+000   +0.000000000000000e+000 +0.000000000000000e+000   +9.824207035057750e-001 -1.493777808133590e-001   
+2.550000000000000e+010   +9.724111200986720e-001 -2.056161606512900e-001   +0.000000000000000e+000 +0.000000000000000e+000   +0.000000000000000e+000 +0.000000000000000e+000   +9.817924780828290e-001 -1.489358920299110e-001   
+2.567000000000000e+010   +9.723575459784570e-001 -2.047416254812870e-001   +0.000000000000000e+000 +0.000000000000000e+000   +0.000000000000000e+000 +0.000000000000000e+000   +9.811408674648900e-001 -1.485840171238620e-001   
+2.584000000000000e+010   +9.722997395711000e-001 -2.038859488843990e-001   +0.000000000000000e+000 +0.000000000000000e+000   +0.000000000000000e+000 +0.000000000000000e+000   +9.804676019202410e-001 -1.483225622323830e-001   
+2.601000000000000e+010   +9.722378167390620e-001 -2.030517827400300e-001   +0.000000000000000e+000 +0.000000000000000e+000   +0.000000000000000e+000 +0.000000000000000e+000   +9.797744224346330e-001 -1.481515193284840e-001   
+2.618000000000000e+010   +9.721719235426680e-001 -2.022415647863430e-001   +0.000000000000000e+000 +0.000000000000000e+000   +0.000000000000000e+000 +0.000000000000000e+000   +9.790630696786720e-001 -1.480704843849410e-001   
+2.635000000000000e+010   +9.721022343066340e-001 -2.014575131067410e-001   +0.000000000000000e+000 +0.000000000000000e+000   +0.000000000000000e+000 +0.000000000000000e+000   +9.783352738254770e-001 -1.480786779147120e-001   
+2.652000000000000e+010   +9.720289496740250e-001 -2.007016230214840e-001   +0.000000000000000e+000 +0.000000000000000e+000   +0.000000000000000e+000 +0.000000000000000e+000   +9.775927455951820e-001 -1.481749677455800e-001   
+2.669000000000000e+010   +9.719522945406850e-001 -1.999756661210230e-001   +0.000000000000000e+000 +0.000000000000000e+000   +0.000000000000000e+000 +0.000000000000000e+000   +9.768371681668130e-001 -1.483578934872550e-001   
+2.686000000000000e+010   +9.718725159402410e-001 -1.992811913194930e-001   +0.000000000000000e+000 +0.000000000000000e+000   +0.000000000000000e+000 +0.000000000000000e+000   +9.760701904310660e-001 -1.486256921588600e-001   
+2.703000000000000e+010   +9.717898808008170e-001 -1.986195279859060e-001   +0.000000000000000e+000 +0.000000000000000e+000   +0.000000000000000e+000 +0.000000000000000e+000   +9.752934210559280e-001 -1.489763246912390e-001   
+2.720000000000000e+010   +9.717046739214880e-001 -1.979917904729040e-001   +0.000000000000000e+000 +0.000000000000000e+000   +0.000000000000000e+000 +0.000000000000000e+000   +9.745084238123790e-001 -1.494075027802440e-001   
+2.737000000000000e+010   +9.716171957654530e-001 -1.973988843285290e-001   +0.000000000000000e+000 +0.000000000000000e+000   +0.000000000000000e+000 +0.000000000000000e+000   +9.737167136354850e-001 -1.499167157656620e-001   
+2.754000000000000e+010   +9.715277604650990e-001 -1.968415137700460e-001   +0.000000000000000e+000 +0.000000000000000e+000   +0.000000000000000e+000 +0.000000000000000e+000   +9.729197537328130e-001 -1.505012572188980e-001   
+2.771000000000000e+010   +9.714366938366680e-001 -1.963201901671500e-001   +0.000000000000000e+000 +0.000000000000000e+000   +0.000000000000000e+000 +0.000000000000000e+000   +9.721189535369810e-001 -1.511582509488430e-001   
+2.788000000000000e+010   +9.713443315001330e-001 -1.958352415498000e-001   +0.000000000000000e+000 +0.000000000000000e+000   +0.000000000000000e+000 +0.000000000000000e+000   +9.713156671968160e-001 -1.518846761865870e-001   
+2.805000000000000e+010   +9.712510170990900e-001 -1.953868226640790e-001   +0.000000000000000e+000 +0.000000000000000e+000   +0.000000000000000e+000 +0.000000000000000e+000   +9.705111930272390e-001 -1.526773916862570e-001   
+2.822000000000000e+010   +9.711571006769350e-001 -1.949749256673350e-001   +0.000000000000000e+000 +0.000000000000000e+000   +0.000000000000000e+000 +0.000000000000000e+000   +9.697067733240970e-001 -1.535331585874150e-001   
+2.839000000000000e+010   +9.710629371112790e-001 -1.945993911002750e-001   +0.000000000000000e+000 +0.000000000000000e+000   +0.000000000000000e+000 +0.000000000000000e+000   +9.689035947954540e-001 -1.544486619946590e-001   
+2.856000000000000e+010   +9.709688847207490e-001 -1.942599191733880e-001   +0.000000000000000e+000 +0.000000000000000e+000   +0.000000000000000e+000 +0.000000000000000e+000   +9.681027893886020e-001 -1.554205311530770e-001   
+2.873000000000000e+010   +9.708753040098220e-001 -1.939560809347910e-001   +0.000000000000000e+000 +0.000000000000000e+000   +0.000000000000000e+000 +0.000000000000000e+000   +9.673054354602480e-001 -1.564453579868060e-001   
+2.890000000000000e+010   +9.707825564694540e-001 -1.936873295371480e-001   +0.000000000000000e+000 +0.000000000000000e+000   +0.000000000000000e+000 +0.000000000000000e+000   +9.665125593251120e-001 -1.575197142431780e-001   
+2.907000000000000e+010   +9.706910035527940e-001 -1.934530113215070e-001   +0.000000000000000e+000 +0.000000000000000e+000   +0.000000000000000e+000 +0.000000000000000e+000   +9.657251369526150e-001 -1.586401669888780e-001   
+2.924000000000000e+010   +9.706010058094490e-001 -1.932523765930410e-001   +0.000000000000000e+000 +0.000000000000000e+000   +0.000000000000000e+000 +0.000000000000000e+000   +9.649440958886970e-001 -1.598032927407490e-001   
+2.941000000000000e+010   +9.705129220018660e-001 -1.930845900972130e-001   +0.000000000000000e+000 +0.000000000000000e+000   +0.000000000000000e+000 +0.000000000000000e+000   +9.641703173078770e-001 -1.610056898565350e-001   
+2.958000000000000e+010   +9.704271084385890e-001 -1.929487411707090e-001   +0.000000000000000e+000 +0.000000000000000e+000   +0.000000000000000e+000 +0.000000000000000e+000   +9.634046381475730e-001 -1.622439897645710e-001   
+2.975000000000000e+010   +9.703439183818360e-001 -1.928438533058620e-001   +0.000000000000000e+000 +0.000000000000000e+000   +0.000000000000000e+000 +0.000000000000000e+000   +9.626478533350890e-001 -1.635148666407310e-001   
+2.992000000000000e+010   +9.702637014752980e-001 -1.927688935211170e-001   +0.000000000000000e+000 +0.000000000000000e+000   +0.000000000000000e+000 +0.000000000000000e+000   +9.619007179193490e-001 -1.648150457709240e-001   
+3.009000000000000e+010   +9.701868033793000e-001 -1.927227808919130e-001   +0.000000000000000e+000 +0.000000000000000e+000   +0.000000000000000e+000 +0.000000000000000e+000   +9.611639493970680e-001 -1.661413107887060e-001   
+3.026000000000000e+010   +9.701135653125970e-001 -1.927043949468950e-001   +0.000000000000000e+000 +0.000000000000000e+000   +0.000000000000000e+000 +0.000000000000000e+000   +9.604382297961450e-001 -1.674905097148980e-001   
+3.043000000000000e+010   +9.700443237972850e-001 -1.927125831899750e-001   +0.000000000000000e+000 +0.000000000000000e+000   +0.000000000000000e+000 +0.000000000000000e+000   +9.597242078636160e-001 -1.688595598344130e-001   
+3.060000000000000e+010   +9.699794104143210e-001 -1.927461684655420e-001   +0.000000000000000e+000 +0.000000000000000e+000   +0.000000000000000e+000 +0.000000000000000e+000   +9.590225011431970e-001 -1.702454518364460e-001   
+3.077000000000000e+010   +9.699191515335920e-001 -1.928039555372460e-001   +0.000000000000000e+000 +0.000000000000000e+000   +0.000000000000000e+000 +0.000000000000000e+000   +9.583336978704560e-001 -1.716452528019310e-001   
+3.094000000000000e+010   +9.698638681920650e-001 -1.928847373905390e-001   +0.000000000000000e+000 +0.000000000000000e+000   +0.000000000000000e+000 +0.000000000000000e+000   +9.576583590126080e-001 -1.730561085505240e-001   
+3.111000000000000e+010   +9.698138759165820e-001 -1.929873009197450e-001   +0.000000000000000e+000 +0.000000000000000e+000   +0.000000000000000e+000 +0.000000000000000e+000   +9.569970199535490e-001 -1.744752452485870e-001   
+3.128000000000000e+010   +9.697694846428890e-001 -1.931104322367990e-001   +0.000000000000000e+000 +0.000000000000000e+000   +0.000000000000000e+000 +0.000000000000000e+000   +9.563501922664700e-001 -1.758999702771340e-001   
+3.145000000000000e+010   +9.697309985456610e-001 -1.932529216002940e-001   +0.000000000000000e+000 +0.000000000000000e+000   +0.000000000000000e+000 +0.000000000000000e+000   +9.557183653158190e-001 -1.773276726816910e-001   
+3.162000000000000e+010   +9.696987159819130e-001 -1.934135677945640e-001   +0.000000000000000e+000 +0.000000000000000e+000   +0.000000000000000e+000 +0.000000000000000e+000   +9.551020076723130e-001 -1.787558230306760e-001   
+3.179000000000000e+010   +9.696729294114870e-001 -1.935911823494250e-001   +0.000000000000000e+000 +0.000000000000000e+000   +0.000000000000000e+000 +0.000000000000000e+000   +9.545015685414790e-001 -1.801819728578000e-001   
+3.196000000000000e+010   +9.696539252126090e-001 -1.937845932111670e-001   +0.000000000000000e+000 +0.000000000000000e+000   +0.000000000000000e+000 +0.000000000000000e+000   +9.539174790322290e-001 -1.816037537977330e-001   
+3.213000000000000e+010   +9.696419836418600e-001 -1.939926482432770e-001   +0.000000000000000e+000 +0.000000000000000e+000   +0.000000000000000e+000 +0.000000000000000e+000   +9.533501532083530e-001 -1.830188763834380e-001   
+3.230000000000000e+010   +9.696373786986330e-001 -1.942142183848170e-001   +0.000000000000000e+000 +0.000000000000000e+000   +0.000000000000000e+000 +0.000000000000000e+000   +9.527999892043820e-001 -1.844251285600150e-001   
+3.247000000000000e+010   +9.696403779293300e-001 -1.944482004881490e-001   +0.000000000000000e+000 +0.000000000000000e+000   +0.000000000000000e+000 +0.000000000000000e+000   +9.522673700671290e-001 -1.858203741268640e-001   
+3.264000000000000e+010   +9.696512422914870e-001 -1.946935200825850e-001   +0.000000000000000e+000 +0.000000000000000e+000   +0.000000000000000e+000 +0.000000000000000e+000   +9.517526645476970e-001 -1.872025509312120e-001   
+3.281000000000000e+010   +9.696702259694390e-001 -1.949491337971350e-001   +0.000000000000000e+000 +0.000000000000000e+000   +0.000000000000000e+000 +0.000000000000000e+000   +9.512562277694700e-001 -1.885696690116760e-001   
+3.298000000000000e+010   +9.696975760803410e-001 -1.952140316135380e-001   +0.000000000000000e+000 +0.000000000000000e+000   +0.000000000000000e+000 +0.000000000000000e+000   +9.507784017936220e-001 -1.899198086416790e-001   
+3.315000000000000e+010   +9.697335324439130e-001 -1.954872390687380e-001   +0.000000000000000e+000 +0.000000000000000e+000   +0.000000000000000e+000 +0.000000000000000e+000   +9.503195159483000e-001 -1.912511184493790e-001   
+3.332000000000000e+010   +9.697783272586180e-001 -1.957678192265110e-001   +0.000000000000000e+000 +0.000000000000000e+000   +0.000000000000000e+000 +0.000000000000000e+000   +9.498798872821730e-001 -1.925618134005530e-001   
+3.349000000000000e+010   +9.698321847260180e-001 -1.960548745394610e-001   +0.000000000000000e+000 +0.000000000000000e+000   +0.000000000000000e+000 +0.000000000000000e+000   +9.494598205974470e-001 -1.938501730191010e-001   
+3.366000000000000e+010   +9.698953207070070e-001 -1.963475487717290e-001   +0.000000000000000e+000 +0.000000000000000e+000   +0.000000000000000e+000 +0.000000000000000e+000   +9.490596086240350e-001 -1.951145395176790e-001   
+3.383000000000000e+010   +9.699679421638140e-001 -1.966450286561270e-001   +0.000000000000000e+000 +0.000000000000000e+000   +0.000000000000000e+000 +0.000000000000000e+000   +9.486795318399650e-001 -1.963533161623550e-001   
+3.400000000000000e+010   +9.700502467552360e-001 -1.969465456820870e-001   +0.000000000000000e+000 +0.000000000000000e+000   +0.000000000000000e+000 +0.000000000000000e+000   +9.483198584621710e-001 -1.975649657031220e-001   
+3.417000000000000e+010   +9.701424222081190e-001 -1.972513777139740e-001   +0.000000000000000e+000 +0.000000000000000e+000   +0.000000000000000e+000 +0.000000000000000e+000   +9.479808439576920e-001 -1.987480089317490e-001   
+3.434000000000000e+010   +9.702446457549150e-001 -1.975588507824420e-001   +0.000000000000000e+000 +0.000000000000000e+000   +0.000000000000000e+000 +0.000000000000000e+000   +9.476627307810940e-001 -1.999010236191790e-001   
+3.451000000000000e+010   +9.703570833909930e-001 -1.978683406876380e-001   +0.000000000000000e+000 +0.000000000000000e+000   +0.000000000000000e+000 +0.000000000000000e+000   +9.473657476996340e-001 -2.010226433418180e-001   
+3.468000000000000e+010   +9.704798892195690e-001 -1.981792748242430e-001   +0.000000000000000e+000 +0.000000000000000e+000   +0.000000000000000e+000 +0.000000000000000e+000   +9.470901092267430e-001 -2.021115568950810e-001   
+3.485000000000000e+010   +9.706132045799440e-001 -1.984911338789860e-001   +0.000000000000000e+000 +0.000000000000000e+000   +0.000000000000000e+000 +0.000000000000000e+000   +9.468360148013360e-001 -2.031665076163400e-001   
+3.502000000000000e+010   +9.707571572302380e-001 -1.988034537014610e-001   +0.000000000000000e+000 +0.000000000000000e+000   +0.000000000000000e+000 +0.000000000000000e+000   +9.466036478272530e-001 -2.041862933055290e-001   
+3.519000000000000e+010   +9.709118604104230e-001 -1.991158272308050e-001   +0.000000000000000e+000 +0.000000000000000e+000   +0.000000000000000e+000 +0.000000000000000e+000   +9.463931747513020e-001 -2.051697661938080e-001   
+3.536000000000000e+010   +9.710774118848690e-001 -1.994279064282690e-001   +0.000000000000000e+000 +0.000000000000000e+000   +0.000000000000000e+000 +0.000000000000000e+000   +9.462047437767010e-001 -2.061158333448030e-001   
+3.553000000000000e+010   +9.712538928222200e-001 -1.997394043667920e-001   +0.000000000000000e+000 +0.000000000000000e+000   +0.000000000000000e+000 +0.000000000000000e+000   +9.460384837239550e-001 -2.070234574064770e-001   
+3.570000000000000e+010   +9.714413667359840e-001 -2.000500974835900e-001   +0.000000000000000e+000 +0.000000000000000e+000   +0.000000000000000e+000 +0.000000000000000e+000   +9.458945025560240e-001 -2.078916576548540e-001   
+3.587000000000000e+010   +9.716398783177560e-001 -2.003598277363890e-001   +0.000000000000000e+000 +0.000000000000000e+000   +0.000000000000000e+000 +0.000000000000000e+000   +9.457728859408790e-001 -2.087195114708140e-001   
+3.604000000000000e+010   +9.718494520907780e-001 -2.006685050794540e-001   +0.000000000000000e+000 +0.000000000000000e+000   +0.000000000000000e+000 +0.000000000000000e+000   +9.456736955469350e-001 -2.095061561894900e-001   
+3.621000000000000e+010   +9.720700912334900e-001 -2.009761099958020e-001   +0.000000000000000e+000 +0.000000000000000e+000   +0.000000000000000e+000 +0.000000000000000e+000   +9.455969674293300e-001 -2.102507914078920e-001   
+3.638000000000000e+010   +9.723017761300540e-001 -2.012826960751150e-001   +0.000000000000000e+000 +0.000000000000000e+000   +0.000000000000000e+000 +0.000000000000000e+000   +9.455427101427530e-001 -2.109526816594270e-001   
+3.655000000000000e+010   +9.725444629062660e-001 -2.015883927895320e-001   +0.000000000000000e+000 +0.000000000000000e+000   +0.000000000000000e+000 +0.000000000000000e+000   +9.455109028246750e-001 -2.116111596303800e-001   
+3.672000000000000e+010   +9.727980820499040e-001 -2.018934083987690e-001   +0.000000000000000e+000 +0.000000000000000e+000   +0.000000000000000e+000 +0.000000000000000e+000   +9.455014931950530e-001 -2.122256297934660e-001   
+3.689000000000000e+010   +9.730625367341900e-001 -2.021980328691470e-001   +0.000000000000000e+000 +0.000000000000000e+000   +0.000000000000000e+000 +0.000000000000000e+000   +9.455143954782380e-001 -2.127955725309950e-001   
+3.706000000000000e+010   +9.733377012881250e-001 -2.025026410252990e-001   +0.000000000000000e+000 +0.000000000000000e+000   +0.000000000000000e+000 +0.000000000000000e+000   +9.455494881822290e-001 -2.133205488480780e-001   
+3.723000000000000e+010   +9.736234195639420e-001 -2.028076956875030e-001   +0.000000000000000e+000 +0.000000000000000e+000   +0.000000000000000e+000 +0.000000000000000e+000   +9.456066119322230e-001 -2.138002054313650e-001   
+3.740000000000000e+010   +9.739195031298810e-001 -2.031137509481060e-001   +0.000000000000000e+000 +0.000000000000000e+000   +0.000000000000000e+000 +0.000000000000000e+000   +9.456855671012020e-001 -2.142342804312690e-001   
+3.757000000000000e+010   +9.742257296646670e-001 -2.034214555142940e-001   +0.000000000000000e+000 +0.000000000000000e+000   +0.000000000000000e+000 +0.000000000000000e+000   +9.457861116209020e-001 -2.146226096176100e-001   
+3.774000000000000e+010   +9.745418410405860e-001 -2.037315559929980e-001   +0.000000000000000e+000 +0.000000000000000e+000   +0.000000000000000e+000 +0.000000000000000e+000   +9.459079585431370e-001 -2.149651331023310e-001   
+3.791000000000000e+010   +9.748675415962830e-001 -2.040449002916720e-001   +0.000000000000000e+000 +0.000000000000000e+000   +0.000000000000000e+000 +0.000000000000000e+000   +9.460507736875690e-001 -2.152619026024440e-001   
+3.808000000000000e+010   +9.752024962990000e-001 -2.043624409616360e-001   +0.000000000000000e+000 +0.000000000000000e+000   +0.000000000000000e+000 +0.000000000000000e+000   +9.462141734361850e-001 -2.155130892578790e-001   
+3.825000000000000e+010   +9.755463287988710e-001 -2.046852384256890e-001   +0.000000000000000e+000 +0.000000000000000e+000   +0.000000000000000e+000 +0.000000000000000e+000   +9.463977223414910e-001 -2.157189917768560e-001   
+3.842000000000000e+010   +9.758986196671230e-001 -2.050144641511160e-001   +0.000000000000000e+000 +0.000000000000000e+000   +0.000000000000000e+000 +0.000000000000000e+000   +9.466009309599780e-001 -2.158800451621330e-001   
+3.859000000000000e+010   +9.762589044520390e-001 -2.053514036275380e-001   +0.000000000000000e+000 +0.000000000000000e+000   +0.000000000000000e+000 +0.000000000000000e+000   +9.468232537287080e-001 -2.159968298455280e-001   
+3.876000000000000e+010   +9.766266718506040e-001 -2.056974590919830e-001   +0.000000000000000e+000 +0.000000000000000e+000   +0.000000000000000e+000 +0.000000000000000e+000   +9.470640869747840e-001 -2.160700811317170e-001   
+3.893000000000000e+010   +9.770013618883390e-001 -2.060541520620740e-001   +0.000000000000000e+000 +0.000000000000000e+000   +0.000000000000000e+000 +0.000000000000000e+000   +9.473227670227620e-001 -2.161006989656580e-001   
+3.910000000000000e+010   +9.773823640592240e-001 -2.064231254006850e-001   +0.000000000000000e+000 +0.000000000000000e+000   +0.000000000000000e+000 +0.000000000000000e+000   +9.475985685840390e-001 -2.160897579429450e-001   
+3.927000000000000e+010   +9.777690156399420e-001 -2.068061449969410e-001   +0.000000000000000e+000 +0.000000000000000e+000   +0.000000000000000e+000 +0.000000000000000e+000   +9.478907032509760e-001 -2.160385174124280e-001   
+3.944000000000000e+010   +9.781605999665200e-001 -2.072051008777180e-001   +0.000000000000000e+000 +0.000000000000000e+000   +0.000000000000000e+000 +0.000000000000000e+000   +9.481983183308780e-001 -2.159484316571420e-001   
+3.961000000000000e+010   +9.785563448313010e-001 -2.076220077759480e-001   +0.000000000000000e+000 +0.000000000000000e+000   +0.000000000000000e+000 +0.000000000000000e+000   +9.485204959466660e-001 -2.158211599063020e-001   
+3.978000000000000e+010   +9.789554210118460e-001 -2.080590049170320e-001   +0.000000000000000e+000 +0.000000000000000e+000   +0.000000000000000e+000 +0.000000000000000e+000   +9.488562523778100e-001 -2.156585762545640e-001   
+3.995000000000000e+010   +9.793569408696830e-001 -2.085183549893120e-001   +0.000000000000000e+000 +0.000000000000000e+000   +0.000000000000000e+000 +0.000000000000000e+000   +9.492045379350630e-001 -2.154627789659670e-001   
+4.012000000000000e+010   +9.797599571377650e-001 -2.090024422631840e-001   +0.000000000000000e+000 +0.000000000000000e+000   +0.000000000000000e+000 +0.000000000000000e+000   +9.495642369985910e-001 -2.152360994956390e-001   
+4.029000000000000e+010   +9.801634619013750e-001 -2.095137695728400e-001   +0.000000000000000e+000 +0.000000000000000e+000   +0.000000000000000e+000 +0.000000000000000e+000   +9.499341686767980e-001 -2.149811105753430e-001   
+4.046000000000000e+010   +9.805663856559530e-001 -2.100549542509660e-001   +0.000000000000000e+000 +0.000000000000000e+000   +0.000000000000000e+000 +0.000000000000000e+000   +9.503130878414350e-001 -2.147006333842460e-001   
+4.063000000000000e+010   +9.809675967961640e-001 -2.106287228487150e-001   +0.000000000000000e+000 +0.000000000000000e+000   +0.000000000000000e+000 +0.000000000000000e+000   +9.506996865536360e-001 -2.143977436856570e-001   
+4.080000000000000e+010   +9.813659012037790e-001 -2.112379043672200e-001   +0.000000000000000e+000 +0.000000000000000e+000   +0.000000000000000e+000 +0.000000000000000e+000   +9.510925961358900e-001 -2.140757764220380e-001   
+4.097000000000000e+010   +9.817600421274360e-001 -2.118854222714330e-001   +0.000000000000000e+000 +0.000000000000000e+000   +0.000000000000000e+000 +0.000000000000000e+000   +9.514903895843190e-001 -2.137383287943280e-001   
+4.114000000000000e+010   +9.821487005532860e-001 -2.125742848232130e-001   +0.000000000000000e+000 +0.000000000000000e+000   +0.000000000000000e+000 +0.000000000000000e+000   +9.518915846830680e-001 -2.133892615564220e-001   
+4.131000000000000e+010   +9.825304957200110e-001 -2.133075738844690e-001   +0.000000000000000e+000 +0.000000000000000e+000   +0.000000000000000e+000 +0.000000000000000e+000   +9.522946473729260e-001 -2.130326980823710e-001   
+4.148000000000000e+010   +9.829039861450350e-001 -2.140884322162330e-001   +0.000000000000000e+000 +0.000000000000000e+000   +0.000000000000000e+000 +0.000000000000000e+000   +9.526979958499710e-001 -2.126730213191230e-001   
+4.165000000000000e+010   +9.832676711413440e-001 -2.149200488553410e-001   +0.000000000000000e+000 +0.000000000000000e+000   +0.000000000000000e+000 +0.000000000000000e+000   +9.531000049934590e-001 -2.123148680299730e-001   
+4.182000000000000e+010   +9.836199926619060e-001 -2.158056430976650e-001   +0.000000000000000e+000 +0.000000000000000e+000   +0.000000000000000e+000 +0.000000000000000e+000   +9.534990112223970e-001 -2.119631205245880e-001   
+4.199000000000000e+010   +9.839593377692560e-001 -2.167484466302010e-001   +0.000000000000000e+000 +0.000000000000000e+000   +0.000000000000000e+000 +0.000000000000000e+000   +9.538933178824580e-001 -2.116228953180330e-001   
+4.216000000000000e+010   +9.842840415610510e-001 -2.177516842045940e-001   +0.000000000000000e+000 +0.000000000000000e+000   +0.000000000000000e+000 +0.000000000000000e+000   +9.542812007755730e-001 -2.112995289764560e-001   
+4.233000000000000e+010   +9.845923907581580e-001 -2.188185526844830e-001   +0.000000000000000e+000 +0.000000000000000e+000   +0.000000000000000e+000 +0.000000000000000e+000   +9.546609141896470e-001 -2.109985605840600e-001   
+4.250000000000000e+010   +9.848826278978810e-001 -2.199521987392010e-001   +0.000000000000000e+000 +0.000000000000000e+000   +0.000000000000000e+000 +0.000000000000000e+000   +9.550306969750210e-001 -2.107257111737560e-001   
+4.267000000000000e+010   +9.851529560890650e-001 -2.211556952744820e-001   +0.000000000000000e+000 +0.000000000000000e+000   +0.000000000000000e+000 +0.000000000000000e+000   +9.553887788743410e-001 -2.104868599592950e-001   
+4.284000000000000e+010   +9.854015445486920e-001 -2.224320168006870e-001   +0.000000000000000e+000 +0.000000000000000e+000   +0.000000000000000e+000 +0.000000000000000e+000   +9.557333869150040e-001 -2.102880173039270e-001   
+4.301000000000000e+010   +9.856265347992920e-001 -2.237840138958710e-001   +0.000000000000000e+000 +0.000000000000000e+000   +0.000000000000000e+000 +0.000000000000000e+000   +9.560627517864860e-001 -2.101352946737390e-001   
+4.318000000000000e+010   +9.858260476167950e-001 -2.252143871157790e-001   +0.000000000000000e+000 +0.000000000000000e+000   +0.000000000000000e+000 +0.000000000000000e+000   +9.563751141803720e-001 -2.100348716541540e-001   
+4.335000000000000e+010   +9.859981906130880e-001 -2.267256605753470e-001   +0.000000000000000e+000 +0.000000000000000e+000   +0.000000000000000e+000 +0.000000000000000e+000   +9.566687310414140e-001 -2.099929603339640e-001   
+4.352000000000000e+010   +9.861410667321730e-001 -2.283201555240340e-001   +0.000000000000000e+000 +0.000000000000000e+000   +0.000000000000000e+000 +0.000000000000000e+000   +9.569418815314510e-001 -2.100157672249150e-001   
+4.369000000000000e+010   +9.862527834180280e-001 -2.299999641791620e-001   +0.000000000000000e+000 +0.000000000000000e+000   +0.000000000000000e+000 +0.000000000000000e+000   +9.571928729492500e-001 -2.101094530973910e-001   
+4.386000000000000e+010   +9.863314623857780e-001 -2.317669243127610e-001   +0.000000000000000e+000 +0.000000000000000e+000   +0.000000000000000e+000 +0.000000000000000e+000   +9.574200462429820e-001 -2.102800912148230e-001   
+4.403000000000000e+010   +9.863752503463490e-001 -2.336225947900090e-001   +0.000000000000000e+000 +0.000000000000000e+000   +0.000000000000000e+000 +0.000000000000000e+000   +9.576217813970610e-001 -2.105336242885670e-001   
+4.420000000000000e+010   +9.863823302258390e-001 -2.355682325169210e-001   +0.000000000000000e+000 +0.000000000000000e+000   +0.000000000000000e+000 +0.000000000000000e+000   +9.577965024638970e-001 -2.108758206803150e-001   
+4.437000000000000e+010   +9.863509331142740e-001 -2.376047711708570e-001   +0.000000000000000e+000 +0.000000000000000e+000   +0.000000000000000e+000 +0.000000000000000e+000   +9.579426824090430e-001 -2.113122304422550e-001   
+4.454000000000000e+010   +9.862793506915580e-001 -2.397328018742190e-001   +0.000000000000000e+000 +0.000000000000000e+000   +0.000000000000000e+000 +0.000000000000000e+000   +9.580588477758560e-001 -2.118481415857120e-001   
+4.471000000000000e+010   +9.861659482164660e-001 -2.419525563938840e-001   +0.000000000000000e+000 +0.000000000000000e+000   +0.000000000000000e+000 +0.000000000000000e+000   +9.581435832383050e-001 -2.124885372352420e-001   
+4.488000000000000e+010   +9.860091779201000e-001 -2.442638929550960e-001   +0.000000000000000e+000 +0.000000000000000e+000   +0.000000000000000e+000 +0.000000000000000e+000   +9.581955360201970e-001 -2.132380542139650e-001   
+4.505000000000000e+010   +9.858075925412910e-001 -2.466662850722680e-001   +0.000000000000000e+000 +0.000000000000000e+000   +0.000000000000000e+000 +0.000000000000000e+000   +9.582134203788220e-001 -2.141009435403120e-001   
+4.522000000000000e+010   +9.855598591742190e-001 -2.491588134382440e-001   +0.000000000000000e+000 +0.000000000000000e+000   +0.000000000000000e+000 +0.000000000000000e+000   +9.581960220691730e-001 -2.150810333319060e-001   
+4.539000000000000e+010   +9.852647730129900e-001 -2.517401612490120e-001   +0.000000000000000e+000 +0.000000000000000e+000   +0.000000000000000e+000 +0.000000000000000e+000   +9.581422031672710e-001 -2.161816947366240e-001   
+4.556000000000000e+010   +9.849212709353240e-001 -2.544086129268220e-001   +0.000000000000000e+000 +0.000000000000000e+000   +0.000000000000000e+000 +0.000000000000000e+000   +9.580509069376370e-001 -2.174058111091680e-001   
+4.573000000000000e+010   +9.845284447854390e-001 -2.571620564230730e-001   +0.000000000000000e+000 +0.000000000000000e+000   +0.000000000000000e+000 +0.000000000000000e+000   +9.579211630544460e-001 -2.187557510341290e-001   
+4.590000000000000e+010   +9.840855540622250e-001 -2.599979889770710e-001   +0.000000000000000e+000 +0.000000000000000e+000   +0.000000000000000e+000 +0.000000000000000e+000   +9.577520932813110e-001 -2.202333453000200e-001   
+4.607000000000000e+010   +9.835920379095400e-001 -2.629135265086060e-001   +0.000000000000000e+000 +0.000000000000000e+000   +0.000000000000000e+000 +0.000000000000000e+000   +9.575429173924850e-001 -2.218398683559840e-001   
+4.624000000000000e+010   +9.830475261940590e-001 -2.659054163150520e-001   +0.000000000000000e+000 +0.000000000000000e+000   +0.000000000000000e+000 +0.000000000000000e+000   +9.572929594326210e-001 -2.235760242342060e-001   
+4.641000000000000e+010   +9.824518493771230e-001 -2.689700530840260e-001   +0.000000000000000e+000 +0.000000000000000e+000   +0.000000000000000e+000 +0.000000000000000e+000   +9.570016545996540e-001 -2.254419371202230e-001   
+4.658000000000000e+010   +9.818050470807290e-001 -2.721034980171340e-001   +0.000000000000000e+000 +0.000000000000000e+000   +0.000000000000000e+000 +0.000000000000000e+000   +9.566685560481990e-001 -2.274371467798690e-001   
+4.675000000000000e+010   +9.811073752333100e-001 -2.753015008414530e-001   +0.000000000000000e+000 +0.000000000000000e+000   +0.000000000000000e+000 +0.000000000000000e+000   +9.562933421655390e-001 -2.295606087524110e-001   
+4.692000000000000e+010   +9.803593113014120e-001 -2.785595242346000e-001   +0.000000000000000e+000 +0.000000000000000e+000   +0.000000000000000e+000 +0.000000000000000e+000   +9.558758238743830e-001 -2.318106991679440e-001   
+4.709000000000000e+010   +9.795615579011280e-001 -2.818727708026870e-001   +0.000000000000000e+000 +0.000000000000000e+000   +0.000000000000000e+000 +0.000000000000000e+000   +9.554159518503690e-001 -2.341852243477920e-001   
+4.726000000000000e+010   +9.787150442625330e-001 -2.852362118358250e-001   +0.000000000000000e+000 +0.000000000000000e+000   +0.000000000000000e+000 +0.000000000000000e+000   +9.549138236416680e-001 -2.366814347978770e-001   
+4.743000000000000e+010   +9.778209257428340e-001 -2.886446177214480e-001   +0.000000000000000e+000 +0.000000000000000e+000   +0.000000000000000e+000 +0.000000000000000e+000   +9.543696902701960e-001 -2.392960434616530e-001   
+4.760000000000000e+010   +9.768805811323870e-001 -2.920925896251710e-001   +0.000000000000000e+000 +0.000000000000000e+000   +0.000000000000000e+000 +0.000000000000000e+000   +9.537839624161510e-001 -2.420252480362420e-001   
+4.777000000000000e+010   +9.758956078086530e-001 -2.955745920440870e-001   +0.000000000000000e+000 +0.000000000000000e+000   +0.000000000000000e+000 +0.000000000000000e+000   +9.531572157696180e-001 -2.448647569662590e-001   
+4.794000000000000e+010   +9.748678147943790e-001 -2.990849858760110e-001   +0.000000000000000e+000 +0.000000000000000e+000   +0.000000000000000e+000 +0.000000000000000e+000   +9.524901954099560e-001 -2.478098189336700e-001   
+4.811000000000000e+010   +9.737992135955290e-001 -3.026180616359010e-001   +0.000000000000000e+000 +0.000000000000000e+000   +0.000000000000000e+000 +0.000000000000000e+000   +9.517838191515610e-001 -2.508552552875810e-001   
+4.828000000000000e+010   +9.726920072156280e-001 -3.061680723877930e-001   +0.000000000000000e+000 +0.000000000000000e+000   +0.000000000000000e+000 +0.000000000000000e+000   +9.510391795412680e-001 -2.539954952239080e-001   
+4.845000000000000e+010   +9.715485771123810e-001 -3.097292662314170e-001   +0.000000000000000e+000 +0.000000000000000e+000   +0.000000000000000e+000 +0.000000000000000e+000   +9.502575445154470e-001 -2.572246131593490e-001   
+4.862000000000000e+010   +9.703714685206230e-001 -3.132959177685680e-001   +0.000000000000000e+000 +0.000000000000000e+000   +0.000000000000000e+000 +0.000000000000000e+000   +9.494403563378730e-001 -2.605363679811600e-001   
+4.879000000000000e+010   +9.691633742747600e-001 -3.168623584635300e-001   +0.000000000000000e+000 +0.000000000000000e+000   +0.000000000000000e+000 +0.000000000000000e+000   +9.485892291679680e-001 -2.639242437099670e-001   
+4.896000000000000e+010   +9.679271172570870e-001 -3.204230054821420e-001   +0.000000000000000e+000 +0.000000000000000e+000   +0.000000000000000e+000 +0.000000000000000e+000   +9.477059448222900e-001 -2.673814910624640e-001   
+4.913000000000000e+010   +9.666656319268560e-001 -3.239723888203530e-001   +0.000000000000000e+000 +0.000000000000000e+000   +0.000000000000000e+000 +0.000000000000000e+000   +9.467924468673860e-001 -2.709011695906280e-001   
+4.930000000000000e+010   +9.653819448264630e-001 -3.275051765397990e-001   +0.000000000000000e+000 +0.000000000000000e+000   +0.000000000000000e+000 +0.000000000000000e+000   +9.458508331830930e-001 -2.744761898952600e-001   
+4.947000000000000e+010   +9.640791547857190e-001 -3.310161977812160e-001   +0.000000000000000e+000 +0.000000000000000e+000   +0.000000000000000e+000 +0.000000000000000e+000   +9.448833468585290e-001 -2.780993554297700e-001   
+4.964000000000000e+010   +9.627604127925260e-001 -3.345004636524010e-001   +0.000000000000000e+000 +0.000000000000000e+000   +0.000000000000000e+000 +0.000000000000000e+000   +9.438923656735830e-001 -2.817634036221480e-001   
+4.981000000000000e+010   +9.614289017311250e-001 -3.379531856203650e-001   +0.000000000000000e+000 +0.000000000000000e+000   +0.000000000000000e+000 +0.000000000000000e+000   +9.428803902919350e-001 -2.854610457839070e-001   
+4.998000000000000e+010   +9.600878166493670e-001 -3.413697915333170e-001   +0.000000000000000e+000 +0.000000000000000e+000   +0.000000000000000e+000 +0.000000000000000e+000   +9.418500311561070e-001 -2.891850055696680e-001   
+5.015000000000000e+010   +9.587403452096560e-001 -3.447459391801890e-001   +0.000000000000000e+000 +0.000000000000000e+000   +0.000000000000000e+000 +0.000000000000000e+000   +9.408039945675470e-001 -2.929280554743510e-001   
+5.032000000000000e+010   +9.573896492010400e-001 -3.480775272908920e-001   +0.000000000000000e+000 +0.000000000000000e+000   +0.000000000000000e+000 +0.000000000000000e+000   +9.397450678660550e-001 -2.966830513396890e-001   
+5.049000000000000e+010   +9.560388467386950e-001 -3.513607041152400e-001   +0.000000000000000e+000 +0.000000000000000e+000   +0.000000000000000e+000 +0.000000000000000e+000   +9.386761039952860e-001 -3.004429643782700e-001   
+5.066000000000000e+010   +9.546909956424230e-001 -3.545918736451390e-001   +0.000000000000000e+000 +0.000000000000000e+000   +0.000000000000000e+000 +0.000000000000000e+000   +9.376000058779780e-001 -3.042009105971640e-001   
+5.083000000000000e+010   +9.533490781093000e-001 -3.577676995279130e-001   +0.000000000000000e+000 +0.000000000000000e+000   +0.000000000000000e+000 +0.000000000000000e+000   +9.365197104003450e-001 -3.079501774699150e-001   
+5.100000000000000e+010   +9.520159866450100e-001 -3.608851066613730e-001   +0.000000000000000e+000 +0.000000000000000e+000   +0.000000000000000e+000 +0.000000000000000e+000   +9.354381726687780e-001 -3.116842477252130e-001   
+5.117000000000000e+010   +9.506945116253610e-001 -3.639412809124780e-001   +0.000000000000000e+000 +0.000000000000000e+000   +0.000000000000000e+000 +0.000000000000000e+000   +9.343583503730380e-001 -3.153968201520920e-001   
+5.134000000000000e+010   +9.493873300950510e-001 -3.669336668006460e-001   +0.000000000000000e+000 +0.000000000000000e+000   +0.000000000000000e+000 +0.000000000000000e+000   +9.332831886356670e-001 -3.190818274492470e-001   
+5.151000000000000e+010   +9.480969963898110e-001 -3.698599634930850e-001   +0.000000000000000e+000 +0.000000000000000e+000   +0.000000000000000e+000 +0.000000000000000e+000   +9.322156054883620e-001 -3.227334511110840e-001   
+5.168000000000000e+010   +9.468259340576150e-001 -3.727181191585630e-001   +0.000000000000000e+000 +0.000000000000000e+000   +0.000000000000000e+000 +0.000000000000000e+000   +9.311584779944790e-001 -3.263461332771330e-001   
+5.185000000000000e+010   +9.455764294293350e-001 -3.755063240238060e-001   +0.000000000000000e+000 +0.000000000000000e+000   +0.000000000000000e+000 +0.000000000000000e+000   +9.301146293381860e-001 -3.299145859050340e-001   
+5.202000000000000e+010   +9.443506266316510e-001 -3.782230021520920e-001   +0.000000000000000e+000 +0.000000000000000e+000   +0.000000000000000e+000 +0.000000000000000e+000   +9.290868167737570e-001 -3.334337971222790e-001   
+5.219000000000000e+010   +9.431505239216250e-001 -3.808668021437360e-001   +0.000000000000000e+000 +0.000000000000000e+000   +0.000000000000000e+000 +0.000000000000000e+000   +9.280777207459710e-001 -3.368990350917260e-001   
+5.236000000000000e+010   +9.419779715129530e-001 -3.834365872527700e-001   +0.000000000000000e+000 +0.000000000000000e+000   +0.000000000000000e+000 +0.000000000000000e+000   +9.270899348361510e-001 -3.403058494534210e-001   
+5.253000000000000e+010   +9.408346704181960e-001 -3.859314244142380e-001   +0.000000000000000e+000 +0.000000000000000e+000   +0.000000000000000e+000 +0.000000000000000e+000   +9.261259571579140e-001 -3.436500705113850e-001   
+5.270000000000000e+010   +9.397221725635090e-001 -3.883505732327740e-001   +0.000000000000000e+000 +0.000000000000000e+000   +0.000000000000000e+000 +0.000000000000000e+000   +9.251881825602240e-001 -3.469278065998430e-001   
+5.287000000000000e+010   +9.386418819787440e-001 -3.906934742222020e-001   +0.000000000000000e+000 +0.000000000000000e+000   +0.000000000000000e+000 +0.000000000000000e+000   +9.242788961143160e-001 -3.501354395012410e-001   
+5.304000000000000e+010   +9.375950566629920e-001 -3.929597371803190e-001   +0.000000000000000e+000 +0.000000000000000e+000   +0.000000000000000e+000 +0.000000000000000e+000   +9.234002676033590e-001 -3.532696183697090e-001   
+5.321000000000000e+010   +9.365828114992560e-001 -3.951491293086600e-001   +0.000000000000000e+000 +0.000000000000000e+000   +0.000000000000000e+000 +0.000000000000000e+000   +9.225543470844300e-001 -3.563272523062460e-001   
+5.338000000000000e+010   +9.356061216954020e-001 -3.972615634097510e-001   +0.000000000000000e+000 +0.000000000000000e+000   +0.000000000000000e+000 +0.000000000000000e+000   +9.217430614205190e-001 -3.593055017960720e-001   
+5.355000000000000e+010   +9.346658268851120e-001 -3.992970864098970e-001   +0.000000000000000e+000 +0.000000000000000e+000   +0.000000000000000e+000 +0.000000000000000e+000   +9.209682116869420e-001 -3.622017693023660e-001   
+5.372000000000000e+010   +9.337626356571610e-001 -4.012558679958910e-001   +0.000000000000000e+000 +0.000000000000000e+000   +0.000000000000000e+000 +0.000000000000000e+000   +9.202314714172560e-001 -3.650136889540940e-001   
+5.389000000000000e+010   +9.328971304433460e-001 -4.031381897003840e-001   +0.000000000000000e+000 +0.000000000000000e+000   +0.000000000000000e+000 +0.000000000000000e+000   +9.195343857265280e-001 -3.677391159030310e-001   
+5.406000000000000e+010   +9.320697727063770e-001 -4.049444342987150e-001   +0.000000000000000e+000 +0.000000000000000e+000   +0.000000000000000e+000 +0.000000000000000e+000   +9.188783709569370e-001 -3.703761152000340e-001   
+5.423000000000000e+010   +9.312809083217240e-001 -4.066750759426920e-001   +0.000000000000000e+000 +0.000000000000000e+000   +0.000000000000000e+000 +0.000000000000000e+000   +9.182647150515450e-001 -3.729229505116340e-001   
+5.440000000000000e+010   +9.305307731205060e-001 -4.083306705553200e-001   +0.000000000000000e+000 +0.000000000000000e+000   +0.000000000000000e+000 +0.000000000000000e+000   +9.176945783812820e-001 -3.753780727475270e-001   
+5.457000000000000e+010   +9.298194983039960e-001 -4.099118469160450e-001   +0.000000000000000e+000 +0.000000000000000e+000   +0.000000000000000e+000 +0.000000000000000e+000   +9.171689950637230e-001 -3.777401089130100e-001   
+5.474000000000000e+010   +9.291471160667470e-001 -4.114192983828310e-001   +0.000000000000000e+000 +0.000000000000000e+000   +0.000000000000000e+000 +0.000000000000000e+000   +9.166888745874470e-001 -3.800078509379580e-001   
+5.491000000000000e+010   +9.285135650289160e-001 -4.128537752275380e-001   +0.000000000000000e+000 +0.000000000000000e+000   +0.000000000000000e+000 +0.000000000000000e+000   +9.162550038320520e-001 -3.821802449959710e-001   
+5.508000000000000e+010   +9.279186955715220e-001 -4.142160774924790e-001   +0.000000000000000e+000 +0.000000000000000e+000   +0.000000000000000e+000 +0.000000000000000e+000   +9.158680492176080e-001 -3.842563811794460e-001   
+5.525000000000000e+010   +9.273622750220050e-001 -4.155070485698220e-001   +0.000000000000000e+000 +0.000000000000000e+000   +0.000000000000000e+000 +0.000000000000000e+000   +9.155285591188420e-001 -3.862354836239180e-001   
+5.542000000000000e+010   +9.268439926730770e-001 -4.167275694889130e-001   +0.000000000000000e+000 +0.000000000000000e+000   +0.000000000000000e+000 +0.000000000000000e+000   +9.152369663133780e-001 -3.881169011246980e-001   
+5.559000000000000e+010   +9.263634646079930e-001 -4.178785536230580e-001   +0.000000000000000e+000 +0.000000000000000e+000   +0.000000000000000e+000 +0.000000000000000e+000   +9.149935905403820e-001 -3.899000984687710e-001   
+5.576000000000000e+010   +9.259202382040000e-001 -4.189609421962970e-001   +0.000000000000000e+000 +0.000000000000000e+000   +0.000000000000000e+000 +0.000000000000000e+000   +9.147986411345390e-001 -3.915846483263930e-001   
+5.593000000000000e+010   +9.255137966042620e-001 -4.199757002672890e-001   +0.000000000000000e+000 +0.000000000000000e+000   +0.000000000000000e+000 +0.000000000000000e+000   +9.146522195273240e-001 -3.931702237686220e-001   
+5.610000000000000e+010   +9.251435627911530e-001 -4.209238133659980e-001   +0.000000000000000e+000 +0.000000000000000e+000   +0.000000000000000e+000 +0.000000000000000e+000   +9.145543218075960e-001 -3.946565915548080e-001   
+5.627000000000000e+010   +9.248089033788890e-001 -4.218062846406050e-001   +0.000000000000000e+000 +0.000000000000000e+000   +0.000000000000000e+000 +0.000000000000000e+000   +9.145048412302980e-001 -3.960436061004910e-001   
+5.644000000000000e+010   +9.245091323144970e-001 -4.226241324950750e-001   +0.000000000000000e+000 +0.000000000000000e+000   +0.000000000000000e+000 +0.000000000000000e+000   +9.145035705328390e-001 -3.973312040955760e-001   
+5.661000000000000e+010   +9.242435142287830e-001 -4.233783888245090e-001   +0.000000000000000e+000 +0.000000000000000e+000   +0.000000000000000e+000 +0.000000000000000e+000   +9.145502042357690e-001 -3.985193999073960e-001   
+5.678000000000000e+010   +9.240112676103370e-001 -4.240700977207350e-001   +0.000000000000000e+000 +0.000000000000000e+000   +0.000000000000000e+000 +0.000000000000000e+000   +9.146443408607960e-001 -3.996082817182450e-001   
+5.695000000000000e+010   +9.238115676720850e-001 -4.247003145038130e-001   +0.000000000000000e+000 +0.000000000000000e+000   +0.000000000000000e+000 +0.000000000000000e+000   +9.147854849917190e-001 -4.005980082360120e-001   
+5.712000000000000e+010   +9.236435491546950e-001 -4.252701053449230e-001   +0.000000000000000e+000 +0.000000000000000e+000   +0.000000000000000e+000 +0.000000000000000e+000   +9.149730491246260e-001 -4.014888062239620e-001   
+5.729000000000000e+010   +9.235063086734350e-001 -4.257805471257100e-001   +0.000000000000000e+000 +0.000000000000000e+000   +0.000000000000000e+000 +0.000000000000000e+000   +9.152063557114860e-001 -4.022809686136800e-001   
+5.746000000000000e+010   +9.233989072184640e-001 -4.262327277791960e-001   +0.000000000000000e+000 +0.000000000000000e+000   +0.000000000000000e+000 +0.000000000000000e+000   +9.154846387062510e-001 -4.029748533196940e-001   
+5.763000000000000e+010   +9.233203721345790e-001 -4.266277469773650e-001   +0.000000000000000e+000 +0.000000000000000e+000   +0.000000000000000e+000 +0.000000000000000e+000   +9.158070453776110e-001 -4.035708826263530e-001   
+5.780000000000000e+010   +9.232696992146870e-001 -4.269667169749840e-001   +0.000000000000000e+000 +0.000000000000000e+000   +0.000000000000000e+000 +0.000000000000000e+000   +9.161726378109370e-001 -4.040695432087430e-001   
+5.797000000000000e+010   +9.232458543994740e-001 -4.272507639059030e-001   +0.000000000000000e+000 +0.000000000000000e+000   +0.000000000000000e+000 +0.000000000000000e+000   +9.165803944272960e-001 -4.044713867009520e-001   
+5.814000000000000e+010   +9.232477755939790e-001 -4.274810291760930e-001   +0.000000000000000e+000 +0.000000000000000e+000   +0.000000000000000e+000 +0.000000000000000e+000   +9.170292114844610e-001 -4.047770307844790e-001   
+5.831000000000000e+010   +9.232743741490540e-001 -4.276586712362520e-001   +0.000000000000000e+000 +0.000000000000000e+000   +0.000000000000000e+000 +0.000000000000000e+000   +9.175179045399000e-001 -4.049871607970020e-001   
+5.848000000000000e+010   +9.233245363802260e-001 -4.277848673918280e-001   +0.000000000000000e+000 +0.000000000000000e+000   +0.000000000000000e+000 +0.000000000000000e+000   +9.180452098225470e-001 -4.051025317673350e-001   
+5.865000000000000e+010   +9.233971248209700e-001 -4.278608158330860e-001   +0.000000000000000e+000 +0.000000000000000e+000   +0.000000000000000e+000 +0.000000000000000e+000   +9.186097857850520e-001 -4.051239708854160e-001   
+5.882000000000000e+010   +9.234909797326910e-001 -4.278877377040840e-001   +0.000000000000000e+000 +0.000000000000000e+000   +0.000000000000000e+000 +0.000000000000000e+000   +9.192102145211540e-001 -4.050523803255370e-001   
+5.899000000000000e+010   +9.236049200776190e-001 -4.278668795382220e-001   +0.000000000000000e+000 +0.000000000000000e+000   +0.000000000000000e+000 +0.000000000000000e+000   +9.198450033572270e-001 -4.048887404384660e-001   
+5.916000000000000e+010   +9.237377448632490e-001 -4.277995153059920e-001   +0.000000000000000e+000 +0.000000000000000e+000   +0.000000000000000e+000 +0.000000000000000e+000   +9.205125865244050e-001 -4.046341131488360e-001   
+5.933000000000000e+010   +9.238882341978210e-001 -4.276869488983840e-001   +0.000000000000000e+000 +0.000000000000000e+000   +0.000000000000000e+000 +0.000000000000000e+000   +9.212113268413000e-001 -4.042896456611960e-001   
+5.950000000000000e+010   +9.240551503606960e-001 -4.275305163556860e-001   +0.000000000000000e+000 +0.000000000000000e+000   +0.000000000000000e+000 +0.000000000000000e+000   +9.219395176301140e-001 -4.038565742794070e-001   
+5.967000000000000e+010   +9.242372389081950e-001 -4.273315881701510e-001   +0.000000000000000e+000 +0.000000000000000e+000   +0.000000000000000e+000 +0.000000000000000e+000   +9.226953847682500e-001 -4.033362283837900e-001   
+5.984000000000000e+010   +9.244332297261580e-001 -4.270915714931740e-001   +0.000000000000000e+000 +0.000000000000000e+000   +0.000000000000000e+000 +0.000000000000000e+000   +9.234770888667700e-001 -4.027300344476360e-001   
+6.001000000000000e+010   +9.246418381348010e-001 -4.268119121557050e-001   +0.000000000000000e+000 +0.000000000000000e+000   +0.000000000000000e+000 +0.000000000000000e+000   +9.242827276735460e-001 -4.020395200941020e-001   
+6.018000000000000e+010   +9.248617658401240e-001 -4.264940967277510e-001   +0.000000000000000e+000 +0.000000000000000e+000   +0.000000000000000e+000 +0.000000000000000e+000   +9.251103386707160e-001 -4.012663180684130e-001   
+6.035000000000000e+010   +9.250917021464010e-001 -4.261396541573110e-001   +0.000000000000000e+000 +0.000000000000000e+000   +0.000000000000000e+000 +0.000000000000000e+000   +9.259579019775850e-001 -4.004121700824700e-001   
+6.052000000000000e+010   +9.253303249794100e-001 -4.257501574347580e-001   +0.000000000000000e+000 +0.000000000000000e+000   +0.000000000000000e+000 +0.000000000000000e+000   +9.268233434319310e-001 -3.994789305849280e-001   
+6.069000000000000e+010   +9.255763020981020e-001 -4.253272249162570e-001   +0.000000000000000e+000 +0.000000000000000e+000   +0.000000000000000e+000 +0.000000000000000e+000   +9.277045378220970e-001 -3.984685701165220e-001   
+6.086000000000000e+010   +9.258282923262280e-001 -4.248725213006840e-001   +0.000000000000000e+000 +0.000000000000000e+000   +0.000000000000000e+000 +0.000000000000000e+000   +9.285993127777100e-001 -3.973831785673210e-001   
+6.103000000000000e+010   +9.260849466764510e-001 -4.243877585311430e-001   +0.000000000000000e+000 +0.000000000000000e+000   +0.000000000000000e+000 +0.000000000000000e+000   +9.295054524184590e-001 -3.962249679151590e-001   
+6.120000000000000e+010   +9.263449098369030e-001 -4.238746961046440e-001   +0.000000000000000e+000 +0.000000000000000e+000   +0.000000000000000e+000 +0.000000000000000e+000   +9.304207017221570e-001 -3.949962745733890e-001   
+6.137000000000000e+010   +9.266068214143980e-001 -4.233351412746470e-001   +0.000000000000000e+000 +0.000000000000000e+000   +0.000000000000000e+000 +0.000000000000000e+000   +9.313427709432490e-001 -3.936995614241570e-001   
+6.154000000000000e+010   +9.268693175661130e-001 -4.227709487301710e-001   +0.000000000000000e+000 +0.000000000000000e+000   +0.000000000000000e+000 +0.000000000000000e+000   +9.322693404368740e-001 -3.923374190107490e-001   
+6.171000000000000e+010   +9.271310324116780e-001 -4.221840199187190e-001   +0.000000000000000e+000 +0.000000000000000e+000   +0.000000000000000e+000 +0.000000000000000e+000   +9.331980657539980e-001 -3.909125664230560e-001   
+6.188000000000000e+010   +9.273905997838780e-001 -4.215763020513200e-001   +0.000000000000000e+000 +0.000000000000000e+000   +0.000000000000000e+000 +0.000000000000000e+000   +9.341265829744730e-001 -3.894278513863010e-001   
+6.205000000000000e+010   +9.276466549508440e-001 -4.209497865591160e-001   +0.000000000000000e+000 +0.000000000000000e+000   +0.000000000000000e+000 +0.000000000000000e+000   +9.350525143391150e-001 -3.878862497209590e-001   
+6.222000000000000e+010   +9.278978364786300e-001 -4.203065072036900e-001   +0.000000000000000e+000 +0.000000000000000e+000   +0.000000000000000e+000 +0.000000000000000e+000   +9.359734741245290e-001 -3.862908640753900e-001   
+6.239000000000000e+010   +9.281427882270910e-001 -4.196485378346800e-001   +0.000000000000000e+000 +0.000000000000000e+000   +0.000000000000000e+000 +0.000000000000000e+000   +9.368870748345250e-001 -3.846449218787920e-001   
+6.256000000000000e+010   +9.283801614230140e-001 -4.189779894757070e-001   +0.000000000000000e+000 +0.000000000000000e+000   +0.000000000000000e+000 +0.000000000000000e+000   +9.377909334671600e-001 -3.829517725171280e-001   
+6.273000000000000e+010   +9.286086168619490e-001 -4.182970073231490e-001   +0.000000000000000e+000 +0.000000000000000e+000   +0.000000000000000e+000 +0.000000000000000e+000   +9.386826781239130e-001 -3.812148837462750e-001   
+6.290000000000000e+010   +9.288268271667530e-001 -4.176077670227790e-001   +0.000000000000000e+000 +0.000000000000000e+000   +0.000000000000000e+000 +0.000000000000000e+000   +9.395599546028170e-001 -3.794378371544430e-001   
+6.307000000000000e+010   +9.290334793410300e-001 -4.169124708040490e-001   +0.000000000000000e+000 +0.000000000000000e+000   +0.000000000000000e+000 +0.000000000000000e+000   +9.404204332800070e-001 -3.776243229834830e-001   
+6.324000000000000e+010   +9.292272771847570e-001 -4.162133430189590e-001   +0.000000000000000e+000 +0.000000000000000e+000   +0.000000000000000e+000 +0.000000000000000e+000   +9.412618159596270e-001 -3.757781339471540e-001   
+6.341000000000000e+010   +9.294069439429730e-001 -4.155126254897940e-001   +0.000000000000000e+000 +0.000000000000000e+000   +0.000000000000000e+000 +0.000000000000000e+000   +9.420818428243210e-001 -3.739031583687640e-001   
+6.358000000000000e+010   +9.295712250677660e-001 -4.148125724367680e-001   +0.000000000000000e+000 +0.000000000000000e+000   +0.000000000000000e+000 +0.000000000000000e+000   +9.428782993243960e-001 -3.720033723878320e-001   
+6.375000000000000e+010   +9.297188910137190e-001 -4.141154451421480e-001   +0.000000000000000e+000 +0.000000000000000e+000   +0.000000000000000e+000 +0.000000000000000e+000   +9.436490231550230e-001 -3.700828315591300e-001   
+6.392000000000000e+010   +9.298487400500870e-001 -4.134235063536790e-001   +0.000000000000000e+000 +0.000000000000000e+000   +0.000000000000000e+000 +0.000000000000000e+000   +9.443919109028240e-001 -3.681456615905580e-001   
+6.409000000000000e+010   +9.299596012805790e-001 -4.127390144590550e-001   +0.000000000000000e+000 +0.000000000000000e+000   +0.000000000000000e+000 +0.000000000000000e+000   +9.451049247401140e-001 -3.661960484309500e-001   
+6.426000000000000e+010   +9.300503375172220e-001 -4.120642174772880e-001   +0.000000000000000e+000 +0.000000000000000e+000   +0.000000000000000e+000 +0.000000000000000e+000   +9.457860988542140e-001 -3.642382277310860e-001   
+6.443000000000000e+010   +9.301198482943740e-001 -4.114013469052490e-001   +0.000000000000000e+000 +0.000000000000000e+000   +0.000000000000000e+000 +0.000000000000000e+000   +9.464335456185340e-001 -3.622764737785700e-001   
+6.460000000000000e+010   +9.301670728367920e-001 -4.107526114748090e-001   +0.000000000000000e+000 +0.000000000000000e+000   +0.000000000000000e+000 +0.000000000000000e+000   +9.470454614095680e-001 -3.603150877918370e-001   
+6.477000000000000e+010   +9.301909929566750e-001 -4.101201908999230e-001   +0.000000000000000e+000 +0.000000000000000e+000   +0.000000000000000e+000 +0.000000000000000e+000   +9.476201322013480e-001 -3.583583859231260e-001   
+6.494000000000000e+010   +9.301906360371500e-001 -4.095062295149140e-001   +0.000000000000000e+000 +0.000000000000000e+000   +0.000000000000000e+000 +0.000000000000000e+000   +9.481559386196030e-001 -3.564106868204480e-001   
+6.511000000000000e+010   +9.301650777447780e-001 -4.089128301298470e-001   +0.000000000000000e+000 +0.000000000000000e+000   +0.000000000000000e+000 +0.000000000000000e+000   +9.486513606964240e-001 -3.544762989615830e-001   
+6.528000000000000e+010   +9.301134448274910e-001 -4.083420477977790e-001   +0.000000000000000e+000 +0.000000000000000e+000   +0.000000000000000e+000 +0.000000000000000e+000   +9.491049820090090e-001 -3.525595077735900e-001   
+6.545000000000000e+010   +9.300349176538710e-001 -4.077958838408160e-001   +0.000000000000000e+000 +0.000000000000000e+000   +0.000000000000000e+000 +0.000000000000000e+000   +9.495154934082580e-001 -3.506645626541730e-001   
+6.562000000000000e+010   +9.299287327337060e-001 -4.072762800056010e-001   +0.000000000000000e+000 +0.000000000000000e+000   +0.000000000000000e+000 +0.000000000000000e+000   +9.498816961595940e-001 -3.487956640299350e-001   
+6.579000000000000e+010   +9.297941848986330e-001 -4.067851129131420e-001   +0.000000000000000e+000 +0.000000000000000e+000   +0.000000000000000e+000 +0.000000000000000e+000   +9.502025045462450e-001 -3.469569504873580e-001   
+6.596000000000000e+010   +9.296306294668390e-001 -4.063241885917240e-001   +0.000000000000000e+000 +0.000000000000000e+000   +0.000000000000000e+000 +0.000000000000000e+000   +9.504769478497350e-001 -3.451524860535130e-001   
+6.613000000000000e+010   +9.294374841440150e-001 -4.058952376123980e-001   +0.000000000000000e+000 +0.000000000000000e+000   +0.000000000000000e+000 +0.000000000000000e+000   +9.507041717831970e-001 -3.433862477363870e-001   
+6.630000000000000e+010   +9.292142305872170e-001 -4.054999101924900e-001   +0.000000000000000e+000 +0.000000000000000e+000   +0.000000000000000e+000 +0.000000000000000e+000   +9.508834393196780e-001 -3.416621135211370e-001   
+6.647000000000000e+010   +9.289604159105770e-001 -4.051397719827610e-001   +0.000000000000000e+000 +0.000000000000000e+000   +0.000000000000000e+000 +0.000000000000000e+000   +9.510141309491640e-001 -3.399838506518730e-001   
+6.664000000000000e+010   +9.286756537928580e-001 -4.048163000189250e-001   +0.000000000000000e+000 +0.000000000000000e+000   +0.000000000000000e+000 +0.000000000000000e+000   +9.510957442309620e-001 -3.383551046158500e-001   
+6.681000000000000e+010   +9.283596253992910e-001 -4.045308792033930e-001   +0.000000000000000e+000 +0.000000000000000e+000   +0.000000000000000e+000 +0.000000000000000e+000   +9.511278930200090e-001 -3.367793884227280e-001   
+6.698000000000000e+010   +9.280120799436690e-001 -4.042847991525520e-001   +0.000000000000000e+000 +0.000000000000000e+000   +0.000000000000000e+000 +0.000000000000000e+000   +9.511103059146820e-001 -3.352600728861980e-001   
+6.715000000000000e+010   +9.276328351363210e-001 -4.040792515219780e-001   +0.000000000000000e+000 +0.000000000000000e+000   +0.000000000000000e+000 +0.000000000000000e+000   +9.510428243178630e-001 -3.338003773699860e-001   
+6.732000000000000e+010   +9.272217772019810e-001 -4.039153276772170e-001   +0.000000000000000e+000 +0.000000000000000e+000   +0.000000000000000e+000 +0.000000000000000e+000   +9.509254000457260e-001 -3.324033613193300e-001   
+6.749000000000000e+010   +9.267788606401500e-001 -4.037940170059400e-001   +0.000000000000000e+000 +0.000000000000000e+000   +0.000000000000000e+000 +0.000000000000000e+000   +9.507580923785540e-001 -3.310719167259720e-001   
+6.766000000000000e+010   +9.263041078413830e-001 -4.037162054187080e-001   +0.000000000000000e+000 +0.000000000000000e+000   +0.000000000000000e+000 +0.000000000000000e+000   +9.505410647795800e-001 -3.298087612324420e-001   
+6.783000000000000e+010   +9.257976082906900e-001 -4.036826745306460e-001   +0.000000000000000e+000 +0.000000000000000e+000   +0.000000000000000e+000 +0.000000000000000e+000   +9.502745813870080e-001 -3.286164322659480e-001   
+6.800000000000000e+010   +9.252595175793980e-001 -4.036941011166100e-001   +0.000000000000000e+000 +0.000000000000000e+000   +0.000000000000000e+000 +0.000000000000000e+000   +9.499590028983850e-001 -3.274972818898190e-001   
+6.817000000000000e+010   +9.246900562927180e-001 -4.037510571212580e-001   +0.000000000000000e+000 +0.000000000000000e+000   +0.000000000000000e+000 +0.000000000000000e+000   +9.495947825617270e-001 -3.264534726863750e-001   
+6.834000000000000e+010   +9.240895084069330e-001 -4.038540098968230e-001   +0.000000000000000e+000 +0.000000000000000e+000   +0.000000000000000e+000 +0.000000000000000e+000   +9.491824616221220e-001 -3.254869743864450e-001   
+6.851000000000000e+010   +9.234582197786240e-001 -4.040033230263650e-001   +0.000000000000000e+000 +0.000000000000000e+000   +0.000000000000000e+000 +0.000000000000000e+000   +9.487226649537450e-001 -3.245995614608480e-001   
+6.868000000000000e+010   +9.227965962361990e-001 -4.041992574295770e-001   +0.000000000000000e+000 +0.000000000000000e+000   +0.000000000000000e+000 +0.000000000000000e+000   +9.482160962396620e-001 -3.237928115223640e-001   
+6.885000000000000e+010   +9.221051015497870e-001 -4.044419727917150e-001   +0.000000000000000e+000 +0.000000000000000e+000   +0.000000000000000e+000 +0.000000000000000e+000   +9.476635333799770e-001 -3.230681045560680e-001   
+6.902000000000000e+010   +9.213842553221660e-001 -4.047315293435280e-001   +0.000000000000000e+000 +0.000000000000000e+000   +0.000000000000000e+000 +0.000000000000000e+000   +9.470658237562160e-001 -3.224266229645150e-001   
+6.919000000000000e+010   +9.206346306709250e-001 -4.050678899451870e-001   +0.000000000000000e+000 +0.000000000000000e+000   +0.000000000000000e+000 +0.000000000000000e+000   +9.464238794902420e-001 -3.218693523915970e-001   
+6.936000000000000e+010   +9.198568517924700e-001 -4.054509224584430e-001   +0.000000000000000e+000 +0.000000000000000e+000   +0.000000000000000e+000 +0.000000000000000e+000   +9.457386728995480e-001 -3.213970832432720e-001   
+6.953000000000000e+010   +9.190515915310660e-001 -4.058804022897080e-001   +0.000000000000000e+000 +0.000000000000000e+000   +0.000000000000000e+000 +0.000000000000000e+000   +9.450112319631770e-001 -3.210104129739400e-001   
+6.970000000000000e+010   +9.182195687205680e-001 -4.063560152378450e-001   +0.000000000000000e+000 +0.000000000000000e+000   +0.000000000000000e+000 +0.000000000000000e+000   +9.442426359259480e-001 -3.207097488682110e-001   
+6.987000000000000e+010   +9.173615456098690e-001 -4.068773604620820e-001   +0.000000000000000e+000 +0.000000000000000e+000   +0.000000000000000e+000 +0.000000000000000e+000   +9.434340111705750e-001 -3.204953116027600e-001   
+7.004000000000000e+010   +9.164783252148660e-001 -4.074439536293000e-001   +0.000000000000000e+000 +0.000000000000000e+000   +0.000000000000000e+000 +0.000000000000000e+000   +9.425865271292720e-001 -3.203671391686340e-001   
+7.021000000000000e+010   +9.155707486041780e-001 -4.080552301403520e-001   +0.000000000000000e+000 +0.000000000000000e+000   +0.000000000000000e+000 +0.000000000000000e+000   +9.417013925187610e-001 -3.203250914229700e-001   
+7.038000000000000e+010   +9.146396922387200e-001 -4.087105485551970e-001   +0.000000000000000e+000 +0.000000000000000e+000   +0.000000000000000e+000 +0.000000000000000e+000   +9.407798518418420e-001 -3.203688549571750e-001   
+7.055000000000000e+010   +9.136860653097640e-001 -4.094091939781620e-001   +0.000000000000000e+000 +0.000000000000000e+000   +0.000000000000000e+000 +0.000000000000000e+000   +9.398231819447510e-001 -3.204979484766770e-001   
+7.072000000000000e+010   +9.127108071238030e-001 -4.101503815418860e-001   +0.000000000000000e+000 +0.000000000000000e+000   +0.000000000000000e+000 +0.000000000000000e+000   +9.388326890497220e-001 -3.207117284201010e-001   
+7.089000000000000e+010   +9.117148844307100e-001 -4.109332598849790e-001   +0.000000000000000e+000 +0.000000000000000e+000   +0.000000000000000e+000 +0.000000000000000e+000   +9.378097058689440e-001 -3.210093948713510e-001   
+7.106000000000000e+010   +9.106992890384800e-001 -4.117569146119240e-001   +0.000000000000000e+000 +0.000000000000000e+000   +0.000000000000000e+000 +0.000000000000000e+000   +9.367555890697750e-001 -3.213899977082600e-001   
+7.123000000000000e+010   +9.096650351752810e-001 -4.126203717917580e-001   +0.000000000000000e+000 +0.000000000000000e+000   +0.000000000000000e+000 +0.000000000000000e+000   +9.356717169582180e-001 -3.218524430148660e-001   
+7.140000000000000e+010   +9.086131571597660e-001 -4.135226012146300e-001   +0.000000000000000e+000 +0.000000000000000e+000   +0.000000000000000e+000 +0.000000000000000e+000   +9.345594873809110e-001 -3.223954994311970e-001   
+7.157000000000000e+010   +9.075447070985820e-001 -4.144625198433440e-001   +0.000000000000000e+000 +0.000000000000000e+000   +0.000000000000000e+000 +0.000000000000000e+000   +9.334203159629980e-001 -3.230178048580230e-001   
+7.174000000000000e+010   +9.064607526176640e-001 -4.154389948584230e-001   +0.000000000000000e+000 +0.000000000000000e+000   +0.000000000000000e+000 +0.000000000000000e+000   +9.322556344343250e-001 -3.237178729778940e-001   
+7.191000000000000e+010   +9.053623747402780e-001 -4.164508468395990e-001   +0.000000000000000e+000 +0.000000000000000e+000   +0.000000000000000e+000 +0.000000000000000e+000   +9.310668893127330e-001 -3.244940999136980e-001   
+7.208000000000000e+010   +9.042506658225900e-001 -4.174968526779040e-001   +0.000000000000000e+000 +0.000000000000000e+000   +0.000000000000000e+000 +0.000000000000000e+000   +9.298555407238070e-001 -3.253447708733430e-001   
+7.225000000000000e+010   +9.031267276650710e-001 -4.185757483087800e-001   +0.000000000000000e+000 +0.000000000000000e+000   +0.000000000000000e+000 +0.000000000000000e+000   +9.286230613944510e-001 -3.262680665847600e-001   
+7.242000000000000e+010   +9.019916696226420e-001 -4.196862314236840e-001   +0.000000000000000e+000 +0.000000000000000e+000   +0.000000000000000e+000 +0.000000000000000e+000   +9.273709358605340e-001 -3.272620698900650e-001   
+7.259000000000000e+010   +9.008466068916830e-001 -4.208269638207370e-001   +0.000000000000000e+000 +0.000000000000000e+000   +0.000000000000000e+000 +0.000000000000000e+000   +9.261006598187040e-001 -3.283247719695010e-001   
+7.276000000000000e+010   +8.996926589333070e-001 -4.219965736849350e-001   +0.000000000000000e+000 +0.000000000000000e+000   +0.000000000000000e+000 +0.000000000000000e+000   +9.248137397037760e-001 -3.294540785836370e-001   
+7.293000000000000e+010   +8.985309479315140e-001 -4.231936576561580e-001   +0.000000000000000e+000 +0.000000000000000e+000   +0.000000000000000e+000 +0.000000000000000e+000   +9.235116921213650e-001 -3.306478160461860e-001   
+7.310000000000000e+010   +8.973625974217840e-001 -4.244167825272520e-001   +0.000000000000000e+000 +0.000000000000000e+000   +0.000000000000000e+000 +0.000000000000000e+000   +9.221960438213550e-001 -3.319037370678780e-001   
+7.327000000000000e+010   +8.961887310276570e-001 -4.256644870082800e-001   +0.000000000000000e+000 +0.000000000000000e+000   +0.000000000000000e+000 +0.000000000000000e+000   +9.208683313209250e-001 -3.332195263297750e-001   
+7.344000000000000e+010   +8.950104712587370e-001 -4.269352829395950e-001   +0.000000000000000e+000 +0.000000000000000e+000   +0.000000000000000e+000 +0.000000000000000e+000   +9.195301009547050e-001 -3.345928058727800e-001   
+7.361000000000000e+010   +8.938289385380810e-001 -4.282276564832810e-001   +0.000000000000000e+000 +0.000000000000000e+000   +0.000000000000000e+000 +0.000000000000000e+000   +9.181829087694870e-001 -3.360211401808620e-001   
+7.378000000000000e+010   +8.926452502071150e-001 -4.295400690450140e-001   +0.000000000000000e+000 +0.000000000000000e+000   +0.000000000000000e+000 +0.000000000000000e+000   +9.168283205837490e-001 -3.375020409914880e-001   
+7.395000000000000e+010   +8.914605197568020e-001 -4.308709577600970e-001   +0.000000000000000e+000 +0.000000000000000e+000   +0.000000000000000e+000 +0.000000000000000e+000   +9.154679119904020e-001 -3.390329719189670e-001   
+7.412000000000000e+010   +8.902758561217290e-001 -4.322187359770240e-001   +0.000000000000000e+000 +0.000000000000000e+000   +0.000000000000000e+000 +0.000000000000000e+000   +9.141032684616320e-001 -3.406113525924410e-001   
+7.429000000000000e+010   +8.890923631074190e-001 -4.335817933065270e-001   +0.000000000000000e+000 +0.000000000000000e+000   +0.000000000000000e+000 +0.000000000000000e+000   +9.127359854588020e-001 -3.422345626444930e-001   
+7.446000000000000e+010   +8.879111388875080e-001 -4.349584954095240e-001   +0.000000000000000e+000 +0.000000000000000e+000   +0.000000000000000e+000 +0.000000000000000e+000   +9.113676684824620e-001 -3.438999452654050e-001   
+7.463000000000000e+010   +8.867332756874420e-001 -4.363471835840270e-001   +0.000000000000000e+000 +0.000000000000000e+000   +0.000000000000000e+000 +0.000000000000000e+000   +9.099999331242960e-001 -3.456048103740570e-001   
+7.480000000000000e+010   +8.855598594502500e-001 -4.377461739592350e-001   +0.000000000000000e+000 +0.000000000000000e+000   +0.000000000000000e+000 +0.000000000000000e+000   +9.086344051182450e-001 -3.473464375447240e-001   
+7.497000000000000e+010   +8.843919697041300e-001 -4.391537563927650e-001   +0.000000000000000e+000 +0.000000000000000e+000   +0.000000000000000e+000 +0.000000000000000e+000   +9.072727203841340e-001 -3.491220783610770e-001   
+7.514000000000000e+010   +8.832306793423140e-001 -4.405681931727530e-001   +0.000000000000000e+000 +0.000000000000000e+000   +0.000000000000000e+000 +0.000000000000000e+000   +9.059165248684110e-001 -3.509289584893430e-001   
+7.531000000000000e+010   +8.820770545798000e-001 -4.419877171128100e-001   +0.000000000000000e+000 +0.000000000000000e+000   +0.000000000000000e+000 +0.000000000000000e+000   +9.045674744126010e-001 -3.527642792608920e-001   
+7.548000000000000e+010   +8.809321546726970e-001 -4.434105294992320e-001   +0.000000000000000e+000 +0.000000000000000e+000   +0.000000000000000e+000 +0.000000000000000e+000   +9.032272344728620e-001 -3.546252188227230e-001   
+7.565000000000000e+010   +8.797970316364420e-001 -4.448347975320480e-001   +0.000000000000000e+000 +0.000000000000000e+000   +0.000000000000000e+000 +0.000000000000000e+000   +9.018974794714750e-001 -3.565089328563940e-001   
+7.582000000000000e+010   +8.786727296973520e-001 -4.462586513274290e-001   +0.000000000000000e+000 +0.000000000000000e+000   +0.000000000000000e+000 +0.000000000000000e+000   +9.005798919777070e-001 -3.584125548208030e-001   
+7.599000000000000e+010   +8.775602841138730e-001 -4.476801805096500e-001   +0.000000000000000e+000 +0.000000000000000e+000   +0.000000000000000e+000 +0.000000000000000e+000   +8.992761612765330e-001 -3.603331960483780e-001   
+7.616000000000000e+010   +8.764607193714400e-001 -4.490974303842220e-001   +0.000000000000000e+000 +0.000000000000000e+000   +0.000000000000000e+000 +0.000000000000000e+000   +8.979879810852470e-001 -3.622679455073680e-001   
+7.633000000000000e+010   +8.753750461682400e-001 -4.505083977952370e-001   +0.000000000000000e+000 +0.000000000000000e+000   +0.000000000000000e+000 +0.000000000000000e+000   +8.967170460273000e-001 -3.642138698617020e-001   
+7.650000000000000e+010   +8.743042566283910e-001 -4.519110268945500e-001   +0.000000000000000e+000 +0.000000000000000e+000   +0.000000000000000e+000 +0.000000000000000e+000   +8.954650462562230e-001 -3.661680143594600e-001   
+7.667000000000000e+010   +8.732493170626130e-001 -4.533032054035870e-001   +0.000000000000000e+000 +0.000000000000000e+000   +0.000000000000000e+000 +0.000000000000000e+000   +8.942336591113240e-001 -3.681274055035320e-001   
+7.684000000000000e+010   +8.722111573473920e-001 -4.546827622311590e-001   +0.000000000000000e+000 +0.000000000000000e+000   +0.000000000000000e+000 +0.000000000000000e+000   +8.930245366328240e-001 -3.700890571285270e-001   
+7.701000000000000e+010   +8.711906560503200e-001 -4.560474681746300e-001   +0.000000000000000e+000 +0.000000000000000e+000   +0.000000000000000e+000 +0.000000000000000e+000   +8.918392872926560e-001 -3.720499824540150e-001   
+7.718000000000000e+010   +8.701886205619090e-001 -4.573950423595130e-001   +0.000000000000000e+000 +0.000000000000000e+000   +0.000000000000000e+000 +0.000000000000000e+000   +8.906794500289380e-001 -3.740072155398470e-001   
+7.735000000000000e+010   +8.692057629157260e-001 -4.587231684782490e-001   +0.000000000000000e+000 +0.000000000000000e+000   +0.000000000000000e+000 +0.000000000000000e+000   +8.895464592722100e-001 -3.759578465055840e-001   
+7.752000000000000e+010   +8.682426736206010e-001 -4.600295257949070e-001   +0.000000000000000e+000 +0.000000000000000e+000   +0.000000000000000e+000 +0.000000000000000e+000   +8.884416012625420e-001 -3.778990750205820e-001   
+7.769000000000000e+010   +8.672998011499200e-001 -4.613118406441740e-001   +0.000000000000000e+000 +0.000000000000000e+000   +0.000000000000000e+000 +0.000000000000000e+000   +8.873659663400430e-001 -3.798282837441770e-001   
+7.786000000000000e+010   +8.663774498405390e-001 -4.625679601704690e-001   +0.000000000000000e+000 +0.000000000000000e+000   +0.000000000000000e+000 +0.000000000000000e+000   +8.863204095257250e-001 -3.817431264037500e-001   
+7.803000000000000e+010   +8.654758161878580e-001 -4.637959418903740e-001   +0.000000000000000e+000 +0.000000000000000e+000   +0.000000000000000e+000 +0.000000000000000e+000   +8.853055418461100e-001 -3.836416104303960e-001   
+7.820000000000000e+010   +8.645950836990280e-001 -4.649941360141370e-001   +0.000000000000000e+000 +0.000000000000000e+000   +0.000000000000000e+000 +0.000000000000000e+000   +8.843217835398080e-001 -3.855221347704560e-001   
+7.837000000000000e+010   +8.637355826663490e-001 -4.661612183254710e-001   +0.000000000000000e+000 +0.000000000000000e+000   +0.000000000000000e+000 +0.000000000000000e+000   +8.833695046758860e-001 -3.873834294415450e-001   
+7.854000000000000e+010   +8.628979869174290e-001 -4.672961251480380e-001   +0.000000000000000e+000 +0.000000000000000e+000   +0.000000000000000e+000 +0.000000000000000e+000   +8.824492485856240e-001 -3.892243565960680e-001   
+7.871000000000000e+010   +8.620834764885350e-001 -4.683978677226520e-001   +0.000000000000000e+000 +0.000000000000000e+000   +0.000000000000000e+000 +0.000000000000000e+000   +8.815619777273170e-001 -3.910435900430300e-001   
+7.888000000000000e+010   +8.612937776902850e-001 -4.694652664019030e-001   +0.000000000000000e+000 +0.000000000000000e+000   +0.000000000000000e+000 +0.000000000000000e+000   +8.807092359106270e-001 -3.928392745452060e-001   
+7.905000000000000e+010   +8.605310338325410e-001 -4.704967074990720e-001   +0.000000000000000e+000 +0.000000000000000e+000   +0.000000000000000e+000 +0.000000000000000e+000   +8.798931332022300e-001 -3.946088142816500e-001   
+7.922000000000000e+010   +8.597975477943710e-001 -4.714900308324910e-001   +0.000000000000000e+000 +0.000000000000000e+000   +0.000000000000000e+000 +0.000000000000000e+000   +8.791161437214080e-001 -3.963488916722020e-001   
+7.939000000000000e+010   +8.590955048699570e-001 -4.724425877169750e-001   +0.000000000000000e+000 +0.000000000000000e+000   +0.000000000000000e+000 +0.000000000000000e+000   +8.783808057927660e-001 -3.980556974346090e-001   
+7.956000000000000e+010   +8.584267801471670e-001 -4.733514211681150e-001   +0.000000000000000e+000 +0.000000000000000e+000   +0.000000000000000e+000 +0.000000000000000e+000   +8.776894493869160e-001 -3.997252515070220e-001   
+7.973000000000000e+010   +8.577928703228430e-001 -4.742134774558720e-001   +0.000000000000000e+000 +0.000000000000000e+000   +0.000000000000000e+000 +0.000000000000000e+000   +8.770440329552000e-001 -4.013536842185060e-001   
+7.990000000000000e+010   +8.571949256680840e-001 -4.750257771489300e-001   +0.000000000000000e+000 +0.000000000000000e+000   +0.000000000000000e+000 +0.000000000000000e+000   +8.764460993968530e-001 -4.029374080680360e-001   
+8.007000000000000e+010   +8.566338311104170e-001 -4.757855181819170e-001   +0.000000000000000e+000 +0.000000000000000e+000   +0.000000000000000e+000 +0.000000000000000e+000   +8.758968132086530e-001 -4.044731795593320e-001   
+8.024000000000000e+010   +8.561102925908830e-001 -4.764901192395700e-001   +0.000000000000000e+000 +0.000000000000000e+000   +0.000000000000000e+000 +0.000000000000000e+000   +8.753970319321020e-001 -4.059580872545290e-001   
+8.041000000000000e+010   +8.556249048671470e-001 -4.771372251421500e-001   +0.000000000000000e+000 +0.000000000000000e+000   +0.000000000000000e+000 +0.000000000000000e+000   +8.749473780945650e-001 -4.073895063812880e-001   
+8.058000000000000e+010   +8.551781944337750e-001 -4.777246949670740e-001   +0.000000000000000e+000 +0.000000000000000e+000   +0.000000000000000e+000 +0.000000000000000e+000   +8.745482958062950e-001 -4.087650478208940e-001   
+8.075000000000000e+010   +8.547706403935540e-001 -4.782505863529380e-001   +0.000000000000000e+000 +0.000000000000000e+000   +0.000000000000000e+000 +0.000000000000000e+000   +8.742000880864500e-001 -4.100825162693400e-001   
+8.092000000000000e+010   +8.544026789853600e-001 -4.787131426983510e-001   +0.000000000000000e+000 +0.000000000000000e+000   +0.000000000000000e+000 +0.000000000000000e+000   +8.739029377905110e-001 -4.113398818463380e-001   
+8.109000000000000e+010   +8.540746976541740e-001 -4.791107860633370e-001   +0.000000000000000e+000 +0.000000000000000e+000   +0.000000000000000e+000 +0.000000000000000e+000   +8.736569161011680e-001 -4.125352649494320e-001   
+8.126000000000000e+010   +8.537870227340300e-001 -4.794421152837370e-001   +0.000000000000000e+000 +0.000000000000000e+000   +0.000000000000000e+000 +0.000000000000000e+000   +8.734619829050660e-001 -4.136669321085230e-001   
+8.143000000000000e+010   +8.535399038801690e-001 -4.797059087514940e-001   +0.000000000000000e+000 +0.000000000000000e+000   +0.000000000000000e+000 +0.000000000000000e+000   +8.733179820716000e-001 -4.147333001754370e-001   
+8.160000000000000e+010   +8.533334968612640e-001 -4.799011303016540e-001   +0.000000000000000e+000 +0.000000000000000e+000   +0.000000000000000e+000 +0.000000000000000e+000   +8.732246338752350e-001 -4.157329463304180e-001   
+8.177000000000000e+010   +8.531678460890270e-001 -4.800269373383600e-001   +0.000000000000000e+000 +0.000000000000000e+000   +0.000000000000000e+000 +0.000000000000000e+000   +8.731815257652700e-001 -4.166646225759710e-001   
+8.194000000000000e+010   +8.530428673404980e-001 -4.800826900153520e-001   +0.000000000000000e+000 +0.000000000000000e+000   +0.000000000000000e+000 +0.000000000000000e+000   +8.731881026061420e-001 -4.175272730381480e-001   
+8.211000000000000e+010   +8.529583314079820e-001 -4.800679607266780e-001   +0.000000000000000e+000 +0.000000000000000e+000   +0.000000000000000e+000 +0.000000000000000e+000   +8.732436566001900e-001 -4.183200534423060e-001   
+8.228000000000000e+010   +8.529138489730070e-001 -4.799825436081310e-001   +0.000000000000000e+000 +0.000000000000000e+000   +0.000000000000000e+000 +0.000000000000000e+000   +8.733473174474920e-001 -4.190423518256550e-001   
+8.245000000000000e+010   +8.529088569432560e-001 -4.798264632181430e-001   +0.000000000000000e+000 +0.000000000000000e+000   +0.000000000000000e+000 +0.000000000000000e+000   +8.734980428349550e-001 -4.196938099870900e-001   
+8.262000000000000e+010   +8.529426068109290e-001 -4.795999823963610e-001   +0.000000000000000e+000 +0.000000000000000e+000   +0.000000000000000e+000 +0.000000000000000e+000   +8.736946093321950e-001 -4.202743453287790e-001   
+8.279000000000000e+010   +8.530141551388980e-001 -4.793036089216430e-001   +0.000000000000000e+000 +0.000000000000000e+000   +0.000000000000000e+000 +0.000000000000000e+000   +8.739356038810160e-001 -4.207841723157950e-001   
+8.296000000000000e+010   +8.531223567389580e-001 -4.789381008775210e-001   +0.000000000000000e+000 +0.000000000000000e+000   +0.000000000000000e+000 +0.000000000000000e+000   +8.742194160941260e-001 -4.212238233498940e-001   
+8.313000000000000e+010   +8.532658606349340e-001 -4.785044706673860e-001   +0.000000000000000e+000 +0.000000000000000e+000   +0.000000000000000e+000 +0.000000000000000e+000   +8.745442313611270e-001 -4.215941685590340e-001   
+8.330000000000000e+010   +8.534431092308880e-001 -4.780039874621430e-001   +0.000000000000000e+000 +0.000000000000000e+000   +0.000000000000000e+000 +0.000000000000000e+000   +8.749080249325700e-001 -4.218964336726290e-001   
+8.347000000000000e+010   +8.536523409223770e-001 -4.774381784680910e-001   +0.000000000000000e+000 +0.000000000000000e+000   +0.000000000000000e+000 +0.000000000000000e+000   +8.753085572720480e-001 -4.221322158635870e-001   
+8.364000000000000e+010   +8.538915962989540e-001 -4.768088286537380e-001   +0.000000000000000e+000 +0.000000000000000e+000   +0.000000000000000e+000 +0.000000000000000e+000   +8.757433707756650e-001 -4.223034966760820e-001   
+8.381000000000000e+010   +8.541587279409100e-001 -4.761179792888080e-001   +0.000000000000000e+000 +0.000000000000000e+000   +0.000000000000000e+000 +0.000000000000000e+000   +8.762097881358970e-001 -4.224126516265710e-001   
+8.398000000000000e+010   +8.544514138887240e-001 -4.753679253709360e-001   +0.000000000000000e+000 +0.000000000000000e+000   +0.000000000000000e+000 +0.000000000000000e+000   +8.767049126185080e-001 -4.224624558459530e-001   
+8.415000000000000e+010   +8.547671746719770e-001 -4.745612119084370e-001   +0.000000000000000e+000 +0.000000000000000e+000   +0.000000000000000e+000 +0.000000000000000e+000   +8.772256304295150e-001 -4.224560853213790e-001   
+8.432000000000000e+010   +8.551033935289380e-001 -4.737006294031920e-001   +0.000000000000000e+000 +0.000000000000000e+000   +0.000000000000000e+000 +0.000000000000000e+000   +8.777686154666330e-001 -4.223971130928090e-001   
+8.449000000000000e+010   +8.554573395542410e-001 -4.727892083741270e-001   +0.000000000000000e+000 +0.000000000000000e+000   +0.000000000000000e+000 +0.000000000000000e+000   +8.783303367684110e-001 -4.222895003422740e-001   
+8.466000000000000e+010   +8.558261931403650e-001 -4.718302132909900e-001   +0.000000000000000e+000 +0.000000000000000e+000   +0.000000000000000e+000 +0.000000000000000e+000   +8.789070687687250e-001 -4.221375816185020e-001   
+8.483000000000000e+010   +8.562070733009140e-001 -4.708271358438010e-001   +0.000000000000000e+000 +0.000000000000000e+000   +0.000000000000000e+000 +0.000000000000000e+000   +8.794949047771960e-001 -4.219460445083110e-001   
+8.500000000000000e+010   +8.565970658584490e-001 -4.697836874097510e-001   +0.000000000000000e+000 +0.000000000000000e+000   +0.000000000000000e+000 +0.000000000000000e+000   +8.800897735443470e-001 -4.217199034659860e-001   
+8.517000000000000e+010   +8.569932521294260e-001 -4.687037909501680e-001   +0.000000000000000e+000 +0.000000000000000e+000   +0.000000000000000e+000 +0.000000000000000e+000   +8.806874594518450e-001 -4.214644680551830e-001   
+8.534000000000000e+010   +8.573927369479910e-001 -4.675915721228580e-001   +0.000000000000000e+000 +0.000000000000000e+000   +0.000000000000000e+000 +0.000000000000000e+000   +8.812836259383250e-001 -4.211853059869170e-001   
+8.551000000000000e+010   +8.577926753286260e-001 -4.664513493627910e-001   +0.000000000000000e+000 +0.000000000000000e+000   +0.000000000000000e+000 +0.000000000000000e+000   +8.818738426117270e-001 -4.208882014782120e-001   
+8.568000000000000e+010   +8.581902970330290e-001 -4.652876228939710e-001   +0.000000000000000e+000 +0.000000000000000e+000   +0.000000000000000e+000 +0.000000000000000e+000   +8.824536154483900e-001 -4.205791096643460e-001   
+8.585000000000000e+010   +8.585829283110800e-001 -4.641050622415520e-001   +0.000000000000000e+000 +0.000000000000000e+000   +0.000000000000000e+000 +0.000000000000000e+000   +8.830184203226970e-001 -4.202641079976220e-001   
+8.602000000000000e+010   +8.589680101867680e-001 -4.629084920960570e-001   +0.000000000000000e+000 +0.000000000000000e+000   +0.000000000000000e+000 +0.000000000000000e+000   +8.835637390155400e-001 -4.199493456842020e-001   
+8.619000000000000e+010   +8.593431128469560e-001 -4.617028761927080e-001   +0.000000000000000e+000 +0.000000000000000e+000   +0.000000000000000e+000 +0.000000000000000e+000   +8.840850978256070e-001 -4.196409924161560e-001   
+8.636000000000000e+010   +8.597059460334930e-001 -4.604932987521080e-001   +0.000000000000000e+000 +0.000000000000000e+000   +0.000000000000000e+000 +0.000000000000000e+000   +8.845781075364530e-001 -4.193451875994430e-001   
+8.653000000000000e+010   +8.600543649573170e-001 -4.592849434656720e-001   +0.000000000000000e+000 +0.000000000000000e+000   +0.000000000000000e+000 +0.000000000000000e+000   +8.850385043433700e-001 -4.190679914191690e-001   
+8.670000000000000e+010   +8.603863725603130e-001 -4.580830695673530e-001   +0.000000000000000e+000 +0.000000000000000e+000   +0.000000000000000e+000 +0.000000000000000e+000   +8.854621907654180e-001 -4.188153389861360e-001   
+8.687000000000000e+010   +8.607001177597070e-001 -4.568929850933790e-001   +0.000000000000000e+000 +0.000000000000000e+000   +0.000000000000000e+000 +0.000000000000000e+000   +8.858452755625510e-001 -4.185929988044100e-001   
+8.704000000000000e+010   +8.609938908328570e-001 -4.557200171893160e-001   +0.000000000000000e+000 +0.000000000000000e+000   +0.000000000000000e+000 +0.000000000000000e+000   +8.861841111846300e-001 -4.184065364010890e-001   
+8.721000000000000e+010   +8.612661162189850e-001 -4.545694797483990e-001   +0.000000000000000e+000 +0.000000000000000e+000   +0.000000000000000e+000 +0.000000000000000e+000   +8.864753281358530e-001 -4.182612840258770e-001   
+8.738000000000000e+010   +8.615153440040500e-001 -4.534466387144580e-001   +0.000000000000000e+000 +0.000000000000000e+000   +0.000000000000000e+000 +0.000000000000000e+000   +8.867158645062080e-001 -4.181623168601530e-001   
+8.755000000000000e+010   +8.617402404930150e-001 -4.523566755282620e-001   +0.000000000000000e+000 +0.000000000000000e+000   +0.000000000000000e+000 +0.000000000000000e+000   +8.869029899527930e-001 -4.181144357319890e-001   
+8.772000000000000e+010   +8.619395793235460e-001 -4.513046496567380e-001   +0.000000000000000e+000 +0.000000000000000e+000   +0.000000000000000e+000 +0.000000000000000e+000   +8.870343228727840e-001 -4.181221562982360e-001   
+8.789000000000000e+010   +8.621122333868540e-001 -4.502954609417650e-001   +0.000000000000000e+000 +0.000000000000000e+000   +0.000000000000000e+000 +0.000000000000000e+000   +8.871078401118010e-001 -4.181897039657730e-001   
+8.806000000000000e+010   +8.622571687814610e-001 -4.493338127646240e-001   +0.000000000000000e+000 +0.000000000000000e+000   +0.000000000000000e+000 +0.000000000000000e+000   +8.871218787429530e-001 -4.183210137874200e-001   
+8.823000000000000e+010   +8.623734407597880e-001 -4.484241774953250e-001   +0.000000000000000e+000 +0.000000000000000e+000   +0.000000000000000e+000 +0.000000000000000e+000   +8.870751296618520e-001 -4.185197339287980e-001   
+8.840000000000000e+010   +8.624601923810340e-001 -4.475707649082780e-001   +0.000000000000000e+000 +0.000000000000000e+000   +0.000000000000000e+000 +0.000000000000000e+000   +8.869666234488190e-001 -4.187892317279110e-001   
+8.857000000000000e+010   +8.625166554243880e-001 -4.467774950162290e-001   +0.000000000000000e+000 +0.000000000000000e+000   +0.000000000000000e+000 +0.000000000000000e+000   +8.867957091635750e-001 -4.191326005933190e-001   
+8.874000000000000e+010   +8.625421535893200e-001 -4.460479759165390e-001   +0.000000000000000e+000 +0.000000000000000e+000   +0.000000000000000e+000 +0.000000000000000e+000   +8.865620270699080e-001 -4.195526666071890e-001   
+8.891000000000000e+010   +8.625361073323610e-001 -4.453854875866480e-001   +0.000000000000000e+000 +0.000000000000000e+000   +0.000000000000000e+000 +0.000000000000000e+000   +8.862654770388620e-001 -4.200519936374740e-001   
+8.908000000000000e+010   +8.624980396478770e-001 -4.447929717737770e-001   +0.000000000000000e+000 +0.000000000000000e+000   +0.000000000000000e+000 +0.000000000000000e+000   +8.859061840178120e-001 -4.206328859765400e-001   
+8.925000000000000e+010   +8.624275820676440e-001 -4.442730281694170e-001   +0.000000000000000e+000 +0.000000000000000e+000   +0.000000000000000e+000 +0.000000000000000e+000   +8.854844628070960e-001 -4.212973881117360e-001   
+8.942000000000000e+010   +8.623244799972380e-001 -4.438279165042110e-001   +0.000000000000000e+000 +0.000000000000000e+000   +0.000000000000000e+000 +0.000000000000000e+000   +8.850007836746220e-001 -4.220472813540030e-001   
+8.959000000000000e+010   +8.621885967817190e-001 -4.434595638995380e-001   +0.000000000000000e+000 +0.000000000000000e+000   +0.000000000000000e+000 +0.000000000000000e+000   +8.844557406814670e-001 -4.228840777079220e-001   
+8.976000000000000e+010   +8.620199158176130e-001 -4.431695768102790e-001   +0.000000000000000e+000 +0.000000000000000e+000   +0.000000000000000e+000 +0.000000000000000e+000   +8.838500241756120e-001 -4.238090113854360e-001   
+8.993000000000000e+010   +8.618185403215470e-001 -4.429592562131000e-001   +0.000000000000000e+000 +0.000000000000000e+000   +0.000000000000000e+000 +0.000000000000000e+000   +8.831843983297370e-001 -4.248230290980000e-001   
+9.010000000000000e+010   +8.615846906827930e-001 -4.428296152414810e-001   +0.000000000000000e+000 +0.000000000000000e+000   +0.000000000000000e+000 +0.000000000000000e+000   +8.824596846114380e-001 -4.259267798292180e-001   
+9.027000000000000e+010   +8.613186992560360e-001 -4.427813979369310e-001   +0.000000000000000e+000 +0.000000000000000e+000   +0.000000000000000e+000 +0.000000000000000e+000   +8.816767510651540e-001 -4.271206054066170e-001   
+9.044000000000000e+010   +8.610210031361540e-001 -4.428150980553670e-001   +0.000000000000000e+000 +0.000000000000000e+000   +0.000000000000000e+000 +0.000000000000000e+000   +8.808365073201490e-001 -4.284045328718020e-001   
+9.061000000000000e+010   +8.606921349636740e-001 -4.429309773635050e-001   +0.000000000000000e+000 +0.000000000000000e+000   +0.000000000000000e+000 +0.000000000000000e+000   +8.799399046933930e-001 -4.297782692703990e-001   
+9.078000000000000e+010   +8.603327126432770e-001 -4.431290824041170e-001   +0.000000000000000e+000 +0.000000000000000e+000   +0.000000000000000e+000 +0.000000000000000e+000   +8.789879405392800e-001 -4.312412000032290e-001   
+9.095000000000000e+010   +8.599434282177720e-001 -4.434092596150370e-001   +0.000000000000000e+000 +0.000000000000000e+000   +0.000000000000000e+000 +0.000000000000000e+000   +8.779816655880560e-001 -4.327923906349370e-001   
+9.112000000000000e+010   +8.595250366957220e-001 -4.437711682793720e-001   +0.000000000000000e+000 +0.000000000000000e+000   +0.000000000000000e+000 +0.000000000000000e+000   +8.769221935422010e-001 -4.344305928501340e-001   
+9.129000000000000e+010   +8.590783451917100e-001 -4.442142917273580e-001   +0.000000000000000e+000 +0.000000000000000e+000   +0.000000000000000e+000 +0.000000000000000e+000   +8.758107114927040e-001 -4.361542540183610e-001   
+9.146000000000000e+010   +8.586042027630240e-001 -4.447379464843040e-001   +0.000000000000000e+000 +0.000000000000000e+000   +0.000000000000000e+000 +0.000000000000000e+000   +8.746484903165560e-001 -4.379615304297930e-001   
+9.163000000000000e+010   +8.581034914969770e-001 -4.453412899476360e-001   +0.000000000000000e+000 +0.000000000000000e+000   +0.000000000000000e+000 +0.000000000000000e+000   +8.734368942531920e-001 -4.398503037729870e-001   
+9.180000000000000e+010   +8.575771186496390e-001 -4.460233268737860e-001   +0.000000000000000e+000 +0.000000000000000e+000   +0.000000000000000e+000 +0.000000000000000e+000   +8.721773889786970e-001 -4.418182000553140e-001   
+9.197000000000000e+010   +8.570260104315440e-001 -4.467829149732490e-001   +0.000000000000000e+000 +0.000000000000000e+000   +0.000000000000000e+000 +0.000000000000000e+000   +8.708715476233180e-001 -4.438626107590410e-001   
+9.214000000000000e+010   +8.564511068602350e-001 -4.476187701374920e-001   +0.000000000000000e+000 +0.000000000000000e+000   +0.000000000000000e+000 +0.000000000000000e+000   +8.695210545701920e-001 -4.459807152699670e-001   
+9.231000000000000e+010   +8.558533581268200e-001 -4.485294714017160e-001   +0.000000000000000e+000 +0.000000000000000e+000   +0.000000000000000e+000 +0.000000000000000e+000   +8.681277068982890e-001 -4.481695044080290e-001   
+9.248000000000000e+010   +8.552337221327920e-001 -4.495134663791410e-001   +0.000000000000000e+000 +0.000000000000000e+000   +0.000000000000000e+000 +0.000000000000000e+000   +8.666934134475480e-001 -4.504258040552910e-001   
+9.265000000000000e+010   +8.545931627726300e-001 -4.505690767025270e-001   +0.000000000000000e+000 +0.000000000000000e+000   +0.000000000000000e+000 +0.000000000000000e+000   +8.652201916774740e-001 -4.527462989685830e-001   
+9.282000000000000e+010   +8.539326493024930e-001 -4.516945045126020e-001   +0.000000000000000e+000 +0.000000000000000e+000   +0.000000000000000e+000 +0.000000000000000e+000   +8.637101625951120e-001 -4.551275558102920e-001   
+9.299000000000000e+010   +8.532531562057320e-001 -4.528878392741610e-001   +0.000000000000000e+000 +0.000000000000000e+000   +0.000000000000000e+000 +0.000000000000000e+000   +8.621655438344490e-001 -4.575660455656110e-001   
+9.316000000000000e+010   +8.525556633163240e-001 -4.541470654577680e-001   +0.000000000000000e+000 +0.000000000000000e+000   +0.000000000000000e+000 +0.000000000000000e+000   +8.605886415187050e-001 -4.600581648363070e-001   
+9.333000000000000e+010   +8.518411564684160e-001 -4.554700709012860e-001   +0.000000000000000e+000 +0.000000000000000e+000   +0.000000000000000e+000 +0.000000000000000e+000   +8.589818408447070e-001 -4.626002559356640e-001   
+9.350000000000000e+010   +8.511106279810790e-001 -4.568546559295220e-001   +0.000000000000000e+000 +0.000000000000000e+000   +0.000000000000000e+000 +0.000000000000000e+000   +8.573475960209690e-001 -4.651886255143200e-001   
+9.367000000000000e+010   +8.503650773088880e-001 -4.582985428528950e-001   +0.000000000000000e+000 +0.000000000000000e+000   +0.000000000000000e+000 +0.000000000000000e+000   +8.556884196300390e-001 -4.678195619253460e-001   
+9.384000000000000e+010   +8.496055114966940e-001 -4.597993860844150e-001   +0.000000000000000e+000 +0.000000000000000e+000   +0.000000000000000e+000 +0.000000000000000e+000   +8.540068717446650e-001 -4.704893509802740e-001   
+9.401000000000000e+010   +8.488329453204600e-001 -4.613547825155860e-001   +0.000000000000000e+000 +0.000000000000000e+000   +0.000000000000000e+000 +0.000000000000000e+000   +8.523055490924920e-001 -4.731942903500520e-001   
+9.418000000000000e+010   +8.480484014658300e-001 -4.629622820875840e-001   +0.000000000000000e+000 +0.000000000000000e+000   +0.000000000000000e+000 +0.000000000000000e+000   +8.505870743546080e-001 -4.759307024187280e-001   
+9.435000000000000e+010   +8.472529100880620e-001 -4.646193984330440e-001   +0.000000000000000e+000 +0.000000000000000e+000   +0.000000000000000e+000 +0.000000000000000e+000   +8.488540859221960e-001 -4.786949458794710e-001   
+9.452000000000000e+010   +8.464475084528120e-001 -4.663236194631870e-001   +0.000000000000000e+000 +0.000000000000000e+000   +0.000000000000000e+000 +0.000000000000000e+000   +8.471092280343870e-001 -4.814834257949660e-001   
+9.469000000000000e+010   +8.456332399843520e-001 -4.680724177671140e-001   +0.000000000000000e+000 +0.000000000000000e+000   +0.000000000000000e+000 +0.000000000000000e+000   +8.453551415360440e-001 -4.842926025624060e-001   
+9.486000000000000e+010   +8.448111532825290e-001 -4.698632606814000e-001   +0.000000000000000e+000 +0.000000000000000e+000   +0.000000000000000e+000 +0.000000000000000e+000   +8.435944553815510e-001 -4.871189994376210e-001   
+9.503000000000000e+010   +8.439823007403120e-001 -4.716936199589850e-001   +0.000000000000000e+000 +0.000000000000000e+000   +0.000000000000000e+000 +0.000000000000000e+000   +8.418297787914030e-001 -4.899592091926760e-001   
+9.520000000000000e+010   +8.431477371770980e-001 -4.735609810001130e-001   +0.000000000000000e+000 +0.000000000000000e+000   +0.000000000000000e+000 +0.000000000000000e+000   +8.400636941320070e-001 -4.928098994222360e-001   
+9.537000000000000e+010   +8.423085179808220e-001 -4.754628514735900e-001   +0.000000000000000e+000 +0.000000000000000e+000   +0.000000000000000e+000 +0.000000000000000e+000   +8.382987506983550e-001 -4.956678170203770e-001   
+9.554000000000000e+010   +8.414656974627400e-001 -4.773967693946310e-001   +0.000000000000000e+000 +0.000000000000000e+000   +0.000000000000000e+000 +0.000000000000000e+000   +8.365374591087370e-001 -4.985297915311780e-001   
+9.571000000000000e+010   +8.406203268211090e-001 -4.793603104643490e-001   +0.000000000000000e+000 +0.000000000000000e+000   +0.000000000000000e+000 +0.000000000000000e+000   +8.347822865341790e-001 -5.013927379507480e-001   
+9.588000000000000e+010   +8.397734522356440e-001 -4.813510947894580e-001   +0.000000000000000e+000 +0.000000000000000e+000   +0.000000000000000e+000 +0.000000000000000e+000   +8.330356526051220e-001 -5.042536583242870e-001   
+9.605000000000000e+010   +8.389261129008790e-001 -4.833667929255340e-001   +0.000000000000000e+000 +0.000000000000000e+000   +0.000000000000000e+000 +0.000000000000000e+000   +8.312999260408590e-001 -5.071096429458930e-001   
+9.622000000000000e+010   +8.380793389195940e-001 -4.854051311430000e-001   +0.000000000000000e+000 +0.000000000000000e+000   +0.000000000000000e+000 +0.000000000000000e+000   +8.295774219017370e-001 -5.099578706818860e-001   
+9.639000000000000e+010   +8.372341493942320e-001 -4.874638960768010e-001   +0.000000000000000e+000 +0.000000000000000e+000   +0.000000000000000e+000 +0.000000000000000e+000   +8.278703993990280e-001 -5.127956086868030e-001   
+9.656000000000000e+010   +8.363915504676540e-001 -4.895409385827860e-001   +0.000000000000000e+000 +0.000000000000000e+000   +0.000000000000000e+000 +0.000000000000000e+000   +8.261810603920950e-001 -5.156202118134480e-001   
+9.673000000000000e+010   +8.355525334838380e-001 -4.916341771000750e-001   +0.000000000000000e+000 +0.000000000000000e+000   +0.000000000000000e+000 +0.000000000000000e+000   +8.245115481929670e-001 -5.184291210391040e-001   
+9.690000000000000e+010   +8.347180732016790e-001 -4.937416001815440e-001   +0.000000000000000e+000 +0.000000000000000e+000   +0.000000000000000e+000 +0.000000000000000e+000   +8.228639470010570e-001 -5.212198620420050e-001   
+9.707000000000000e+010   +8.338891260890230e-001 -4.958612685211180e-001   +0.000000000000000e+000 +0.000000000000000e+000   +0.000000000000000e+000 +0.000000000000000e+000   +8.212402816010620e-001 -5.239900427976270e-001   
+9.724000000000000e+010   +8.330666287896650e-001 -4.979913164616800e-001   +0.000000000000000e+000 +0.000000000000000e+000   +0.000000000000000e+000 +0.000000000000000e+000   +8.196425175739160e-001 -5.267373512508250e-001   
+9.741000000000000e+010   +8.322514966546620e-001 -5.001299527492820e-001   +0.000000000000000e+000 +0.000000000000000e+000   +0.000000000000000e+000 +0.000000000000000e+000   +8.180725615720430e-001 -5.294595525418520e-001   
+9.758000000000000e+010   +8.314446224326990e-001 -5.022754610108190e-001   +0.000000000000000e+000 +0.000000000000000e+000   +0.000000000000000e+000 +0.000000000000000e+000   +8.165322620390860e-001 -5.321544859218690e-001   
+9.775000000000000e+010   +8.306468750631440e-001 -5.044261997125490e-001   +0.000000000000000e+000 +0.000000000000000e+000   +0.000000000000000e+000 +0.000000000000000e+000   +8.150234100870920e-001 -5.348200614797910e-001   
+9.792000000000000e+010   +8.298590985387220e-001 -5.065806016229810e-001   +0.000000000000000e+000 +0.000000000000000e+000   +0.000000000000000e+000 +0.000000000000000e+000   +8.135477404919280e-001 -5.374542567968000e-001   
+9.809000000000000e+010   +8.290821110244720e-001 -5.087371729437410e-001   +0.000000000000000e+000 +0.000000000000000e+000   +0.000000000000000e+000 +0.000000000000000e+000   +8.121069328925320e-001 -5.400551133414080e-001   
+9.826000000000000e+010   +8.283167039786900e-001 -5.108944921862550e-001   +0.000000000000000e+000 +0.000000000000000e+000   +0.000000000000000e+000 +0.000000000000000e+000   +8.107026129304640e-001 -5.426207327937310e-001   
+9.843000000000000e+010   +8.275636414097710e-001 -5.130512085246530e-001   +0.000000000000000e+000 +0.000000000000000e+000   +0.000000000000000e+000 +0.000000000000000e+000   +8.093363535965880e-001 -5.451492733037120e-001   
+9.860000000000000e+010   +8.268236592941960e-001 -5.152060402491010e-001   +0.000000000000000e+000 +0.000000000000000e+000   +0.000000000000000e+000 +0.000000000000000e+000   +8.080096764074000e-001 -5.476389457497990e-001   
+9.877000000000000e+010   +8.260974650280230e-001 -5.173577726157920e-001   +0.000000000000000e+000 +0.000000000000000e+000   +0.000000000000000e+000 +0.000000000000000e+000   +8.067240528096520e-001 -5.500880099196250e-001   
+9.894000000000000e+010   +8.253857370221380e-001 -5.195052557347600e-001   +0.000000000000000e+000 +0.000000000000000e+000   +0.000000000000000e+000 +0.000000000000000e+000   +8.054809052066400e-001 -5.524947707842110e-001   
+9.911000000000000e+010   +8.246891243150820e-001 -5.216474023139530e-001   +0.000000000000000e+000 +0.000000000000000e+000   +0.000000000000000e+000 +0.000000000000000e+000   +8.042816081637560e-001 -5.548575747478500e-001   
+9.928000000000000e+010   +8.240082463851020e-001 -5.237831851100920e-001   +0.000000000000000e+000 +0.000000000000000e+000   +0.000000000000000e+000 +0.000000000000000e+000   +8.031274893385580e-001 -5.571748059797470e-001   
+9.945000000000000e+010   +8.233436928876500e-001 -5.259116345031520e-001   +0.000000000000000e+000 +0.000000000000000e+000   +0.000000000000000e+000 +0.000000000000000e+000   +8.020198303807220e-001 -5.594448829370890e-001   
+9.962000000000000e+010   +8.226960235140440e-001 -5.280318358021760e-001   +0.000000000000000e+000 +0.000000000000000e+000   +0.000000000000000e+000 +0.000000000000000e+000   +8.009598676121630e-001 -5.616662548239870e-001   
+9.979000000000000e+010   +8.220657678929920e-001 -5.301429267560450e-001   +0.000000000000000e+000 +0.000000000000000e+000   +0.000000000000000e+000 +0.000000000000000e+000   +7.999487924873580e-001 -5.638373983459500e-001   
+9.996000000000000e+010   +8.214534255481450e-001 -5.322440947226350e-001   +0.000000000000000e+000 +0.000000000000000e+000   +0.000000000000000e+000 +0.000000000000000e+000   +7.989877519597980e-001 -5.659568145727530e-001   
+1.001300000000000e+011   +8.208594658628780e-001 -5.343345742176550e-001   +0.000000000000000e+000 +0.000000000000000e+000   +0.000000000000000e+000 +0.000000000000000e+000   +7.980778485196210e-001 -5.680230259722240e-001   
+1.003000000000000e+011   +8.202843280149830e-001 -5.364136441566190e-001   +0.000000000000000e+000 +0.000000000000000e+000   +0.000000000000000e+000 +0.000000000000000e+000   +7.972201399817990e-001 -5.700345735757890e-001   
+1.004700000000000e+011   +8.197284210324660e-001 -5.384806253529870e-001   +0.000000000000000e+000 +0.000000000000000e+000   +0.000000000000000e+000 +0.000000000000000e+000   +7.964156391580100e-001 -5.719900144608910e-001   
+1.006400000000000e+011   +8.191921237448730e-001 -5.405348780519060e-001   +0.000000000000000e+000 +0.000000000000000e+000   +0.000000000000000e+000 +0.000000000000000e+000   +7.956653130642610e-001 -5.738879195212450e-001   
+1.008100000000000e+011   +8.186757847054880e-001 -5.425757993993120e-001   +0.000000000000000e+000 +0.000000000000000e+000   +0.000000000000000e+000 +0.000000000000000e+000   +7.949700819990890e-001 -5.757268712293370e-001   
+1.009800000000000e+011   +8.181797222786260e-001 -5.446028212052600e-001   +0.000000000000000e+000 +0.000000000000000e+000   +0.000000000000000e+000 +0.000000000000000e+000   +7.943308181550970e-001 -5.775054620154510e-001   
+1.011500000000000e+011   +8.177042244503990e-001 -5.466154076214660e-001   +0.000000000000000e+000 +0.000000000000000e+000   +0.000000000000000e+000 +0.000000000000000e+000   +7.937483441527990e-001 -5.792222926120480e-001   
+1.013200000000000e+011   +8.172495487758580e-001 -5.486130530697610e-001   +0.000000000000000e+000 +0.000000000000000e+000   +0.000000000000000e+000 +0.000000000000000e+000   +7.932234310267250e-001 -5.808759709428540e-001   
+1.014900000000000e+011   +8.168159222680080e-001 -5.505952801838410e-001   +0.000000000000000e+000 +0.000000000000000e+000   +0.000000000000000e+000 +0.000000000000000e+000   +7.927567959152720e-001 -5.824651112446310e-001   
+1.016600000000000e+011   +8.164035411523410e-001 -5.525616379238220e-001   +0.000000000000000e+000 +0.000000000000000e+000   +0.000000000000000e+000 +0.000000000000000e+000   +7.923490996480770e-001 -5.839883335133850e-001   
+1.018300000000000e+011   +8.160125707502040e-001 -5.545116998050150e-001   +0.000000000000000e+000 +0.000000000000000e+000   +0.000000000000000e+000 +0.000000000000000e+000   +7.920009436677860e-001 -5.854442633225580e-001   
+1.020000000000000e+011   +8.156431450708570e-001 -5.564450622449680e-001   +0.000000000000000e+000 +0.000000000000000e+000   +0.000000000000000e+000 +0.000000000000000e+000   +7.917128668652770e-001 -5.868315319997960e-001   
+1.021700000000000e+011   +8.152953666407960e-001 -5.583613430543350e-001   +0.000000000000000e+000 +0.000000000000000e+000   +0.000000000000000e+000 +0.000000000000000e+000   +7.914853419508000e-001 -5.881487773554990e-001   
+1.023400000000000e+011   +8.149693061222510e-001 -5.602601800253830e-001   +0.000000000000000e+000 +0.000000000000000e+000   +0.000000000000000e+000 +0.000000000000000e+000   +7.913187716126420e-001 -5.893946445035650e-001   
+1.025100000000000e+011   +8.146650019363610e-001 -5.621412297022510e-001   +0.000000000000000e+000 +0.000000000000000e+000   +0.000000000000000e+000 +0.000000000000000e+000   +7.912134842528330e-001 -5.905677874425570e-001   
+1.026800000000000e+011   +8.143824599826770e-001 -5.640041661465350e-001   +0.000000000000000e+000 +0.000000000000000e+000   +0.000000000000000e+000 +0.000000000000000e+000   +7.911697294964120e-001 -5.916668708607840e-001   
+1.028500000000000e+011   +8.141216532588720e-001 -5.658486800185770e-001   +0.000000000000000e+000 +0.000000000000000e+000   +0.000000000000000e+000 +0.000000000000000e+000   +7.911876734841850e-001 -5.926905724592010e-001   
+1.030200000000000e+011   +8.138825216116850e-001 -5.676744775773760e-001   +0.000000000000000e+000 +0.000000000000000e+000   +0.000000000000000e+000 +0.000000000000000e+000   +7.912673939661870e-001 -5.936375857140330e-001   
+1.031900000000000e+011   +8.136649716414140e-001 -5.694812798505140e-001   +0.000000000000000e+000 +0.000000000000000e+000   +0.000000000000000e+000 +0.000000000000000e+000   +7.914088750824580e-001 -5.945066231078210e-001   
+1.033600000000000e+011   +8.134688767681930e-001 -5.712688220074990e-001   +0.000000000000000e+000 +0.000000000000000e+000   +0.000000000000000e+000 +0.000000000000000e+000   +7.916120022645580e-001 -5.952964197986790e-001   
+1.035300000000000e+011   +8.132940775195150e-001 -5.730368525985030e-001   +0.000000000000000e+000 +0.000000000000000e+000   +0.000000000000000e+000 +0.000000000000000e+000   +7.918765569355580e-001 -5.960057377101250e-001   
+1.037000000000000e+011   +8.131403823887450e-001 -5.747851331451830e-001   +0.000000000000000e+000 +0.000000000000000e+000   +0.000000000000000e+000 +0.000000000000000e+000   +7.922022115625670e-001 -5.966333700854380e-001   
+1.038700000000000e+011   +8.130075691788390e-001 -5.765134376153600e-001   +0.000000000000000e+000 +0.000000000000000e+000   +0.000000000000000e+000 +0.000000000000000e+000   +7.925885248374030e-001 -5.971781462467730e-001   
+1.040400000000000e+011   +8.128953873322430e-001 -5.782215522401230e-001   +0.000000000000000e+000 +0.000000000000000e+000   +0.000000000000000e+000 +0.000000000000000e+000   +7.930349373697140e-001 -5.976389367262240e-001   
+1.042100000000000e+011   +8.128035612808610e-001 -5.799092753405100e-001   +0.000000000000000e+000 +0.000000000000000e+000   +0.000000000000000e+000 +0.000000000000000e+000   +7.935407683063190e-001 -5.980146585995160e-001   
+1.043800000000000e+011   +8.127317959679450e-001 -5.815764175052430e-001   +0.000000000000000e+000 +0.000000000000000e+000   +0.000000000000000e+000 +0.000000000000000e+000   +7.941052131245820e-001 -5.983042805467500e-001   
+1.045500000000000e+011   +8.126797843516160e-001 -5.832228022583430e-001   +0.000000000000000e+000 +0.000000000000000e+000   +0.000000000000000e+000 +0.000000000000000e+000   +7.947273432424960e-001 -5.985068278356490e-001   
+1.047200000000000e+011   +8.126472189273760e-001 -5.848482674757570e-001   +0.000000000000000e+000 +0.000000000000000e+000   +0.000000000000000e+000 +0.000000000000000e+000   +7.954061084603400e-001 -5.986213864455840e-001   
+1.048900000000000e+011   +8.126338084706500e-001 -5.864526681689720e-001   +0.000000000000000e+000 +0.000000000000000e+000   +0.000000000000000e+000 +0.000000000000000e+000   +7.961403435197600e-001 -5.986471058542100e-001   
+1.050600000000000e+011   +8.126393026502940e-001 -5.880358817396090e-001   +0.000000000000000e+000 +0.000000000000000e+000   +0.000000000000000e+000 +0.000000000000000e+000   +7.969287808312610e-001 -5.985831997175650e-001   
+1.052300000000000e+011   +8.126635285333800e-001 -5.895978176958110e-001   +0.000000000000000e+000 +0.000000000000000e+000   +0.000000000000000e+000 +0.000000000000000e+000   +7.977700730721720e-001 -5.984289427003850e-001   
+1.054000000000000e+011   +8.127064460469700e-001 -5.911384355609620e-001   +0.000000000000000e+000 +0.000000000000000e+000   +0.000000000000000e+000 +0.000000000000000e+000   +7.986628312414160e-001 -5.981836618447970e-001   
+1.055700000000000e+011   +8.127682327267850e-001 -5.926577788302360e-001   +0.000000000000000e+000 +0.000000000000000e+000   +0.000000000000000e+000 +0.000000000000000e+000   +7.996056885571140e-001 -5.978467185365830e-001   
+1.057400000000000e+011   +8.128494171880070e-001 -5.941560401594110e-001   +0.000000000000000e+000 +0.000000000000000e+000   +0.000000000000000e+000 +0.000000000000000e+000   +8.005974087999580e-001 -5.974174763577420e-001   
+1.059100000000000e+011   +8.129510935079390e-001 -5.956336912194710e-001   +0.000000000000000e+000 +0.000000000000000e+000   +0.000000000000000e+000 +0.000000000000000e+000   +8.016370751995840e-001 -5.968952462960890e-001   
+1.060800000000000e+011   +8.130752743596420e-001 -5.970917522287690e-001   +0.000000000000000e+000 +0.000000000000000e+000   +0.000000000000000e+000 +0.000000000000000e+000   +8.027244336235610e-001 -5.962791974732350e-001   
+1.062500000000000e+011   +8.132254844667020e-001 -5.985323806201820e-001   +0.000000000000000e+000 +0.000000000000000e+000   +0.000000000000000e+000 +0.000000000000000e+000   +8.038605508032140e-001 -5.955682195622720e-001   
+1.064200000000000e+011   +8.134077555139440e-001 -5.999602399103570e-001   +0.000000000000000e+000 +0.000000000000000e+000   +0.000000000000000e+000 +0.000000000000000e+000   +8.050491686400730e-001 -5.947607409381840e-001   
+1.065900000000000e+011   +8.136321725565600e-001 -6.013859254542090e-001   +0.000000000000000e+000 +0.000000000000000e+000   +0.000000000000000e+000 +0.000000000000000e+000   +8.062997394564980e-001 -5.938546395906340e-001   
+1.067600000000000e+011   +8.139143025501690e-001 -6.028352407874710e-001   +0.000000000000000e+000 +0.000000000000000e+000   +0.000000000000000e+000 +0.000000000000000e+000   +8.076349596588580e-001 -5.928481702349940e-001   
+1.069300000000000e+011   +8.142690038336630e-001 -6.043757318161430e-001   +0.000000000000000e+000 +0.000000000000000e+000   +0.000000000000000e+000 +0.000000000000000e+000   +8.091115380835680e-001 -5.917476834062990e-001   
+1.071000000000000e+011   +8.146410447599530e-001 -6.061822529662470e-001   +0.000000000000000e+000 +0.000000000000000e+000   +0.000000000000000e+000 +0.000000000000000e+000   +8.108783535455580e-001 -5.906213710048510e-001   
+1.072700000000000e+011   +8.145178690446200e-001 -6.084513713575240e-001   +0.000000000000000e+000 +0.000000000000000e+000   +0.000000000000000e+000 +0.000000000000000e+000   +8.132170617113050e-001 -5.899461575110830e-001   
+1.074400000000000e+011   +8.133751368148560e-001 -6.099340927771760e-001   +0.000000000000000e+000 +0.000000000000000e+000   +0.000000000000000e+000 +0.000000000000000e+000   +8.150489140574250e-001 -5.911464836364320e-001   
+1.076100000000000e+011   +8.133251587265320e-001 -6.108336528745510e-001   +0.000000000000000e+000 +0.000000000000000e+000   +0.000000000000000e+000 +0.000000000000000e+000   +8.136216696419260e-001 -5.908537251804830e-001   
+1.077800000000000e+011   +8.132466304533110e-001 -6.119477466159510e-001   +0.000000000000000e+000 +0.000000000000000e+000   +0.000000000000000e+000 +0.000000000000000e+000   +8.138368334249550e-001 -5.879861342372620e-001   
+1.079500000000000e+011   +8.132576531540390e-001 -6.129024118445480e-001   +0.000000000000000e+000 +0.000000000000000e+000   +0.000000000000000e+000 +0.000000000000000e+000   +8.150636693605660e-001 -5.857361482273760e-001   
+1.081200000000000e+011   +8.133530547022580e-001 -6.138935382748510e-001   +0.000000000000000e+000 +0.000000000000000e+000   +0.000000000000000e+000 +0.000000000000000e+000   +8.163793583279530e-001 -5.838349006177980e-001   
+1.082900000000000e+011   +8.134699863673140e-001 -6.149304179341220e-001   +0.000000000000000e+000 +0.000000000000000e+000   +0.000000000000000e+000 +0.000000000000000e+000   +8.176738591978550e-001 -5.820355563356830e-001   
+1.084600000000000e+011   +8.135836707495640e-001 -6.159922822423240e-001   +0.000000000000000e+000 +0.000000000000000e+000   +0.000000000000000e+000 +0.000000000000000e+000   +8.189367591606610e-001 -5.802531360757980e-001   
+1.086300000000000e+011   +8.136851228766360e-001 -6.170632453819570e-001   +0.000000000000000e+000 +0.000000000000000e+000   +0.000000000000000e+000 +0.000000000000000e+000   +8.201666992313690e-001 -5.784568420082530e-001   
+1.088000000000000e+011   +8.137707101919100e-001 -6.181333755458670e-001   +0.000000000000000e+000 +0.000000000000000e+000   +0.000000000000000e+000 +0.000000000000000e+000   +8.213620325399610e-001 -5.766352791427920e-001   
+1.089700000000000e+011   +8.138385912464090e-001 -6.191965760037370e-001   +0.000000000000000e+000 +0.000000000000000e+000   +0.000000000000000e+000 +0.000000000000000e+000   +8.225201678727110e-001 -5.747851722886040e-001   
+1.091400000000000e+011   +8.138875127779910e-001 -6.202490352100130e-001   +0.000000000000000e+000 +0.000000000000000e+000   +0.000000000000000e+000 +0.000000000000000e+000   +8.236378344268230e-001 -5.729071599365090e-001   
+1.093100000000000e+011   +8.139164010490840e-001 -6.212883107255870e-001   +0.000000000000000e+000 +0.000000000000000e+000   +0.000000000000000e+000 +0.000000000000000e+000   +8.247113500757830e-001 -5.710040057178080e-001   
+1.094800000000000e+011   +8.139242299749170e-001 -6.223128023847120e-001   +0.000000000000000e+000 +0.000000000000000e+000   +0.000000000000000e+000 +0.000000000000000e+000   +8.257368109421450e-001 -5.690797472777210e-001   
+1.096500000000000e+011   +8.139099884470460e-001 -6.233214446684200e-001   +0.000000000000000e+000 +0.000000000000000e+000   +0.000000000000000e+000 +0.000000000000000e+000   +8.267102209263490e-001 -5.671392492875340e-001   
+1.098200000000000e+011   +8.138726834651810e-001 -6.243135224270740e-001   +0.000000000000000e+000 +0.000000000000000e+000   +0.000000000000000e+000 +0.000000000000000e+000   +8.276275828001420e-001 -5.651879455923030e-001   
+1.099900000000000e+011   +8.138113546699450e-001 -6.252885571053320e-001   +0.000000000000000e+000 +0.000000000000000e+000   +0.000000000000000e+000 +0.000000000000000e+000   +8.284849651615610e-001 -5.632316763540550e-001   
+1.101600000000000e+011   +8.137250919215390e-001 -6.262462344915260e-001   +0.000000000000000e+000 +0.000000000000000e+000   +0.000000000000000e+000 +0.000000000000000e+000   +8.292785536363170e-001 -5.612765754302800e-001   
+1.103300000000000e+011   +8.136130522281670e-001 -6.271863579520460e-001   +0.000000000000000e+000 +0.000000000000000e+000   +0.000000000000000e+000 +0.000000000000000e+000   +8.300046915148190e-001 -5.593289854356300e-001   
+1.105000000000000e+011   +8.134744750495300e-001 -6.281088172172380e-001   +0.000000000000000e+000 +0.000000000000000e+000   +0.000000000000000e+000 +0.000000000000000e+000   +8.306599126820550e-001 -5.573953886167720e-001   
+1.106700000000000e+011   +8.133086955903100e-001 -6.290135673595910e-001   +0.000000000000000e+000 +0.000000000000000e+000   +0.000000000000000e+000 +0.000000000000000e+000   +8.312409685767370e-001 -5.554823472752710e-001   
+1.108400000000000e+011   +8.131151558570580e-001 -6.299006142533620e-001   +0.000000000000000e+000 +0.000000000000000e+000   +0.000000000000000e+000 +0.000000000000000e+000   +8.317448503740120e-001 -5.535964501601110e-001   
+1.110100000000000e+011   +8.128934142153080e-001 -6.307700047603320e-001   +0.000000000000000e+000 +0.000000000000000e+000   +0.000000000000000e+000 +0.000000000000000e+000   +8.321688069500410e-001 -5.517442627650750e-001   
+1.111800000000000e+011   +8.126431525535890e-001 -6.316218196114420e-001   +0.000000000000000e+000 +0.000000000000000e+000   +0.000000000000000e+000 +0.000000000000000e+000   +8.325103590532460e-001 -5.499322807729220e-001   
+1.113500000000000e+011   +8.123641821863660e-001 -6.324561686734250e-001   +0.000000000000000e+000 +0.000000000000000e+000   +0.000000000000000e+000 +0.000000000000000e+000   +8.327673100098310e-001 -5.481668860151110e-001   
+1.115200000000000e+011   +8.120564478022120e-001 -6.332731876122260e-001   +0.000000000000000e+000 +0.000000000000000e+000   +0.000000000000000e+000 +0.000000000000000e+000   +8.329377531538300e-001 -5.464543048093430e-001   
+1.116900000000000e+011   +8.117200299915500e-001 -6.340730356741840e-001   +0.000000000000000e+000 +0.000000000000000e+000   +0.000000000000000e+000 +0.000000000000000e+000   +8.330200762463410e-001 -5.448005688404980e-001   
+1.118600000000000e+011   +8.113551462561600e-001 -6.348558939997800e-001   +0.000000000000000e+000 +0.000000000000000e+000   +0.000000000000000e+000 +0.000000000000000e+000   +8.330129629894960e-001 -5.432114786985170e-001   
+1.120300000000000e+011   +8.109621506111190e-001 -6.356219648948610e-001   +0.000000000000000e+000 +0.000000000000000e+000   +0.000000000000000e+000 +0.000000000000000e+000   +8.329153919672930e-001 -5.416925700856550e-001   
+1.122000000000000e+011   +8.105415317547390e-001 -6.363714710741730e-001   +0.000000000000000e+000 +0.000000000000000e+000   +0.000000000000000e+000 +0.000000000000000e+000   +8.327266330246830e-001 -5.402490832908040e-001   
+1.123700000000000e+011   +8.100939101746970e-001 -6.371046553332010e-001   +0.000000000000000e+000 +0.000000000000000e+000   +0.000000000000000e+000 +0.000000000000000e+000   +8.324462415853020e-001 -5.388859357088350e-001   
+1.125400000000000e+011   +8.096200340737180e-001 -6.378217803335630e-001   +0.000000000000000e+000 +0.000000000000000e+000   +0.000000000000000e+000 +0.000000000000000e+000   +8.320740508055270e-001 -5.376076978642450e-001   
+1.127100000000000e+011   +8.091207740975210e-001 -6.385231284820790e-001   +0.000000000000000e+000 +0.000000000000000e+000   +0.000000000000000e+000 +0.000000000000000e+000   +8.316101621364580e-001 -5.364185729602680e-001   
+1.128800000000000e+011   +8.085971173166540e-001 -6.392090017840850e-001   +0.000000000000000e+000 +0.000000000000000e+000   +0.000000000000000e+000 +0.000000000000000e+000   +8.310549344498260e-001 -5.353223801355990e-001   
+1.130500000000000e+011   +8.080501604003410e-001 -6.398797216615770e-001   +0.000000000000000e+000 +0.000000000000000e+000   +0.000000000000000e+000 +0.000000000000000e+000   +8.304089718133410e-001 -5.343225411165430e-001   
+1.132200000000000e+011   +8.074811018639850e-001 -6.405356286621800e-001   +0.000000000000000e+000 +0.000000000000000e+000   +0.000000000000000e+000 +0.000000000000000e+000   +8.296731104451130e-001 -5.334220708312670e-001   
+1.133900000000000e+011   +8.068912341679730e-001 -6.411770821465070e-001   +0.000000000000000e+000 +0.000000000000000e+000   +0.000000000000000e+000 +0.000000000000000e+000   +8.288484047887960e-001 -5.326235713244800e-001   
+1.135600000000000e+011   +8.062819348827180e-001 -6.418044597530060e-001   +0.000000000000000e+000 +0.000000000000000e+000   +0.000000000000000e+000 +0.000000000000000e+000   +8.279361132966750e-001 -5.319292292442740e-001   
+1.137300000000000e+011   +8.056546579440830e-001 -6.424181568000250e-001   +0.000000000000000e+000 +0.000000000000000e+000   +0.000000000000000e+000 +0.000000000000000e+000   +8.269376837325750e-001 -5.313408166490640e-001   
+1.139000000000000e+011   +8.050109244682660e-001 -6.430185854018940e-001   +0.000000000000000e+000 +0.000000000000000e+000   +0.000000000000000e+000 +0.000000000000000e+000   +8.258547385436380e-001 -5.308596947931540e-001   
+1.140700000000000e+011   +8.043523135322950e-001 -6.436061736329890e-001   +0.000000000000000e+000 +0.000000000000000e+000   +0.000000000000000e+000 +0.000000000000000e+000   +8.246890602176500e-001 -5.304868209153620e-001   
+1.142400000000000e+011   +8.036804530469350e-001 -6.441813643384800e-001   +0.000000000000000e+000 +0.000000000000000e+000   +0.000000000000000e+000 +0.000000000000000e+000   +8.234425768402240e-001 -5.302227576378040e-001   
+1.144100000000000e+011   +8.029970105985060e-001 -6.447446139079420e-001   +0.000000000000000e+000 +0.000000000000000e+000   +0.000000000000000e+000 +0.000000000000000e+000   +8.221173480861870e-001 -5.300676846872630e-001   
+1.145800000000000e+011   +8.023036845832900e-001 -6.452963908905930e-001   +0.000000000000000e+000 +0.000000000000000e+000   +0.000000000000000e+000 +0.000000000000000e+000   +8.207155516676600e-001 -5.300214128139770e-001   
+1.147500000000000e+011   +8.016021956942460e-001 -6.458371744655530e-001   +0.000000000000000e+000 +0.000000000000000e+000   +0.000000000000000e+000 +0.000000000000000e+000   +8.192394702098270e-001 -5.300833995354590e-001   
+1.149200000000000e+011   +8.008942786570550e-001 -6.463674528239800e-001   +0.000000000000000e+000 +0.000000000000000e+000   +0.000000000000000e+000 +0.000000000000000e+000   +8.176914786957850e-001 -5.302527663369400e-001   
+1.150900000000000e+011   +8.001816743273710e-001 -6.468877214558440e-001   +0.000000000000000e+000 +0.000000000000000e+000   +0.000000000000000e+000 +0.000000000000000e+000   +8.160740327378800e-001 -5.305283173605610e-001   
+1.152600000000000e+011   +7.994661224727220e-001 -6.473984814197750e-001   +0.000000000000000e+000 +0.000000000000000e+000   +0.000000000000000e+000 +0.000000000000000e+000   +8.143896572124710e-001 -5.309085589375150e-001   
+1.154300000000000e+011   +7.987493548451460e-001 -6.479002373597010e-001   +0.000000000000000e+000 +0.000000000000000e+000   +0.000000000000000e+000 +0.000000000000000e+000   +8.126409358606840e-001 -5.313917200453340e-001   
+1.156000000000000e+011   +7.980330890000170e-001 -6.483934958042540e-001   +0.000000000000000e+000 +0.000000000000000e+000   +0.000000000000000e+000 +0.000000000000000e+000   +8.108305011158790e-001 -5.319757732075590e-001   
+1.157700000000000e+011   +7.973190223937510e-001 -6.488787632172000e-001   +0.000000000000000e+000 +0.000000000000000e+000   +0.000000000000000e+000 +0.000000000000000e+000   +8.089610251369110e-001 -5.326584558210130e-001   
+1.159400000000000e+011   +7.966088273827650e-001 -6.493565441773230e-001   +0.000000000000000e+000 +0.000000000000000e+000   +0.000000000000000e+000 +0.000000000000000e+000   +8.070352107936340e-001 -5.334372915002200e-001   
+1.161100000000000e+011   +7.959041465665950e-001 -6.498273394728750e-001   +0.000000000000000e+000 +0.000000000000000e+000   +0.000000000000000e+000 +0.000000000000000e+000   +8.050557838335170e-001 -5.343096114578600e-001   
+1.162800000000000e+011   +7.952065888642270e-001 -6.502916443503570e-001   +0.000000000000000e+000 +0.000000000000000e+000   +0.000000000000000e+000 +0.000000000000000e+000   +8.030254851979190e-001 -5.352725756401580e-001   
+1.164500000000000e+011   +7.945177259865450e-001 -6.507499469044480e-001   +0.000000000000000e+000 +0.000000000000000e+000   +0.000000000000000e+000 +0.000000000000000e+000   +8.009470640840310e-001 -5.363231934294050e-001   
+1.166200000000000e+011   +7.938390896809520e-001 -6.512027262233910e-001   +0.000000000000000e+000 +0.000000000000000e+000   +0.000000000000000e+000 +0.000000000000000e+000   +7.988232713134830e-001 -5.374583439049390e-001   
+1.167900000000000e+011   +7.931721693740850e-001 -6.516504510594530e-001   +0.000000000000000e+000 +0.000000000000000e+000   +0.000000000000000e+000 +0.000000000000000e+000   +7.966568533236940e-001 -5.386747955321350e-001   
+1.169600000000000e+011   +7.925184103916500e-001 -6.520935782473600e-001   +0.000000000000000e+000 +0.000000000000000e+000   +0.000000000000000e+000 +0.000000000000000e+000   +7.944505464597090e-001 -5.399692250071600e-001   
+1.171300000000000e+011   +7.918792126498850e-001 -6.525325514703530e-001   +0.000000000000000e+000 +0.000000000000000e+000   +0.000000000000000e+000 +0.000000000000000e+000   +7.922070715836980e-001 -5.413382354395170e-001   
+1.173000000000000e+011   +7.912559298345010e-001 -6.529677999723790e-001   +0.000000000000000e+000 +0.000000000000000e+000   +0.000000000000000e+000 +0.000000000000000e+000   +7.899291293551910e-001 -5.427783736654100e-001   
+1.174700000000000e+011   +7.906498690040560e-001 -6.533997375877530e-001   +0.000000000000000e+000 +0.000000000000000e+000   +0.000000000000000e+000 +0.000000000000000e+000   +7.876193953379460e-001 -5.442861466076310e-001   
+1.176400000000000e+011   +7.900622907153730e-001 -6.538287617405630e-001   +0.000000000000000e+000 +0.000000000000000e+000   +0.000000000000000e+000 +0.000000000000000e+000   +7.852805158639810e-001 -5.458580367260790e-001   
+1.178100000000000e+011   +7.894944092339460e-001 -6.542552526697570e-001   +0.000000000000000e+000 +0.000000000000000e+000   +0.000000000000000e+000 +0.000000000000000e+000   +7.829151039497530e-001 -5.474905165257470e-001   
+1.179800000000000e+011   +7.889473935761850e-001 -6.546795727767900e-001   +0.000000000000000e+000 +0.000000000000000e+000   +0.000000000000000e+000 +0.000000000000000e+000   +7.805257354665330e-001 -5.491800620173360e-001   
+1.181500000000000e+011   +7.884223683247910e-001 -6.551020661617460e-001   +0.000000000000000e+000 +0.000000000000000e+000   +0.000000000000000e+000 +0.000000000000000e+000   +7.781149456736110e-001 -5.509231652914600e-001   
+1.183200000000000e+011   +7.879204151704710e-001 -6.555230582545730e-001   +0.000000000000000e+000 +0.000000000000000e+000   +0.000000000000000e+000 +0.000000000000000e+000   +7.756852258580340e-001 -5.527163459969790e-001   
+1.184900000000000e+011   +7.874425745170050e-001 -6.559428555595200e-001   +0.000000000000000e+000 +0.000000000000000e+000   +0.000000000000000e+000 +0.000000000000000e+000   +7.732390203015940e-001 -5.545561619121900e-001   
+1.186600000000000e+011   +7.869898472674600e-001 -6.563617456977100e-001   +0.000000000000000e+000 +0.000000000000000e+000   +0.000000000000000e+000 +0.000000000000000e+000   +7.707787233528070e-001 -5.564392185766630e-001   
+1.188300000000000e+011   +7.865631970636090e-001 -6.567799974378470e-001   +0.000000000000000e+000 +0.000000000000000e+000   +0.000000000000000e+000 +0.000000000000000e+000   +7.683066768243390e-001 -5.583621778444280e-001   
+1.190000000000000e+011   +7.861635523507080e-001 -6.571978609708040e-001   +0.000000000000000e+000 +0.000000000000000e+000   +0.000000000000000e+000 +0.000000000000000e+000   +7.658251674117230e-001 -5.603217657157200e-001   
+1.191700000000000e+011   +7.857918088914580e-001 -6.576155682864690e-001   +0.000000000000000e+000 +0.000000000000000e+000   +0.000000000000000e+000 +0.000000000000000e+000   +7.633364245188490e-001 -5.623147791887330e-001   
+1.193400000000000e+011   +7.854488322627750e-001 -6.580333337785210e-001   +0.000000000000000e+000 +0.000000000000000e+000   +0.000000000000000e+000 +0.000000000000000e+000   +7.608426180721760e-001 -5.643380922130640e-001   
+1.195100000000000e+011   +7.851354605043030e-001 -6.584513548619060e-001   +0.000000000000000e+000 +0.000000000000000e+000   +0.000000000000000e+000 +0.000000000000000e+000   +7.583458566078930e-001 -5.663886609675090e-001   
+1.196800000000000e+011   +7.848525068160350e-001 -6.588698129200760e-001   +0.000000000000000e+000 +0.000000000000000e+000   +0.000000000000000e+000 +0.000000000000000e+000   +7.558481854840250e-001 -5.684635282639110e-001   
+1.198500000000000e+011   +7.846007624002010e-001 -6.592888742859040e-001   +0.000000000000000e+000 +0.000000000000000e+000   +0.000000000000000e+000 +0.000000000000000e+000   +7.533515852367450e-001 -5.705598273324600e-001   
+1.200200000000000e+011   +7.843809991545240e-001 -6.597086913583510e-001   +0.000000000000000e+000 +0.000000000000000e+000   +0.000000000000000e+000 +0.000000000000000e+000   +7.508579701536170e-001 -5.726747847881330e-001   
+1.201900000000000e+011   +7.841939727042890e-001 -6.601294040838620e-001   +0.000000000000000e+000 +0.000000000000000e+000   +0.000000000000000e+000 +0.000000000000000e+000   +7.483691869092940e-001 -5.748057231826370e-001   
+1.203600000000000e+011   +7.840404251123000e-001 -6.605511413342340e-001   +0.000000000000000e+000 +0.000000000000000e+000   +0.000000000000000e+000 +0.000000000000000e+000   +7.458870131996910e-001 -5.769500627606530e-001   
+1.205300000000000e+011   +7.839210878111700e-001 -6.609740227613330e-001   +0.000000000000000e+000 +0.000000000000000e+000   +0.000000000000000e+000 +0.000000000000000e+000   +7.434131567366780e-001 -5.791053229147410e-001   
+1.207000000000000e+011   +7.838366844116230e-001 -6.613981606419880e-001   +0.000000000000000e+000 +0.000000000000000e+000   +0.000000000000000e+000 +0.000000000000000e+000   +7.409492540152420e-001 -5.812691231520030e-001   
+1.208700000000000e+011   +7.837879334900030e-001 -6.618236620831020e-001   +0.000000000000000e+000 +0.000000000000000e+000   +0.000000000000000e+000 +0.000000000000000e+000   +7.384968692062190e-001 -5.834391835658040e-001   
+1.210400000000000e+011   +7.837755513466040e-001 -6.622506315208510e-001   +0.000000000000000e+000 +0.000000000000000e+000   +0.000000000000000e+000 +0.000000000000000e+000   +7.360574929703620e-001 -5.856133253110030e-001   
+1.212100000000000e+011   +7.838002547643860e-001 -6.626791734615570e-001   +0.000000000000000e+000 +0.000000000000000e+000   +0.000000000000000e+000 +0.000000000000000e+000   +7.336325412521190e-001 -5.877894706512970e-001   
+1.213800000000000e+011   +7.838627635895250e-001 -6.631093958223650e-001   +0.000000000000000e+000 +0.000000000000000e+000   +0.000000000000000e+000 +0.000000000000000e+000   +7.312233536362910e-001 -5.899656433345130e-001   
+1.215500000000000e+011   +7.839638034891200e-001 -6.635414137260670e-001   +0.000000000000000e+000 +0.000000000000000e+000   +0.000000000000000e+000 +0.000000000000000e+000   +7.288311916036210e-001 -5.921399688892750e-001   
+1.217200000000000e+011   +7.841041086821600e-001 -6.639753541976410e-001   +0.000000000000000e+000 +0.000000000000000e+000   +0.000000000000000e+000 +0.000000000000000e+000   +7.264572361460360e-001 -5.943106758508370e-001   
+1.218900000000000e+011   +7.842844247967830e-001 -6.644113620680700e-001   +0.000000000000000e+000 +0.000000000000000e+000   +0.000000000000000e+000 +0.000000000000000e+000   +7.241025847406060e-001 -5.964760977425660e-001   
+1.220600000000000e+011   +7.845055123478170e-001 -6.648496075933990e-001   +0.000000000000000e+000 +0.000000000000000e+000   +0.000000000000000e+000 +0.000000000000000e+000   +7.217682474442050e-001 -5.986346772161950e-001   
+1.222300000000000e+011   +7.847681510831280e-001 -6.652902970132740e-001   +0.000000000000000e+000 +0.000000000000000e+000   +0.000000000000000e+000 +0.000000000000000e+000   +7.194551417827740e-001 -6.007849731639960e-001   
+1.224000000000000e+011   +7.850731464611380e-001 -6.657336876646940e-001   +0.000000000000000e+000 +0.000000000000000e+000   +0.000000000000000e+000 +0.000000000000000e+000   +7.171640865854960e-001 -6.029256734709350e-001   
+1.225700000000000e+011   +7.854213403433980e-001 -6.661801109525290e-001   +0.000000000000000e+000 +0.000000000000000e+000   +0.000000000000000e+000 +0.000000000000000e+000   +7.148957951553130e-001 -6.050556171380070e-001   
+1.227400000000000e+011   +7.858136304791500e-001 -6.666300090849180e-001   +0.000000000000000e+000 +0.000000000000000e+000   +0.000000000000000e+000 +0.000000000000000e+000   +7.126508698307460e-001 -6.071738332326900e-001   
+1.229100000000000e+011   +7.862510088445580e-001 -6.670839973430960e-001   +0.000000000000000e+000 +0.000000000000000e+000   +0.000000000000000e+000 +0.000000000000000e+000   +7.104298054459320e-001 -6.092796106369420e-001   
+1.230800000000000e+011   +7.867346416019740e-001 -6.675429744872360e-001   +0.000000000000000e+000 +0.000000000000000e+000   +0.000000000000000e+000 +0.000000000000000e+000   +7.082330218225800e-001 -6.113726263379140e-001   
+1.232500000000000e+011   +7.872660454328850e-001 -6.680083294513280e-001   +0.000000000000000e+000 +0.000000000000000e+000   +0.000000000000000e+000 +0.000000000000000e+000   +7.060609860786010e-001 -6.134531884845270e-001   
+1.234200000000000e+011   +7.878474977225710e-001 -6.684823428395550e-001   +0.000000000000000e+000 +0.000000000000000e+000   +0.000000000000000e+000 +0.000000000000000e+000   +7.039146060277060e-001 -6.155227080357480e-001   
+1.235900000000000e+011   +7.884830356334140e-001 -6.689689767366540e-001   +0.000000000000000e+000 +0.000000000000000e+000   +0.000000000000000e+000 +0.000000000000000e+000   +7.017964530847090e-001 -6.175846121622060e-001   
+1.237600000000000e+011   +7.891809292776430e-001 -6.694752927846000e-001   +0.000000000000000e+000 +0.000000000000000e+000   +0.000000000000000e+000 +0.000000000000000e+000   +6.997145519920750e-001 -6.196459115461310e-001   
+1.239300000000000e+011   +7.899591284260940e-001 -6.700126543347970e-001   +0.000000000000000e+000 +0.000000000000000e+000   +0.000000000000000e+000 +0.000000000000000e+000   +6.976934689008100e-001 -6.217181409272390e-001   
+1.241000000000000e+011   +7.908491758817050e-001 -6.705880031288910e-001   +0.000000000000000e+000 +0.000000000000000e+000   +0.000000000000000e+000 +0.000000000000000e+000   +6.957959726325190e-001 -6.238054615177860e-001   
+1.242700000000000e+011   +7.918507036850260e-001 -6.711544463258000e-001   +0.000000000000000e+000 +0.000000000000000e+000   +0.000000000000000e+000 +0.000000000000000e+000   +6.940865693170820e-001 -6.258451445699880e-001   
+1.244400000000000e+011   +7.928352521829030e-001 -6.716101189571920e-001   +0.000000000000000e+000 +0.000000000000000e+000   +0.000000000000000e+000 +0.000000000000000e+000   +6.924072651912140e-001 -6.277170082016030e-001   
+1.246100000000000e+011   +7.937457535701440e-001 -6.720003556288400e-001   +0.000000000000000e+000 +0.000000000000000e+000   +0.000000000000000e+000 +0.000000000000000e+000   +6.905583936789930e-001 -6.294852830241180e-001   
+1.247800000000000e+011   +7.946768347496050e-001 -6.724193416496190e-001   +0.000000000000000e+000 +0.000000000000000e+000   +0.000000000000000e+000 +0.000000000000000e+000   +6.886263805971690e-001 -6.312611571563220e-001   
+1.249500000000000e+011   +7.956779153117210e-001 -6.728798671066270e-001   +0.000000000000000e+000 +0.000000000000000e+000   +0.000000000000000e+000 +0.000000000000000e+000   +6.867072264903750e-001 -6.330543683772370e-001   
+1.251200000000000e+011   +7.967548195263730e-001 -6.733708340053140e-001   +0.000000000000000e+000 +0.000000000000000e+000   +0.000000000000000e+000 +0.000000000000000e+000   +6.848288188576530e-001 -6.348481394201600e-001   
+1.252900000000000e+011   +7.979045692493990e-001 -6.738840399004650e-001   +0.000000000000000e+000 +0.000000000000000e+000   +0.000000000000000e+000 +0.000000000000000e+000   +6.829943615069320e-001 -6.366303694434910e-001   
+1.254600000000000e+011   +7.991245063971830e-001 -6.744154796233040e-001   +0.000000000000000e+000 +0.000000000000000e+000   +0.000000000000000e+000 +0.000000000000000e+000   +6.812018787450260e-001 -6.383943268385580e-001   
+1.256300000000000e+011   +8.004132869081170e-001 -6.749636122365990e-001   +0.000000000000000e+000 +0.000000000000000e+000   +0.000000000000000e+000 +0.000000000000000e+000   +6.794490172722900e-001 -6.401362612076300e-001   
+1.258000000000000e+011   +8.017705553002210e-001 -6.755282272541780e-001   +0.000000000000000e+000 +0.000000000000000e+000   +0.000000000000000e+000 +0.000000000000000e+000   +6.777339123523360e-001 -6.418539445981830e-001   
+1.259700000000000e+011   +8.031965897224770e-001 -6.761098670208330e-001   +0.000000000000000e+000 +0.000000000000000e+000   +0.000000000000000e+000 +0.000000000000000e+000   +6.760551959742610e-001 -6.435459436670940e-001   
+1.261400000000000e+011   +8.046920649968850e-001 -6.767095414357890e-001   +0.000000000000000e+000 +0.000000000000000e+000   +0.000000000000000e+000 +0.000000000000000e+000   +6.744118672810490e-001 -6.452112614404490e-001   
+1.263100000000000e+011   +8.062579067204760e-001 -6.773285855460760e-001   +0.000000000000000e+000 +0.000000000000000e+000   +0.000000000000000e+000 +0.000000000000000e+000   +6.728031744061980e-001 -6.468491558099170e-001   
+1.264800000000000e+011   +8.078952013440630e-001 -6.779685876601280e-001   +0.000000000000000e+000 +0.000000000000000e+000   +0.000000000000000e+000 +0.000000000000000e+000   +6.712285285518710e-001 -6.484590439022520e-001   
+1.266500000000000e+011   +8.096051385590670e-001 -6.786313537096090e-001   +0.000000000000000e+000 +0.000000000000000e+000   +0.000000000000000e+000 +0.000000000000000e+000   +6.696874450827310e-001 -6.500404499164850e-001   
+1.268200000000000e+011   +8.113889727056110e-001 -6.793188910212300e-001   +0.000000000000000e+000 +0.000000000000000e+000   +0.000000000000000e+000 +0.000000000000000e+000   +6.681795030825370e-001 -6.515929759254560e-001   
+1.269900000000000e+011   +8.132479950793170e-001 -6.800334030149960e-001   +0.000000000000000e+000 +0.000000000000000e+000   +0.000000000000000e+000 +0.000000000000000e+000   +6.667043175591540e-001 -6.531162853330190e-001   
+1.271600000000000e+011   +8.151835122635870e-001 -6.807772907716740e-001   +0.000000000000000e+000 +0.000000000000000e+000   +0.000000000000000e+000 +0.000000000000000e+000   +6.652615195435230e-001 -6.546100937238450e-001   
+1.273300000000000e+011   +8.171968279097250e-001 -6.815531584249770e-001   +0.000000000000000e+000 +0.000000000000000e+000   +0.000000000000000e+000 +0.000000000000000e+000   +6.638507414977790e-001 -6.560741644346810e-001   
+1.275000000000000e+011   +8.192892262044360e-001 -6.823638217472370e-001   +0.000000000000000e+000 +0.000000000000000e+000   +0.000000000000000e+000 +0.000000000000000e+000   +6.624716059146520e-001 -6.575083068437470e-001   
+1.276700000000000e+011   +8.214619556814030e-001 -6.832123187032850e-001   +0.000000000000000e+000 +0.000000000000000e+000   +0.000000000000000e+000 +0.000000000000000e+000   +6.611237162862960e-001 -6.589123767918700e-001   
+1.278400000000000e+011   +8.237162125277480e-001 -6.841019216601820e-001   +0.000000000000000e+000 +0.000000000000000e+000   +0.000000000000000e+000 +0.000000000000000e+000   +6.598066490155970e-001 -6.602862785560780e-001   
+1.280100000000000e+011   +8.260531232123550e-001 -6.850361509820850e-001   +0.000000000000000e+000 +0.000000000000000e+000   +0.000000000000000e+000 +0.000000000000000e+000   +6.585199461252860e-001 -6.616299678252840e-001   
+1.281800000000000e+011   +8.284737252071400e-001 -6.860187899535080e-001   +0.000000000000000e+000 +0.000000000000000e+000   +0.000000000000000e+000 +0.000000000000000e+000   +6.572631084518430e-001 -6.629434557700210e-001   
+1.283500000000000e+011   +8.309789460073120e-001 -6.870539004923780e-001   +0.000000000000000e+000 +0.000000000000000e+000   +0.000000000000000e+000 +0.000000000000000e+000   +6.560355886506620e-001 -6.642268138070790e-001   
+1.285200000000000e+011   +8.335695796429270e-001 -6.881458399252120e-001   +0.000000000000000e+000 +0.000000000000000e+000   +0.000000000000000e+000 +0.000000000000000e+000   +6.548367840759720e-001 -6.654801791037840e-001   
+1.286900000000000e+011   +8.362462604259540e-001 -6.892992784831380e-001   +0.000000000000000e+000 +0.000000000000000e+000   +0.000000000000000e+000 +0.000000000000000e+000   +6.536660295167200e-001 -6.667037607437730e-001   
+1.288600000000000e+011   +8.390094337221840e-001 -6.905192173592090e-001   +0.000000000000000e+000 +0.000000000000000e+000   +0.000000000000000e+000 +0.000000000000000e+000   +6.525225893353550e-001 -6.678978463413720e-001   
+1.290300000000000e+011   +8.418593228969530e-001 -6.918110071670040e-001   +0.000000000000000e+000 +0.000000000000000e+000   +0.000000000000000e+000 +0.000000000000000e+000   +6.514056493458250e-001 -6.690628091724820e-001   
+1.292000000000000e+011   +8.447958924219210e-001 -6.931803665208190e-001   +0.000000000000000e+000 +0.000000000000000e+000   +0.000000000000000e+000 +0.000000000000000e+000   +6.503143081304880e-001 -6.701991157166380e-001   
+1.293700000000000e+011   +8.478188067844860e-001 -6.946334004485160e-001   +0.000000000000000e+000 +0.000000000000000e+000   +0.000000000000000e+000 +0.000000000000000e+000   +6.492475679154620e-001 -6.713073333547690e-001   
+1.295400000000000e+011   +8.509273844252890e-001 -6.961766180681600e-001   +0.000000000000000e+000 +0.000000000000000e+000   +0.000000000000000e+000 +0.000000000000000e+000   +6.482043251127850e-001 -6.723881383075810e-001   
+1.297100000000000e+011   +8.541205466216910e-001 -6.978169494831220e-001   +0.000000000000000e+000 +0.000000000000000e+000   +0.000000000000000e+000 +0.000000000000000e+000   +6.471833604611930e-001 -6.734423235884080e-001   
+1.298800000000000e+011   +8.573967609710550e-001 -6.995617606764110e-001   +0.000000000000000e+000 +0.000000000000000e+000   +0.000000000000000e+000 +0.000000000000000e+000   +6.461833288097670e-001 -6.744708066800730e-001   
+1.300500000000000e+011   +8.607539789794240e-001 -7.014188661555610e-001   +0.000000000000000e+000 +0.000000000000000e+000   +0.000000000000000e+000 +0.000000000000000e+000   +6.452027492740830e-001 -6.754746368995290e-001   
+1.302200000000000e+011   +8.641895675841540e-001 -7.033965384083800e-001   +0.000000000000000e+000 +0.000000000000000e+000   +0.000000000000000e+000 +0.000000000000000e+000   +6.442399948070030e-001 -6.764550020285070e-001   
+1.303900000000000e+011   +8.677002345299000e-001 -7.055035131902160e-001   +0.000000000000000e+000 +0.000000000000000e+000   +0.000000000000000e+000 +0.000000000000000e+000   +6.432932828812310e-001 -6.774132339785210e-001   
+1.305600000000000e+011   +8.712819473503530e-001 -7.077489890673830e-001   +0.000000000000000e+000 +0.000000000000000e+000   +0.000000000000000e+000 +0.000000000000000e+000   +6.423606663916440e-001 -6.783508131373840e-001   
+1.307300000000000e+011   +8.749298463408770e-001 -7.101426206017280e-001   +0.000000000000000e+000 +0.000000000000000e+000   +0.000000000000000e+000 +0.000000000000000e+000   +6.414400255454470e-001 -6.792693709425710e-001   
+1.309000000000000e+011   +8.786381514571570e-001 -7.126945032534750e-001   +0.000000000000000e+000 +0.000000000000000e+000   +0.000000000000000e+000 +0.000000000000000e+000   +6.405290617685720e-001 -6.801706901748780e-001   
+1.310700000000000e+011   +8.824000641854860e-001 -7.154151480219620e-001   +0.000000000000000e+000 +0.000000000000000e+000   +0.000000000000000e+000 +0.000000000000000e+000   +6.396252928508110e-001 -6.810567024713090e-001   
+1.312400000000000e+011   +8.862076647082190e-001 -7.183154448821850e-001   +0.000000000000000e+000 +0.000000000000000e+000   +0.000000000000000e+000 +0.000000000000000e+000   +6.387260513586010e-001 -6.819294825150180e-001   
+1.314100000000000e+011   +8.900518062503200e-001 -7.214066120619190e-001   +0.000000000000000e+000 +0.000000000000000e+000   +0.000000000000000e+000 +0.000000000000000e+000   +6.378284858298360e-001 -6.827912381600630e-001   
+1.315800000000000e+011   +8.939220075468260e-001 -7.247001296574780e-001   +0.000000000000000e+000 +0.000000000000000e+000   +0.000000000000000e+000 +0.000000000000000e+000   +6.369295661981290e-001 -6.836442958929710e-001   
+1.317500000000000e+011   +8.978063462724620e-001 -7.282076557989320e-001   +0.000000000000000e+000 +0.000000000000000e+000   +0.000000000000000e+000 +0.000000000000000e+000   +6.360260939170210e-001 -6.844910809865610e-001   
+1.319200000000000e+011   +9.016913554995890e-001 -7.319409225282940e-001   +0.000000000000000e+000 +0.000000000000000e+000   +0.000000000000000e+000 +0.000000000000000e+000   +6.351147178988500e-001 -6.853340916043560e-001   
+1.320900000000000e+011   +9.055619268506260e-001 -7.359116109075120e-001   +0.000000000000000e+000 +0.000000000000000e+000   +0.000000000000000e+000 +0.000000000000000e+000   +6.341919569680390e-001 -6.861758666604840e-001   
+1.322600000000000e+011   +9.094012237960440e-001 -7.401312029946600e-001   +0.000000000000000e+000 +0.000000000000000e+000   +0.000000000000000e+000 +0.000000000000000e+000   +6.332542303932930e-001 -6.870189464129370e-001   
+1.324300000000000e+011   +9.131906092866500e-001 -7.446108111598750e-001   +0.000000000000000e+000 +0.000000000000000e+000   +0.000000000000000e+000 +0.000000000000000e+000   +6.322978968810820e-001 -6.878658262023610e-001   
+1.326000000000000e+011   +9.169095921338160e-001 -7.493609845262850e-001   +0.000000000000000e+000 +0.000000000000000e+000   +0.000000000000000e+000 +0.000000000000000e+000   +6.313193040782600e-001 -6.887189033033780e-001   
+1.327700000000000e+011   +9.205357964121750e-001 -7.543914949617070e-001   +0.000000000000000e+000 +0.000000000000000e+000   +0.000000000000000e+000 +0.000000000000000e+000   +6.303148497208050e-001 -6.895804171664230e-001   
+1.329400000000000e+011   +9.240449572748180e-001 -7.597111063337970e-001   +0.000000000000000e+000 +0.000000000000000e+000   +0.000000000000000e+000 +0.000000000000000e+000   +6.292810560967520e-001 -6.904523848205690e-001   
+1.331100000000000e+011   +9.274109454902010e-001 -7.653273334413110e-001   +0.000000000000000e+000 +0.000000000000000e+000   +0.000000000000000e+000 +0.000000000000000e+000   +6.282146606152060e-001 -6.913365328616540e-001   
+1.332800000000000e+011   +9.306058189543280e-001 -7.712462002472890e-001   +0.000000000000000e+000 +0.000000000000000e+000   +0.000000000000000e+000 +0.000000000000000e+000   +6.271127257129310e-001 -6.922342298004290e-001   
+1.334500000000000e+011   +9.335998944611330e-001 -7.774720105327690e-001   +0.000000000000000e+000 +0.000000000000000e+000   +0.000000000000000e+000 +0.000000000000000e+000   +6.259727732031780e-001 -6.931464233884620e-001   
+1.336200000000000e+011   +9.363618227114580e-001 -7.840071491422010e-001   +0.000000000000000e+000 +0.000000000000000e+000   +0.000000000000000e+000 +0.000000000000000e+000   +6.247929509342620e-001 -6.940735913009620e-001   
+1.337900000000000e+011   +9.388586317636550e-001 -7.908519355379890e-001   +0.000000000000000e+000 +0.000000000000000e+000   +0.000000000000000e+000 +0.000000000000000e+000   +6.235722439669570e-001 -6.950157177142270e-001   
+1.339600000000000e+011   +9.410556745662440e-001 -7.980045522987130e-001   +0.000000000000000e+000 +0.000000000000000e+000   +0.000000000000000e+000 +0.000000000000000e+000   +6.223107493579650e-001 -6.959723191540860e-001   
+1.341300000000000e+011   +9.429163627493150e-001 -8.054610645953660e-001   +0.000000000000000e+000 +0.000000000000000e+000   +0.000000000000000e+000 +0.000000000000000e+000   +6.210100434340160e-001 -6.969425612281840e-001   
+1.343000000000000e+011   +9.444014743965690e-001 -8.132155093964460e-001   +0.000000000000000e+000 +0.000000000000000e+000   +0.000000000000000e+000 +0.000000000000000e+000   +6.196736822794420e-001 -6.979255478279240e-001   
+1.344700000000000e+011   +9.454676629775250e-001 -8.212599172149740e-001   +0.000000000000000e+000 +0.000000000000000e+000   +0.000000000000000e+000 +0.000000000000000e+000   +6.183078832367240e-001 -6.989209473474810e-001   
+1.346400000000000e+011   +9.460645328283650e-001 -8.295837998602580e-001   +0.000000000000000e+000 +0.000000000000000e+000   +0.000000000000000e+000 +0.000000000000000e+000   +6.169224035703370e-001 -6.999302912863890e-001   
+1.348100000000000e+011   +9.461293461988730e-001 -8.381717330618360e-001   +0.000000000000000e+000 +0.000000000000000e+000   +0.000000000000000e+000 +0.000000000000000e+000   +6.155314494992810e-001 -7.009596194806450e-001   
+1.349800000000000e+011   +9.455786016427260e-001 -8.469953646121700e-001   +0.000000000000000e+000 +0.000000000000000e+000   +0.000000000000000e+000 +0.000000000000000e+000   +6.141537395014390e-001 -7.020246985381050e-001   
+1.351500000000000e+011   +9.442989126414450e-001 -8.559911456715030e-001   +0.000000000000000e+000 +0.000000000000000e+000   +0.000000000000000e+000 +0.000000000000000e+000   +6.128085833828600e-001 -7.031603375879520e-001   
+1.353200000000000e+011   +9.421544026103350e-001 -8.650090467093190e-001   +0.000000000000000e+000 +0.000000000000000e+000   +0.000000000000000e+000 +0.000000000000000e+000   +6.114992963777710e-001 -7.044321000600200e-001   
+1.354900000000000e+011   +9.390676809394660e-001 -8.737361535407450e-001   +0.000000000000000e+000 +0.000000000000000e+000   +0.000000000000000e+000 +0.000000000000000e+000   +6.101702525467850e-001 -7.059306681922700e-001   
+1.356600000000000e+011   +9.352411918691460e-001 -8.817244735418660e-001   +0.000000000000000e+000 +0.000000000000000e+000   +0.000000000000000e+000 +0.000000000000000e+000   +6.086569890803700e-001 -7.076919026601160e-001   
+1.358300000000000e+011   +9.312877259330540e-001 -8.887837843259810e-001   +0.000000000000000e+000 +0.000000000000000e+000   +0.000000000000000e+000 +0.000000000000000e+000   +6.067644052652830e-001 -7.095467889335320e-001   
+1.360000000000000e+011   +9.277206180627680e-001 -8.953759018735400e-001   +0.000000000000000e+000 +0.000000000000000e+000   +0.000000000000000e+000 +0.000000000000000e+000   +6.045148088248370e-001 -7.111814309564100e-001   
+1.361700000000000e+011   +9.243955674636910e-001 -9.021243564527630e-001   +0.000000000000000e+000 +0.000000000000000e+000   +0.000000000000000e+000 +0.000000000000000e+000   +6.021543903612950e-001 -7.124583622062670e-001   
+1.363400000000000e+011   +9.208642589249430e-001 -9.092065629875200e-001   +0.000000000000000e+000 +0.000000000000000e+000   +0.000000000000000e+000 +0.000000000000000e+000   +5.998816442858700e-001 -7.134679172775150e-001   
+1.365100000000000e+011   +9.168400665241540e-001 -9.164708479529200e-001   +0.000000000000000e+000 +0.000000000000000e+000   +0.000000000000000e+000 +0.000000000000000e+000   +5.977566714006020e-001 -7.143396098303750e-001   
+1.366800000000000e+011   +9.122369080245040e-001 -9.237130843936550e-001   +0.000000000000000e+000 +0.000000000000000e+000   +0.000000000000000e+000 +0.000000000000000e+000   +5.957717694480050e-001 -7.151524039485600e-001   
+1.368500000000000e+011   +9.070685279769740e-001 -9.307767808399310e-001   +0.000000000000000e+000 +0.000000000000000e+000   +0.000000000000000e+000 +0.000000000000000e+000   +5.939072949496070e-001 -7.159413622775980e-001   
+1.370200000000000e+011   +9.013829565907960e-001 -9.375558945513760e-001   +0.000000000000000e+000 +0.000000000000000e+000   +0.000000000000000e+000 +0.000000000000000e+000   +5.921493190002920e-001 -7.167192789792700e-001   
+1.371900000000000e+011   +8.952363045071920e-001 -9.439788715846190e-001   +0.000000000000000e+000 +0.000000000000000e+000   +0.000000000000000e+000 +0.000000000000000e+000   +5.904912911195310e-001 -7.174900183954240e-001   
+1.373600000000000e+011   +8.886845440375910e-001 -9.499960037928020e-001   +0.000000000000000e+000 +0.000000000000000e+000   +0.000000000000000e+000 +0.000000000000000e+000   +5.889319861658850e-001 -7.182547220770070e-001   
+1.375300000000000e+011   +8.817815694629530e-001 -9.555719231309850e-001   +0.000000000000000e+000 +0.000000000000000e+000   +0.000000000000000e+000 +0.000000000000000e+000   +5.874733866769320e-001 -7.190143830058330e-001   
+1.377000000000000e+011   +8.745790521765860e-001 -9.606814676914330e-001   +0.000000000000000e+000 +0.000000000000000e+000   +0.000000000000000e+000 +0.000000000000000e+000   +5.861191640485300e-001 -7.197708097780990e-001   
+1.378700000000000e+011   +8.671266310880090e-001 -9.653073990140530e-001   +0.000000000000000e+000 +0.000000000000000e+000   +0.000000000000000e+000 +0.000000000000000e+000   +5.848736919701580e-001 -7.205269050577580e-001   
+1.380400000000000e+011   +8.594720373500260e-001 -9.694390689260330e-001   +0.000000000000000e+000 +0.000000000000000e+000   +0.000000000000000e+000 +0.000000000000000e+000   +5.837414295274080e-001 -7.212866530316990e-001   
+1.382100000000000e+011   +8.516610919525290e-001 -9.730715549950970e-001   +0.000000000000000e+000 +0.000000000000000e+000   +0.000000000000000e+000 +0.000000000000000e+000   +5.827265452191730e-001 -7.220549814394870e-001   
+1.383800000000000e+011   +8.437376031629460e-001 -9.762050156007300e-001   +0.000000000000000e+000 +0.000000000000000e+000   +0.000000000000000e+000 +0.000000000000000e+000   +5.818326983803110e-001 -7.228375705305490e-001   
+1.385500000000000e+011   +8.357432056823610e-001 -9.788441393262910e-001   +0.000000000000000e+000 +0.000000000000000e+000   +0.000000000000000e+000 +0.000000000000000e+000   +5.810629273954000e-001 -7.236406421906330e-001   
+1.387200000000000e+011   +8.277171748340220e-001 -9.809976277978890e-001   +0.000000000000000e+000 +0.000000000000000e+000   +0.000000000000000e+000 +0.000000000000000e+000   +5.804196147665420e-001 -7.244707467307020e-001   
+1.388900000000000e+011   +8.196962360287800e-001 -9.826776812882990e-001   +0.000000000000000e+000 +0.000000000000000e+000   +0.000000000000000e+000 +0.000000000000000e+000   +5.799045135793100e-001 -7.253345601077550e-001   
+1.390600000000000e+011   +8.117143758843960e-001 -9.838994735540450e-001   +0.000000000000000e+000 +0.000000000000000e+000   +0.000000000000000e+000 +0.000000000000000e+000   +5.795188319496010e-001 -7.262387004680430e-001   
+1.392300000000000e+011   +8.038026514575620e-001 -9.846806062829890e-001   +0.000000000000000e+000 +0.000000000000000e+000   +0.000000000000000e+000 +0.000000000000000e+000   +5.792633805978800e-001 -7.271895739274650e-001   
+1.394000000000000e+011   +7.959889773860300e-001 -9.850405348992650e-001   +0.000000000000000e+000 +0.000000000000000e+000   +0.000000000000000e+000 +0.000000000000000e+000   +5.791388030099800e-001 -7.281932583578640e-001   
+1.395700000000000e+011   +7.882978483648470e-001 -9.849999508717070e-001   +0.000000000000000e+000 +0.000000000000000e+000   +0.000000000000000e+000 +0.000000000000000e+000   +5.791459310016240e-001 -7.292554335962690e-001   
+1.397400000000000e+011   +7.807499186889420e-001 -9.845800957503080e-001   +0.000000000000000e+000 +0.000000000000000e+000   +0.000000000000000e+000 +0.000000000000000e+000   +5.792863465249370e-001 -7.303813630295550e-001   
+1.399100000000000e+011   +7.733612771029240e-001 -9.838019657111830e-001   +0.000000000000000e+000 +0.000000000000000e+000   +0.000000000000000e+000 +0.000000000000000e+000   +5.795633156456110e-001 -7.315759176811250e-001   
+1.400800000000000e+011   +7.661420830160850e-001 -9.826853477123320e-001   +0.000000000000000e+000 +0.000000000000000e+000   +0.000000000000000e+000 +0.000000000000000e+000   +5.799834355867120e-001 -7.328435859412840e-001   
+1.402500000000000e+011   +7.590938055184350e-001 -9.812476423040170e-001   +0.000000000000000e+000 +0.000000000000000e+000   +0.000000000000000e+000 +0.000000000000000e+000   +5.805597439856770e-001 -7.341882413804420e-001   
+1.404200000000000e+011   +7.522032223709880e-001 -9.795026485988530e-001   +0.000000000000000e+000 +0.000000000000000e+000   +0.000000000000000e+000 +0.000000000000000e+000   +5.813180252033410e-001 -7.356118199108230e-001   
+1.405900000000000e+011   +7.454283342291940e-001 -9.774608337282030e-001   +0.000000000000000e+000 +0.000000000000000e+000   +0.000000000000000e+000 +0.000000000000000e+000   +5.823105281839270e-001 -7.371085921352210e-001   
+1.407600000000000e+011   +7.386628518786180e-001 -9.751402679981720e-001   +0.000000000000000e+000 +0.000000000000000e+000   +0.000000000000000e+000 +0.000000000000000e+000   +5.836470434947640e-001 -7.386408445748690e-001   
+1.409300000000000e+011   +7.316480219346250e-001 -9.726432632898220e-001   +0.000000000000000e+000 +0.000000000000000e+000   +0.000000000000000e+000 +0.000000000000000e+000   +5.855552168252010e-001 -7.400287469958920e-001   
+1.411000000000000e+011   +7.239012114608380e-001 -9.706136761937030e-001   +0.000000000000000e+000 +0.000000000000000e+000   +0.000000000000000e+000 +0.000000000000000e+000   +5.882933280972430e-001 -7.404621962577030e-001   
+1.412700000000000e+011   +7.165296793727120e-001 -9.713227890869410e-001   +0.000000000000000e+000 +0.000000000000000e+000   +0.000000000000000e+000 +0.000000000000000e+000   +5.900020686509030e-001 -7.381045840257650e-001   
+1.414400000000000e+011   +7.141091620992500e-001 -9.722004249479920e-001   +0.000000000000000e+000 +0.000000000000000e+000   +0.000000000000000e+000 +0.000000000000000e+000   +5.871796379622540e-001 -7.372745958494140e-001   
+1.416100000000000e+011   +7.119354227168720e-001 -9.692235520913370e-001   +0.000000000000000e+000 +0.000000000000000e+000   +0.000000000000000e+000 +0.000000000000000e+000   +5.857268548395940e-001 -7.401619384273710e-001   
+1.417800000000000e+011   +7.083695487053280e-001 -9.655551958485070e-001   +0.000000000000000e+000 +0.000000000000000e+000   +0.000000000000000e+000 +0.000000000000000e+000   +5.861148770774060e-001 -7.430653930157650e-001   
+1.419500000000000e+011   +7.044096281981050e-001 -9.620534698507970e-001   +0.000000000000000e+000 +0.000000000000000e+000   +0.000000000000000e+000 +0.000000000000000e+000   +5.871070910067080e-001 -7.455231652664030e-001   
+1.421200000000000e+011   +7.004721786836070e-001 -9.587129192683020e-001   +0.000000000000000e+000 +0.000000000000000e+000   +0.000000000000000e+000 +0.000000000000000e+000   +5.883061827573970e-001 -7.477020089820900e-001   
+1.422900000000000e+011   +6.966936151724770e-001 -9.554739484194840e-001   +0.000000000000000e+000 +0.000000000000000e+000   +0.000000000000000e+000 +0.000000000000000e+000   +5.895978044253590e-001 -7.497192623042340e-001   
+1.424600000000000e+011   +6.931206415494300e-001 -9.523004484159050e-001   +0.000000000000000e+000 +0.000000000000000e+000   +0.000000000000000e+000 +0.000000000000000e+000   +5.909444518571500e-001 -7.516359380376170e-001   
+1.426300000000000e+011   +6.897687575590010e-001 -9.491745059941230e-001   +0.000000000000000e+000 +0.000000000000000e+000   +0.000000000000000e+000 +0.000000000000000e+000   +5.923316628975050e-001 -7.534830675157800e-001   
+1.428000000000000e+011   +6.866411513600100e-001 -9.460884532860960e-001   +0.000000000000000e+000 +0.000000000000000e+000   +0.000000000000000e+000 +0.000000000000000e+000   +5.937527378272090e-001 -7.552763888820830e-001   
+1.429700000000000e+011   +6.837355563648600e-001 -9.430400906037780e-001   +0.000000000000000e+000 +0.000000000000000e+000   +0.000000000000000e+000 +0.000000000000000e+000   +5.952038798072590e-001 -7.570235919355780e-001   
+1.431400000000000e+011   +6.810470433600710e-001 -9.400300702006120e-001   +0.000000000000000e+000 +0.000000000000000e+000   +0.000000000000000e+000 +0.000000000000000e+000   +5.966824982293180e-001 -7.587279730321400e-001   
+1.433100000000000e+011   +6.785692827273820e-001 -9.370604663397480e-001   +0.000000000000000e+000 +0.000000000000000e+000   +0.000000000000000e+000 +0.000000000000000e+000   +5.981865742133350e-001 -7.603903674454240e-001   
+1.434800000000000e+011   +6.762951746024970e-001 -9.341339830777260e-001   +0.000000000000000e+000 +0.000000000000000e+000   +0.000000000000000e+000 +0.000000000000000e+000   +5.997144115144730e-001 -7.620102205074480e-001   
+1.436500000000000e+011   +6.742171940991260e-001 -9.312535112985660e-001   +0.000000000000000e+000 +0.000000000000000e+000   +0.000000000000000e+000 +0.000000000000000e+000   +6.012645343060120e-001 -7.635862058156160e-001   
+1.438200000000000e+011   +6.723275967986180e-001 -9.284218827920050e-001   +0.000000000000000e+000 +0.000000000000000e+000   +0.000000000000000e+000 +0.000000000000000e+000   +6.028356436097450e-001 -7.651165933354870e-001   
+1.439900000000000e+011   +6.706185509107250e-001 -9.256417379956180e-001   +0.000000000000000e+000 +0.000000000000000e+000   +0.000000000000000e+000 +0.000000000000000e+000   +6.044265960408310e-001 -7.665994733233950e-001   
+1.441600000000000e+011   +6.690822274046890e-001 -9.229154607377600e-001   +0.000000000000000e+000 +0.000000000000000e+000   +0.000000000000000e+000 +0.000000000000000e+000   +6.060363912144040e-001 -7.680328933958340e-001   
+1.443300000000000e+011   +6.677108636998110e-001 -9.202451530500430e-001   +0.000000000000000e+000 +0.000000000000000e+000   +0.000000000000000e+000 +0.000000000000000e+000   +6.076641622277150e-001 -7.694149421735250e-001   
+1.445000000000000e+011   +6.664968102577870e-001 -9.176326334747540e-001   +0.000000000000000e+000 +0.000000000000000e+000   +0.000000000000000e+000 +0.000000000000000e+000   +6.093091664206040e-001 -7.707437986914090e-001   
+1.446700000000000e+011   +6.654325641796670e-001 -9.150794496095380e-001   +0.000000000000000e+000 +0.000000000000000e+000   +0.000000000000000e+000 +0.000000000000000e+000   +6.109707763304420e-001 -7.720177596826370e-001   
+1.448400000000000e+011   +6.645107939738370e-001 -9.125868979074410e-001   +0.000000000000000e+000 +0.000000000000000e+000   +0.000000000000000e+000 +0.000000000000000e+000   +6.126484699812440e-001 -7.732352525202910e-001   
+1.450100000000000e+011   +6.637243566091560e-001 -9.101560476568600e-001   +0.000000000000000e+000 +0.000000000000000e+000   +0.000000000000000e+000 +0.000000000000000e+000   +6.143418213700870e-001 -7.743948387777130e-001   
+1.451800000000000e+011   +6.630663085904900e-001 -9.077877659499260e-001   +0.000000000000000e+000 +0.000000000000000e+000   +0.000000000000000e+000 +0.000000000000000e+000   +6.160504905400170e-001 -7.754952116821820e-001   
+1.453500000000000e+011   +6.625299123066150e-001 -9.054827428996480e-001   +0.000000000000000e+000 +0.000000000000000e+000   +0.000000000000000e+000 +0.000000000000000e+000   +6.177742142099700e-001 -7.765351899359980e-001   
+1.455200000000000e+011   +6.621086385932700e-001 -9.032415153567680e-001   +0.000000000000000e+000 +0.000000000000000e+000   +0.000000000000000e+000 +0.000000000000000e+000   +6.195127957965460e-001 -7.775137090964050e-001   
+1.456900000000000e+011   +6.617961656879620e-001 -9.010644888673990e-001   +0.000000000000000e+000 +0.000000000000000e+000   +0.000000000000000e+000 +0.000000000000000e+000   +6.212660965956590e-001 -7.784298123793310e-001   
+1.458600000000000e+011   +6.615863757859390e-001 -8.989519580048910e-001   +0.000000000000000e+000 +0.000000000000000e+000   +0.000000000000000e+000 +0.000000000000000e+000   +6.230340265800250e-001 -7.792826406217590e-001   
+1.460300000000000e+011   +6.614733491579910e-001 -8.969041240413550e-001   +0.000000000000000e+000 +0.000000000000000e+000   +0.000000000000000e+000 +0.000000000000000e+000   +6.248165359106290e-001 -7.800714227116030e-001   
+1.462000000000000e+011   +6.614513569618780e-001 -8.949211108337680e-001   +0.000000000000000e+000 +0.000000000000000e+000   +0.000000000000000e+000 +0.000000000000000e+000   +6.266136063682020e-001 -7.807954665497790e-001   
+1.463700000000000e+011   +6.615148522827230e-001 -8.930029780092320e-001   +0.000000000000000e+000 +0.000000000000000e+000   +0.000000000000000e+000 +0.000000000000000e+000   +6.284252434025320e-001 -7.814541505782910e-001   
+1.465400000000000e+011   +6.616584602989460e-001 -8.911497325109620e-001   +0.000000000000000e+000 +0.000000000000000e+000   +0.000000000000000e+000 +0.000000000000000e+000   +6.302514683020230e-001 -7.820469162044960e-001   
+1.467100000000000e+011   +6.618769675756540e-001 -8.893613379523940e-001   +0.000000000000000e+000 +0.000000000000000e+000   +0.000000000000000e+000 +0.000000000000000e+000   +6.320923106797000e-001 -7.825732612445970e-001   
+1.468800000000000e+011   +6.621653112734330e-001 -8.876377219069310e-001   +0.000000000000000e+000 +0.000000000000000e+000   +0.000000000000000e+000 +0.000000000000000e+000   +6.339478010552290e-001 -7.830327338022400e-001   
+1.470500000000000e+011   +6.625185672413420e-001 -8.859787817289700e-001   +0.000000000000000e+000 +0.000000000000000e+000   +0.000000000000000e+000 +0.000000000000000e+000   +6.358179639692110e-001 -7.834249275759160e-001   
+1.472200000000000e+011   +6.629319386911180e-001 -8.843843885924930e-001   +0.000000000000000e+000 +0.000000000000000e+000   +0.000000000000000e+000 +0.000000000000000e+000   +6.377028112416610e-001 -7.837494772160700e-001   
+1.473900000000000e+011   +6.634007446320960e-001 -8.828543899446080e-001   +0.000000000000000e+000 +0.000000000000000e+000   +0.000000000000000e+000 +0.000000000000000e+000   +6.396023357815990e-001 -7.840060550836110e-001   
+1.475600000000000e+011   +6.639204083341230e-001 -8.813886110022920e-001   +0.000000000000000e+000 +0.000000000000000e+000   +0.000000000000000e+000 +0.000000000000000e+000   +6.415165055949950e-001 -7.841943679240330e-001   
+1.477300000000000e+011   +6.644864461534930e-001 -8.799868549354300e-001   +0.000000000000000e+000 +0.000000000000000e+000   +0.000000000000000e+000 +0.000000000000000e+000   +6.434452587053820e-001 -7.843141548750560e-001   
+1.479000000000000e+011   +6.650944567201740e-001 -8.786489021919870e-001   +0.000000000000000e+000 +0.000000000000000e+000   +0.000000000000000e+000 +0.000000000000000e+000   +6.453884987623140e-001 -7.843651854252650e-001   
+1.480700000000000e+011   +6.657401103782040e-001 -8.773745095714140e-001   +0.000000000000000e+000 +0.000000000000000e+000   +0.000000000000000e+000 +0.000000000000000e+000   +6.473460915294230e-001 -7.843472580471560e-001   
+1.482400000000000e+011   +6.664191389617920e-001 -8.761634089263030e-001   +0.000000000000000e+000 +0.000000000000000e+000   +0.000000000000000e+000 +0.000000000000000e+000   +6.493178626757360e-001 -7.842601996944210e-001   
+1.484100000000000e+011   +6.671273260880230e-001 -8.750153062165940e-001   +0.000000000000000e+000 +0.000000000000000e+000   +0.000000000000000e+000 +0.000000000000000e+000   +6.513035971126890e-001 -7.841038654987810e-001   
+1.485800000000000e+011   +6.678604973589500e-001 -8.739298817225670e-001   +0.000000000000000e+000 +0.000000000000000e+000   +0.000000000000000e+000 +0.000000000000000e+000   +6.533030401933120e-001 -7.838781391700260e-001   
+1.487500000000000e+011   +6.686145109571590e-001 -8.729067917527180e-001   +0.000000000000000e+000 +0.000000000000000e+000   +0.000000000000000e+000 +0.000000000000000e+000   +6.553159010541210e-001 -7.835829340352490e-001   
+1.489200000000000e+011   +6.693852480203310e-001 -8.719456730860560e-001   +0.000000000000000e+000 +0.000000000000000e+000   +0.000000000000000e+000 +0.000000000000000e+000   +6.573418586842590e-001 -7.832181943880350e-001   
+1.490900000000000e+011   +6.701686030853470e-001 -8.710461514203660e-001   +0.000000000000000e+000 +0.000000000000000e+000   +0.000000000000000e+000 +0.000000000000000e+000   +6.593805714153110e-001 -7.827838971891910e-001   
+1.492600000000000e+011   +6.709604744386960e-001 -8.702078550544490e-001   +0.000000000000000e+000 +0.000000000000000e+000   +0.000000000000000e+000 +0.000000000000000e+000   +6.614316897731170e-001 -7.822800534050890e-001   
+1.494300000000000e+011   +6.717567547785580e-001 -8.694304357502810e-001   +0.000000000000000e+000 +0.000000000000000e+000   +0.000000000000000e+000 +0.000000000000000e+000   +6.634948736544250e-001 -7.817067082877230e-001   
+1.496000000000000e+011   +6.725533233647250e-001 -8.687135992671410e-001   +0.000000000000000e+000 +0.000000000000000e+000   +0.000000000000000e+000 +0.000000000000000e+000   +6.655698140316730e-001 -7.810639392068840e-001   
+1.497700000000000e+011   +6.733460410075090e-001 -8.680571472906610e-001   +0.000000000000000e+000 +0.000000000000000e+000   +0.000000000000000e+000 +0.000000000000000e+000   +6.676562591658880e-001 -7.803518489228420e-001   
+1.499400000000000e+011   +6.741307519432860e-001 -8.674610338376020e-001   +0.000000000000000e+000 +0.000000000000000e+000   +0.000000000000000e+000 +0.000000000000000e+000   +6.697540444820810e-001 -7.795705517686210e-001   
+1.501100000000000e+011   +6.749032968950530e-001 -8.669254374526550e-001   +0.000000000000000e+000 +0.000000000000000e+000   +0.000000000000000e+000 +0.000000000000000e+000   +6.718631244961650e-001 -7.787201485382270e-001   
+1.502800000000000e+011   +6.756595462359670e-001 -8.664508491146410e-001   +0.000000000000000e+000 +0.000000000000000e+000   +0.000000000000000e+000 +0.000000000000000e+000   +6.739836023091510e-001 -7.778006863907500e-001   
+1.504500000000000e+011   +6.763954626961940e-001 -8.660381727834470e-001   +0.000000000000000e+000 +0.000000000000000e+000   +0.000000000000000e+000 +0.000000000000000e+000   +6.761157504847630e-001 -7.768120991629530e-001   
+1.506200000000000e+011   +6.771072064368220e-001 -8.656888280001110e-001   +0.000000000000000e+000 +0.000000000000000e+000   +0.000000000000000e+000 +0.000000000000000e+000   +6.782600115415100e-001 -7.757541263386740e-001   
+1.507900000000000e+011   +6.777912934425090e-001 -8.654048359276620e-001   +0.000000000000000e+000 +0.000000000000000e+000   +0.000000000000000e+000 +0.000000000000000e+000   +6.804169649206400e-001 -7.746262127613430e-001   
+1.509600000000000e+011   +6.784448116032780e-001 -8.651888584012040e-001   +0.000000000000000e+000 +0.000000000000000e+000   +0.000000000000000e+000 +0.000000000000000e+000   +6.825872422273650e-001 -7.734274004474700e-001   
+1.511300000000000e+011   +6.790656829101040e-001 -8.650441492711380e-001   +0.000000000000000e+000 +0.000000000000000e+000   +0.000000000000000e+000 +0.000000000000000e+000   +6.847713783151570e-001 -7.721562356431640e-001   
+1.513000000000000e+011   +6.796529349680470e-001 -8.649743767761450e-001   +0.000000000000000e+000 +0.000000000000000e+000   +0.000000000000000e+000 +0.000000000000000e+000   +6.869695965976430e-001 -7.708107283990560e-001   
+1.514700000000000e+011   +6.802069142469950e-001 -8.649832929334260e-001   +0.000000000000000e+000 +0.000000000000000e+000   +0.000000000000000e+000 +0.000000000000000e+000   +6.891815511787500e-001 -7.693884082409740e-001   
+1.516400000000000e+011   +6.807293528425990e-001 -8.650742687801050e-001   +0.000000000000000e+000 +0.000000000000000e+000   +0.000000000000000e+000 +0.000000000000000e+000   +6.914060818473550e-001 -7.678865111108180e-001   
+1.518100000000000e+011   +6.812232113274180e-001 -8.652497768500070e-001   +0.000000000000000e+000 +0.000000000000000e+000   +0.000000000000000e+000 +0.000000000000000e+000   +6.936410636449160e-001 -7.663022980768510e-001   
+1.519800000000000e+011   +6.816922755985190e-001 -8.655109584052250e-001   +0.000000000000000e+000 +0.000000000000000e+000   +0.000000000000000e+000 +0.000000000000000e+000   +6.958834359990110e-001 -7.646334521878200e-001   
+1.521500000000000e+011   +6.821405817030950e-001 -8.658574239662280e-001   +0.000000000000000e+000 +0.000000000000000e+000   +0.000000000000000e+000 +0.000000000000000e+000   +6.981294569676080e-001 -7.628784474233910e-001   
+1.523200000000000e+011   +6.825718296311500e-001 -8.662873762860600e-001   +0.000000000000000e+000 +0.000000000000000e+000   +0.000000000000000e+000 +0.000000000000000e+000   +7.003751579902430e-001 -7.610367666529600e-001   
+1.524900000000000e+011   +6.829889803423980e-001 -8.667980335376870e-001   +0.000000000000000e+000 +0.000000000000000e+000   +0.000000000000000e+000 +0.000000000000000e+000   +7.026169088408850e-001 -7.591088802331470e-001   
+1.526600000000000e+011   +6.833941828246370e-001 -8.673862245453590e-001   +0.000000000000000e+000 +0.000000000000000e+000   +0.000000000000000e+000 +0.000000000000000e+000   +7.048519807609780e-001 -7.570959700017400e-001   
+1.528300000000000e+011   +6.837890838254050e-001 -8.680489830861380e-001   +0.000000000000000e+000 +0.000000000000000e+000   +0.000000000000000e+000 +0.000000000000000e+000   +7.070790343857930e-001 -7.549994493777200e-001   
+1.530000000000000e+011   +6.841754939282050e-001 -8.687840017391430e-001   +0.000000000000000e+000 +0.000000000000000e+000   +0.000000000000000e+000 +0.000000000000000e+000   +7.092985422593620e-001 -7.528203540298950e-001   
+1.531700000000000e+011   +6.845563705272420e-001 -8.695898864399370e-001   +0.000000000000000e+000 +0.000000000000000e+000   +0.000000000000000e+000 +0.000000000000000e+000   +7.115132487832000e-001 -7.505586426205490e-001   
+1.533400000000000e+011   +6.849371523272530e-001 -8.704662327904190e-001   +0.000000000000000e+000 +0.000000000000000e+000   +0.000000000000000e+000 +0.000000000000000e+000   +7.137288674989700e-001 -7.482123702270160e-001   
+1.535100000000000e+011   +6.853276474263780e-001 -8.714135998811730e-001   +0.000000000000000e+000 +0.000000000000000e+000   +0.000000000000000e+000 +0.000000000000000e+000   +7.159553454627920e-001 -7.457765809276450e-001   
+1.536800000000000e+011   +6.857449849141830e-001 -8.724334945802460e-001   +0.000000000000000e+000 +0.000000000000000e+000   +0.000000000000000e+000 +0.000000000000000e+000   +7.182092894217870e-001 -7.432415906312970e-001   
+1.538500000000000e+011   +6.862187593507710e-001 -8.735285359340860e-001   +0.000000000000000e+000 +0.000000000000000e+000   +0.000000000000000e+000 +0.000000000000000e+000   +7.205187909634380e-001 -7.405899991549250e-001   
+1.540200000000000e+011   +6.868009467889570e-001 -8.747031521290440e-001   +0.000000000000000e+000 +0.000000000000000e+000   +0.000000000000000e+000 +0.000000000000000e+000   +7.229335900492260e-001 -7.377910343114400e-001   
+1.541900000000000e+011   +6.875870410165070e-001 -8.759657927066290e-001   +0.000000000000000e+000 +0.000000000000000e+000   +0.000000000000000e+000 +0.000000000000000e+000   +7.255485171899400e-001 -7.347890270650270e-001   
+1.543600000000000e+011   +6.887667935607670e-001 -8.773360358628130e-001   +0.000000000000000e+000 +0.000000000000000e+000   +0.000000000000000e+000 +0.000000000000000e+000   +7.285652049330110e-001 -7.314781824794770e-001   
+1.545300000000000e+011   +6.907669812117940e-001 -8.788708148176350e-001   +0.000000000000000e+000 +0.000000000000000e+000   +0.000000000000000e+000 +0.000000000000000e+000   +7.324888837452990e-001 -7.276452899621650e-001   
+1.547000000000000e+011   +6.947600463869770e-001 -8.807873577497430e-001   +0.000000000000000e+000 +0.000000000000000e+000   +0.000000000000000e+000 +0.000000000000000e+000   +7.389694676590760e-001 -7.228870671977930e-001   
+1.548700000000000e+011   +7.055478282198540e-001 -8.842981629330490e-001   +0.000000000000000e+000 +0.000000000000000e+000   +0.000000000000000e+000 +0.000000000000000e+000   +7.564129008771120e-001 -7.187622897156300e-001   
+1.550400000000000e+011   +6.722080458448240e-001 -9.306094006539190e-001   +0.000000000000000e+000 +0.000000000000000e+000   +0.000000000000000e+000 +0.000000000000000e+000   +7.353972010458700e-001 -7.385693412883930e-001   
+1.552100000000000e+011   +6.480952005628930e-001 -8.952255866370810e-001   +0.000000000000000e+000 +0.000000000000000e+000   +0.000000000000000e+000 +0.000000000000000e+000   +7.226019662494260e-001 -7.426738610073850e-001   
+1.553800000000000e+011   +6.618188352379730e-001 -8.905748483134850e-001   +0.000000000000000e+000 +0.000000000000000e+000   +0.000000000000000e+000 +0.000000000000000e+000   +7.258661784766980e-001 -7.320795692172800e-001   
+1.555500000000000e+011   +6.662369222043960e-001 -8.909935955593170e-001   +0.000000000000000e+000 +0.000000000000000e+000   +0.000000000000000e+000 +0.000000000000000e+000   +7.287571660033630e-001 -7.261895615029440e-001   
+1.557200000000000e+011   +6.679187112696240e-001 -8.924262995454930e-001   +0.000000000000000e+000 +0.000000000000000e+000   +0.000000000000000e+000 +0.000000000000000e+000   +7.310450542300430e-001 -7.219225840121430e-001   
+1.558900000000000e+011   +6.684152040127370e-001 -8.942440298580620e-001   +0.000000000000000e+000 +0.000000000000000e+000   +0.000000000000000e+000 +0.000000000000000e+000   +7.329421794864610e-001 -7.183577765897980e-001   
+1.560600000000000e+011   +6.682584918858340e-001 -8.962766827253610e-001   +0.000000000000000e+000 +0.000000000000000e+000   +0.000000000000000e+000 +0.000000000000000e+000   +7.345726608475010e-001 -7.151603239826360e-001   
+1.562300000000000e+011   +6.676766201914140e-001 -8.984615643080200e-001   +0.000000000000000e+000 +0.000000000000000e+000   +0.000000000000000e+000 +0.000000000000000e+000   +7.360034880426070e-001 -7.121840515874080e-001   
+1.564000000000000e+011   +6.667820890249750e-001 -9.007702640929310e-001   +0.000000000000000e+000 +0.000000000000000e+000   +0.000000000000000e+000 +0.000000000000000e+000   +7.372722401585180e-001 -7.093569272666590e-001   
+1.565700000000000e+011   +6.656358765875430e-001 -9.031876138945800e-001   +0.000000000000000e+000 +0.000000000000000e+000   +0.000000000000000e+000 +0.000000000000000e+000   +7.384009553561860e-001 -7.066406099012820e-001   
+1.567400000000000e+011   +6.642732460045720e-001 -9.057042159770880e-001   +0.000000000000000e+000 +0.000000000000000e+000   +0.000000000000000e+000 +0.000000000000000e+000   +7.394030301056320e-001 -7.040137911592610e-001   
+1.569100000000000e+011   +6.627155192557270e-001 -9.083133640778400e-001   +0.000000000000000e+000 +0.000000000000000e+000   +0.000000000000000e+000 +0.000000000000000e+000   +7.402868239607210e-001 -7.014644977147210e-001   
+1.570800000000000e+011   +6.609759797373400e-001 -9.110096253428930e-001   +0.000000000000000e+000 +0.000000000000000e+000   +0.000000000000000e+000 +0.000000000000000e+000   +7.410576482861740e-001 -6.989862011968410e-001   
+1.572500000000000e+011   +6.590630618812370e-001 -9.137881288115230e-001   +0.000000000000000e+000 +0.000000000000000e+000   +0.000000000000000e+000 +0.000000000000000e+000   +7.417189186776060e-001 -6.965757071670940e-001   
+1.574200000000000e+011   +6.569821841430690e-001 -9.166441829170060e-001   +0.000000000000000e+000 +0.000000000000000e+000   +0.000000000000000e+000 +0.000000000000000e+000   +7.422728529243810e-001 -6.942319395955500e-001   
+1.575900000000000e+011   +6.547368597047130e-001 -9.195730600495830e-001   +0.000000000000000e+000 +0.000000000000000e+000   +0.000000000000000e+000 +0.000000000000000e+000   +7.427209093562730e-001 -6.919552058096260e-001   
+1.577600000000000e+011   +6.523294008974580e-001 -9.225698705730960e-001   +0.000000000000000e+000 +0.000000000000000e+000   +0.000000000000000e+000 +0.000000000000000e+000   +7.430640714998560e-001 -6.897467323979430e-001   
+1.579300000000000e+011   +6.497613856198740e-001 -9.256294884096840e-001   +0.000000000000000e+000 +0.000000000000000e+000   +0.000000000000000e+000 +0.000000000000000e+000   +7.433030373997290e-001 -6.876083611641120e-001   
+1.581000000000000e+011   +6.470339781225300e-001 -9.287465084468120e-001   +0.000000000000000e+000 +0.000000000000000e+000   +0.000000000000000e+000 +0.000000000000000e+000   +7.434383484612010e-001 -6.855423428754450e-001   
+1.582700000000000e+011   +6.441481580689920e-001 -9.319152241688260e-001   +0.000000000000000e+000 +0.000000000000000e+000   +0.000000000000000e+000 +0.000000000000000e+000   +7.434704786436960e-001 -6.835511935486470e-001   
+1.584400000000000e+011   +6.411048893068900e-001 -9.351296198884480e-001   +0.000000000000000e+000 +0.000000000000000e+000   +0.000000000000000e+000 +0.000000000000000e+000   +7.433998963689300e-001 -6.816375909602310e-001   
+1.586100000000000e+011   +6.379052491524260e-001 -9.383833729463950e-001   +0.000000000000000e+000 +0.000000000000000e+000   +0.000000000000000e+000 +0.000000000000000e+000   +7.432271081887250e-001 -6.798042986107780e-001   
+1.587800000000000e+011   +6.345505289347980e-001 -9.416698646561940e-001   +0.000000000000000e+000 +0.000000000000000e+000   +0.000000000000000e+000 +0.000000000000000e+000   +7.429526891418410e-001 -6.780541083866630e-001   
+1.589500000000000e+011   +6.310423152437270e-001 -9.449821975322580e-001   +0.000000000000000e+000 +0.000000000000000e+000   +0.000000000000000e+000 +0.000000000000000e+000   +7.425773037261730e-001 -6.763897963058170e-001   
+1.591200000000000e+011   +6.273825559561280e-001 -9.483132184758360e-001   +0.000000000000000e+000 +0.000000000000000e+000   +0.000000000000000e+000 +0.000000000000000e+000   +7.421017198841500e-001 -6.748140876992470e-001   
+1.592900000000000e+011   +6.235736148118400e-001 -9.516555468760170e-001   +0.000000000000000e+000 +0.000000000000000e+000   +0.000000000000000e+000 +0.000000000000000e+000   +7.415268180106000e-001 -6.733296294983540e-001   
+1.594600000000000e+011   +6.196183167179850e-001 -9.550016071702860e-001   +0.000000000000000e+000 +0.000000000000000e+000   +0.000000000000000e+000 +0.000000000000000e+000   +7.408535964115790e-001 -6.719389671492660e-001   
+1.596300000000000e+011   +6.155199848338530e-001 -9.583436653453730e-001   +0.000000000000000e+000 +0.000000000000000e+000   +0.000000000000000e+000 +0.000000000000000e+000   +7.400831737778310e-001 -6.706445256380640e-001   
+1.598000000000000e+011   +6.112824707223120e-001 -9.616738687787230e-001   +0.000000000000000e+000 +0.000000000000000e+000   +0.000000000000000e+000 +0.000000000000000e+000   +7.392167900068950e-001 -6.694485932655700e-001   
+1.599700000000000e+011   +6.069101775887390e-001 -9.649842891084150e-001   +0.000000000000000e+000 +0.000000000000000e+000   +0.000000000000000e+000 +0.000000000000000e+000   +7.382558056180040e-001 -6.683533075015910e-001   
+1.601400000000000e+011   +6.024080772724310e-001 -9.682669677852130e-001   +0.000000000000000e+000 +0.000000000000000e+000   +0.000000000000000e+000 +0.000000000000000e+000   +7.372017003449340e-001 -6.673606424462130e-001   
+1.603100000000000e+011   +5.977817209926970e-001 -9.715139632092360e-001   +0.000000000000000e+000 +0.000000000000000e+000   +0.000000000000000e+000 +0.000000000000000e+000   +7.360560715321760e-001 -6.664723975255530e-001   
+1.604800000000000e+011   +5.930372433422690e-001 -9.747173995026960e-001   +0.000000000000000e+000 +0.000000000000000e+000   +0.000000000000000e+000 +0.000000000000000e+000   +7.348206320749920e-001 -6.656901869289490e-001   
+1.606500000000000e+011   +5.881813605169210e-001 -9.778695161111340e-001   +0.000000000000000e+000 +0.000000000000000e+000   +0.000000000000000e+000 +0.000000000000000e+000   +7.334972088901790e-001 -6.650154299104160e-001   
+1.608200000000000e+011   +5.832213614785090e-001 -9.809627174642110e-001   +0.000000000000000e+000 +0.000000000000000e+000   +0.000000000000000e+000 +0.000000000000000e+000   +7.320877415732650e-001 -6.644493413384860e-001   
+1.609900000000000e+011   +5.781650930741870e-001 -9.839896221531110e-001   +0.000000000000000e+000 +0.000000000000000e+000   +0.000000000000000e+000 +0.000000000000000e+000   +7.305942815765980e-001 -6.639929226808530e-001   
+1.611600000000000e+011   +5.730209385623080e-001 -9.869431112308000e-001   +0.000000000000000e+000 +0.000000000000000e+000   +0.000000000000000e+000 +0.000000000000000e+000   +7.290189921247110e-001 -6.636469533870680e-001   
+1.613300000000000e+011   +5.677977894210680e-001 -9.898163744480190e-001   +0.000000000000000e+000 +0.000000000000000e+000   +0.000000000000000e+000 +0.000000000000000e+000   +7.273641486808730e-001 -6.634119824830200e-001   
+1.615000000000000e+011   +5.625050110872090e-001 -9.926029541537080e-001   +0.000000000000000e+000 +0.000000000000000e+000   +0.000000000000000e+000 +0.000000000000000e+000   +7.256321400899170e-001 -6.632883203747830e-001   
+1.616700000000000e+011   +5.571524027051090e-001 -9.952967861804580e-001   +0.000000000000000e+000 +0.000000000000000e+000   +0.000000000000000e+000 +0.000000000000000e+000   +7.238254705646300e-001 -6.632760314037890e-001   
+1.618400000000000e+011   +5.517501504978440e-001 -9.978922369918900e-001   +0.000000000000000e+000 +0.000000000000000e+000   +0.000000000000000e+000 +0.000000000000000e+000   +7.219467620533920e-001 -6.633749264301300e-001   
+1.620100000000000e+011   +5.463087763416980e-001 -1.000384136620640e+000   +0.000000000000000e+000 +0.000000000000000e+000   +0.000000000000000e+000 +0.000000000000000e+000   +7.199987571090390e-001 -6.635845563705150e-001   
+1.621800000000000e+011   +5.408390809131060e-001 -1.002767806796290e+000   +0.000000000000000e+000 +0.000000000000000e+000   +0.000000000000000e+000 +0.000000000000000e+000   +7.179843221661840e-001 -6.639042065223390e-001   
+1.623500000000000e+011   +5.353520827278140e-001 -1.005039084065310e+000   +0.000000000000000e+000 +0.000000000000000e+000   +0.000000000000000e+000 +0.000000000000000e+000   +7.159064509588790e-001 -6.643328917784900e-001   
+1.625200000000000e+011   +5.298589535321300e-001 -1.007194337464380e+000   +0.000000000000000e+000 +0.000000000000000e+000   +0.000000000000000e+000 +0.000000000000000e+000   +7.137682677766860e-001 -6.648693531444170e-001   
+1.626900000000000e+011   +5.243709504965060e-001 -1.009230480207260e+000   +0.000000000000000e+000 +0.000000000000000e+000   +0.000000000000000e+000 +0.000000000000000e+000   +7.115730305812670e-001 -6.655120555217600e-001   
+1.628600000000000e+011   +5.188993466054620e-001 -1.011144975809720e+000   +0.000000000000000e+000 +0.000000000000000e+000   +0.000000000000000e+000 +0.000000000000000e+000   +7.093241334063960e-001 -6.662591873386580e-001   
+1.630300000000000e+011   +5.134553596813780e-001 -1.012935838159910e+000   +0.000000000000000e+000 +0.000000000000000e+000   +0.000000000000000e+000 +0.000000000000000e+000   +7.070251082220950e-001 -6.671086618800240e-001   
+1.632000000000000e+011   +5.080500812596250e-001 -1.014601625763940e+000   +0.000000000000000e+000 +0.000000000000000e+000   +0.000000000000000e+000 +0.000000000000000e+000   +7.046796255700670e-001 -6.680581205976460e-001   
+1.633700000000000e+011   +5.026944059132560e-001 -1.016141430577940e+000   +0.000000000000000e+000 +0.000000000000000e+000   +0.000000000000000e+000 +0.000000000000000e+000   +7.022914940487810e-001 -6.691049387148800e-001   
+1.635400000000000e+011   +4.973989623117330e-001 -1.017554860905890e+000   +0.000000000000000e+000 +0.000000000000000e+000   +0.000000000000000e+000 +0.000000000000000e+000   +6.998646581912220e-001 -6.702462331119970e-001   
+1.637100000000000e+011   +4.921740469746930e-001 -1.018842019968630e+000   +0.000000000000000e+000 +0.000000000000000e+000   +0.000000000000000e+000 +0.000000000000000e+000   +6.974031948391600e-001 -6.714788725473420e-001   
+1.638800000000000e+011   +4.870295610077500e-001 -1.020003479563870e+000   +0.000000000000000e+000 +0.000000000000000e+000   +0.000000000000000e+000 +0.000000000000000e+000   +6.949113072729610e-001 -6.727994905106720e-001   
+1.640500000000000e+011   +4.819749517238100e-001 -1.021040249716680e+000   +0.000000000000000e+000 +0.000000000000000e+000   +0.000000000000000e+000 +0.000000000000000e+000   +6.923933176953800e-001 -6.742045003362440e-001   
+1.642200000000000e+011   +4.770191586413490e-001 -1.021953745064320e+000   +0.000000000000000e+000 +0.000000000000000e+000   +0.000000000000000e+000 +0.000000000000000e+000   +6.898536572659620e-001 -6.756901127674950e-001   
+1.643900000000000e+011   +4.721705657676400e-001 -1.022745748479360e+000   +0.000000000000000e+000 +0.000000000000000e+000   +0.000000000000000e+000 +0.000000000000000e+000   +6.872968541616520e-001 -6.772523559851380e-001   
+1.645600000000000e+011   +4.674369597641090e-001 -1.023418372621910e+000   +0.000000000000000e+000 +0.000000000000000e+000   +0.000000000000000e+000 +0.000000000000000e+000   +6.847275193035250e-001 -6.788870975489130e-001   
+1.647300000000000e+011   +4.628254949498220e-001 -1.023974020057340e+000   +0.000000000000000e+000 +0.000000000000000e+000   +0.000000000000000e+000 +0.000000000000000e+000   +6.821503299668370e-001 -6.805900683948040e-001   
+1.649000000000000e+011   +4.583426654809400e-001 -1.024415342795670e+000   +0.000000000000000e+000 +0.000000000000000e+000   +0.000000000000000e+000 +0.000000000000000e+000   +6.795700113111030e-001 -6.823568883431350e-001   
+1.650700000000000e+011   +4.539942846533480e-001 -1.024745202043310e+000   +0.000000000000000e+000 +0.000000000000000e+000   +0.000000000000000e+000 +0.000000000000000e+000   +6.769913161031490e-001 -6.841830932314310e-001   
+1.652400000000000e+011   +4.497854715148150e-001 -1.024966628202410e+000   +0.000000000000000e+000 +0.000000000000000e+000   +0.000000000000000e+000 +0.000000000000000e+000   +6.744190025375200e-001 -6.860641627866630e-001   
+1.654100000000000e+011   +4.457206449134610e-001 -1.025082782729150e+000   +0.000000000000000e+000 +0.000000000000000e+000   +0.000000000000000e+000 +0.000000000000000e+000   +6.718578107952440e-001 -6.879955493248130e-001   
+1.655800000000000e+011   +4.418035243867990e-001 -1.025096921571190e+000   +0.000000000000000e+000 +0.000000000000000e+000   +0.000000000000000e+000 +0.000000000000000e+000   +6.693124381620910e-001 -6.899727067302410e-001   
+1.657500000000000e+011   +4.380371380576830e-001 -1.025012361081970e+000   +0.000000000000000e+000 +0.000000000000000e+000   +0.000000000000000e+000 +0.000000000000000e+000   +6.667875135542080e-001 -6.919911192128700e-001   
+1.659200000000000e+011   +4.344238367627670e-001 -1.024832446891100e+000   +0.000000000000000e+000 +0.000000000000000e+000   +0.000000000000000e+000 +0.000000000000000e+000   +6.642875712338550e-001 -6.940463298106840e-001   
+1.660900000000000e+011   +4.309653141045400e-001 -1.024560525816540e+000   +0.000000000000000e+000 +0.000000000000000e+000   +0.000000000000000e+000 +0.000000000000000e+000   +6.618170244315810e-001 -6.961339677532590e-001   
+1.662600000000000e+011   +4.276626317770560e-001 -1.024199921364740e+000   +0.000000000000000e+000 +0.000000000000000e+000   +0.000000000000000e+000 +0.000000000000000e+000   +6.593801391978570e-001 -6.982497746939140e-001   
+1.664300000000000e+011   +4.245162492951310e-001 -1.023753912973410e+000   +0.000000000000000e+000 +0.000000000000000e+000   +0.000000000000000e+000 +0.000000000000000e+000   +6.569810085247200e-001 -7.003896296314780e-001   
+1.666000000000000e+011   +4.215260581241270e-001 -1.023225718947350e+000   +0.000000000000000e+000 +0.000000000000000e+000   +0.000000000000000e+000 +0.000000000000000e+000   +6.546235276289700e-001 -7.025495715856440e-001   
+1.667700000000000e+011   +4.186914183696120e-001 -1.022618483142520e+000   +0.000000000000000e+000 +0.000000000000000e+000   +0.000000000000000e+000 +0.000000000000000e+000   +6.523113702010690e-001 -7.047258204537360e-001   
+1.669400000000000e+011   +4.160111982371990e-001 -1.021935265679740e+000   +0.000000000000000e+000 +0.000000000000000e+000   +0.000000000000000e+000 +0.000000000000000e+000   +6.500479661019800e-001 -7.069147954471460e-001   
+1.671100000000000e+011   +4.134838149875550e-001 -1.021179036943280e+000   +0.000000000000000e+000 +0.000000000000000e+000   +0.000000000000000e+000 +0.000000000000000e+000   +6.478364810221550e-001 -7.091131310123260e-001   
+1.672800000000000e+011   +4.111072768157500e-001 -1.020352675364180e+000   +0.000000000000000e+000 +0.000000000000000e+000   +0.000000000000000e+000 +0.000000000000000e+000   +6.456797978545190e-001 -7.113176900886680e-001   
+1.674500000000000e+011   +4.088792248447670e-001 -1.019458967948370e+000   +0.000000000000000e+000 +0.000000000000000e+000   +0.000000000000000e+000 +0.000000000000000e+000   +6.435805003555810e-001 -7.135255747181360e-001   
+1.676200000000000e+011   +4.067969745377440e-001 -1.018500614155900e+000   +0.000000000000000e+000 +0.000000000000000e+000   +0.000000000000000e+000 +0.000000000000000e+000   +6.415408591472510e-001 -7.157341338955390e-001   
+1.677900000000000e+011   +4.048575559767890e-001 -1.017480231726750e+000   +0.000000000000000e+000 +0.000000000000000e+000   +0.000000000000000e+000 +0.000000000000000e+000   +6.395628199376990e-001 -7.179409684389720e-001   
+1.679600000000000e+011   +4.030577523484750e-001 -1.016400365019460e+000   +0.000000000000000e+000 +0.000000000000000e+000   +0.000000000000000e+000 +0.000000000000000e+000   +6.376479944401030e-001 -7.201439333556910e-001   
+1.681300000000000e+011   +4.013941363261020e-001 -1.015263494689520e+000   +0.000000000000000e+000 +0.000000000000000e+000   +0.000000000000000e+000 +0.000000000000000e+000   +6.357976534267310e-001 -7.223411372241280e-001   
+1.683000000000000e+011   +3.998631033976410e-001 -1.014072048608030e+000   +0.000000000000000e+000 +0.000000000000000e+000   +0.000000000000000e+000 +0.000000000000000e+000   +6.340127225043660e-001 -7.245309391796890e-001   
+1.684700000000000e+011   +3.984609024950450e-001 -1.012828413601230e+000   +0.000000000000000e+000 +0.000000000000000e+000   +0.000000000000000e+000 +0.000000000000000e+000   +6.322937800043830e-001 -7.267119431225940e-001   
+1.686400000000000e+011   +3.971836632265480e-001 -1.011534947400870e+000   +0.000000000000000e+000 +0.000000000000000e+000   +0.000000000000000e+000 +0.000000000000000e+000   +6.306410572383410e-001 -7.288829896651880e-001   
+1.688100000000000e+011   +3.960274192979380e-001 -1.010193990346040e+000   +0.000000000000000e+000 +0.000000000000000e+000   +0.000000000000000e+000 +0.000000000000000e+000   +6.290544407778680e-001 -7.310431455962240e-001   
+1.689800000000000e+011   +3.949881286152680e-001 -1.008807876521570e+000   +0.000000000000000e+000 +0.000000000000000e+000   +0.000000000000000e+000 +0.000000000000000e+000   +6.275334765499440e-001 -7.331916912750470e-001   
+1.691500000000000e+011   +3.940616895641280e-001 -1.007378943871730e+000   +0.000000000000000e+000 +0.000000000000000e+000   +0.000000000000000e+000 +0.000000000000000e+000   +6.260773758872800e-001 -7.353281058079020e-001   
+1.693200000000000e+011   +3.932439533931540e-001 -1.005909542939100e+000   +0.000000000000000e+000 +0.000000000000000e+000   +0.000000000000000e+000 +0.000000000000000e+000   +6.246850228846300e-001 -7.374520504957090e-001   
+1.694900000000000e+011   +3.925307333156870e-001 -1.004402043862450e+000   +0.000000000000000e+000 +0.000000000000000e+000   +0.000000000000000e+000 +0.000000000000000e+000   +6.233549831604910e-001 -7.395633501535020e-001   
+1.696600000000000e+011   +3.919178098428970e-001 -1.002858841411120e+000   +0.000000000000000e+000 +0.000000000000000e+000   +0.000000000000000e+000 +0.000000000000000e+000   +6.220855137037370e-001 -7.416619731318550e-001   
+1.698300000000000e+011   +3.914009328856240e-001 -1.001282357622880e+000   +0.000000000000000e+000 +0.000000000000000e+000   +0.000000000000000e+000 +0.000000000000000e+000   +6.208745733789640e-001 -7.437480093285970e-001   
+1.700000000000000e+011   +3.909758207972970e-001 -9.996750423232230e-001   +0.000000000000000e+000 +0.000000000000000e+000   +0.000000000000000e+000 +0.000000000000000e+000   +6.197198345123370e-001 -7.458216470487860e-001   
