! Generated by Phase I extraction
# Hz S RI R 50
1.000000000000000e+07 -4.797190548128379e-01 8.268581590083512e-02
5.186875000000000e+07 -8.752403231127449e-01 1.228206735050564e-01
9.373750000000000e+07 -1.004064714977816e+00 -4.253400328504862e-02
1.356062500000000e+08 -9.605879875630781e-01 -4.416947661628858e-02
1.774750000000000e+08 -1.015786877691998e+00 -4.485430482121620e-02
2.193437500000000e+08 -1.018187369132740e+00 -5.531439659095873e-03
2.612125000000000e+08 -1.014006139718317e+00 -2.312853532006184e-02
3.030812500000000e+08 -1.011707604029492e+00 -7.409058251638262e-03
3.449500000000000e+08 -9.994213657268032e-01 -2.716898421458211e-02
3.868187500000000e+08 -9.940562894432889e-01 1.318431988500033e-02
4.286875000000000e+08 -9.908535436680428e-01 1.326937667657851e-02
4.705562500000000e+08 -9.968686287120787e-01 5.356979360542052e-03
5.124250000000000e+08 -9.830065252871537e-01 1.243607876442903e-02
5.542937500000000e+08 -9.859122853846103e-01 5.220237183377022e-04
5.961625000000000e+08 -1.002066934069819e+00 6.260930114969072e-03
6.380312500000000e+08 -1.001590240424190e+00 1.013420744519153e-02
6.799000000000000e+08 -1.005743559183270e+00 -6.848722478064269e-04
7.217687500000000e+08 -1.001753145442429e+00 1.127379786450137e-02
7.636375000000000e+08 -1.004315034988040e+00 4.567207986093196e-03
8.055062500000000e+08 -1.004251244320745e+00 8.510079233777945e-03
8.473750000000000e+08 -9.972010252884728e-01 5.425419806586615e-03
8.892437500000000e+08 -1.001719581113388e+00 8.953703198285872e-03
9.311125000000000e+08 -9.950450808115047e-01 5.834989405343319e-03
9.729812500000000e+08 -9.983736442663663e-01 5.215197986111739e-03
1.014850000000000e+09 -1.000319993845682e+00 8.962085075324828e-03
1.056718750000000e+09 -9.971233253137186e-01 3.285413938346278e-03
1.098587500000000e+09 -1.002494721311593e+00 7.252189819409269e-03
1.140456250000000e+09 -9.999890726276321e-01 4.919145634276794e-03
1.182325000000000e+09 -1.006554751377441e+00 5.456904255933007e-03
1.224193750000000e+09 -1.006023195837429e+00 1.461101174071146e-02
1.266062500000000e+09 -1.004987858092438e+00 9.558422138027567e-03
1.307931250000000e+09 -9.982320006018423e-01 1.000389208641157e-02
1.349800000000000e+09 -9.949622123654467e-01 1.024946138015405e-03
1.391668750000000e+09 -9.998541609504488e-01 2.748352288684850e-03
1.433537500000000e+09 -9.983028505887246e-01 -1.848771497918836e-03
1.475406250000000e+09 -1.000027312712784e+00 -2.583897693020740e-03
1.517275000000000e+09 -1.001570818670671e+00 -2.761675707011634e-03
1.559143750000000e+09 -9.964058097991275e-01 -7.655636509358808e-03
1.601012500000000e+09 -9.967578260670489e-01 -3.894222285007868e-03
1.642881250000000e+09 -1.000233527801340e+00 -5.556911544509496e-03
1.684750000000000e+09 -1.002112901183221e+00 -3.567192468441768e-03
1.726618750000000e+09 -1.001146854082856e+00 -5.374090098057212e-03
1.768487500000000e+09 -1.001873371178674e+00 -6.233633501579586e-03
1.810356250000000e+09 -1.002601112040059e+00 -2.367789601068213e-03
1.852225000000000e+09 -1.001040016006816e+00 -4.824215936797572e-03
1.894093750000000e+09 -1.002947562412204e+00 -3.334214089434755e-03
1.935962500000000e+09 -1.001614630867576e+00 -4.713372794987822e-03
1.977831250000000e+09 -1.000665705314009e+00 -4.658660249479285e-03
2.019700000000000e+09 -1.001688657311100e+00 -2.895551447690983e-03
2.061568750000000e+09 -1.000766050253720e+00 -5.504681562613236e-03
2.103437500000000e+09 -1.001513283036164e+00 2.086454280297697e-04
2.145306250000000e+09 -1.000541870556660e+00 -5.567403760220392e-03
2.187175000000000e+09 -9.988565581865502e-01 -5.586339491433234e-03
2.229043750000000e+09 -9.999635980127310e-01 -5.279775735047071e-03
2.270912500000000e+09 -9.999490126770051e-01 -4.850536848506826e-03
2.312781250000000e+09 -1.003548109347170e+00 -4.313800577724410e-03
2.354650000000000e+09 -1.001578601492876e+00 -7.625495017331292e-03
2.396518750000000e+09 -1.003166528230499e+00 -5.852023520753526e-03
2.438387500000000e+09 -1.003351204169397e+00 -3.196295850279828e-03
2.480256250000000e+09 -1.002828573808855e+00 -5.402264338840320e-03
2.522125000000000e+09 -1.002411165989449e+00 -1.887050626760871e-03
2.563993750000000e+09 -1.001659154285144e+00 -6.268221591685694e-03
2.605862500000000e+09 -1.002611151175626e+00 -9.481782809242103e-04
2.647731250000000e+09 -9.993444543198183e-01 -2.602549496419260e-03
2.689600000000000e+09 -1.001853437226582e+00 -3.010598296780486e-03
2.731468750000000e+09 -9.986461565755864e-01 -2.296632574757140e-03
2.773337500000000e+09 -9.992924540743858e-01 -4.462844361025684e-03
2.815206250000000e+09 -9.984814589130774e-01 -5.144250783720709e-03
2.857075000000000e+09 -9.993746565961756e-01 -8.388323528091081e-03
2.898943750000000e+09 -1.001725364703938e+00 -3.859934944680747e-03
2.940812500000000e+09 -1.000164749704107e+00 -6.227276306005486e-03
2.982681250000000e+09 -1.002502785015144e+00 -4.037168724372930e-03
3.024550000000000e+09 -1.001821825695147e+00 -5.085643588531489e-03
3.066418750000000e+09 -1.001381888834592e+00 -5.640107189767403e-03
3.108287500000000e+09 -1.001697785120384e+00 -1.635032724662365e-03
3.150156250000000e+09 -1.000284617292152e+00 -3.698258486027766e-03
3.192025000000000e+09 -1.000894225539811e+00 -2.227591429324708e-03
3.233893750000000e+09 -9.989398163592440e-01 -5.226357585941786e-03
3.275762500000000e+09 -1.001613581838545e+00 -4.352475119531084e-03
3.317631250000000e+09 -9.994011277254257e-01 -3.292550894518590e-03
3.359500000000000e+09 -9.977021934515564e-01 -6.278567809993266e-03
3.401368750000000e+09 -9.962473028697327e-01 -2.885949982328226e-03
3.443237500000000e+09 -9.969105230625209e-01 -7.244779222485973e-03
3.485106250000000e+09 -1.000231148589910e+00 -6.150032084252374e-03
3.526975000000000e+09 -9.970589973936654e-01 -7.836563409003383e-03
3.568843750000000e+09 -9.976666513681308e-01 -7.990633964021021e-03
3.610712500000000e+09 -9.975547975714469e-01 -6.557866818040933e-03
3.652581250000000e+09 -9.995295305718696e-01 -1.011201642004333e-02
3.694450000000000e+09 -1.000011637558354e+00 -6.591011311797511e-03
3.736318750000000e+09 -1.000291961695845e+00 -9.711151520043770e-03
3.778187500000000e+09 -1.000941429388144e+00 -8.741818092384366e-03
3.820056250000000e+09 -9.997613530260486e-01 -8.630239314340976e-03
3.861925000000000e+09 -1.000365617502435e+00 -9.722180570640638e-03
3.903793750000000e+09 -9.989496319646582e-01 -6.334070312901952e-03
3.945662500000000e+09 -1.001281261753370e+00 -1.030692763708477e-02
3.987531250000000e+09 -9.984941674013704e-01 -9.376705684024073e-03
4.029400000000000e+09 -9.984484417247762e-01 -9.661117098188617e-03
4.071268750000000e+09 -9.997337511262107e-01 -9.374270762637865e-03
4.113137500000000e+09 -9.975216785175587e-01 -8.989002670345626e-03
4.155006250000000e+09 -1.000094998611092e+00 -1.072812509586612e-02
4.196875000000000e+09 -1.000917071660511e+00 -8.284483830877331e-03
4.238743750000000e+09 -9.988066235865402e-01 -1.123728730604382e-02
4.280612500000000e+09 -9.983155251642056e-01 -9.273481734029185e-03
4.322481250000000e+09 -9.992520500450566e-01 -1.122203563533752e-02
4.364350000000000e+09 -1.000554588568589e+00 -1.178163755559015e-02
4.406218750000000e+09 -9.997209623298764e-01 -1.128778473842458e-02
4.448087500000000e+09 -9.993564473067720e-01 -1.289701628065299e-02
4.489956250000000e+09 -9.997193550210045e-01 -1.102402833705354e-02
4.531825000000000e+09 -1.000129154753438e+00 -1.232595302275646e-02
4.573693750000000e+09 -1.000312793054894e+00 -1.156073358397466e-02
4.615562500000000e+09 -1.001020119207263e+00 -1.100975029699406e-02
4.657431250000000e+09 -1.000082166232291e+00 -1.193809626067912e-02
4.699300000000000e+09 -9.997610823980423e-01 -1.051227136064043e-02
4.741168750000000e+09 -9.995423279289698e-01 -1.232332781822149e-02
4.783037500000000e+09 -1.000671316819019e+00 -1.090358539665267e-02
4.824906250000000e+09 -9.995942480393335e-01 -1.169252487779661e-02
4.866775000000000e+09 -1.001033659185105e+00 -1.118101811068582e-02
4.908643750000000e+09 -9.999302620782576e-01 -1.184898740534891e-02
4.950512500000000e+09 -1.000733801289676e+00 -1.334085337796323e-02
4.992381250000000e+09 -1.000365242450195e+00 -1.238202875785342e-02
5.034250000000000e+09 -1.000616576038782e+00 -1.468719298396281e-02
5.076118750000000e+09 -1.000441611155851e+00 -1.239386007812402e-02
5.117987500000000e+09 -1.001074313730370e+00 -1.304188656174246e-02
5.159856250000000e+09 -1.000808368950334e+00 -1.387964650727272e-02
5.201725000000000e+09 -1.000298485811999e+00 -1.212138063086935e-02
5.243593750000000e+09 -1.000041718371822e+00 -1.277277537135079e-02
5.285462500000000e+09 -1.000599661820618e+00 -1.171340178575455e-02
5.327331250000000e+09 -1.000512760113900e+00 -1.408890601828567e-02
5.369200000000000e+09 -1.001723501503124e+00 -1.294296005503318e-02
5.411068750000000e+09 -1.001065267487554e+00 -1.341986448931205e-02
5.452937500000000e+09 -1.001873060576937e+00 -1.263168102772968e-02
5.494806250000000e+09 -1.001465565651014e+00 -1.132009796928564e-02
5.536675000000000e+09 -1.002653420916651e+00 -1.254708373700353e-02
5.578543750000000e+09 -1.002512970810131e+00 -1.073415733284602e-02
5.620412500000000e+09 -1.001114372132342e+00 -1.162971465870044e-02
5.662281250000000e+09 -1.001378559751023e+00 -1.037138828472451e-02
5.704150000000000e+09 -1.000454114211873e+00 -1.043652997534283e-02
5.746018750000000e+09 -1.001834986109297e+00 -1.083518251298482e-02
5.787887500000000e+09 -1.000713188941265e+00 -9.609007891147643e-03
5.829756250000000e+09 -1.000855316203019e+00 -1.142885979565175e-02
5.871625000000000e+09 -1.001001237504821e+00 -1.006699264761489e-02
5.913493750000000e+09 -1.000536994510599e+00 -1.137889153580536e-02
5.955362500000000e+09 -1.001764031200475e+00 -1.139493144572884e-02
5.997231250000000e+09 -1.000496513527363e+00 -1.134379372814474e-02
6.039100000000000e+09 -1.002055999691173e+00 -1.173579053530495e-02
6.080968750000000e+09 -1.001562004673456e+00 -1.051486137733841e-02
6.122837500000000e+09 -1.001947007340884e+00 -1.190128234386756e-02
6.164706250000000e+09 -1.001648344240103e+00 -1.136524971603635e-02
6.206575000000000e+09 -1.000851492550888e+00 -1.162335414319044e-02
6.248443750000000e+09 -1.001673497409415e+00 -1.203171156959012e-02
6.290312500000000e+09 -9.999821936697034e-01 -1.210580028939877e-02
6.332181250000000e+09 -1.001111927282155e+00 -1.239071265223840e-02
6.374050000000000e+09 -1.000567682883496e+00 -1.155563776752619e-02
6.415918750000000e+09 -1.001118478630413e+00 -1.290102707961228e-02
6.457787500000000e+09 -1.000728817710940e+00 -1.227389706742118e-02
6.499656250000000e+09 -1.000563355846782e+00 -1.319461039546910e-02
6.541525000000000e+09 -1.001572886559343e+00 -1.276659485718701e-02
6.583393750000000e+09 -1.000789549473838e+00 -1.236191579854425e-02
6.625262500000000e+09 -1.001298252106678e+00 -1.294578444691540e-02
6.667131250000000e+09 -1.001676839334299e+00 -1.264481578303339e-02
6.709000000000000e+09 -1.000887734726245e+00 -1.290022105390791e-02
6.750868750000000e+09 -1.000643788084973e+00 -1.218446489366410e-02
6.792737500000000e+09 -1.000266953173472e+00 -1.240327286077250e-02
6.834606250000000e+09 -1.000328122944390e+00 -1.358200411962181e-02
6.876475000000000e+09 -9.987772310738463e-01 -1.276791749769931e-02
6.918343750000000e+09 -9.991717483180661e-01 -1.364993783368947e-02
6.960212500000000e+09 -9.985868415977761e-01 -1.407487194408477e-02
7.002081250000000e+09 -9.983146791984085e-01 -1.515081315948192e-02
7.043950000000000e+09 -9.985019999628991e-01 -1.589640374474242e-02
7.085818750000000e+09 -9.985909151136462e-01 -1.596577892221410e-02
7.127687500000000e+09 -9.990690537084691e-01 -1.700759004522681e-02
7.169556250000000e+09 -9.979355820595057e-01 -1.609995212523706e-02
7.211425000000000e+09 -9.982221997022160e-01 -1.744283039954506e-02
7.253293750000000e+09 -9.986136263800646e-01 -1.732687509065376e-02
7.295162500000000e+09 -9.975152880475323e-01 -1.761804894924372e-02
7.337031250000000e+09 -9.977898944252525e-01 -1.718081001820889e-02
7.378900000000000e+09 -9.972638532152136e-01 -1.675634821751110e-02
7.420768750000000e+09 -9.977127332088731e-01 -1.730673106693592e-02
7.462637500000000e+09 -9.980711065499769e-01 -1.701132849531501e-02
7.504506250000000e+09 -9.990948318723656e-01 -1.716086591840302e-02
7.546375000000000e+09 -9.997966328347462e-01 -1.655137982990339e-02
7.588243750000000e+09 -1.000769553354449e+00 -1.580312289428726e-02
7.630112500000000e+09 -1.001396121661003e+00 -1.667264916903383e-02
7.671981250000000e+09 -1.000576598996647e+00 -1.510734074368300e-02
7.713850000000000e+09 -1.000242670433840e+00 -1.566265621522723e-02
7.755718750000000e+09 -1.000482777458471e+00 -1.498247253274904e-02
7.797587500000000e+09 -9.986123007007364e-01 -1.556024103855364e-02
7.839456250000000e+09 -9.990626947731803e-01 -1.532122394246422e-02
7.881325000000000e+09 -9.982285713718733e-01 -1.610314018910638e-02
7.923193750000000e+09 -9.982514609675421e-01 -1.644277586467651e-02
7.965062500000000e+09 -9.978114913325878e-01 -1.663802620761719e-02
8.006931250000000e+09 -9.973668095550068e-01 -1.777491652621341e-02
8.048800000000000e+09 -9.987546285401044e-01 -1.790845375178421e-02
8.090668750000000e+09 -9.988879135614782e-01 -1.790074286410617e-02
8.132537500000000e+09 -9.994935952488841e-01 -1.846883193507236e-02
8.174406250000000e+09 -9.991280374337137e-01 -1.752242853039680e-02
8.216275000000000e+09 -9.998953878819896e-01 -1.801590212597964e-02
8.258143750000000e+09 -9.984266201742809e-01 -1.787689542542107e-02
8.300012500000000e+09 -9.986207810375927e-01 -1.842001685636641e-02
8.341881250000000e+09 -9.990580187592292e-01 -1.838026573090821e-02
8.383750000000000e+09 -9.984030763367526e-01 -1.865387612361301e-02
8.425618750000000e+09 -9.998311728173067e-01 -1.937269379058800e-02
8.467487500000000e+09 -9.995169641619108e-01 -1.939102221529076e-02
8.509356250000000e+09 -9.994739412014404e-01 -2.012472774295153e-02
8.551225000000000e+09 -9.992973458542262e-01 -1.920301460020719e-02
8.593093750000000e+09 -9.986843271850268e-01 -2.075299343235587e-02
8.634962500000000e+09 -9.990776936341970e-01 -2.051237767034618e-02
8.676831250000000e+09 -9.984023316652827e-01 -2.002856824797831e-02
8.718700000000000e+09 -9.979956311721969e-01 -2.120716423575005e-02
8.760568750000000e+09 -9.987719471250667e-01 -2.043133033510063e-02
8.802437500000000e+09 -9.995772863027882e-01 -2.135909373511536e-02
8.844306250000000e+09 -9.999357133542569e-01 -2.169727598131063e-02
8.886175000000000e+09 -1.000241023847059e+00 -2.084721419889317e-02
8.928043750000000e+09 -1.001274659923037e+00 -1.985761596978383e-02
8.969912500000000e+09 -1.000359577035892e+00 -1.948585879512414e-02
9.011781250000000e+09 -9.999240557569353e-01 -1.931910328194749e-02
9.053650000000000e+09 -9.992597439971963e-01 -1.937946410397132e-02
9.095518750000000e+09 -9.980890707056946e-01 -2.019815315137443e-02
9.137387500000000e+09 -9.968532456545056e-01 -2.049025019338066e-02
9.179256250000000e+09 -9.971954667798240e-01 -2.164320453968508e-02
9.221125000000000e+09 -9.966859137147802e-01 -2.157565221622675e-02
9.262993750000000e+09 -9.972003472417106e-01 -2.186353044659009e-02
9.304862500000000e+09 -9.964459462017449e-01 -2.268181680885353e-02
9.346731250000000e+09 -9.960248661814728e-01 -2.228343441262266e-02
9.388600000000000e+09 -9.970484492615171e-01 -2.244770676939428e-02
9.430468750000000e+09 -9.959431794062126e-01 -2.171056916332480e-02
9.472337500000000e+09 -9.952520585050465e-01 -2.164561647125245e-02
9.514206250000000e+09 -9.960314251351785e-01 -2.277443408102116e-02
9.556075000000000e+09 -9.952783338022225e-01 -2.295352993142226e-02
9.597943750000000e+09 -9.950561773122309e-01 -2.365428703485510e-02
9.639812500000000e+09 -9.948953236064380e-01 -2.384042675372810e-02
9.681681250000000e+09 -9.950667078087074e-01 -2.379164528416911e-02
9.723550000000000e+09 -9.958008867969593e-01 -2.457256087430980e-02
9.765418750000000e+09 -9.956767697954121e-01 -2.534398195974261e-02
9.807287500000000e+09 -9.962854273056526e-01 -2.655847553708916e-02
9.849156250000000e+09 -9.974471945081961e-01 -2.645028127091681e-02
9.891025000000000e+09 -9.981511511578316e-01 -2.780254937957585e-02
9.932893750000000e+09 -9.980410189862851e-01 -2.712230131013220e-02
9.974762500000000e+09 -9.983367510625225e-01 -2.723678204671221e-02
1.001663125000000e+10 -9.980772296779836e-01 -2.775802740256998e-02
1.005850000000000e+10 -9.988537855017785e-01 -2.824670373108821e-02
1.010036875000000e+10 -1.001170239552545e+00 -2.959492654155520e-02
1.014223750000000e+10 -1.002579606810666e+00 -2.864614645274544e-02
1.018410625000000e+10 -1.003361563562815e+00 -2.745696016461818e-02
1.022597500000000e+10 -1.003490467874268e+00 -2.526559967351507e-02
1.026784375000000e+10 -1.002530107832448e+00 -2.320486246057144e-02
1.030971250000000e+10 -1.002957345531335e+00 -2.276624324395786e-02
1.035158125000000e+10 -1.002405812290451e+00 -2.233015261498511e-02
1.039345000000000e+10 -1.001151384321609e+00 -2.298788769236461e-02
1.043531875000000e+10 -1.000120035695190e+00 -2.245783690738849e-02
1.047718750000000e+10 -9.990201604323991e-01 -2.316176854380235e-02
1.051905625000000e+10 -9.994157554597964e-01 -2.255299080823053e-02
1.056092500000000e+10 -9.979777181993186e-01 -2.308621627254464e-02
1.060279375000000e+10 -9.974319334230467e-01 -2.468349568505795e-02
1.064466250000000e+10 -9.974453117382803e-01 -2.510236351933391e-02
1.068653125000000e+10 -9.976280214117551e-01 -2.658048741922039e-02
1.072840000000000e+10 -9.985969234528981e-01 -2.667011026088588e-02
1.077026875000000e+10 -9.992465818188179e-01 -2.710854834551587e-02
1.081213750000000e+10 -1.000071374804129e+00 -2.762711887088612e-02
1.085400625000000e+10 -9.992017107903438e-01 -2.717180469200221e-02
1.089587500000000e+10 -9.999773524104357e-01 -2.692309253944119e-02
1.093774375000000e+10 -9.998476587141149e-01 -2.575755716646585e-02
1.097961250000000e+10 -9.996493534245006e-01 -2.558903013056903e-02
1.102148125000000e+10 -9.989008785235257e-01 -2.433617391760611e-02
1.106335000000000e+10 -9.985460556524363e-01 -2.483212753829189e-02
1.110521875000000e+10 -9.990772944827804e-01 -2.486910518162741e-02
1.114708750000000e+10 -9.979136014727749e-01 -2.511346063991830e-02
1.118895625000000e+10 -9.978788615540954e-01 -2.599063701577573e-02
1.123082500000000e+10 -9.980359260438950e-01 -2.605311120258259e-02
1.127269375000000e+10 -9.980533237735960e-01 -2.736670799403742e-02
1.131456250000000e+10 -9.988000549517132e-01 -2.828477824143020e-02
1.135643125000000e+10 -9.976330924245020e-01 -2.774897676647178e-02
1.139830000000000e+10 -9.979116822477835e-01 -2.841720417745717e-02
1.144016875000000e+10 -9.987365748470042e-01 -2.794944244668038e-02
1.148203750000000e+10 -1.000386645245800e+00 -2.796864070529980e-02
1.152390625000000e+10 -1.001170759348374e+00 -2.677989246245149e-02
1.156577500000000e+10 -1.000288103349682e+00 -2.582508048505378e-02
1.160764375000000e+10 -9.987834117095326e-01 -2.462212058985650e-02
1.164951250000000e+10 -9.982627755061607e-01 -2.516296719932489e-02
1.169138125000000e+10 -9.986064605209622e-01 -2.639827809476920e-02
1.173325000000000e+10 -9.959138259116073e-01 -2.589276985143360e-02
1.177511875000000e+10 -9.956879237092935e-01 -2.630767204962337e-02
1.181698750000000e+10 -9.953113863512462e-01 -2.620640437291649e-02
1.185885625000000e+10 -9.943842985580358e-01 -2.685874301793051e-02
1.190072500000000e+10 -9.944018697194998e-01 -2.791334220128402e-02
1.194259375000000e+10 -9.943519855420797e-01 -2.754014887654575e-02
1.198446250000000e+10 -9.943894152705448e-01 -2.807937047121029e-02
1.202633125000000e+10 -9.933301682563951e-01 -2.815290511513135e-02
1.206820000000000e+10 -9.912304858074440e-01 -2.951024514214450e-02
1.211006875000000e+10 -9.912693797974130e-01 -2.975743543740406e-02
1.215193750000000e+10 -9.941318633045541e-01 -3.068175204103247e-02
1.219380625000000e+10 -9.964015400248589e-01 -3.170169415356960e-02
1.223567500000000e+10 -9.967779071342834e-01 -3.224606411922126e-02
1.227754375000000e+10 -9.972900973660001e-01 -3.381570206859475e-02
1.231941250000000e+10 -9.970881050164586e-01 -3.379007191665676e-02
1.236128125000000e+10 -9.975294368710106e-01 -3.480819805884358e-02
1.240315000000000e+10 -9.977719687013634e-01 -3.511557229193118e-02
1.244501875000000e+10 -9.975629076926221e-01 -3.607130058000157e-02
1.248688750000000e+10 -9.984479256403688e-01 -3.628720180367518e-02
1.252875625000000e+10 -9.996997278875491e-01 -3.619284062442699e-02
1.257062500000000e+10 -1.001020702703835e+00 -3.536409004030350e-02
1.261249375000000e+10 -1.001774310282528e+00 -3.415842692815951e-02
1.265436250000000e+10 -1.001383714952628e+00 -3.247554123126865e-02
1.269623125000000e+10 -1.001873529934666e+00 -3.096337199955973e-02
1.273810000000000e+10 -1.002755215521182e+00 -3.078586789716836e-02
1.277996875000000e+10 -1.004469082160834e+00 -3.077951023213542e-02
1.282183750000000e+10 -1.004733595226491e+00 -2.983327433027821e-02
1.286370625000000e+10 -1.004232994748358e+00 -2.972584365996724e-02
1.290557500000000e+10 -1.004386452929854e+00 -2.904626847397279e-02
1.294744375000000e+10 -1.004098535431458e+00 -2.832009622485304e-02
1.298931250000000e+10 -1.003853301407768e+00 -2.720734854739015e-02
1.303118125000000e+10 -1.001003696401993e+00 -2.667234626430670e-02
1.307305000000000e+10 -9.994426054834984e-01 -2.556356019998151e-02
1.311491875000000e+10 -9.955405096240479e-01 -2.516933075129010e-02
1.315678750000000e+10 -9.927596642164668e-01 -2.554182269085361e-02
1.319865625000000e+10 -9.917532950089759e-01 -2.681531312600414e-02
1.324052500000000e+10 -9.905322005780925e-01 -2.801119403101721e-02
1.328239375000000e+10 -9.896923574474866e-01 -2.876674096181351e-02
1.332426250000000e+10 -9.911156769453485e-01 -3.058121430607914e-02
1.336613125000000e+10 -9.911755305767881e-01 -3.245392824496867e-02
1.340800000000000e+10 -9.920868532255550e-01 -3.351459998818447e-02
1.344986875000000e+10 -9.938301680873671e-01 -3.456138562676493e-02
1.349173750000000e+10 -9.935608933645460e-01 -3.509775442320031e-02
1.353360625000000e+10 -9.945068885286451e-01 -3.676111237279888e-02
1.357547500000000e+10 -9.958197660234658e-01 -3.802857566212624e-02
1.361734375000000e+10 -9.943440018366713e-01 -3.821703259879393e-02
1.365921250000000e+10 -9.955216474492989e-01 -3.867017193792234e-02
1.370108125000000e+10 -9.981744256144179e-01 -3.883074708874006e-02
1.374295000000000e+10 -1.001429782043122e+00 -3.864181504883431e-02
1.378481875000000e+10 -1.001540383832108e+00 -3.765771239697849e-02
1.382668750000000e+10 -1.000498625654549e+00 -3.638484743006117e-02
1.386855625000000e+10 -1.000576632735817e+00 -3.432842240131302e-02
1.391042500000000e+10 -1.000407876021266e+00 -3.307023310871873e-02
1.395229375000000e+10 -1.000447537875172e+00 -3.307109639762049e-02
1.399416250000000e+10 -1.000139117771860e+00 -3.344342393442256e-02
1.403603125000000e+10 -9.977333947473799e-01 -3.411485466537753e-02
1.407790000000000e+10 -9.960822868216508e-01 -3.365892401665461e-02
1.411976875000000e+10 -9.968077639030468e-01 -3.324995497719260e-02
1.416163750000000e+10 -9.969865548294158e-01 -3.249609677880273e-02
1.420350625000000e+10 -9.958187901369031e-01 -3.239582151049212e-02
1.424537500000000e+10 -9.965838198942876e-01 -3.279134805466156e-02
1.428724375000000e+10 -9.975407693740314e-01 -3.425235536672139e-02
1.432911250000000e+10 -9.975872775180488e-01 -3.487515470996554e-02
1.437098125000000e+10 -9.960268573430593e-01 -3.655201513123749e-02
1.441285000000000e+10 -9.971169275485703e-01 -3.774536160466709e-02
1.445471875000000e+10 -9.988792003654847e-01 -3.948205316382489e-02
1.449658750000000e+10 -1.001765115135997e+00 -4.032254896147330e-02
1.453845625000000e+10 -1.002997777887383e+00 -4.051990587242243e-02
1.458032500000000e+10 -1.003398433569017e+00 -3.923285130053577e-02
1.462219375000000e+10 -1.003351041537940e+00 -3.780253359658673e-02
1.466406250000000e+10 -1.003844256984602e+00 -3.673906523842622e-02
1.470593125000000e+10 -1.004560355243027e+00 -3.528826530979243e-02
1.474780000000000e+10 -1.003876166947500e+00 -3.426734934755214e-02
1.478966875000000e+10 -1.002187075919311e+00 -3.347146967594618e-02
1.483153750000000e+10 -1.000653618578381e+00 -3.287461811338348e-02
1.487340625000000e+10 -1.000712420738301e+00 -3.277981654737733e-02
1.491527500000000e+10 -1.000615261255713e+00 -3.180104949701421e-02
1.495714375000000e+10 -9.995763158157190e-01 -3.136533661827406e-02
1.499901250000000e+10 -9.977102450208118e-01 -3.104848052187015e-02
1.504088125000000e+10 -9.944097856427250e-01 -3.146189586285854e-02
1.508275000000000e+10 -9.928463332624818e-01 -3.296584777281187e-02
1.512461875000000e+10 -9.915196033003100e-01 -3.504147194265756e-02
1.516648750000000e+10 -9.926944795366713e-01 -3.777441845604442e-02
1.520835625000000e+10 -9.948294365182765e-01 -3.890840765482761e-02
1.525022500000000e+10 -9.972864654787055e-01 -3.884749749086475e-02
1.529209375000000e+10 -9.995146721799073e-01 -3.670790122465064e-02
1.533396250000000e+10 -1.000756662669885e+00 -3.483244848918409e-02
1.537583125000000e+10 -1.001326553952069e+00 -3.252884905418827e-02
1.541770000000000e+10 -1.000319256005080e+00 -3.046438492301811e-02
1.545956875000000e+10 -9.996597607295018e-01 -2.967201322773594e-02
1.550143750000000e+10 -9.999010638909146e-01 -2.879163684757658e-02
1.554330625000000e+10 -1.000951201255807e+00 -2.939303668228905e-02
1.558517500000000e+10 -1.001231359016605e+00 -2.974389388005470e-02
1.562704375000000e+10 -1.001290530708032e+00 -2.968759958750277e-02
1.566891250000000e+10 -9.990142025430471e-01 -3.027386424865351e-02
1.571078125000000e+10 -9.948356360116517e-01 -3.082211967243844e-02
1.575265000000000e+10 -9.936098159003052e-01 -3.203550355738739e-02
1.579451875000000e+10 -9.925034305669440e-01 -3.375055446664223e-02
1.583638750000000e+10 -9.919168345046123e-01 -3.583230148018497e-02
1.587825625000000e+10 -9.932098683502664e-01 -3.769071545897736e-02
1.592012500000000e+10 -9.929596251371898e-01 -3.878039675638626e-02
1.596199375000000e+10 -9.927904385244017e-01 -3.916919964932997e-02
1.600386250000000e+10 -9.924615457583122e-01 -3.972850098697237e-02
1.604573125000000e+10 -9.946544692378672e-01 -4.133630275961499e-02
1.608760000000000e+10 -9.953030053616215e-01 -4.100549190476543e-02
1.612946875000000e+10 -9.965093461032152e-01 -4.204550599233035e-02
1.617133750000000e+10 -9.979308189526688e-01 -4.119622458248805e-02
1.621320625000000e+10 -1.000228906012438e+00 -4.112545281316479e-02
1.625507500000000e+10 -1.001055427840923e+00 -4.073909660711880e-02
1.629694375000000e+10 -9.997384595699680e-01 -4.047740841606738e-02
1.633881250000000e+10 -9.993228658088775e-01 -4.038051521929412e-02
1.638068125000000e+10 -1.000617154123325e+00 -3.998951898476638e-02
1.642255000000000e+10 -1.001632865181803e+00 -3.976390363009855e-02
1.646441875000000e+10 -1.001494413491544e+00 -3.912551498944216e-02
1.650628750000000e+10 -1.001375744150515e+00 -3.868979799350378e-02
1.654815625000000e+10 -1.002371148205566e+00 -3.897810803828398e-02
1.659002500000000e+10 -1.001816568040801e+00 -3.856912031109940e-02
1.663189375000000e+10 -9.999876999302434e-01 -3.854000673483526e-02
1.667376250000000e+10 -9.986475543632939e-01 -3.795864959800976e-02
1.671563125000000e+10 -9.992916163734880e-01 -3.870400385908476e-02
1.675750000000000e+10 -9.987758711819666e-01 -3.847302067816522e-02
1.679936875000000e+10 -9.976300126079177e-01 -3.906706013905212e-02
1.684123750000000e+10 -9.964655743516755e-01 -3.783209926294905e-02
1.688310625000000e+10 -9.965381423569346e-01 -3.698451768842597e-02
1.692497500000000e+10 -9.945890979486726e-01 -3.630973251974590e-02
1.696684375000000e+10 -9.916218797596188e-01 -3.403189257111031e-02
1.700871250000000e+10 -9.898321633649141e-01 -3.355595456082878e-02
1.705058125000000e+10 -9.914792404240824e-01 -3.242654179408532e-02
1.709245000000000e+10 -9.928248692952527e-01 -3.161538255043687e-02
1.713431875000000e+10 -9.947488972815508e-01 -3.242672137738101e-02
1.717618750000000e+10 -9.948826586292339e-01 -3.254552497293585e-02
1.721805625000000e+10 -9.905555523367627e-01 -3.432191941024607e-02
1.725992500000000e+10 -9.871076765260962e-01 -3.573129014197366e-02
1.730179375000000e+10 -9.865948976973639e-01 -3.822545488699090e-02
1.734366250000000e+10 -9.865805644842582e-01 -4.008479852800459e-02
1.738553125000000e+10 -9.862499997194367e-01 -4.218194175771431e-02
1.742740000000000e+10 -9.878470511735886e-01 -4.218167142375267e-02
1.746926875000000e+10 -9.904453081274357e-01 -4.091865929109234e-02
1.751113750000000e+10 -9.901113992114118e-01 -4.065982390138405e-02
1.755300625000000e+10 -9.892697629424106e-01 -4.031194863488524e-02
1.759487500000000e+10 -9.901198660211582e-01 -4.089041418842775e-02
1.763674375000000e+10 -9.930794447780374e-01 -4.097963498940302e-02
1.767861250000000e+10 -9.929215902321636e-01 -4.185695547744341e-02
1.772048125000000e+10 -9.928788573965494e-01 -4.223775161690498e-02
1.776235000000000e+10 -9.921035932909058e-01 -4.182052981925651e-02
1.780421875000000e+10 -9.912555821047720e-01 -4.158007350557961e-02
1.784608750000000e+10 -9.925839271967041e-01 -4.080983435952616e-02
1.788795625000000e+10 -9.915105016520575e-01 -4.102985162261540e-02
1.792982500000000e+10 -9.899621470518034e-01 -4.042396425589381e-02
1.797169375000000e+10 -9.905394322141386e-01 -4.166348543281564e-02
1.801356250000000e+10 -9.927411214775502e-01 -4.226806388473603e-02
1.805543125000000e+10 -9.951067368039191e-01 -4.342627403505685e-02
1.809730000000000e+10 -9.946713917353464e-01 -4.382224527590749e-02
1.813916875000000e+10 -9.926268647645042e-01 -4.404078415756194e-02
1.818103750000000e+10 -9.923348395700411e-01 -4.486535670469872e-02
1.822290625000000e+10 -9.938149623094774e-01 -4.463629563483584e-02
1.826477500000000e+10 -9.954155938837957e-01 -4.496425700671701e-02
1.830664375000000e+10 -9.986706158343139e-01 -4.479741679332452e-02
1.834851250000000e+10 -9.998720203816438e-01 -4.412136010316083e-02
1.839038125000000e+10 -9.998995254746067e-01 -4.258332532399682e-02
1.843225000000000e+10 -9.988767884947952e-01 -4.113132684108076e-02
1.847411875000000e+10 -9.979720952519847e-01 -3.962573687853623e-02
1.851598750000000e+10 -9.982002708172738e-01 -3.887789948310025e-02
1.855785625000000e+10 -9.969052486595743e-01 -3.966903568544474e-02
1.859972500000000e+10 -9.976394800065496e-01 -3.989986684808697e-02
1.864159375000000e+10 -9.970061108486794e-01 -4.141964108073722e-02
1.868346250000000e+10 -9.946359738418810e-01 -4.253079600940830e-02
1.872533125000000e+10 -9.938837136925536e-01 -4.371241086561654e-02
1.876720000000000e+10 -9.936846684085909e-01 -4.427801737093522e-02
1.880906875000000e+10 -9.923345369787506e-01 -4.401055733813783e-02
1.885093750000000e+10 -9.894809793119450e-01 -4.283909698142191e-02
1.889280625000000e+10 -9.890186632567705e-01 -4.273940778320522e-02
1.893467500000000e+10 -9.887883843798538e-01 -4.407815971255187e-02
1.897654375000000e+10 -9.893905994019461e-01 -4.547537493113042e-02
1.901841250000000e+10 -9.893840925798948e-01 -4.771395521844895e-02
1.906028125000000e+10 -9.895936733317523e-01 -4.963826667389955e-02
1.910215000000000e+10 -9.893761435290823e-01 -5.081016521646226e-02
1.914401875000000e+10 -9.892528574113011e-01 -5.167963091612530e-02
1.918588750000000e+10 -9.883769874842364e-01 -5.327854717492204e-02
1.922775625000000e+10 -9.878482147719961e-01 -5.414715679708065e-02
1.926962500000000e+10 -9.899833532775879e-01 -5.539788945061546e-02
1.931149375000000e+10 -9.925798670465228e-01 -5.658798989793427e-02
1.935336250000000e+10 -9.929484478420388e-01 -5.531023722481792e-02
1.939523125000000e+10 -9.930476360379038e-01 -5.432029608208678e-02
1.943710000000000e+10 -9.931412834541997e-01 -5.282705585713731e-02
1.947896875000000e+10 -9.916019371281495e-01 -5.239486566906681e-02
1.952083750000000e+10 -9.928862492765255e-01 -5.228630322436088e-02
1.956270625000000e+10 -9.939560513121578e-01 -5.150228526379474e-02
1.960457500000000e+10 -9.965206211470545e-01 -5.202842126317885e-02
1.964644375000000e+10 -9.982380148223540e-01 -5.100730772325877e-02
1.968831250000000e+10 -9.998206892708635e-01 -4.932885853380013e-02
1.973018125000000e+10 -1.001363850224466e+00 -4.962995396993382e-02
1.977205000000000e+10 -9.995247890135087e-01 -4.941732167582829e-02
1.981391875000000e+10 -9.979992411518016e-01 -4.797178098749355e-02
1.985578750000000e+10 -9.974977529697215e-01 -4.731825239803667e-02
1.989765625000000e+10 -9.961512812341694e-01 -4.655262350206952e-02
1.993952500000000e+10 -9.956513169783363e-01 -4.520038873716643e-02
1.998139375000000e+10 -9.961662384097969e-01 -4.424056811049805e-02
2.002326250000000e+10 -9.983426847883730e-01 -4.281682095124874e-02
2.006513125000000e+10 -1.000153943699431e+00 -4.084702930501044e-02
2.010700000000000e+10 -1.000408925795459e+00 -4.249376955747095e-02
2.014886875000000e+10 -9.968560871465389e-01 -4.272123967986730e-02
2.019073750000000e+10 -9.977965661431601e-01 -4.412842554015469e-02
2.023260625000000e+10 -9.967143758548854e-01 -4.459494902081490e-02
2.027447500000000e+10 -9.945770735732387e-01 -4.623612512798805e-02
2.031634375000000e+10 -9.932362298307852e-01 -4.722191025221129e-02
2.035821250000000e+10 -9.939530999152960e-01 -4.913558724581962e-02
2.040008125000000e+10 -9.944399331159807e-01 -4.925515199801236e-02
2.044195000000000e+10 -9.963726886830889e-01 -4.869037096291100e-02
2.048381875000000e+10 -9.952660104541656e-01 -4.745860739942112e-02
2.052568750000000e+10 -9.954310327036248e-01 -4.597206338934335e-02
2.056755625000000e+10 -9.943998309120270e-01 -4.548270683263036e-02
2.060942500000000e+10 -9.925944338378483e-01 -4.410523792755798e-02
2.065129375000000e+10 -9.924113295760569e-01 -4.575206243655071e-02
2.069316250000000e+10 -9.937975249869410e-01 -4.561952297186730e-02
2.073503125000000e+10 -9.945493450299874e-01 -4.593789363124292e-02
2.077690000000000e+10 -9.939383772302561e-01 -4.622383091707104e-02
2.081876875000000e+10 -9.923349699897519e-01 -4.602984020431251e-02
2.086063750000000e+10 -9.918179340267190e-01 -4.664299352060603e-02
2.090250625000000e+10 -9.930691635489904e-01 -4.676481921899836e-02
2.094437500000000e+10 -9.952033533849781e-01 -4.867249157896229e-02
2.098624375000000e+10 -9.952033055711458e-01 -4.813561873425119e-02
2.102811250000000e+10 -9.957560507379071e-01 -4.865286066137509e-02
2.106998125000000e+10 -9.948660408686375e-01 -4.947836337036290e-02
2.111185000000000e+10 -9.949967911334833e-01 -4.987465561867389e-02
2.115371875000000e+10 -9.951919248844785e-01 -5.062565875031716e-02
2.119558750000000e+10 -9.953333922841361e-01 -5.056262384407957e-02
2.123745625000000e+10 -9.930452079913978e-01 -5.236699234663064e-02
2.127932500000000e+10 -9.895923202461562e-01 -5.302240380086498e-02
2.132119375000000e+10 -9.897469881964311e-01 -5.119569503313971e-02
2.136306250000000e+10 -9.897139771568094e-01 -5.062289518982368e-02
2.140493125000000e+10 -9.895868816805247e-01 -4.998951464547752e-02
2.144680000000000e+10 -9.883542727423487e-01 -5.046647614708337e-02
2.148866875000000e+10 -9.896068948551544e-01 -5.300986326463383e-02
2.153053750000000e+10 -9.885522166328663e-01 -5.423615568041083e-02
2.157240625000000e+10 -9.897471584650311e-01 -5.612560673812206e-02
2.161427500000000e+10 -9.918730675733402e-01 -5.762004284221759e-02
2.165614375000000e+10 -9.949316155882254e-01 -5.782340952333043e-02
2.169801250000000e+10 -9.980847360068644e-01 -5.600280183237921e-02
2.173988125000000e+10 -9.980043966178392e-01 -5.545126104127041e-02
2.178175000000000e+10 -9.964669819381791e-01 -5.391992055023286e-02
2.182361875000000e+10 -9.956602074639647e-01 -5.471637370526233e-02
2.186548750000000e+10 -9.963556434395046e-01 -5.452156836392207e-02
2.190735625000000e+10 -9.964768990049752e-01 -5.378659860569200e-02
2.194922500000000e+10 -9.950860004866425e-01 -5.478700482166709e-02
2.199109375000000e+10 -9.955843825893519e-01 -5.363367509704662e-02
2.203296250000000e+10 -9.965962288131505e-01 -5.219340063199059e-02
2.207483125000000e+10 -9.981953427035828e-01 -5.132007951400223e-02
2.211670000000000e+10 -9.979794571000571e-01 -4.829470995958596e-02
2.215856875000000e+10 -9.968457823921251e-01 -4.748005924972463e-02
2.220043750000000e+10 -9.948560648659083e-01 -4.694339146090398e-02
2.224230625000000e+10 -9.909395931982626e-01 -4.872249689875882e-02
2.228417500000000e+10 -9.908811619681135e-01 -4.937534591985775e-02
2.232604375000000e+10 -9.901938864967502e-01 -5.117009703934092e-02
2.236791250000000e+10 -9.927590236977075e-01 -5.287101799110393e-02
2.240978125000000e+10 -9.947684569635972e-01 -5.324825874876162e-02
2.245165000000000e+10 -9.939741062019634e-01 -5.567785612468096e-02
2.249351875000000e+10 -9.955152191245302e-01 -5.275895398150614e-02
2.253538750000000e+10 -9.958985572123253e-01 -5.115330905718286e-02
2.257725625000000e+10 -9.963140571904886e-01 -5.174888796851740e-02
2.261912500000000e+10 -9.980559581090014e-01 -4.426706817602819e-02
2.266099375000000e+10 -9.992246977730483e-01 -4.431588388335468e-02
2.270286250000000e+10 -9.997371866024904e-01 -2.498916648654381e-02
2.274473125000000e+10 -1.005916279484700e+00 -1.126070571877868e-02
2.278660000000000e+10 -1.003276379176430e+00 -9.867012672612968e-03
2.282846875000000e+10 -1.004062321409324e+00 -1.132173954678222e-02
2.287033750000000e+10 -1.003661583457297e+00 -1.322989216501285e-02
2.291220625000000e+10 -1.003197926027432e+00 -1.262747672980176e-02
2.295407500000000e+10 -1.005212289566640e+00 -1.380397205506331e-02
2.299594375000000e+10 -1.004369577482377e+00 -1.394267407447335e-02
2.303781250000000e+10 -1.003485262465043e+00 -1.558779226758632e-02
2.307968125000000e+10 -1.004285668761215e+00 -1.534469473791050e-02
2.312155000000000e+10 -1.004865551563590e+00 -1.703531023425903e-02
2.316341875000000e+10 -1.008409780363956e+00 -1.695367269189918e-02
2.320528750000000e+10 -1.007990253796622e+00 -1.733411850206970e-02
2.324715625000000e+10 -1.007904600762953e+00 -1.800867611871496e-02
2.328902500000000e+10 -1.006454809236372e+00 -1.706010972372536e-02
2.333089375000000e+10 -1.003952372472664e+00 -1.712181966197855e-02
2.337276250000000e+10 -1.002940001820383e+00 -1.727557567253536e-02
2.341463125000000e+10 -1.004186170594241e+00 -1.704458311026663e-02
2.345650000000000e+10 -1.005798274412206e+00 -1.735516022717031e-02
2.349836875000000e+10 -1.006087808915294e+00 -1.719076882334139e-02
2.354023750000000e+10 -1.008302252464509e+00 -1.717893859117888e-02
2.358210625000000e+10 -1.008997740365058e+00 -1.552529399802489e-02
2.362397500000000e+10 -1.008047712144851e+00 -1.464034380180591e-02
2.366584375000000e+10 -1.008423588652598e+00 -1.239337197990041e-02
2.370771250000000e+10 -1.006003425998833e+00 -1.281516771550154e-02
2.374958125000000e+10 -1.004809278715553e+00 -1.317495001305383e-02
2.379145000000000e+10 -1.004842408968088e+00 -1.358805678136840e-02
2.383331875000000e+10 -1.005767430334660e+00 -1.516366684852597e-02
2.387518750000000e+10 -1.007510549071809e+00 -1.540935375912677e-02
2.391705625000000e+10 -1.008021735829009e+00 -1.727279559044493e-02
2.395892500000000e+10 -1.007028269426777e+00 -1.817452973723740e-02
2.400079375000000e+10 -1.004938900639055e+00 -1.827007878702790e-02
2.404266250000000e+10 -1.005510398178905e+00 -1.726572879722851e-02
2.408453125000000e+10 -1.006428753853491e+00 -1.594705118646666e-02
2.412640000000000e+10 -1.006333475914408e+00 -1.684982596682581e-02
2.416826875000000e+10 -1.008488475521454e+00 -1.569726242981927e-02
2.421013750000000e+10 -1.008301820181477e+00 -1.436901493978137e-02
2.425200625000000e+10 -1.008838508695544e+00 -1.352325672724948e-02
2.429387500000000e+10 -1.008743335706461e+00 -1.325054653233719e-02
2.433574375000000e+10 -1.008609492992739e+00 -1.328712538207801e-02
2.437761250000000e+10 -1.008971220296624e+00 -1.204209727645119e-02
2.441948125000000e+10 -1.008245387613364e+00 -1.218768032124026e-02
2.446135000000000e+10 -1.006086715457645e+00 -1.197103619072464e-02
2.450321875000000e+10 -1.005142631135203e+00 -1.267731159377313e-02
2.454508750000000e+10 -1.002927782720374e+00 -1.444608031998786e-02
2.458695625000000e+10 -1.004051833528729e+00 -1.567891223336478e-02
2.462882500000000e+10 -1.003230736205060e+00 -1.759814286578532e-02
2.467069375000000e+10 -1.004950835570091e+00 -1.985044896477241e-02
2.471256250000000e+10 -1.005686377240893e+00 -2.102820001936850e-02
2.475443125000000e+10 -1.007655010972180e+00 -2.178205225669162e-02
2.479630000000000e+10 -1.007470376154234e+00 -2.047241065695042e-02
2.483816875000000e+10 -1.009095718459083e+00 -1.890732656055103e-02
2.488003750000000e+10 -1.010042747737169e+00 -1.566617621251638e-02
2.492190625000000e+10 -1.008799017215241e+00 -1.423335431955525e-02
2.496377500000000e+10 -1.008053414331940e+00 -1.106588869606049e-02
2.500564375000000e+10 -1.007113545773318e+00 -1.122223568099134e-02
2.504751250000000e+10 -1.008215802326247e+00 -1.067898998382180e-02
2.508938125000000e+10 -1.006659137493322e+00 -9.381069166548732e-03
2.513125000000000e+10 -1.006376421211614e+00 -9.045004857490994e-03
2.517311875000000e+10 -1.005208896708324e+00 -9.104218616954169e-03
2.521498750000000e+10 -1.003640742200411e+00 -1.086597223263852e-02
2.525685625000000e+10 -1.003839198341276e+00 -1.198328811788727e-02
2.529872500000000e+10 -1.003845735716542e+00 -1.326758540834002e-02
2.534059375000000e+10 -1.004438395102944e+00 -1.592135421653895e-02
2.538246250000000e+10 -1.004612841996829e+00 -1.619286748230890e-02
2.542433125000000e+10 -1.002965180713781e+00 -1.828257273824046e-02
2.546620000000000e+10 -1.001429967939534e+00 -1.969543878192892e-02
2.550806875000000e+10 -1.001728301916773e+00 -2.129857206338108e-02
2.554993750000000e+10 -1.000760717599414e+00 -2.319635540281333e-02
2.559180625000000e+10 -9.983765706124417e-01 -2.342892789254447e-02
2.563367500000000e+10 -9.996920680789687e-01 -2.401381880155962e-02
2.567554375000000e+10 -1.002821731869255e+00 -2.407012687751243e-02
2.571741250000000e+10 -1.003490286026652e+00 -2.528509714380157e-02
2.575928125000000e+10 -1.004485363336863e+00 -2.502951257348723e-02
2.580115000000000e+10 -1.004781226356136e+00 -2.580510960222424e-02
2.584301875000000e+10 -1.006995389477356e+00 -2.645508412089866e-02
2.588488750000000e+10 -1.007783499418218e+00 -2.660850764477092e-02
2.592675625000000e+10 -1.010026422089852e+00 -2.699181242564000e-02
2.596862500000000e+10 -1.010021524010714e+00 -2.627057571768885e-02
2.601049375000000e+10 -1.008533304017530e+00 -2.712218270365362e-02
2.605236250000000e+10 -1.008803663134697e+00 -2.673588030032599e-02
2.609423125000000e+10 -1.008499468442234e+00 -2.572640203514471e-02
2.613610000000000e+10 -1.010375982506871e+00 -2.502181356996649e-02
2.617796875000000e+10 -1.011051406091771e+00 -2.337241904831159e-02
2.621983750000000e+10 -1.011726559003814e+00 -2.322642816009336e-02
2.626170625000000e+10 -1.012983275335765e+00 -1.994844245721505e-02
2.630357500000000e+10 -1.013243803273330e+00 -1.668413591285993e-02
2.634544375000000e+10 -1.013866630408860e+00 -1.288015146307447e-02
2.638731250000000e+10 -1.012839695317091e+00 -1.069420247768827e-02
2.642918125000000e+10 -1.014761325296476e+00 -8.028573457710403e-03
2.647105000000000e+10 -1.014779030161695e+00 -5.805656701060153e-03
2.651291875000000e+10 -1.013366970357436e+00 -4.982134306051253e-03
2.655478750000000e+10 -1.012084029619082e+00 -3.825461949884691e-03
2.659665625000000e+10 -1.009879357258157e+00 -2.835111098506226e-03
2.663852500000000e+10 -1.007993145408850e+00 -2.319072273582995e-03
2.668039375000000e+10 -1.003854097728556e+00 -1.972003237370515e-03
2.672226250000000e+10 -1.003989583184353e+00 -1.162723726261842e-03
2.676413125000000e+10 -1.006016354106142e+00 -1.609286975018616e-03
2.680600000000000e+10 -1.004902676265802e+00 -5.509934071339322e-04
2.684786875000000e+10 -1.006448847093911e+00 -1.767154156061304e-03
2.688973750000000e+10 -1.003856636763081e+00 -3.920476829291099e-03
2.693160625000000e+10 -1.003084581290240e+00 -5.560905169251808e-03
2.697347500000000e+10 -1.002463983699350e+00 -5.560805591702023e-03
2.701534375000000e+10 -1.003487282613089e+00 -8.566893437875802e-03
2.705721250000000e+10 -1.007649781041948e+00 -9.013098035800126e-03
2.709908125000000e+10 -1.008018433540444e+00 -9.607006611940756e-03
2.714095000000000e+10 -1.008637380028978e+00 -9.831411398511380e-03
2.718281875000000e+10 -1.007627371497064e+00 -9.196918574647243e-03
2.722468750000000e+10 -1.007475671020883e+00 -1.010570090862192e-02
2.726655625000000e+10 -1.007933808814479e+00 -9.163043947336469e-03
2.730842500000000e+10 -1.006165470115401e+00 -8.836314500183391e-03
2.735029375000000e+10 -1.007018425883000e+00 -7.519002451404644e-03
2.739216250000000e+10 -1.006866062046068e+00 -8.595870965231863e-03
2.743403125000000e+10 -1.007126828687504e+00 -1.024233718110601e-02
2.747590000000000e+10 -1.006829236936199e+00 -7.927483198976111e-03
2.751776875000000e+10 -1.010458833018094e+00 -8.041170941727764e-03
2.755963750000000e+10 -1.009413115692076e+00 -6.783304283078819e-03
2.760150625000000e+10 -1.008011851627075e+00 -7.126014732610548e-03
2.764337500000000e+10 -1.007305853457217e+00 -6.761402080619240e-03
2.768524375000000e+10 -1.005141312323862e+00 -6.460472857514810e-03
2.772711250000000e+10 -1.003340163932913e+00 -7.634012735425941e-03
2.776898125000000e+10 -1.000951219316069e+00 -7.719107022469744e-03
2.781085000000000e+10 -1.002303639272211e+00 -1.041285563573480e-02
2.785271875000000e+10 -1.003578793907132e+00 -9.922130127562982e-03
2.789458750000000e+10 -1.004377690020845e+00 -1.197270333983179e-02
2.793645625000000e+10 -1.004936823940146e+00 -1.140128561181316e-02
2.797832500000000e+10 -1.008341095041304e+00 -1.097058594010643e-02
2.802019375000000e+10 -1.008894958750362e+00 -1.056969143061853e-02
2.806206250000000e+10 -1.008991136998099e+00 -8.041108697213160e-03
2.810393125000000e+10 -1.008609343516178e+00 -9.529399568875009e-03
2.814580000000000e+10 -1.010009201939894e+00 -9.139774982595522e-03
2.818766875000000e+10 -1.011403832792797e+00 -1.049272058043608e-02
2.822953750000000e+10 -1.010229115230763e+00 -9.556146138782338e-03
2.827140625000000e+10 -1.011322333876293e+00 -9.951050853412609e-03
2.831327500000000e+10 -1.012223889844483e+00 -9.268908478544367e-03
2.835514375000000e+10 -1.011975278340521e+00 -8.991338868012929e-03
2.839701250000000e+10 -1.012478121043104e+00 -8.153244116147533e-03
2.843888125000000e+10 -1.012325796606401e+00 -6.271391740412590e-03
2.848075000000000e+10 -1.014565748898073e+00 -7.308606618031710e-03
2.852261875000000e+10 -1.014671834193933e+00 -3.450517976571650e-03
2.856448750000000e+10 -1.014635703426788e+00 -3.412285280646170e-03
2.860635625000000e+10 -1.013549384990693e+00 -2.133298053084976e-03
2.864822500000000e+10 -1.011849718856705e+00 -1.821827520026226e-03
2.869009375000000e+10 -1.013669678382637e+00 -1.243031230360784e-03
2.873196250000000e+10 -1.014593492911218e+00 -3.570273894006238e-04
2.877383125000000e+10 -1.016211797567790e+00 -2.573865023986806e-04
2.881570000000000e+10 -1.015677373153927e+00 1.917220141061242e-03
2.885756875000000e+10 -1.014376392994142e+00 4.582815417504572e-03
2.889943750000000e+10 -1.015077048332341e+00 6.068024272782345e-03
2.894130625000000e+10 -1.014706961649132e+00 7.067437187315647e-03
2.898317500000000e+10 -1.012641814794161e+00 8.671186154150700e-03
2.902504375000000e+10 -1.010908163085033e+00 1.020084678748779e-02
2.906691250000000e+10 -1.009365905155304e+00 1.014740822381933e-02
2.910878125000000e+10 -1.007356793891708e+00 9.105290809995547e-03
2.915065000000000e+10 -1.006584044866088e+00 8.492260105554121e-03
2.919251875000000e+10 -1.007786770830546e+00 8.710780826999635e-03
2.923438750000000e+10 -1.007998371713531e+00 8.595848423913229e-03
2.927625625000000e+10 -1.006015726287712e+00 9.705131191615118e-03
2.931812500000000e+10 -1.006539139358153e+00 9.196059859880798e-03
2.935999375000000e+10 -1.004581306836140e+00 9.538380995669459e-03
2.940186250000000e+10 -1.001495807242726e+00 7.823267451579723e-03
2.944373125000000e+10 -1.000769995057316e+00 8.764890067690280e-03
2.948560000000000e+10 -9.993707400542269e-01 7.533352351073070e-03
2.952746875000000e+10 -1.000005338489499e+00 5.118967668980343e-03
2.956933750000000e+10 -9.994720024961185e-01 3.363463643361120e-03
2.961120625000000e+10 -9.984005046792740e-01 1.275771280168172e-03
2.965307500000000e+10 -9.989279000701604e-01 1.002540842800214e-03
2.969494375000000e+10 -9.989918688367706e-01 -1.117009694699678e-03
2.973681250000000e+10 -9.984233397548805e-01 -1.979137765580865e-03
2.977868125000000e+10 -9.968234572407095e-01 -2.666467339737567e-03
2.982055000000000e+10 -1.000111276538135e+00 -3.968016149587485e-03
2.986241875000000e+10 -9.982191933907387e-01 -4.924324728516840e-03
2.990428750000000e+10 -9.976726481303964e-01 -6.209601498101612e-03
2.994615625000000e+10 -1.000535415787883e+00 -6.080904719091424e-03
2.998802500000000e+10 -1.002582102460408e+00 -6.669640493926291e-03
3.002989375000000e+10 -1.003501578443534e+00 -4.767237724155777e-03
3.007176250000000e+10 -1.001658042116636e+00 -4.876507328285502e-03
3.011363125000000e+10 -1.000371790715721e+00 -4.732357911480352e-03
3.015550000000000e+10 -1.000421818921247e+00 -2.627648243477750e-03
3.019736875000000e+10 -1.002347015495529e+00 -3.772794892006311e-03
3.023923750000000e+10 -1.003571552300662e+00 -3.471785362598524e-03
3.028110625000000e+10 -1.003836007388402e+00 -4.943370293121379e-03
3.032297500000000e+10 -1.002088479367710e+00 -5.504978900498795e-03
3.036484375000000e+10 -1.001438277474814e+00 -7.165409583665300e-03
3.040671250000000e+10 -1.001622546854293e+00 -7.195379249337858e-03
3.044858125000000e+10 -1.002448252087415e+00 -7.464096279326780e-03
3.049045000000000e+10 -1.003039692826939e+00 -8.833862948572658e-03
3.053231875000000e+10 -1.003159049971831e+00 -8.900068894250742e-03
3.057418750000000e+10 -1.001099818677373e+00 -9.067436840357242e-03
3.061605625000000e+10 -1.002243471150338e+00 -9.514226952817433e-03
3.065792500000000e+10 -1.002788431634031e+00 -9.453343723148299e-03
3.069979375000000e+10 -1.002270848260997e+00 -8.412762910202307e-03
3.074166250000000e+10 -1.002345667478711e+00 -6.735451853511589e-03
3.078353125000000e+10 -1.002064253253623e+00 -1.056080525316447e-02
3.082540000000000e+10 -1.002552128462673e+00 -8.268197243691577e-03
3.086726875000000e+10 -1.003320835176627e+00 -1.018639506052510e-02
3.090913750000000e+10 -1.003862317491882e+00 -7.403383627496938e-03
3.095100625000000e+10 -1.003859850729182e+00 -6.991354382878804e-03
3.099287500000000e+10 -1.005757919051805e+00 -7.367824476521670e-03
3.103474375000000e+10 -1.005694104352010e+00 -8.348513109586850e-03
3.107661250000000e+10 -1.004769683964539e+00 -7.772609229555252e-03
3.111848125000000e+10 -1.004962087589033e+00 -5.686753013363051e-03
3.116035000000000e+10 -1.002913338926940e+00 -5.043572727876992e-03
3.120221875000000e+10 -1.003891704878933e+00 -5.185248532815285e-03
3.124408750000000e+10 -1.002220208372188e+00 -5.185659699353799e-03
3.128595625000000e+10 -1.000750210547051e+00 -5.826540488383495e-03
3.132782500000000e+10 -1.002159072873781e+00 -6.560028034681172e-03
3.136969375000000e+10 -1.002098466640979e+00 -7.519844621793487e-03
3.141156250000000e+10 -1.002927925374807e+00 -7.026564303167889e-03
3.145343125000000e+10 -1.003352535667286e+00 -7.598672148236818e-03
3.149530000000000e+10 -1.000420309802222e+00 -8.056402563410487e-03
3.153716875000000e+10 -1.001882830397053e+00 -7.706875405720189e-03
3.157903750000000e+10 -1.002737722284729e+00 -9.176660478167087e-03
3.162090625000000e+10 -1.002391579118161e+00 -9.859528435115096e-03
3.166277500000000e+10 -1.002617022582390e+00 -9.464331499934801e-03
3.170464375000000e+10 -1.003266179024027e+00 -1.002237990389056e-02
3.174651250000000e+10 -1.001521551846026e+00 -9.680317873815302e-03
3.178838125000000e+10 -1.000170295398194e+00 -1.265347570729138e-02
3.183025000000000e+10 -1.001022677055344e+00 -1.211545136574152e-02
3.187211875000000e+10 -1.003661684135793e+00 -1.342177536991228e-02
3.191398750000000e+10 -1.005349396884786e+00 -1.461449804544692e-02
3.195585625000000e+10 -1.005258087301820e+00 -1.439935003167131e-02
3.199772500000000e+10 -1.006378716514350e+00 -1.497608570162151e-02
3.203959375000000e+10 -1.005908473899602e+00 -1.570920548618230e-02
3.208146250000000e+10 -1.005464658768543e+00 -1.698431569725185e-02
3.212333125000000e+10 -1.007895769936265e+00 -1.632557707128744e-02
3.216520000000000e+10 -1.008210156565128e+00 -1.739799262460848e-02
3.220706875000000e+10 -1.009291451143477e+00 -1.551911342132378e-02
3.224893750000000e+10 -1.011564847368150e+00 -1.580160079077680e-02
3.229080625000000e+10 -1.011414690321629e+00 -1.531190929777159e-02
3.233267500000000e+10 -1.011348759898771e+00 -1.404028809196593e-02
3.237454375000000e+10 -1.009910612230241e+00 -1.379938293770419e-02
3.241641250000000e+10 -1.010586702767235e+00 -1.121244235493101e-02
3.245828125000000e+10 -1.009357846825487e+00 -1.035113664057137e-02
3.250015000000000e+10 -1.011834418687729e+00 -7.847004580842138e-03
3.254201875000000e+10 -1.010221105551398e+00 -8.057774059135402e-03
3.258388750000000e+10 -1.010816642096250e+00 -7.943704968291445e-03
3.262575625000000e+10 -1.011641960469259e+00 -7.572578397156514e-03
3.266762500000000e+10 -1.011634406390010e+00 -6.859228087618464e-03
3.270949375000000e+10 -1.012484655890752e+00 -7.216669949789936e-03
3.275136250000000e+10 -1.010663775276835e+00 -7.172023313284312e-03
3.279323125000000e+10 -1.008331775758879e+00 -6.477566232160015e-03
3.283510000000000e+10 -1.010148030830440e+00 -5.484051619200163e-03
3.287696875000000e+10 -1.008096659656305e+00 -4.726453809024177e-03
3.291883750000000e+10 -1.006254829546428e+00 -2.613216879441044e-03
3.296070625000000e+10 -1.005208971997097e+00 -3.182107052496257e-03
3.300257500000000e+10 -1.003474772909740e+00 -4.179406232129303e-03
3.304444375000000e+10 -1.003972293042451e+00 -5.884002014322992e-03
3.308631250000000e+10 -1.001259075652240e+00 -6.748043777016719e-03
3.312818125000000e+10 -1.002800068955219e+00 -7.214309274313837e-03
3.317005000000000e+10 -1.002322041571273e+00 -8.815278964735633e-03
3.321191875000000e+10 -1.006208307032592e+00 -7.997009715745138e-03
3.325378750000000e+10 -1.007120008308083e+00 -9.002183005520725e-03
3.329565625000000e+10 -1.004777647307610e+00 -8.273748466192412e-03
3.333752500000000e+10 -1.005054650988241e+00 -7.966576112143077e-03
3.337939375000000e+10 -1.005409351281437e+00 -7.927551252964359e-03
3.342126250000000e+10 -1.005105763222368e+00 -7.231740058054056e-03
3.346313125000000e+10 -1.005841528525237e+00 -7.806133844214018e-03
3.350500000000000e+10 -1.006241941472584e+00 -9.383222868902728e-03
3.354686875000000e+10 -1.007535568382084e+00 -7.925864296132033e-03
3.358873750000000e+10 -1.007255738484753e+00 -8.771894605006806e-03
3.363060625000000e+10 -1.010115256100274e+00 -7.313876009946075e-03
3.367247500000000e+10 -1.009551918468860e+00 -6.535061882538809e-03
3.371434375000000e+10 -1.009543729762692e+00 -6.900291651593398e-03
3.375621250000000e+10 -1.005903957364167e+00 -5.587565434759896e-03
3.379808125000000e+10 -1.004713528739167e+00 -8.506283529270055e-03
3.383995000000000e+10 -1.004456211078619e+00 -8.502500596431409e-03
3.388181875000000e+10 -1.003397390609722e+00 -1.078396193726151e-02
3.392368750000000e+10 -1.003386670051190e+00 -1.054720174245829e-02
3.396555625000000e+10 -1.002272350100713e+00 -1.157271467219579e-02
3.400742500000000e+10 -1.003612988943682e+00 -1.297451427833399e-02
3.404929375000000e+10 -1.006773498054949e+00 -1.125262041836596e-02
3.409116250000000e+10 -1.006608747316035e+00 -1.388962234497184e-02
3.413303125000000e+10 -1.005122737305056e+00 -1.377780557509428e-02
3.417490000000000e+10 -1.006298997036554e+00 -1.545214291258285e-02
3.421676875000000e+10 -1.007393228401349e+00 -1.581851405183317e-02
3.425863750000000e+10 -1.008373037514693e+00 -1.639071881296663e-02
3.430050625000000e+10 -1.011825189123589e+00 -1.606908235304526e-02
3.434237500000000e+10 -1.010966436943547e+00 -1.477782684340059e-02
3.438424375000000e+10 -1.010402144347218e+00 -1.711393425010906e-02
3.442611250000000e+10 -1.010448184183604e+00 -1.372623004093921e-02
3.446798125000000e+10 -1.011873254372588e+00 -1.550939695794516e-02
3.450985000000000e+10 -1.012545591163304e+00 -1.364833785052140e-02
3.455171875000000e+10 -1.011258796383278e+00 -1.126978165692560e-02
3.459358750000000e+10 -1.013513770259159e+00 -1.163417842460616e-02
3.463545625000000e+10 -1.013124252362133e+00 -7.794956655805081e-03
3.467732500000000e+10 -1.013775321810096e+00 -9.972507281218504e-03
3.471919375000000e+10 -1.012577610877615e+00 -6.323301114823150e-03
3.476106250000000e+10 -1.011130139520343e+00 -8.695821089489023e-03
3.480293125000000e+10 -1.011206426811293e+00 -7.005179810090994e-03
3.484480000000000e+10 -1.010243181435565e+00 -7.997929768451270e-03
3.488666875000000e+10 -1.011967554983193e+00 -6.528802007238025e-03
3.492853750000000e+10 -1.010362024749978e+00 -3.378241824633780e-03
3.497040625000000e+10 -1.010046479440547e+00 -5.355347780936677e-03
3.501227500000000e+10 -1.006851387537508e+00 -2.158464572397888e-03
3.505414375000000e+10 -1.006782387699454e+00 -4.028029473524083e-03
3.509601250000000e+10 -1.006728414587120e+00 -4.826171070242221e-03
3.513788125000000e+10 -1.004957821454154e+00 -5.531726484402488e-03
3.517975000000000e+10 -1.005949643161783e+00 -5.185266222985384e-03
3.522161875000000e+10 -1.005895257144506e+00 -5.822237530631504e-03
3.526348750000000e+10 -1.006926089750853e+00 -7.092759243800372e-03
3.530535625000000e+10 -1.005471882637019e+00 -5.489105894634827e-03
3.534722500000000e+10 -1.005364742812809e+00 -7.757359067048564e-03
3.538909375000000e+10 -1.005384499801265e+00 -7.422384172846430e-03
3.543096250000000e+10 -1.002839410816001e+00 -8.654483114774032e-03
3.547283125000000e+10 -1.005763639672605e+00 -9.564225322545986e-03
3.551470000000000e+10 -1.004894356726669e+00 -9.442005807957430e-03
3.555656875000000e+10 -1.007475512357118e+00 -9.880697640953845e-03
3.559843750000000e+10 -1.005042987905217e+00 -9.262539844476666e-03
3.564030625000000e+10 -1.004059204947034e+00 -1.050298817557036e-02
3.568217500000000e+10 -1.004477746380205e+00 -9.147824325421662e-03
3.572404375000000e+10 -1.004640155113504e+00 -1.162499269191639e-02
3.576591250000000e+10 -1.006102567111318e+00 -1.287293751901092e-02
3.580778125000000e+10 -1.006695815307951e+00 -1.276315428585641e-02
3.584965000000000e+10 -1.006353702673409e+00 -1.335500811776778e-02
3.589151875000000e+10 -1.005688119979801e+00 -1.273688620606890e-02
3.593338750000000e+10 -1.004888934391593e+00 -1.339854264000214e-02
3.597525625000000e+10 -1.003531540674951e+00 -1.267962430648152e-02
3.601712500000000e+10 -1.006051084733412e+00 -1.348791421218636e-02
3.605899375000000e+10 -1.005240316791215e+00 -1.409697657851814e-02
3.610086250000000e+10 -1.006909011059373e+00 -1.449981122498314e-02
3.614273125000000e+10 -1.005787931974165e+00 -1.441807957870361e-02
3.618460000000000e+10 -1.006085956673922e+00 -1.482859797378279e-02
3.622646875000000e+10 -1.006682543228900e+00 -1.693096322360508e-02
3.626833750000000e+10 -1.006292665554773e+00 -1.719132564823246e-02
3.631020625000000e+10 -1.008295912447871e+00 -1.787618594886104e-02
3.635207500000000e+10 -1.008907400792888e+00 -1.696715795870941e-02
3.639394375000000e+10 -1.007882787244902e+00 -1.737250955003946e-02
3.643581250000000e+10 -1.006985742262186e+00 -1.603965306696559e-02
3.647768125000000e+10 -1.005619777385424e+00 -1.633853391796258e-02
3.651955000000000e+10 -1.006867589950765e+00 -1.604438376085707e-02
3.656141875000000e+10 -1.005224494072556e+00 -1.794401814294767e-02
3.660328750000000e+10 -1.007066841030571e+00 -1.641759051515391e-02
3.664515625000000e+10 -1.007796810367941e+00 -1.610328340839679e-02
3.668702500000000e+10 -1.009239792422777e+00 -1.654256631555603e-02
3.672889375000000e+10 -1.010702189956404e+00 -1.491046988434441e-02
3.677076250000000e+10 -1.011908574842232e+00 -1.466936631127869e-02
3.681263125000000e+10 -1.011532086467053e+00 -1.471846318134882e-02
3.685450000000000e+10 -1.010501485093708e+00 -1.538742060201525e-02
3.689636875000000e+10 -1.011853882166699e+00 -1.259033486126028e-02
3.693823750000000e+10 -1.010810552932524e+00 -1.432017253095506e-02
3.698010625000000e+10 -1.011735765455548e+00 -1.200274041716886e-02
3.702197500000000e+10 -1.014158724905518e+00 -1.032512514610718e-02
3.706384375000000e+10 -1.013225573474667e+00 -1.112915302687519e-02
3.710571250000000e+10 -1.012537418872872e+00 -9.470168244504709e-03
3.714758125000000e+10 -1.011469227873578e+00 -1.103154622122695e-02
3.718945000000000e+10 -1.011528931811313e+00 -8.256080337984393e-03
3.723131875000000e+10 -1.011983124998911e+00 -9.282538537318565e-03
3.727318750000000e+10 -1.011710206316289e+00 -9.697417361337642e-03
3.731505625000000e+10 -1.010518077496144e+00 -7.810847026274021e-03
3.735692500000000e+10 -1.010329488387737e+00 -9.815604845231866e-03
3.739879375000000e+10 -1.007640060311730e+00 -1.011937456668815e-02
3.744066250000000e+10 -1.005586117530301e+00 -1.129717862121381e-02
3.748253125000000e+10 -1.005972530282593e+00 -1.172941172525481e-02
3.752440000000000e+10 -1.006878295307216e+00 -1.313753782972711e-02
3.756626875000000e+10 -1.007593378316343e+00 -1.413408753980472e-02
3.760813750000000e+10 -1.005984634445865e+00 -1.421335110946670e-02
3.765000625000000e+10 -1.005976730132576e+00 -1.483308474126560e-02
3.769187500000000e+10 -1.006553539549257e+00 -1.431104886823297e-02
3.773374375000000e+10 -1.001729580078984e+00 -1.602757561447985e-02
3.777561250000000e+10 -1.002641207996807e+00 -1.687809982960329e-02
3.781748125000000e+10 -1.004629416210058e+00 -1.888402511059529e-02
3.785935000000000e+10 -1.004056455082996e+00 -2.055624938646300e-02
3.790121875000000e+10 -1.004804896480473e+00 -2.176844098980194e-02
3.794308750000000e+10 -1.005005857490906e+00 -2.377419892091364e-02
3.798495625000000e+10 -1.006900582610111e+00 -2.322504241439656e-02
3.802682500000000e+10 -1.006069309384191e+00 -2.360428022502505e-02
3.806869375000000e+10 -1.006568937653203e+00 -2.659103135110913e-02
3.811056250000000e+10 -1.005225083851458e+00 -2.425581565351538e-02
3.815243125000000e+10 -1.004779675160449e+00 -2.586220258980768e-02
3.819430000000000e+10 -1.005872944813077e+00 -2.430648827245618e-02
3.823616875000000e+10 -1.007456121581652e+00 -2.676325956693864e-02
3.827803750000000e+10 -1.008023248734585e+00 -3.085947027973880e-02
3.831990625000000e+10 -1.006923137308633e+00 -2.955395910983751e-02
3.836177500000000e+10 -1.007630814433458e+00 -3.145883522809010e-02
3.840364375000000e+10 -1.007860015788644e+00 -3.176127485372502e-02
3.844551250000000e+10 -1.008511476769346e+00 -3.216842521512182e-02
3.848738125000000e+10 -1.009402501942785e+00 -3.199806689857252e-02
3.852925000000000e+10 -1.010468038365032e+00 -3.351039784130969e-02
3.857111875000000e+10 -1.008333283092045e+00 -3.306363840886386e-02
3.861298750000000e+10 -1.007509879166913e+00 -3.234236521641237e-02
3.865485625000000e+10 -1.006240037048507e+00 -3.485779180535716e-02
3.869672500000000e+10 -1.009264173853326e+00 -3.311530120354305e-02
3.873859375000000e+10 -1.008676130600850e+00 -3.567732785712043e-02
3.878046250000000e+10 -1.009879905159616e+00 -3.259798948205893e-02
3.882233125000000e+10 -1.007675955560704e+00 -3.451234176811476e-02
3.886420000000000e+10 -1.010333949700734e+00 -3.226633947844926e-02
3.890606875000000e+10 -1.010190894318516e+00 -3.216877939477945e-02
3.894793750000000e+10 -1.008577590719234e+00 -3.278311466464638e-02
3.898980625000000e+10 -1.007893056978288e+00 -3.098211608234145e-02
3.903167500000000e+10 -1.005730684412248e+00 -3.101447914548575e-02
3.907354375000000e+10 -1.009693895355393e+00 -3.224819784885330e-02
3.911541250000000e+10 -1.009558814619552e+00 -3.348100122926521e-02
3.915728125000000e+10 -1.010889468022577e+00 -3.240201891332432e-02
3.919915000000000e+10 -1.009818986990761e+00 -3.054117178336887e-02
3.924101875000000e+10 -1.010699999713003e+00 -3.342541897048860e-02
3.928288750000000e+10 -1.009753807317681e+00 -2.992433414038386e-02
3.932475625000000e+10 -1.010735146660912e+00 -3.349339978323086e-02
3.936662500000000e+10 -1.011471701879288e+00 -2.943959858728465e-02
3.940849375000000e+10 -1.012840310420664e+00 -3.103343480367469e-02
3.945036250000000e+10 -1.011920633637451e+00 -3.129747304860102e-02
3.949223125000000e+10 -1.010443010839982e+00 -3.149850909020816e-02
3.953410000000000e+10 -1.010576764240231e+00 -3.242176034577755e-02
3.957596875000000e+10 -1.008652820978314e+00 -2.988881462069486e-02
3.961783750000000e+10 -1.006549831696952e+00 -3.047383507696449e-02
3.965970625000000e+10 -1.011896075719833e+00 -2.817623262578352e-02
3.970157500000000e+10 -1.009430858403819e+00 -2.911439901100311e-02
3.974344375000000e+10 -1.010028005374729e+00 -2.905893781044637e-02
3.978531250000000e+10 -1.008792387273718e+00 -2.837145770123938e-02
3.982718125000000e+10 -1.007168307959285e+00 -2.990358883093269e-02
3.986905000000000e+10 -1.006804476151394e+00 -2.938689338082769e-02
3.991091875000000e+10 -1.008410360517374e+00 -3.185115312530020e-02
3.995278750000000e+10 -1.008990326677135e+00 -3.142134874677519e-02
3.999465625000000e+10 -1.007448412646926e+00 -3.088268993224196e-02
4.003652500000000e+10 -1.007341879543559e+00 -3.267703443227186e-02
4.007839375000000e+10 -1.006589312874748e+00 -3.209158040172223e-02
4.012026250000000e+10 -1.006959248278338e+00 -3.444259595975177e-02
4.016213125000000e+10 -1.009409975494812e+00 -3.291328920886179e-02
4.020400000000000e+10 -1.008546223625381e+00 -3.587421110273063e-02
4.024586875000000e+10 -1.008578951301293e+00 -3.475647687490069e-02
4.028773750000000e+10 -1.009156386437323e+00 -3.401494418927992e-02
4.032960625000000e+10 -1.009594017046522e+00 -3.412542446993790e-02
4.037147500000000e+10 -1.010036798169439e+00 -3.455226509824339e-02
4.041334375000000e+10 -1.008579677081170e+00 -3.602002549711381e-02
4.045521250000000e+10 -1.009029781909636e+00 -3.366645441991617e-02
4.049708125000000e+10 -1.010838491036823e+00 -3.434158563254874e-02
4.053895000000000e+10 -1.010704196243603e+00 -3.441968674789088e-02
4.058081875000000e+10 -1.011795065405905e+00 -3.351973727980607e-02
4.062268750000000e+10 -1.011689904495632e+00 -3.474748483269519e-02
4.066455625000000e+10 -1.013110279293924e+00 -3.502351118487695e-02
4.070642500000000e+10 -1.011194346997972e+00 -3.745649421481886e-02
4.074829375000000e+10 -1.010837524078344e+00 -3.461307146944322e-02
4.079016250000000e+10 -1.011196355586190e+00 -3.452223108315876e-02
4.083203125000000e+10 -1.011272647797681e+00 -3.338528027236701e-02
4.087390000000000e+10 -1.011926410705030e+00 -3.127287092347144e-02
4.091576875000000e+10 -1.010056968575870e+00 -3.099469627001072e-02
4.095763750000000e+10 -1.012356636947852e+00 -2.922395833194754e-02
4.099950625000000e+10 -1.010463744012317e+00 -3.068935214948282e-02
4.104137500000000e+10 -1.010542713890902e+00 -3.196843957248858e-02
4.108324375000000e+10 -1.010715690187343e+00 -3.140725076358865e-02
4.112511250000000e+10 -1.010663148004556e+00 -3.055174455085717e-02
4.116698125000000e+10 -1.012052407327622e+00 -3.059622240395114e-02
4.120885000000000e+10 -1.009555587989718e+00 -3.178160076088332e-02
4.125071875000000e+10 -1.009186376188321e+00 -3.123871970998872e-02
4.129258750000000e+10 -1.008876249573534e+00 -3.227591979751641e-02
4.133445625000000e+10 -1.010176141130303e+00 -3.197110694726901e-02
4.137632500000000e+10 -1.011013497471239e+00 -2.890906699351696e-02
4.141819375000000e+10 -1.009016933433148e+00 -3.074746958123865e-02
4.146006250000000e+10 -1.011712914239350e+00 -2.639328379248681e-02
4.150193125000000e+10 -1.012377827813463e+00 -2.721416409448740e-02
4.154380000000000e+10 -1.013575796992303e+00 -2.632506737132309e-02
4.158566875000000e+10 -1.011883538234468e+00 -2.656165135733754e-02
4.162753750000000e+10 -1.011363409038944e+00 -2.661057046319802e-02
4.166940625000000e+10 -1.011562731288103e+00 -2.493111398612087e-02
4.171127500000000e+10 -1.009584948750217e+00 -2.636536160173287e-02
4.175314375000000e+10 -1.010381669628736e+00 -2.505331092157960e-02
4.179501250000000e+10 -1.008263124425274e+00 -2.562451543439849e-02
4.183688125000000e+10 -1.009685462572787e+00 -2.767504963348549e-02
4.187875000000000e+10 -1.009220963798967e+00 -2.505487956205520e-02
4.192061875000000e+10 -1.007365529631561e+00 -2.537195957466506e-02
4.196248750000000e+10 -1.008276191205450e+00 -2.232057852194076e-02
4.200435625000000e+10 -1.006682824947585e+00 -2.531592128440298e-02
4.204622500000000e+10 -1.009842903624664e+00 -2.145019811633237e-02
4.208809375000000e+10 -1.006993267348936e+00 -2.470118221236182e-02
4.212996250000000e+10 -1.009796257401156e+00 -2.437171831361631e-02
4.217183125000000e+10 -1.009073129490905e+00 -2.232413540841503e-02
4.221370000000000e+10 -1.008612855608875e+00 -2.526240979172722e-02
4.225556875000000e+10 -1.009733548139836e+00 -2.314925117132880e-02
4.229743750000000e+10 -1.008340363326524e+00 -2.447495086307611e-02
4.233930625000000e+10 -1.009836917828508e+00 -2.194640534010681e-02
4.238117500000000e+10 -1.012186790782936e+00 -2.300816191102875e-02
4.242304375000000e+10 -1.013458505901046e+00 -1.415468395937037e-02
4.246491250000000e+10 -1.006852069847793e+00 -1.546855584123041e-02
4.250678125000000e+10 -1.008705806934938e+00 -1.790074642295111e-02
4.254865000000000e+10 -1.008162286594038e+00 -2.763971626126616e-02
4.259051875000000e+10 -1.001914912715710e+00 -2.223748181503609e-02
4.263238750000000e+10 -1.001093528012585e+00 -1.998232394144881e-02
4.267425625000000e+10 -1.002249274632755e+00 -1.965523260382369e-02
4.271612500000000e+10 -1.001745678844941e+00 -2.165289129455669e-02
4.275799375000000e+10 -1.001314093136804e+00 -2.154906667869302e-02
4.279986250000000e+10 -1.002743341884375e+00 -2.192717310130581e-02
4.284173125000000e+10 -1.002146149313285e+00 -2.147373022997067e-02
4.288360000000000e+10 -1.003556842370439e+00 -2.208444727914864e-02
4.292546875000000e+10 -1.003917185243185e+00 -2.110306967253996e-02
4.296733750000000e+10 -1.004094589389304e+00 -2.168825588489354e-02
4.300920625000000e+10 -1.004691346950651e+00 -2.042949280680169e-02
4.305107500000000e+10 -1.005254428030181e+00 -2.049787331141171e-02
4.309294375000000e+10 -1.005259053585359e+00 -2.084413224781550e-02
4.313481250000000e+10 -1.003442295364400e+00 -2.101351234921965e-02
4.317668125000000e+10 -1.003891760745649e+00 -1.879859497360122e-02
4.321855000000000e+10 -1.004718820700653e+00 -2.005919537782055e-02
4.326041875000000e+10 -1.004397046123682e+00 -1.933373826790141e-02
4.330228750000000e+10 -1.004036569812221e+00 -1.977558153441928e-02
4.334415625000000e+10 -1.004590428036791e+00 -1.846437124552874e-02
4.338602500000000e+10 -1.004989293081539e+00 -1.965801743967394e-02
4.342789375000000e+10 -1.003441798876867e+00 -1.834258478876380e-02
4.346976250000000e+10 -1.003876607965861e+00 -1.805361858328378e-02
4.351163125000000e+10 -1.004081304981223e+00 -1.922170662675168e-02
4.355350000000000e+10 -1.004615370123253e+00 -2.032406128773122e-02
4.359536875000000e+10 -1.001224066442610e+00 -2.048719500021474e-02
4.363723750000000e+10 -1.004509789371119e+00 -2.047768579667536e-02
4.367910625000000e+10 -1.003267380206932e+00 -2.001954449919717e-02
4.372097500000000e+10 -1.004243581864914e+00 -1.992367926529982e-02
4.376284375000000e+10 -1.001671960083240e+00 -1.831075682333962e-02
4.380471250000000e+10 -1.001789949394552e+00 -2.052476539655267e-02
4.384658125000000e+10 -1.002999109157510e+00 -2.133645168408166e-02
4.388845000000000e+10 -1.000608819526289e+00 -2.093513575942051e-02
4.393031875000000e+10 -1.003112238132057e+00 -2.043537300643302e-02
4.397218750000000e+10 -1.000822859496640e+00 -2.034382215531146e-02
4.401405625000000e+10 -1.001502207955046e+00 -2.083398711814096e-02
4.405592500000000e+10 -1.003673411882339e+00 -2.076006966331829e-02
4.409779375000000e+10 -1.002061188414192e+00 -2.166346446791572e-02
4.413966250000000e+10 -1.001955929820632e+00 -2.030763151870741e-02
4.418153125000000e+10 -1.000477269224693e+00 -2.181330253561166e-02
4.422340000000000e+10 -1.003930157549022e+00 -2.189716757478425e-02
4.426526875000000e+10 -1.001890527413707e+00 -2.423859555266079e-02
4.430713750000000e+10 -1.002510126889620e+00 -2.350856715230019e-02
4.434900625000000e+10 -1.003268530238342e+00 -2.093518919622264e-02
4.439087500000000e+10 -1.001674952787352e+00 -2.275114210920676e-02
4.443274375000000e+10 -1.004219312684728e+00 -2.461747628196081e-02
4.447461250000000e+10 -1.000414065219402e+00 -2.455818068185590e-02
4.451648125000000e+10 -1.002904046218898e+00 -2.402542107180796e-02
4.455835000000000e+10 -1.000414660103579e+00 -2.259983191656288e-02
4.460021875000000e+10 -1.003173027848894e+00 -2.591843817951443e-02
4.464208750000000e+10 -1.001835532333259e+00 -2.274480121114769e-02
4.468395625000000e+10 -1.002094593847215e+00 -2.536791066997630e-02
4.472582500000000e+10 -1.003469286278174e+00 -2.271852346592922e-02
4.476769375000000e+10 -1.004720246730393e+00 -2.266046168977300e-02
4.480956250000000e+10 -1.006062999368506e+00 -2.365317915654315e-02
4.485143125000000e+10 -1.007109830306484e+00 -2.297675425041351e-02
4.489330000000000e+10 -1.007084918258085e+00 -2.265258610644211e-02
4.493516875000000e+10 -1.006136134317374e+00 -1.955413682551512e-02
4.497703750000000e+10 -1.003054062820263e+00 -2.136347121328503e-02
4.501890625000000e+10 -1.003031256601332e+00 -2.361471970310951e-02
4.506077500000000e+10 -1.004887470279211e+00 -2.402068898695336e-02
4.510264375000000e+10 -1.004638901888838e+00 -2.361393041837338e-02
4.514451250000000e+10 -1.004750302543242e+00 -2.329402021647724e-02
4.518638125000000e+10 -1.004297298172804e+00 -2.354039049552290e-02
4.522825000000000e+10 -1.007344472910882e+00 -2.004966166424589e-02
4.527011875000000e+10 -1.006169612500544e+00 -2.118839967944993e-02
4.531198750000000e+10 -1.006639673944854e+00 -2.205507578401304e-02
4.535385625000000e+10 -1.007182078584608e+00 -2.098733055548750e-02
4.539572500000000e+10 -1.006949091028144e+00 -2.064418061427543e-02
4.543759375000000e+10 -1.005580614091294e+00 -1.965730185639668e-02
4.547946250000000e+10 -1.004714917298997e+00 -2.166987573678650e-02
4.552133125000000e+10 -1.005810578920037e+00 -1.924634399741524e-02
4.556320000000000e+10 -1.004698447481247e+00 -2.109708943885908e-02
4.560506875000000e+10 -1.006390534080515e+00 -1.938691465991411e-02
4.564693750000000e+10 -1.005721985236784e+00 -1.910524183102246e-02
4.568880625000000e+10 -1.005635908709000e+00 -1.865986209594015e-02
4.573067500000000e+10 -1.006039140195942e+00 -1.939660632386328e-02
4.577254375000000e+10 -1.005083611457528e+00 -1.976865927779026e-02
4.581441250000000e+10 -1.005137341630136e+00 -1.802228820879036e-02
4.585628125000000e+10 -1.004905733022354e+00 -1.910631204122532e-02
4.589815000000000e+10 -1.004988505783886e+00 -2.074284685227457e-02
4.594001875000000e+10 -1.004714045112298e+00 -1.698553960392816e-02
4.598188750000000e+10 -1.005853572198733e+00 -1.757260693353632e-02
4.602375625000000e+10 -1.005288913752682e+00 -1.831560939724614e-02
4.606562500000000e+10 -1.003799360115117e+00 -1.858584621236568e-02
4.610749375000000e+10 -1.004220980495810e+00 -1.913461982828879e-02
4.614936250000000e+10 -1.003687777604349e+00 -1.957720276714234e-02
4.619123125000000e+10 -1.003924825100327e+00 -2.045336038264028e-02
4.623310000000000e+10 -1.005739421009327e+00 -2.018488231094500e-02
4.627496875000000e+10 -1.004767964964204e+00 -2.255295431078455e-02
4.631683750000000e+10 -1.004126562705560e+00 -2.174070999397572e-02
4.635870625000000e+10 -1.004165611280955e+00 -2.195961651541783e-02
4.640057500000000e+10 -1.003744523646678e+00 -2.107887418403353e-02
4.644244375000000e+10 -1.003496090089841e+00 -2.178813126275531e-02
4.648431250000000e+10 -1.004599392396001e+00 -1.992012906236774e-02
4.652618125000000e+10 -1.004532659636975e+00 -1.856936560796444e-02
4.656805000000000e+10 -1.003166039050576e+00 -2.081995402468817e-02
4.660991875000000e+10 -1.004310188256257e+00 -2.045619803825505e-02
4.665178750000000e+10 -1.004213924014236e+00 -2.037652480232407e-02
4.669365625000000e+10 -1.005527911077063e+00 -1.865499592039092e-02
4.673552500000000e+10 -1.002320685457898e+00 -1.943753769930169e-02
4.677739375000000e+10 -1.003042966576834e+00 -2.155675568868986e-02
4.681926250000000e+10 -1.003097576146403e+00 -1.944152236911116e-02
4.686113125000000e+10 -1.001808950077351e+00 -1.907024228915184e-02
4.690300000000000e+10 -1.002968535241423e+00 -1.959850982950848e-02
4.694486875000000e+10 -1.001460752210090e+00 -2.100478890894102e-02
4.698673750000000e+10 -1.003654743567232e+00 -1.945070445405920e-02
4.702860625000000e+10 -1.001216471511396e+00 -2.169323829388317e-02
4.707047500000000e+10 -1.001646091949725e+00 -2.004350482787438e-02
4.711234375000000e+10 -1.002129397242642e+00 -1.972354627465944e-02
4.715421250000000e+10 -1.003073621985649e+00 -2.115977458061392e-02
4.719608125000000e+10 -1.000899001308588e+00 -2.003856750791696e-02
4.723795000000000e+10 -1.001493682368263e+00 -2.098963086781066e-02
4.727981875000000e+10 -1.003724973459275e+00 -2.186916588659776e-02
4.732168750000000e+10 -1.003667430673830e+00 -2.271085622637852e-02
4.736355625000000e+10 -1.002186568077311e+00 -2.161845952652451e-02
4.740542500000000e+10 -1.000862723878605e+00 -2.127936267242047e-02
4.744729375000000e+10 -1.002958912355546e+00 -2.156675523642523e-02
4.748916250000000e+10 -1.001914969789700e+00 -2.005133593403170e-02
4.753103125000000e+10 -1.001247626768165e+00 -2.134323791070292e-02
4.757290000000000e+10 -1.001345606920220e+00 -2.036682720482009e-02
4.761476875000000e+10 -1.001543835649565e+00 -2.189471407503571e-02
4.765663750000000e+10 -1.000102844698407e+00 -2.080780616126562e-02
4.769850625000000e+10 -1.000784301382116e+00 -2.160875664102944e-02
4.774037500000000e+10 -1.002868968905999e+00 -2.221829730561894e-02
4.778224375000000e+10 -1.002618015555281e+00 -2.166501336807710e-02
4.782411250000000e+10 -1.001871724561906e+00 -2.314970483177341e-02
4.786598125000000e+10 -1.001803066330593e+00 -2.278107801455886e-02
4.790785000000000e+10 -1.001998177613196e+00 -2.314701777431361e-02
4.794971875000000e+10 -1.001896202491491e+00 -2.265206657145462e-02
4.799158750000000e+10 -1.001720855878700e+00 -2.319276445578210e-02
4.803345625000000e+10 -1.002643883404635e+00 -2.192952237881645e-02
4.807532500000000e+10 -1.001127110877619e+00 -2.286930989123342e-02
4.811719375000000e+10 -1.002184130638774e+00 -2.400040606536537e-02
4.815906250000000e+10 -1.000875243435624e+00 -2.375967815228199e-02
4.820093125000000e+10 -1.001102890518483e+00 -2.537605206004422e-02
4.824280000000000e+10 -1.001748907091711e+00 -2.535193905042698e-02
4.828466875000000e+10 -1.001083329133546e+00 -2.583971093838271e-02
4.832653750000000e+10 -1.002177536871365e+00 -2.585137946746118e-02
4.836840625000000e+10 -9.995448314425027e-01 -2.647659422940569e-02
4.841027500000000e+10 -1.001704448256656e+00 -2.762478178022078e-02
4.845214375000000e+10 -1.001869955644477e+00 -2.667187001540362e-02
4.849401250000000e+10 -1.002039847441874e+00 -2.821850713257483e-02
4.853588125000000e+10 -1.002913861783949e+00 -2.793868858722823e-02
4.857775000000000e+10 -1.001703450363467e+00 -2.855296619287247e-02
4.861961875000000e+10 -1.003228503048162e+00 -2.720814905790593e-02
4.866148750000000e+10 -1.002862782383110e+00 -2.963932260955410e-02
4.870335625000000e+10 -1.005102064221590e+00 -2.659252681183238e-02
4.874522500000000e+10 -1.002478694556447e+00 -2.707395141067903e-02
4.878709375000000e+10 -1.004140981481669e+00 -2.791955755199289e-02
4.882896250000000e+10 -1.002707856694616e+00 -2.738388672335037e-02
4.887083125000000e+10 -1.002873901552362e+00 -2.973518026759133e-02
4.891270000000000e+10 -1.005111261686405e+00 -2.838326347044128e-02
4.895456875000000e+10 -1.002581898573450e+00 -2.926437921982353e-02
4.899643750000000e+10 -1.004818555828463e+00 -2.831012399759069e-02
4.903830625000000e+10 -1.002956739720174e+00 -2.948142222738065e-02
4.908017500000000e+10 -1.003785846136187e+00 -3.011112961692397e-02
4.912204375000000e+10 -1.002896706943337e+00 -2.954649312730024e-02
4.916391250000000e+10 -1.003377977835637e+00 -2.986493336657011e-02
4.920578125000000e+10 -1.005077859931885e+00 -2.901370566867999e-02
4.924765000000000e+10 -1.003494500759486e+00 -3.214719397318624e-02
4.928951875000000e+10 -1.004823654686130e+00 -3.003737414852503e-02
4.933138750000000e+10 -1.003370137791039e+00 -3.085515072172337e-02
4.937325625000000e+10 -1.005213414777670e+00 -2.857205869336097e-02
4.941512500000000e+10 -1.004039092131477e+00 -2.936227034426998e-02
4.945699375000000e+10 -1.002254680664041e+00 -3.155437092636500e-02
4.949886250000000e+10 -1.003874297532520e+00 -2.963652521717057e-02
4.954073125000000e+10 -1.004846633751302e+00 -3.088678052820421e-02
4.958260000000000e+10 -1.004759697483376e+00 -2.969017664163139e-02
4.962446875000000e+10 -1.003838482494681e+00 -3.081053135179447e-02
4.966633750000000e+10 -1.006616109520462e+00 -3.007382910897633e-02
4.970820625000000e+10 -1.003726035343529e+00 -2.878626161561378e-02
4.975007500000000e+10 -1.003187248914415e+00 -2.814600832568200e-02
4.979194375000000e+10 -1.004884300579173e+00 -2.728392630640732e-02
4.983381250000000e+10 -1.003502508166512e+00 -3.028661850061076e-02
4.987568125000000e+10 -1.004106790944862e+00 -2.799792484848972e-02
4.991755000000000e+10 -1.001924847749307e+00 -2.866167294291219e-02
4.995941875000000e+10 -1.003114222524790e+00 -2.809726060512973e-02
5.000128750000000e+10 -1.003030149255370e+00 -2.756192238605244e-02
5.004315625000000e+10 -1.006158840821713e+00 -2.917048728806901e-02
5.008502500000000e+10 -1.007426341843281e+00 -2.640414391701810e-02
5.012689375000000e+10 -1.007946980950299e+00 -2.977853552854120e-02
5.016876250000000e+10 -1.007551553719406e+00 -2.689946843535797e-02
5.021063125000000e+10 -1.008143823266908e+00 -2.761494027173161e-02
5.025250000000000e+10 -1.005172637221252e+00 -2.567597024269981e-02
5.029436875000000e+10 -1.004378505280229e+00 -2.693696793152895e-02
5.033623750000000e+10 -1.004564116778326e+00 -2.602857245801829e-02
5.037810625000000e+10 -1.005782350746053e+00 -2.623380203228964e-02
5.041997500000000e+10 -1.006203685057879e+00 -2.576946018855485e-02
5.046184375000000e+10 -1.006699018916170e+00 -2.558626603678678e-02
5.050371250000000e+10 -1.005699571298973e+00 -2.773132986078179e-02
5.054558125000000e+10 -1.004893789895134e+00 -2.510441381330981e-02
5.058745000000000e+10 -1.004521346781052e+00 -2.502717244400279e-02
5.062931875000000e+10 -1.006608656725857e+00 -2.584286085358098e-02
5.067118750000000e+10 -1.006616404687401e+00 -2.495617582711607e-02
5.071305625000000e+10 -1.005568334661046e+00 -2.798751627660161e-02
5.075492500000000e+10 -1.006510877193822e+00 -2.575762476743893e-02
5.079679375000000e+10 -1.003947077064330e+00 -2.826598738429093e-02
5.083866250000000e+10 -1.004953926887107e+00 -2.541990491518042e-02
5.088053125000000e+10 -1.005943785283405e+00 -2.712817356222878e-02
5.092240000000000e+10 -1.007546994441831e+00 -2.698827659000345e-02
5.096426875000000e+10 -1.003595169611034e+00 -2.725686010651759e-02
5.100613750000000e+10 -1.004984331542926e+00 -2.670883611618885e-02
5.104800625000000e+10 -1.004772524261231e+00 -2.668331082269920e-02
5.108987500000000e+10 -1.006478573106955e+00 -2.829676451984477e-02
5.113174375000000e+10 -1.004952942665440e+00 -2.767775659545051e-02
5.117361250000000e+10 -1.004368580075627e+00 -2.837917737366373e-02
5.121548125000000e+10 -1.004629936308804e+00 -2.974215280691122e-02
5.125735000000000e+10 -1.005705076629521e+00 -2.903586685893471e-02
5.129921875000000e+10 -1.004501434412692e+00 -2.951521108827506e-02
5.134108750000000e+10 -1.006153942661066e+00 -2.846817931946288e-02
5.138295625000000e+10 -1.003952732529298e+00 -2.875023744075090e-02
5.142482500000000e+10 -1.004308854161838e+00 -2.999001737557852e-02
5.146669375000000e+10 -1.004090670139190e+00 -2.965430891074904e-02
5.150856250000000e+10 -1.005271479641034e+00 -3.069894895231140e-02
5.155043125000000e+10 -1.008080434248475e+00 -2.930563152348076e-02
5.159230000000000e+10 -1.008103567571065e+00 -3.203517052083238e-02
5.163416875000000e+10 -1.008488651655258e+00 -2.883459415049702e-02
5.167603750000000e+10 -1.008348247536615e+00 -2.681072784356163e-02
5.171790625000000e+10 -1.008781324590287e+00 -2.792475015480735e-02
5.175977500000000e+10 -1.007435065034196e+00 -2.585804757087508e-02
5.180164375000000e+10 -1.009324959949521e+00 -2.834234325518607e-02
5.184351250000000e+10 -1.008939457113214e+00 -2.542855916457541e-02
5.188538125000000e+10 -1.008978893555034e+00 -2.797761079760734e-02
5.192725000000000e+10 -1.009455156246224e+00 -2.659265597150899e-02
5.196911875000000e+10 -1.008735970826964e+00 -2.579164735527878e-02
5.201098750000000e+10 -1.008988880788447e+00 -2.423002030889913e-02
5.205285625000000e+10 -1.007685784744610e+00 -2.485312051621841e-02
5.209472500000000e+10 -1.006790111768702e+00 -2.499147764090125e-02
5.213659375000000e+10 -1.006054254623408e+00 -2.430790067686933e-02
5.217846250000000e+10 -1.005017133543496e+00 -2.487288607135393e-02
5.222033125000000e+10 -1.007637228306305e+00 -2.491763762406049e-02
5.226220000000000e+10 -1.006670858988742e+00 -2.387907844071870e-02
5.230406875000000e+10 -1.010278285630289e+00 -2.490005684842198e-02
5.234593750000000e+10 -1.007085860626237e+00 -2.488938160416279e-02
5.238780625000000e+10 -1.007525389903702e+00 -2.528419612553531e-02
5.242967500000000e+10 -1.008889336650131e+00 -2.146101964521061e-02
5.247154375000000e+10 -1.008910648866039e+00 -2.469236591058729e-02
5.251341250000000e+10 -1.006289966806202e+00 -2.017766850281385e-02
5.255528125000000e+10 -1.004564847666434e+00 -2.211215887619463e-02
5.259715000000000e+10 -1.007736559318644e+00 -2.116430792124213e-02
5.263901875000000e+10 -1.006311037050622e+00 -2.114890597627972e-02
5.268088750000000e+10 -1.006713911820744e+00 -2.153974958703929e-02
5.272275625000000e+10 -1.005227400412373e+00 -2.021616894846348e-02
5.276462500000000e+10 -1.006287813156491e+00 -2.172224702129991e-02
5.280649375000000e+10 -1.008667177138248e+00 -2.052892291363752e-02
5.284836250000000e+10 -1.006438619809087e+00 -2.121260001133790e-02
5.289023125000000e+10 -1.009052794055729e+00 -2.013181306232406e-02
5.293210000000000e+10 -1.007374793946990e+00 -2.052018836444211e-02
5.297396875000000e+10 -1.006714636029525e+00 -2.168274762298667e-02
5.301583750000000e+10 -1.004820500228038e+00 -1.905348698442077e-02
5.305770625000000e+10 -1.005032078098119e+00 -2.194663229507764e-02
5.309957500000000e+10 -1.004453101309619e+00 -2.000078686964499e-02
5.314144375000000e+10 -1.003973854006062e+00 -2.238996835574086e-02
5.318331250000000e+10 -1.002741385247057e+00 -2.104198777105861e-02
5.322518125000000e+10 -1.003404022211844e+00 -2.066610824288925e-02
5.326705000000000e+10 -1.002368435000710e+00 -2.278368514948314e-02
5.330891875000000e+10 -1.002238695199882e+00 -2.319079383197622e-02
5.335078750000000e+10 -1.003991179095623e+00 -2.500662136850163e-02
5.339265625000000e+10 -1.004732224204704e+00 -2.449202967498864e-02
5.343452500000000e+10 -1.005790638221101e+00 -2.477490913488213e-02
5.347639375000000e+10 -1.006720859525075e+00 -2.385775581489567e-02
5.351826250000000e+10 -1.005162705966836e+00 -2.370611380060736e-02
5.356013125000000e+10 -1.004140472743664e+00 -2.333678875974618e-02
5.360200000000000e+10 -1.005512971028002e+00 -2.264326902001685e-02
5.364386875000000e+10 -1.006817756476534e+00 -2.478480189329953e-02
5.368573750000000e+10 -1.005772527030913e+00 -2.315649905008692e-02
5.372760625000000e+10 -1.003591609587418e+00 -2.467859446039755e-02
5.376947500000000e+10 -1.004535632049533e+00 -2.333263668048992e-02
5.381134375000000e+10 -1.002982734088197e+00 -2.330587569000478e-02
5.385321250000000e+10 -1.000891065892210e+00 -2.541237356417195e-02
5.389508125000000e+10 -1.001397468599848e+00 -2.508532681474559e-02
5.393695000000000e+10 -1.003773710465544e+00 -2.569307445883093e-02
5.397881875000000e+10 -1.001292534456908e+00 -2.691113833795272e-02
5.402068750000000e+10 -1.002977467346073e+00 -2.747162104422571e-02
5.406255625000000e+10 -1.000982687882771e+00 -2.738526309083175e-02
5.410442500000000e+10 -1.001531741139460e+00 -2.789702746896469e-02
5.414629375000000e+10 -1.002092905827007e+00 -2.654224012681149e-02
5.418816250000000e+10 -1.002179718888736e+00 -2.838583745867156e-02
5.423003125000000e+10 -1.002931766951236e+00 -2.890020659673219e-02
5.427190000000000e+10 -1.001305583286714e+00 -2.890381302700377e-02
5.431376875000000e+10 -1.006145845793797e+00 -2.701773510383471e-02
5.435563750000000e+10 -1.003709031444814e+00 -2.908658423726983e-02
5.439750625000000e+10 -1.005473482324681e+00 -2.960794538983562e-02
5.443937500000000e+10 -1.006453135553083e+00 -2.761384628278647e-02
5.448124375000000e+10 -1.004524556256239e+00 -3.071170276789643e-02
5.452311250000000e+10 -1.004483022874255e+00 -3.087006645637826e-02
5.456498125000000e+10 -1.003338790837382e+00 -2.982741662197742e-02
5.460685000000000e+10 -1.006615414836327e+00 -3.017452574159095e-02
5.464871875000000e+10 -9.995729636739542e-01 -3.062534938403215e-02
5.469058750000000e+10 -1.001958995163303e+00 -2.936118084206906e-02
5.473245625000000e+10 -9.996297668182923e-01 -2.755021043018333e-02
5.477432500000000e+10 -1.004127104855601e+00 -2.967435970992810e-02
5.481619375000000e+10 -1.002730162813658e+00 -3.067268499602012e-02
5.485806250000000e+10 -1.002749981393722e+00 -3.140925273946119e-02
5.489993125000000e+10 -1.006232498368463e+00 -3.189844942565825e-02
5.494180000000000e+10 -1.002133148833147e+00 -3.028133335834038e-02
5.498366875000000e+10 -1.006154774363470e+00 -3.164925033417880e-02
5.502553750000000e+10 -1.005218006885442e+00 -2.972237913461419e-02
5.506740625000000e+10 -1.005928770141737e+00 -3.212926851159228e-02
5.510927500000000e+10 -1.005437694105580e+00 -2.922488289827426e-02
5.515114375000000e+10 -1.002777365727540e+00 -3.242162120778409e-02
5.519301250000000e+10 -1.005972413784130e+00 -3.054323065649068e-02
5.523488125000000e+10 -1.003084877421880e+00 -2.961045580698476e-02
5.527675000000000e+10 -1.003923269281217e+00 -3.273517561063274e-02
5.531861875000000e+10 -1.003626675386173e+00 -3.024386235793316e-02
5.536048750000000e+10 -1.003082428880906e+00 -3.426628566650752e-02
5.540235625000000e+10 -1.003797960432804e+00 -2.924753821923860e-02
5.544422500000000e+10 -1.004387948186745e+00 -3.144599137702568e-02
5.548609375000000e+10 -1.007535637779863e+00 -3.143294054519429e-02
5.552796250000000e+10 -1.005486809148864e+00 -2.883365135596490e-02
5.556983125000000e+10 -1.006983230190680e+00 -3.072775872455801e-02
5.561170000000000e+10 -1.006923676271325e+00 -2.952914380765761e-02
5.565356875000000e+10 -1.008391609335547e+00 -3.223252371793221e-02
5.569543750000000e+10 -1.005931577975556e+00 -2.945569668768077e-02
5.573730625000000e+10 -1.005300797766194e+00 -3.130268598572427e-02
5.577917500000000e+10 -1.008151755059819e+00 -2.861164971804016e-02
5.582104375000000e+10 -1.005416755799829e+00 -2.715135276350566e-02
5.586291250000000e+10 -1.006192495970261e+00 -2.859945399663665e-02
5.590478125000000e+10 -1.005824050489384e+00 -2.694074095431806e-02
5.594665000000000e+10 -1.004604401210303e+00 -2.738594524997518e-02
5.598851875000000e+10 -1.004294600586765e+00 -2.518532861800971e-02
5.603038750000000e+10 -1.003712274932710e+00 -2.928057004119082e-02
5.607225625000000e+10 -1.007583915715592e+00 -2.799226887842854e-02
5.611412500000000e+10 -1.006119843138961e+00 -2.792625032384822e-02
5.615599375000000e+10 -1.006981479915581e+00 -2.756957550381016e-02
5.619786250000000e+10 -1.007016792413119e+00 -2.661196379791703e-02
5.623973125000000e+10 -1.007052351553468e+00 -2.885887669938419e-02
5.628160000000000e+10 -1.006992071779680e+00 -2.541358500671167e-02
5.632346875000000e+10 -1.002967056301363e+00 -2.817902273113708e-02
5.636533750000000e+10 -1.003181127497989e+00 -2.842811386441491e-02
5.640720625000000e+10 -1.000492172312647e+00 -2.968444824743344e-02
5.644907500000000e+10 -1.003431876029449e+00 -3.279768553077105e-02
5.649094375000000e+10 -1.003419397830526e+00 -2.905707246447003e-02
5.653281250000000e+10 -1.002374134964249e+00 -3.046354167782996e-02
5.657468125000000e+10 -1.003397871504100e+00 -3.060431755586125e-02
5.661655000000000e+10 -1.004179508580980e+00 -2.986221835057688e-02
5.665841875000000e+10 -1.002831371934404e+00 -3.083588035017924e-02
5.670028750000000e+10 -1.001439345433590e+00 -2.928370490132935e-02
5.674215625000000e+10 -1.001448254259649e+00 -3.302956193789634e-02
5.678402500000000e+10 -1.004073068647434e+00 -3.197759781630243e-02
5.682589375000000e+10 -9.997591933904029e-01 -3.352577822377108e-02
5.686776250000000e+10 -1.004104303902035e+00 -3.127960706140411e-02
5.690963125000000e+10 -1.002235702653017e+00 -3.094285611486013e-02
5.695150000000000e+10 -1.004686762318072e+00 -3.281554550768775e-02
5.699336875000000e+10 -1.004301962525018e+00 -3.202889672893713e-02
5.703523750000000e+10 -1.005821114040300e+00 -3.189612905645117e-02
5.707710625000000e+10 -1.005589018396696e+00 -3.102074028662844e-02
5.711897500000000e+10 -1.003199780568298e+00 -3.253436712616425e-02
5.716084375000000e+10 -1.005662819446981e+00 -3.198526605202161e-02
5.720271250000000e+10 -1.007137826750006e+00 -3.105444547240963e-02
5.724458125000000e+10 -1.006865294108035e+00 -3.061364184279306e-02
5.728645000000000e+10 -1.004976532023129e+00 -3.130999854489706e-02
5.732831875000000e+10 -1.007226256159992e+00 -3.273474128988646e-02
5.737018750000000e+10 -1.006256159698220e+00 -3.157509201499736e-02
5.741205625000000e+10 -1.002411655002983e+00 -3.091528466626530e-02
5.745392500000000e+10 -1.008293674236488e+00 -3.287364353281277e-02
5.749579375000000e+10 -1.008123293117575e+00 -3.111540915960330e-02
5.753766250000000e+10 -1.006776055134493e+00 -3.265267361820469e-02
5.757953125000000e+10 -1.007198118730485e+00 -3.122364997345979e-02
5.762140000000000e+10 -1.004712435210220e+00 -3.279833331475727e-02
5.766326875000000e+10 -1.006405838818783e+00 -3.114149629177179e-02
5.770513750000000e+10 -1.006509982265383e+00 -3.197502691541840e-02
5.774700625000000e+10 -1.005877513914430e+00 -3.210177640798433e-02
5.778887500000000e+10 -1.008079358346903e+00 -3.122846360285557e-02
5.783074375000000e+10 -1.007710680656086e+00 -3.232964577433643e-02
5.787261250000000e+10 -1.007880678099460e+00 -3.311371914154912e-02
5.791448125000000e+10 -1.007723572822243e+00 -3.309860681986349e-02
5.795635000000000e+10 -1.010107473443965e+00 -3.317901293757886e-02
5.799821875000000e+10 -1.008770926324719e+00 -3.038263864978227e-02
5.804008750000000e+10 -1.008060611524292e+00 -3.065097095125066e-02
5.808195625000000e+10 -1.009200826558005e+00 -3.102242684218311e-02
5.812382500000000e+10 -1.006132886088090e+00 -2.997861797968645e-02
5.816569375000000e+10 -1.007655386113142e+00 -3.043098195004476e-02
5.820756250000000e+10 -1.005471036370125e+00 -2.983436048257590e-02
5.824943125000000e+10 -1.007981594436921e+00 -3.234869957987847e-02
5.829130000000000e+10 -1.008277124465699e+00 -2.961137099931494e-02
5.833316875000000e+10 -1.008368438301781e+00 -2.854503145858407e-02
5.837503750000000e+10 -1.010579717967070e+00 -2.897490018260473e-02
5.841690625000000e+10 -1.008369005688573e+00 -2.620346396841649e-02
5.845877500000000e+10 -1.008854952859477e+00 -3.011051617894821e-02
5.850064375000000e+10 -1.007333738561051e+00 -2.998861987051235e-02
5.854251250000000e+10 -1.008908206502318e+00 -3.217820300054217e-02
5.858438125000000e+10 -1.007411055722901e+00 -2.988012858490290e-02
5.862625000000000e+10 -1.004767303942209e+00 -2.968531081869433e-02
5.866811875000000e+10 -1.008640255112274e+00 -3.011440881610583e-02
5.870998750000000e+10 -1.005697663491988e+00 -2.827933087750430e-02
5.875185625000000e+10 -1.011231662946676e+00 -3.021332335269949e-02
5.879372500000000e+10 -1.007604586226407e+00 -2.693535563804825e-02
5.883559375000000e+10 -1.009132728488032e+00 -3.104239724881038e-02
5.887746250000000e+10 -1.009051412262077e+00 -2.725664532209011e-02
5.891933125000000e+10 -1.007770812071427e+00 -2.949598864777253e-02
5.896120000000000e+10 -1.009011743706483e+00 -3.004265552560375e-02
5.900306875000000e+10 -1.005067122699850e+00 -2.779593954707986e-02
5.904493750000000e+10 -1.007533740670121e+00 -2.968548129784074e-02
5.908680625000000e+10 -1.004199114156107e+00 -2.711899644207381e-02
5.912867500000000e+10 -1.003300567237650e+00 -3.011855254496268e-02
5.917054375000000e+10 -1.006769814823584e+00 -2.812521923564213e-02
5.921241250000000e+10 -1.004329070178539e+00 -2.959330703552558e-02
5.925428125000000e+10 -1.008849154411763e+00 -2.927589767622609e-02
5.929615000000000e+10 -1.006126800385869e+00 -2.789317415267806e-02
5.933801875000000e+10 -1.010900035135468e+00 -2.797939873515556e-02
5.937988750000000e+10 -1.006166112773465e+00 -2.451578995248356e-02
5.942175625000000e+10 -1.007113311062237e+00 -2.879690305732969e-02
5.946362500000000e+10 -1.007193136342611e+00 -2.576537170500597e-02
5.950549375000000e+10 -1.006383748327587e+00 -2.695277388279043e-02
5.954736250000000e+10 -1.008727098837737e+00 -2.820244756353280e-02
5.958923125000000e+10 -1.003743646665011e+00 -2.739581978289132e-02
5.963110000000000e+10 -1.008433982389980e+00 -2.763896538427426e-02
5.967296875000000e+10 -1.005025935496009e+00 -2.527675928039987e-02
5.971483750000000e+10 -1.006148257437055e+00 -3.052426279658816e-02
5.975670625000000e+10 -1.005216027002463e+00 -2.702399161739712e-02
5.979857500000000e+10 -1.005324561844509e+00 -2.965735008674031e-02
5.984044375000000e+10 -1.007957117071406e+00 -2.884862817505410e-02
5.988231250000000e+10 -1.006808303864287e+00 -2.760949226304617e-02
5.992418125000000e+10 -1.007400409391702e+00 -3.049957616291335e-02
5.996605000000000e+10 -1.002193967327978e+00 -2.969708329646528e-02
6.000791875000000e+10 -1.003406014271301e+00 -3.130435132365107e-02
6.004978750000000e+10 -1.003321246457525e+00 -2.959506045931359e-02
6.009165625000000e+10 -1.004007789858543e+00 -3.258987014641592e-02
6.013352500000000e+10 -1.004130433733331e+00 -3.090826689563871e-02
6.017539375000000e+10 -1.002363926456291e+00 -3.174382145855510e-02
6.021726250000000e+10 -1.005646283684879e+00 -3.330235670744948e-02
6.025913125000000e+10 -1.003306652695286e+00 -3.152159014752870e-02
6.030100000000000e+10 -1.005426652301439e+00 -3.310869775258821e-02
6.034286875000000e+10 -1.005916618883735e+00 -3.353061469700525e-02
6.038473750000000e+10 -1.006615656137247e+00 -3.222814205223391e-02
6.042660625000000e+10 -1.008070167330146e+00 -3.099254250109305e-02
6.046847500000000e+10 -1.008924382796253e+00 -2.935354329620000e-02
6.051034375000000e+10 -1.007109360997874e+00 -3.171505850111152e-02
6.055221250000000e+10 -1.007146123749959e+00 -2.995651792142978e-02
6.059408125000000e+10 -1.007738663239434e+00 -2.860452779507976e-02
6.063595000000000e+10 -1.004101994317194e+00 -2.953388124399596e-02
6.067781875000000e+10 -1.001739368216916e+00 -2.866509669286964e-02
6.071968750000000e+10 -1.002066232646204e+00 -3.034326732406935e-02
6.076155625000000e+10 -1.004782458089641e+00 -2.985426872644124e-02
6.080342500000000e+10 -1.002019897736923e+00 -2.924196880616420e-02
6.084529375000000e+10 -1.004027284177289e+00 -3.013788345960878e-02
6.088716250000000e+10 -1.000767655184557e+00 -3.052600914335118e-02
6.092903125000000e+10 -1.002345368340941e+00 -3.181101188980400e-02
6.097090000000000e+10 -1.005214700562890e+00 -2.798495935159402e-02
6.101276875000000e+10 -1.005867802543819e+00 -2.975689785750627e-02
6.105463750000000e+10 -1.005768218675989e+00 -2.898613104520842e-02
6.109650625000000e+10 -1.004992545854452e+00 -2.793260555465294e-02
6.113837500000000e+10 -1.008874726969700e+00 -2.987261970208292e-02
6.118024375000000e+10 -1.004786979754126e+00 -2.933154697245626e-02
6.122211250000000e+10 -1.005556418467752e+00 -2.990651692951484e-02
6.126398125000000e+10 -1.005687560437124e+00 -2.795203582831862e-02
6.130585000000000e+10 -1.007156686546349e+00 -3.001265154601794e-02
6.134771875000000e+10 -1.007517782280646e+00 -2.883725774350103e-02
6.138958750000000e+10 -1.005207257665377e+00 -2.977283540428457e-02
6.143145625000000e+10 -1.005501487392041e+00 -3.191971445891207e-02
6.147332500000000e+10 -1.001806561231170e+00 -2.796403598518683e-02
6.151519375000000e+10 -1.001922167129637e+00 -3.226248611349371e-02
6.155706250000000e+10 -1.006556467795670e+00 -3.088287054305648e-02
6.159893125000000e+10 -1.004286140054551e+00 -3.219324225838450e-02
6.164080000000000e+10 -1.004182998163778e+00 -3.222540690449189e-02
6.168266875000000e+10 -1.000651713084214e+00 -3.229996742183384e-02
6.172453750000000e+10 -1.002424292410840e+00 -3.353643429207095e-02
6.176640625000000e+10 -1.003541740291474e+00 -2.944154065040844e-02
6.180827500000000e+10 -1.006274104095166e+00 -3.317413359788804e-02
6.185014375000000e+10 -1.004919254652967e+00 -3.173717197538349e-02
6.189201250000000e+10 -1.001244566690275e+00 -3.534962416868746e-02
6.193388125000000e+10 -1.005070485337991e+00 -3.276349959340700e-02
6.197575000000000e+10 -1.001469984522426e+00 -3.386649006827790e-02
6.201761875000000e+10 -1.004644363250825e+00 -3.765964922876855e-02
6.205948750000000e+10 -1.003630999363842e+00 -3.370355488623306e-02
6.210135625000000e+10 -1.004213248204805e+00 -3.652101933699224e-02
6.214322500000000e+10 -1.003215334243002e+00 -3.627055563264926e-02
6.218509375000000e+10 -1.001629859945860e+00 -3.562163281535129e-02
6.222696250000000e+10 -1.003091291275049e+00 -3.602942479440211e-02
6.226883125000000e+10 -1.001949655588747e+00 -3.457000641515012e-02
6.231070000000000e+10 -1.003668044385021e+00 -3.898719072546928e-02
6.235256875000000e+10 -1.003845368662598e+00 -3.645390802082440e-02
6.239443750000000e+10 -1.005267484244933e+00 -3.755151097511115e-02
6.243630625000000e+10 -1.004561873836411e+00 -3.522481083303624e-02
6.247817500000000e+10 -1.005265540441372e+00 -3.677270269641293e-02
6.252004375000000e+10 -1.007784696726409e+00 -3.754558762338021e-02
6.256191250000000e+10 -1.006725399378843e+00 -3.474899657947184e-02
6.260378125000000e+10 -1.003700150007644e+00 -3.906681230779562e-02
6.264565000000000e+10 -1.004233663846669e+00 -3.419577638785021e-02
6.268751875000000e+10 -1.002245473892785e+00 -3.891680530746693e-02
6.272938750000000e+10 -1.002252754647547e+00 -3.882502220737180e-02
6.277125625000000e+10 -1.001650295424083e+00 -3.661847424993477e-02
6.281312500000000e+10 -1.005037901867569e+00 -3.905246439882239e-02
6.285499375000000e+10 -1.003238040740170e+00 -3.721674269435633e-02
6.289686250000000e+10 -1.002514561290150e+00 -3.938199972244203e-02
6.293873125000000e+10 -1.006629718669224e+00 -3.705796960019129e-02
6.298060000000000e+10 -1.003472733478835e+00 -3.707837572319691e-02
6.302246875000000e+10 -1.004359432464589e+00 -3.683854113447595e-02
6.306433750000000e+10 -1.002957879802446e+00 -3.603010566580612e-02
6.310620625000000e+10 -1.005849240521319e+00 -3.877247803997814e-02
6.314807500000000e+10 -1.008395875487250e+00 -3.730987335707909e-02
6.318994375000000e+10 -1.006045850218923e+00 -3.948290608658734e-02
6.323181250000000e+10 -1.010694769566592e+00 -3.705904942127012e-02
6.327368125000000e+10 -1.007148370747894e+00 -3.662110209171980e-02
6.331555000000000e+10 -1.011137085417886e+00 -3.838503228030041e-02
6.335741875000000e+10 -1.009542276241266e+00 -3.282987909524506e-02
6.339928750000000e+10 -1.009888147885735e+00 -3.687076151809261e-02
6.344115625000000e+10 -1.009029588115321e+00 -3.156289043885343e-02
6.348302500000000e+10 -1.004898530372018e+00 -3.566064715804893e-02
6.352489375000000e+10 -1.006684851558186e+00 -3.403040866451222e-02
6.356676250000000e+10 -1.004002099448907e+00 -3.400537072671333e-02
6.360863125000000e+10 -1.005739448914828e+00 -3.603651205011537e-02
6.365050000000000e+10 -1.004626493820484e+00 -3.216197891906653e-02
6.369236875000000e+10 -1.007589324720261e+00 -3.930091789935482e-02
6.373423750000000e+10 -1.008503714500358e+00 -3.402471423492437e-02
6.377610625000000e+10 -1.006889002992514e+00 -3.590543401570942e-02
6.381797500000000e+10 -1.012260832428719e+00 -3.562495366659582e-02
6.385984375000000e+10 -1.008564708439464e+00 -3.323529311575349e-02
6.390171250000000e+10 -1.011878869617359e+00 -3.584701265035069e-02
6.394358125000000e+10 -1.010062909054434e+00 -3.122232195297992e-02
6.398545000000000e+10 -1.010385205724859e+00 -3.415457877351009e-02
6.402731875000000e+10 -1.013225823565221e+00 -3.098858568029106e-02
6.406918750000000e+10 -1.012047661164096e+00 -3.415518860392346e-02
6.411105625000000e+10 -1.013154553831467e+00 -3.262821548099563e-02
6.415292500000000e+10 -1.008948704714929e+00 -3.349936677492810e-02
6.419479375000000e+10 -1.011669728531448e+00 -3.570374429728130e-02
6.423666250000000e+10 -1.010641970892569e+00 -3.213712314296734e-02
6.427853125000000e+10 -1.008833476072386e+00 -3.461391729626908e-02
6.432040000000000e+10 -1.008300995949244e+00 -3.214328740325881e-02
6.436226875000000e+10 -1.004225055608854e+00 -3.505999543553873e-02
6.440413750000000e+10 -1.009164707070601e+00 -3.573711914569811e-02
6.444600625000000e+10 -1.006165410931608e+00 -3.427995738843433e-02
6.448787500000000e+10 -1.008354580736680e+00 -3.592830626435620e-02
6.452974375000000e+10 -1.009588741291109e+00 -3.411437909263085e-02
6.457161250000000e+10 -1.009935623047333e+00 -3.860242473632172e-02
6.461348125000000e+10 -1.009684314518395e+00 -3.610119432781270e-02
6.465535000000000e+10 -1.005675946524249e+00 -3.793893264274185e-02
6.469721875000000e+10 -1.005738084766137e+00 -3.842486794897754e-02
6.473908750000000e+10 -1.005294422893011e+00 -3.841231201242399e-02
6.478095625000000e+10 -1.006316371425453e+00 -4.085534494479583e-02
6.482282500000000e+10 -1.008390231936294e+00 -4.076009093322912e-02
6.486469375000000e+10 -1.008638574086316e+00 -4.217743043414456e-02
6.490656250000000e+10 -1.009696991864570e+00 -4.002206384868271e-02
6.494843125000000e+10 -1.007511218351656e+00 -3.997022640284940e-02
6.499030000000000e+10 -1.008081802675068e+00 -3.948671271826293e-02
6.503216875000000e+10 -1.009477861534857e+00 -3.870449892439928e-02
6.507403750000000e+10 -1.008454327685604e+00 -3.852643671368813e-02
6.511590625000000e+10 -1.006081663866820e+00 -3.921170687258919e-02
6.515777500000000e+10 -1.007139049154212e+00 -3.996369070152148e-02
6.519964375000000e+10 -1.010171102088689e+00 -4.006999582280542e-02
6.524151250000000e+10 -1.009686796124389e+00 -3.847694491550416e-02
6.528338125000000e+10 -1.008354711134995e+00 -3.777692527544263e-02
6.532525000000000e+10 -1.008119570140622e+00 -3.781299635731259e-02
6.536711875000000e+10 -1.006423757699699e+00 -3.675265332698684e-02
6.540898750000000e+10 -1.010324355382659e+00 -3.719261481007508e-02
6.545085625000000e+10 -1.007399131666206e+00 -3.481475579415572e-02
6.549272500000000e+10 -1.006690726813583e+00 -3.717790046969602e-02
6.553459375000000e+10 -1.005507822683984e+00 -3.467184707050903e-02
6.557646250000000e+10 -1.004438337309517e+00 -3.771933468805948e-02
6.561833125000000e+10 -1.007454959690797e+00 -3.664805290072534e-02
6.566020000000000e+10 -1.004946995971885e+00 -3.546189151134296e-02
6.570206875000000e+10 -1.008462813021241e+00 -3.949365027261447e-02
6.574393750000000e+10 -1.005912544234817e+00 -3.666846487894782e-02
6.578580625000000e+10 -1.004762965661478e+00 -4.015705559496842e-02
6.582767500000000e+10 -1.006138259640480e+00 -3.550537017182341e-02
6.586954375000000e+10 -1.006476203052328e+00 -3.675483755435834e-02
6.591141250000000e+10 -1.009525449621338e+00 -3.766576562495428e-02
6.595328125000000e+10 -1.004864996654336e+00 -3.620156879976675e-02
6.599515000000000e+10 -1.010308019183221e+00 -3.797654092720981e-02
6.603701875000000e+10 -1.005520569019880e+00 -3.504522565303202e-02
6.607888750000000e+10 -1.008050474301234e+00 -3.956745858354069e-02
6.612075625000000e+10 -1.008326462524297e+00 -3.607882952046521e-02
6.616262500000000e+10 -1.006871316291651e+00 -4.003635541409607e-02
6.620449375000000e+10 -1.010963523896037e+00 -3.977256943363787e-02
6.624636250000000e+10 -1.005692988043811e+00 -4.035394999636123e-02
6.628823125000000e+10 -1.007501310310385e+00 -4.256990299808187e-02
6.633010000000000e+10 -1.007978766481459e+00 -3.960244637226019e-02
6.637196875000000e+10 -1.010155244569346e+00 -4.377548548655138e-02
6.641383750000000e+10 -1.012487285004762e+00 -3.616558835684788e-02
6.645570625000000e+10 -1.007942211972601e+00 -4.028295483361589e-02
6.649757500000000e+10 -1.013823993262283e+00 -3.994933638486375e-02
6.653944375000000e+10 -1.009018861137499e+00 -3.770979031250720e-02
6.658131250000000e+10 -1.012038435363738e+00 -4.109458960267679e-02
6.662318125000000e+10 -1.011488534244807e+00 -3.554033909191390e-02
6.666505000000000e+10 -1.010724681848936e+00 -4.025129696116592e-02
6.670691875000000e+10 -1.010569666330460e+00 -3.586430690158231e-02
6.674878750000000e+10 -1.010958170027901e+00 -3.844203527272633e-02
6.679065625000000e+10 -1.015301315494727e+00 -3.827776819891908e-02
6.683252500000000e+10 -1.009728935870977e+00 -3.626905686382360e-02
6.687439375000000e+10 -1.016588637795025e+00 -3.832741360114584e-02
6.691626250000000e+10 -1.010956947159363e+00 -3.304490566946077e-02
6.695813125000000e+10 -1.013265578149631e+00 -3.931513911984549e-02
6.700000000000000e+10 -1.011260001329807e+00 -3.320688091260842e-02
