! Generated by Phase I extraction
# Hz S RI R 50
6.700000000000000e+10 1.334426749553739e-01 -1.243809066925062e-01
6.704800000000000e+10 1.247884070970221e-01 -1.142909823224043e-01
6.709600000000000e+10 1.285046707952018e-01 -1.044156337578379e-01
6.714400000000000e+10 1.346207828476894e-01 -1.010324245007796e-01
6.719200000000000e+10 1.362743617653712e-01 -9.734580117199125e-02
6.724000000000000e+10 1.363973467534335e-01 -9.696087064937768e-02
6.728800000000000e+10 1.369839709466197e-01 -9.674252765951508e-02
6.733600000000000e+10 1.373867227760446e-01 -9.713343229223591e-02
6.738400000000000e+10 1.377424549693195e-01 -9.735314551479056e-02
6.743200000000000e+10 1.376014122499879e-01 -9.728163461308569e-02
6.748000000000000e+10 1.374499644549148e-01 -9.745774686003443e-02
6.752800000000000e+10 1.373968005752451e-01 -9.697990642039313e-02
6.757600000000000e+10 1.376471297108339e-01 -9.655813694588247e-02
6.762400000000000e+10 1.380740885867390e-01 -9.582015592702335e-02
6.767200000000000e+10 1.384879849484786e-01 -9.605578514036148e-02
6.772000000000000e+10 1.382864980495667e-01 -9.593202411938966e-02
6.776800000000000e+10 1.378400770697826e-01 -9.644181692194738e-02
6.781600000000000e+10 1.376677396743089e-01 -9.676971891292400e-02
6.786400000000000e+10 1.372339474673435e-01 -9.677403078413994e-02
6.791200000000000e+10 1.374364947467731e-01 -9.734638973112257e-02
6.796000000000000e+10 1.380213003569538e-01 -9.798772573658848e-02
6.800800000000000e+10 1.386444408045678e-01 -9.919680167369942e-02
6.805600000000000e+10 1.389594941176893e-01 -9.958327610627107e-02
6.810400000000000e+10 1.390874717959520e-01 -9.991742563336546e-02
6.815200000000000e+10 1.389155166689979e-01 -9.927585697193603e-02
6.820000000000000e+10 1.390233476424640e-01 -9.849136485636766e-02
6.824800000000000e+10 1.396657608349071e-01 -9.855088877198781e-02
6.829600000000000e+10 1.402533321639288e-01 -9.827067704906305e-02
6.834400000000000e+10 1.401316454494110e-01 -9.884776759135723e-02
6.839200000000000e+10 1.401683449846022e-01 -9.911819849662429e-02
6.844000000000000e+10 1.387524261873396e-01 -9.892744667483799e-02
6.848800000000000e+10 1.394782697217876e-01 -9.908109750798981e-02
6.853600000000000e+10 1.398326142499281e-01 -9.880540621918249e-02
6.858400000000000e+10 1.406393562160455e-01 -9.909432089315354e-02
6.863200000000000e+10 1.412983046542986e-01 -9.887549283518234e-02
6.868000000000000e+10 1.410746598075690e-01 -9.900234614045010e-02
6.872800000000000e+10 1.406986904243048e-01 -9.948177904099548e-02
6.877600000000000e+10 1.404830331665692e-01 -9.995486536534146e-02
6.882400000000000e+10 1.403601897340739e-01 -9.960766931461695e-02
6.887200000000000e+10 1.409011884123449e-01 -9.976387155644095e-02
6.892000000000000e+10 1.421023879099606e-01 -1.000364015469973e-01
6.896800000000000e+10 1.419151011983079e-01 -1.001897285373001e-01
6.901600000000000e+10 1.422275017841945e-01 -1.008311430806868e-01
6.906400000000000e+10 1.421759013777263e-01 -1.009713991157735e-01
6.911200000000000e+10 1.421311689428294e-01 -1.008658297467998e-01
6.916000000000000e+10 1.420088248943787e-01 -9.998418519090226e-02
6.920800000000000e+10 1.420632289464973e-01 -9.933210887871972e-02
6.925600000000000e+10 1.414063520545080e-01 -9.919469901112769e-02
6.930400000000000e+10 1.414635973043637e-01 -9.923812002181533e-02
6.935200000000000e+10 1.423554755491870e-01 -9.878613362778574e-02
6.940000000000000e+10 1.421105372970806e-01 -9.857460519025543e-02
6.944800000000000e+10 1.426960672244893e-01 -9.822874505181246e-02
6.949600000000000e+10 1.428329737294486e-01 -9.785678018427457e-02
6.954400000000000e+10 1.431059223786169e-01 -9.780865528707057e-02
6.959200000000000e+10 1.437024603278394e-01 -9.736448549945032e-02
6.964000000000000e+10 1.441764351185678e-01 -9.751329893181067e-02
6.968800000000000e+10 1.439995171184950e-01 -9.785856415615656e-02
6.973600000000000e+10 1.436960332203345e-01 -9.748979442582674e-02
6.978400000000000e+10 1.432185148055276e-01 -9.735956220500588e-02
6.983200000000000e+10 1.430637490856838e-01 -9.732021720529374e-02
6.988000000000000e+10 1.432114167713737e-01 -9.674116651258911e-02
6.992800000000000e+10 1.432228573266005e-01 -9.687302370307038e-02
6.997600000000000e+10 1.433534185291664e-01 -9.687630947472348e-02
7.002400000000000e+10 1.443436234674922e-01 -9.949127596215265e-02
7.007200000000000e+10 1.442163842228164e-01 -9.986111737976022e-02
7.012000000000000e+10 1.440702288197597e-01 -9.999934839585900e-02
7.016800000000000e+10 1.442137805461473e-01 -9.974397688828737e-02
7.021600000000000e+10 1.437148883657924e-01 -9.915384219192835e-02
7.026400000000000e+10 1.439747540837420e-01 -9.875540425645554e-02
7.031200000000000e+10 1.436944785077630e-01 -9.898025919581391e-02
7.036000000000000e+10 1.437427463577955e-01 -9.814586004581155e-02
7.040800000000000e+10 1.440846455840770e-01 -9.858095899272472e-02
7.045600000000000e+10 1.438895656193400e-01 -9.801834027169966e-02
7.050400000000000e+10 1.437677517302933e-01 -9.865958069175540e-02
7.055200000000000e+10 1.432840278075616e-01 -9.812406547701494e-02
7.060000000000000e+10 1.439153534456764e-01 -9.808316484900852e-02
7.064800000000000e+10 1.441602793396789e-01 -9.748149715153066e-02
7.069600000000000e+10 1.447246410141707e-01 -9.733080199091820e-02
7.074400000000000e+10 1.445454922445544e-01 -9.737947227744301e-02
7.079200000000000e+10 1.443778688917543e-01 -9.716844317046477e-02
7.084000000000000e+10 1.439400665646465e-01 -9.739704382913573e-02
7.088800000000000e+10 1.434463004280706e-01 -9.663412355388730e-02
7.093600000000000e+10 1.440464413853738e-01 -9.697682299650350e-02
7.098400000000000e+10 1.435396453055753e-01 -9.663609843263583e-02
7.103200000000000e+10 1.441569244923112e-01 -9.687836191683567e-02
7.108000000000000e+10 1.445019017376806e-01 -9.637526114084746e-02
7.112800000000000e+10 1.447488060533940e-01 -9.677680231738608e-02
7.117600000000000e+10 1.446894811473892e-01 -9.626802853306489e-02
7.122400000000000e+10 1.454126792809902e-01 -9.621002989360732e-02
7.127200000000000e+10 1.448826632735433e-01 -9.622975078035879e-02
7.132000000000000e+10 1.448205784215785e-01 -9.587420981991378e-02
7.136800000000000e+10 1.451434037210580e-01 -9.608407246038447e-02
7.141600000000000e+10 1.453695802518724e-01 -9.548462766397441e-02
7.146400000000000e+10 1.460345447174015e-01 -9.572768955027192e-02
7.151200000000000e+10 1.457936036060037e-01 -9.537977479597250e-02
7.156000000000000e+10 1.465388552706739e-01 -9.587065296611191e-02
7.160800000000000e+10 1.463771916304339e-01 -9.523151563986094e-02
7.165600000000000e+10 1.473185693922842e-01 -9.556705576608562e-02
7.170400000000000e+10 1.471310620262294e-01 -9.528836943122779e-02
7.175200000000000e+10 1.472982675480241e-01 -9.584805351010552e-02
7.180000000000000e+10 1.470792372139464e-01 -9.571666563697058e-02
7.184800000000000e+10 1.482129517185607e-01 -9.593314647209325e-02
7.189600000000000e+10 1.484120310726259e-01 -9.605459048793434e-02
7.194400000000000e+10 1.479103557929679e-01 -9.686061915486040e-02
7.199200000000000e+10 1.473729919628701e-01 -9.667360879372409e-02
7.204000000000000e+10 1.473456511976021e-01 -9.647516358887144e-02
7.208800000000000e+10 1.494394890019670e-01 -9.667855453952184e-02
7.213600000000000e+10 1.508931323796188e-01 -9.622920420314902e-02
7.218400000000000e+10 1.510174115425936e-01 -9.675449850295333e-02
7.223200000000000e+10 1.507492531617057e-01 -9.709718846847223e-02
7.228000000000000e+10 1.490084908807807e-01 -9.703512934007856e-02
7.232800000000000e+10 1.479860861884656e-01 -9.634508404357192e-02
7.237600000000000e+10 1.469786158077182e-01 -9.646578363994321e-02
7.242400000000000e+10 1.463634818999121e-01 -9.623059845750140e-02
7.247200000000000e+10 1.454085509971914e-01 -9.571055237340260e-02
7.252000000000000e+10 1.461700641663976e-01 -9.652502292648753e-02
7.256800000000000e+10 1.449398905535402e-01 -9.627212455604987e-02
7.261600000000000e+10 1.462133536972662e-01 -9.671116540927627e-02
7.266400000000000e+10 1.454164327140464e-01 -9.659224275354832e-02
7.271200000000000e+10 1.462816297953498e-01 -9.661482987198644e-02
7.276000000000000e+10 1.460430350793292e-01 -9.636448333643982e-02
7.280800000000000e+10 1.463648181901717e-01 -9.622943650484321e-02
7.285600000000000e+10 1.458502446348807e-01 -9.656328091583309e-02
7.290400000000000e+10 1.464666949791824e-01 -9.633682722730091e-02
7.295200000000000e+10 1.463983453024854e-01 -9.670540248363622e-02
7.300000000000000e+10 1.474498719191673e-01 -9.649113907002797e-02
7.304800000000000e+10 1.472126486185435e-01 -9.670047560802318e-02
7.309600000000000e+10 1.476561973362291e-01 -9.667885161868124e-02
7.314400000000000e+10 1.475906506316240e-01 -9.638513211508559e-02
7.319200000000000e+10 1.478771775299080e-01 -9.637856615963300e-02
7.324000000000000e+10 1.479280069569956e-01 -9.646821119947897e-02
7.328800000000000e+10 1.484682621097096e-01 -9.646693365161857e-02
7.333600000000000e+10 1.488258426839089e-01 -9.631649119328255e-02
7.338400000000000e+10 1.492407675485513e-01 -9.595389181076183e-02
7.343200000000000e+10 1.500790773158627e-01 -9.600988577615611e-02
7.348000000000000e+10 1.503382297997442e-01 -9.599462705753285e-02
7.352800000000000e+10 1.506526881499492e-01 -9.609437776026598e-02
7.357600000000000e+10 1.509871140710097e-01 -9.638574092296594e-02
7.362400000000000e+10 1.507079470790168e-01 -9.651942282804418e-02
7.367200000000000e+10 1.505918313170473e-01 -9.636900583664838e-02
7.372000000000000e+10 1.511608313207303e-01 -9.656417967028590e-02
7.376800000000000e+10 1.510584953383668e-01 -9.670978058918824e-02
7.381600000000000e+10 1.513004041256563e-01 -9.663260252026640e-02
7.386400000000000e+10 1.513534901882952e-01 -9.677290132983232e-02
7.391200000000000e+10 1.514423032195466e-01 -9.731159068922071e-02
7.396000000000000e+10 1.518198871050404e-01 -9.743602859005374e-02
7.400800000000000e+10 1.518854532499725e-01 -9.769528982327214e-02
7.405600000000000e+10 1.520123857173703e-01 -9.821903114848463e-02
7.410400000000000e+10 1.522837927234208e-01 -9.842410700421488e-02
7.415200000000000e+10 1.525237315169419e-01 -9.815089528165982e-02
7.420000000000000e+10 1.529853540979016e-01 -9.825075393244123e-02
7.424800000000000e+10 1.528766726829870e-01 -9.815201172071707e-02
7.429600000000000e+10 1.534336985250833e-01 -9.838096410219513e-02
7.434400000000000e+10 1.534445424589756e-01 -9.831279579617518e-02
7.439200000000000e+10 1.538965223922480e-01 -9.840030233292225e-02
7.444000000000000e+10 1.541887724065264e-01 -9.838557790212581e-02
7.448800000000000e+10 1.548482629596872e-01 -9.814330301360767e-02
7.453600000000000e+10 1.549398564240705e-01 -9.832549441834477e-02
7.458400000000000e+10 1.549517691940391e-01 -9.813672502587430e-02
7.463200000000000e+10 1.550643594076366e-01 -9.816655933820852e-02
7.468000000000000e+10 1.549877173397525e-01 -9.842471729877644e-02
7.472800000000000e+10 1.551360858662902e-01 -9.867403604201554e-02
7.477600000000000e+10 1.551986180796215e-01 -9.867311612503826e-02
7.482400000000000e+10 1.556935327663550e-01 -9.896423488441335e-02
7.487200000000000e+10 1.554408017814789e-01 -9.902639444953251e-02
7.492000000000000e+10 1.556850572418218e-01 -9.935112583868494e-02
7.496800000000000e+10 1.556706298316466e-01 -9.915412631191856e-02
7.501600000000000e+10 1.559405286340669e-01 -9.943723098739064e-02
7.506400000000000e+10 1.559144050744850e-01 -9.960307904520843e-02
7.511200000000000e+10 1.558920184196566e-01 -9.984385938570643e-02
7.516000000000000e+10 1.556470820121506e-01 -9.981917806870313e-02
7.520800000000000e+10 1.559385793677580e-01 -1.004814477762535e-01
7.525600000000000e+10 1.561699815079157e-01 -1.003394503037022e-01
7.530400000000000e+10 1.565515777207927e-01 -1.007354920818408e-01
7.535200000000000e+10 1.567584683442062e-01 -1.006700541261876e-01
7.540000000000000e+10 1.569200557315066e-01 -1.008671857837444e-01
7.544800000000000e+10 1.570218354010016e-01 -1.006169323043632e-01
7.549600000000000e+10 1.573629500396465e-01 -1.006015239541165e-01
7.554400000000000e+10 1.575675124272898e-01 -1.003079400754428e-01
7.559200000000000e+10 1.575318012588385e-01 -1.001717773754621e-01
7.564000000000000e+10 1.573357434146184e-01 -1.002837916621885e-01
7.568800000000000e+10 1.570748305651490e-01 -1.002078081954812e-01
7.573600000000000e+10 1.565781406538820e-01 -1.003996939731418e-01
7.578400000000000e+10 1.567790956769692e-01 -1.002537214566222e-01
7.583200000000000e+10 1.566253366839711e-01 -1.002438813639193e-01
7.588000000000000e+10 1.569008568671240e-01 -1.001496548594428e-01
7.592800000000000e+10 1.571413722330623e-01 -1.003799718478252e-01
7.597600000000000e+10 1.573668183791278e-01 -1.006826862473249e-01
7.602400000000000e+10 1.574447597636410e-01 -1.006156456835183e-01
7.607200000000000e+10 1.573598078846503e-01 -1.010369075048050e-01
7.612000000000000e+10 1.573318188629078e-01 -1.010214291984205e-01
7.616800000000000e+10 1.575585740069289e-01 -1.010815090120709e-01
7.621600000000000e+10 1.572033895989962e-01 -1.015862543898902e-01
7.626400000000000e+10 1.573487261544687e-01 -1.015214368425462e-01
7.631200000000000e+10 1.575087800790011e-01 -1.013841558478174e-01
7.636000000000000e+10 1.579957985030926e-01 -1.011538314760295e-01
7.640800000000000e+10 1.580065082750163e-01 -1.013695242808425e-01
7.645600000000000e+10 1.584974996156382e-01 -1.013879730389318e-01
7.650400000000000e+10 1.585766488309389e-01 -1.012585619791311e-01
7.655200000000000e+10 1.586199506263716e-01 -1.011353261940383e-01
7.660000000000000e+10 1.587912077225472e-01 -1.010576987589207e-01
7.664800000000000e+10 1.589863664201289e-01 -1.008503954512541e-01
7.669600000000000e+10 1.588006917740736e-01 -1.010811468401637e-01
7.674400000000000e+10 1.589208797266921e-01 -1.011490379113769e-01
7.679200000000000e+10 1.588592258924643e-01 -1.015226593231529e-01
7.684000000000000e+10 1.586218332751156e-01 -1.017585361537954e-01
7.688800000000000e+10 1.592859610317874e-01 -1.015852013345347e-01
7.693600000000000e+10 1.589057705125967e-01 -1.021716717824597e-01
7.698400000000000e+10 1.588942722552827e-01 -1.018227880196858e-01
7.703200000000000e+10 1.592932093264718e-01 -1.017476237774603e-01
7.708000000000000e+10 1.595393528818394e-01 -1.016240159190895e-01
7.712800000000000e+10 1.593312566185777e-01 -1.014729295051881e-01
7.717600000000000e+10 1.596264279147393e-01 -1.015473141292149e-01
7.722400000000000e+10 1.597080215607871e-01 -1.014951202597996e-01
7.727200000000000e+10 1.599661959491716e-01 -1.017075735073721e-01
7.732000000000000e+10 1.597972299520619e-01 -1.012981075423736e-01
7.736800000000000e+10 1.598316042353974e-01 -1.017263302181682e-01
7.741600000000000e+10 1.595172051846433e-01 -1.013910642276141e-01
7.746400000000000e+10 1.596414952212515e-01 -1.014179053786451e-01
7.751200000000000e+10 1.599285251610852e-01 -1.013168308666547e-01
7.756000000000000e+10 1.598753782910538e-01 -1.011679754904848e-01
7.760800000000000e+10 1.602082279119610e-01 -1.012540458483020e-01
7.765600000000000e+10 1.599602281486162e-01 -1.010640574211499e-01
7.770400000000000e+10 1.603528751812090e-01 -1.008709076666145e-01
7.775200000000000e+10 1.601851920353067e-01 -1.016111866203677e-01
7.780000000000000e+10 1.597977106002456e-01 -1.015301488812664e-01
7.784800000000000e+10 1.596513696698545e-01 -1.013256511216056e-01
7.789600000000000e+10 1.597676432392041e-01 -1.010925067489253e-01
7.794400000000000e+10 1.595725399128418e-01 -1.010687276776801e-01
7.799200000000000e+10 1.596802795484770e-01 -1.011014926738847e-01
7.804000000000000e+10 1.598508275421835e-01 -1.011361753030559e-01
7.808800000000000e+10 1.596448844322615e-01 -1.014132722664794e-01
7.813600000000000e+10 1.597062326612637e-01 -1.012312759901420e-01
7.818400000000000e+10 1.597015663964222e-01 -1.013700727120355e-01
7.823200000000000e+10 1.593943169207143e-01 -1.010277018390249e-01
7.828000000000000e+10 1.595100862238686e-01 -1.010163435217787e-01
7.832800000000000e+10 1.600188153064589e-01 -1.008910058649880e-01
7.837600000000000e+10 1.600380539053508e-01 -1.009430917816914e-01
7.842400000000000e+10 1.605046416619503e-01 -1.008213746653212e-01
7.847200000000000e+10 1.606450984637731e-01 -1.004417297884554e-01
7.852000000000000e+10 1.610922657210152e-01 -1.009475521139470e-01
7.856800000000000e+10 1.610355665188778e-01 -1.000520045468261e-01
7.861600000000000e+10 1.614441405412790e-01 -1.002490203325048e-01
7.866400000000000e+10 1.612509480794192e-01 -9.991918617931217e-02
7.871200000000000e+10 1.614624586944026e-01 -9.995943047400824e-02
7.876000000000000e+10 1.614516007282112e-01 -9.962984925158594e-02
7.880800000000000e+10 1.615383794034252e-01 -9.965667500832921e-02
7.885600000000000e+10 1.616944050287980e-01 -9.941431258708146e-02
7.890400000000000e+10 1.617625261422517e-01 -9.936759563794371e-02
7.895200000000000e+10 1.621429323169871e-01 -9.947370351226434e-02
7.900000000000000e+10 1.621925734943881e-01 -9.966315415737352e-02
7.904800000000000e+10 1.624604707009394e-01 -9.989913476702372e-02
7.909600000000000e+10 1.626329267133320e-01 -9.995921344873934e-02
7.914400000000000e+10 1.633872347964873e-01 -9.963067036274749e-02
7.919200000000000e+10 1.637574578345509e-01 -9.931683484552323e-02
7.924000000000000e+10 1.640347170975251e-01 -9.925956914358476e-02
7.928800000000000e+10 1.647376112237086e-01 -9.925997987429723e-02
7.933600000000000e+10 1.650883564644895e-01 -9.910797273075832e-02
7.938400000000000e+10 1.655505169041991e-01 -9.922646108644594e-02
7.943200000000000e+10 1.656946461472679e-01 -9.933939462155937e-02
7.948000000000000e+10 1.655661097860121e-01 -9.927206893264055e-02
7.952800000000000e+10 1.654303756103916e-01 -9.958346144559396e-02
7.957600000000000e+10 1.654549013468567e-01 -9.924954610327136e-02
7.962400000000000e+10 1.659030640953899e-01 -9.977574275449373e-02
7.967200000000000e+10 1.657222555361972e-01 -9.956030727090794e-02
7.972000000000000e+10 1.658058509199872e-01 -1.000619154724535e-01
7.976800000000000e+10 1.661361222642328e-01 -9.998648770040464e-02
7.981600000000000e+10 1.658918582302626e-01 -9.991895412807031e-02
7.986400000000000e+10 1.660711857897729e-01 -9.978147943949658e-02
7.991200000000000e+10 1.662645242368438e-01 -1.002115777287212e-01
7.996000000000000e+10 1.661697912879404e-01 -1.002660999327221e-01
8.000800000000000e+10 1.664380817697814e-01 -1.006755887365316e-01
8.005600000000000e+10 1.662330841005049e-01 -1.004284566863821e-01
8.010400000000000e+10 1.664796167650768e-01 -1.007866092780736e-01
8.015200000000000e+10 1.668942412740359e-01 -1.010990717564739e-01
8.020000000000000e+10 1.666410241297027e-01 -1.012769241704863e-01
8.024800000000000e+10 1.666145646969193e-01 -1.014954399657136e-01
8.029600000000000e+10 1.663947550091437e-01 -1.015487761809356e-01
8.034400000000000e+10 1.664158142601557e-01 -1.015526448530139e-01
8.039200000000000e+10 1.667888073658387e-01 -1.015969641529122e-01
8.044000000000000e+10 1.671812302375583e-01 -1.017865614572078e-01
8.048800000000000e+10 1.673366518543292e-01 -1.019878759510661e-01
8.053600000000000e+10 1.675148277094330e-01 -1.019746903354891e-01
8.058400000000000e+10 1.678021989041957e-01 -1.022686861591648e-01
8.063200000000000e+10 1.682523178505058e-01 -1.023129866698987e-01
8.068000000000000e+10 1.678378079535673e-01 -1.020562971651561e-01
8.072800000000000e+10 1.678274966590542e-01 -1.021821136321807e-01
8.077600000000000e+10 1.672843848833644e-01 -1.020565391381430e-01
8.082400000000000e+10 1.673786317962294e-01 -1.019508499685114e-01
8.087200000000000e+10 1.674668451073628e-01 -1.019312284345460e-01
8.092000000000000e+10 1.676247620268049e-01 -1.017653045866474e-01
8.096800000000000e+10 1.676056717408743e-01 -1.018325868691360e-01
8.101600000000000e+10 1.680435431664701e-01 -1.018894997083405e-01
8.106400000000000e+10 1.684233704319001e-01 -1.020680282066020e-01
8.111200000000000e+10 1.686511667934581e-01 -1.021922270813131e-01
8.116000000000000e+10 1.685196843896098e-01 -1.023052594716004e-01
8.120800000000000e+10 1.685964520501420e-01 -1.023625911522945e-01
8.125600000000000e+10 1.687373616756858e-01 -1.020252704561150e-01
8.130400000000000e+10 1.687388402034951e-01 -1.020437870727602e-01
8.135200000000000e+10 1.682850721859344e-01 -1.020692227032913e-01
8.140000000000000e+10 1.684321779667188e-01 -1.022261618843186e-01
8.144800000000000e+10 1.681379693447142e-01 -1.020280577516038e-01
8.149600000000000e+10 1.683313040180323e-01 -1.015830146872209e-01
8.154400000000000e+10 1.693628527184247e-01 -1.016509231926265e-01
8.159200000000000e+10 1.695085403438545e-01 -1.019658662481311e-01
8.164000000000000e+10 1.691726392778131e-01 -1.016255414437377e-01
8.168800000000000e+10 1.695206056194715e-01 -1.016263893102672e-01
8.173600000000000e+10 1.696253776691043e-01 -1.016229340242975e-01
8.178400000000000e+10 1.699646157994691e-01 -1.015792882830252e-01
8.183200000000000e+10 1.700551315273090e-01 -1.015043209227890e-01
8.188000000000000e+10 1.701668187855125e-01 -1.015462004455899e-01
8.192800000000000e+10 1.698437083713993e-01 -1.018633956374618e-01
8.197600000000000e+10 1.690788427065135e-01 -1.021496458203925e-01
8.202400000000000e+10 1.686048909507656e-01 -1.021458108692957e-01
8.207200000000000e+10 1.683086112264777e-01 -1.023501783869309e-01
8.212000000000000e+10 1.688160308858552e-01 -1.025503520852668e-01
8.216800000000000e+10 1.691919927132975e-01 -1.025753572417472e-01
8.221600000000000e+10 1.697049261995547e-01 -1.026115667305825e-01
8.226400000000000e+10 1.699555327651094e-01 -1.025820683822653e-01
8.231200000000000e+10 1.704603755402678e-01 -1.025403163688886e-01
8.236000000000000e+10 1.707617862250717e-01 -1.025940367755839e-01
8.240800000000000e+10 1.711218102598746e-01 -1.030092282781054e-01
8.245600000000000e+10 1.713454672116840e-01 -1.031880681705469e-01
8.250400000000000e+10 1.710540998753953e-01 -1.032997090028475e-01
8.255200000000000e+10 1.709339493989699e-01 -1.030488599332714e-01
8.260000000000000e+10 1.702790911481166e-01 -1.030486443060665e-01
8.264800000000000e+10 1.700639545721779e-01 -1.029723193866808e-01
8.269600000000000e+10 1.698833978436089e-01 -1.031783862716571e-01
8.274400000000000e+10 1.700065492107731e-01 -1.028712726842643e-01
8.279200000000000e+10 1.703418783013758e-01 -1.028704928742837e-01
8.284000000000000e+10 1.708674401124285e-01 -1.025347098509679e-01
8.288800000000000e+10 1.711537783975823e-01 -1.024863042985736e-01
8.293600000000000e+10 1.714767792133888e-01 -1.024320027739820e-01
8.298400000000000e+10 1.715807204665313e-01 -1.024236673768717e-01
8.303200000000000e+10 1.717773585404131e-01 -1.025783051648466e-01
8.308000000000000e+10 1.715370948297897e-01 -1.024948674364002e-01
8.312800000000000e+10 1.711931620802227e-01 -1.026209739326400e-01
8.317600000000000e+10 1.709768381069711e-01 -1.030087944865690e-01
8.322400000000000e+10 1.708335007145393e-01 -1.032719264865838e-01
8.327200000000000e+10 1.707975359826431e-01 -1.034725457340952e-01
8.332000000000000e+10 1.702623397024793e-01 -1.035349789788111e-01
8.336800000000000e+10 1.705116827143423e-01 -1.035045415810565e-01
8.341600000000000e+10 1.706468933768934e-01 -1.034392631596424e-01
8.346400000000000e+10 1.711744020647367e-01 -1.033163823188558e-01
8.351200000000000e+10 1.715842325123495e-01 -1.030159787516567e-01
8.356000000000000e+10 1.722273720591046e-01 -1.029145621615350e-01
8.360800000000000e+10 1.725164460575337e-01 -1.025334954176508e-01
8.365600000000000e+10 1.729116942240688e-01 -1.022407452024407e-01
8.370400000000000e+10 1.731638437177365e-01 -1.022970432689311e-01
8.375200000000000e+10 1.725915687192222e-01 -1.025027917815378e-01
8.380000000000000e+10 1.721991889313396e-01 -1.026766845555514e-01
8.384800000000000e+10 1.716469542335361e-01 -1.027282705910168e-01
8.389600000000000e+10 1.712990785966925e-01 -1.028702100059648e-01
8.394400000000000e+10 1.714806581794574e-01 -1.027703468703205e-01
8.399200000000000e+10 1.721578777324457e-01 -1.024418012838410e-01
8.404000000000000e+10 1.729199755198373e-01 -1.021379601908856e-01
8.408800000000000e+10 1.736092128601068e-01 -1.021805819662077e-01
8.413600000000000e+10 1.742524070398456e-01 -1.021566111203846e-01
8.418400000000000e+10 1.747918122803438e-01 -1.023000877074663e-01
8.423200000000000e+10 1.746281197369616e-01 -1.026787164245058e-01
8.428000000000000e+10 1.745674117156202e-01 -1.024919277502462e-01
8.432800000000000e+10 1.742385689932960e-01 -1.026661118689429e-01
8.437600000000000e+10 1.738437176453956e-01 -1.028575986327695e-01
8.442400000000000e+10 1.736703504128384e-01 -1.028352919868869e-01
8.447200000000000e+10 1.734035692076647e-01 -1.034787495573934e-01
8.452000000000000e+10 1.731664455093284e-01 -1.034176562701914e-01
8.456800000000000e+10 1.734417309362269e-01 -1.035234064512022e-01
8.461600000000000e+10 1.736754539917750e-01 -1.033495353792561e-01
8.466400000000000e+10 1.739823784809419e-01 -1.036697720812420e-01
8.471200000000000e+10 1.744771055761283e-01 -1.036814327379282e-01
8.476000000000000e+10 1.745911475042553e-01 -1.034447197895909e-01
8.480800000000000e+10 1.749258356025341e-01 -1.031248834767686e-01
8.485600000000000e+10 1.752477593602953e-01 -1.028912188357795e-01
8.490400000000000e+10 1.759599650726614e-01 -1.028430163782927e-01
8.495200000000000e+10 1.761773122193845e-01 -1.025714441342187e-01
8.500000000000000e+10 1.758517008510386e-01 -1.019338880699132e-01
8.504800000000000e+10 1.758745515305976e-01 -1.024217933183596e-01
8.509600000000000e+10 1.753726171190212e-01 -1.023842955674263e-01
8.514400000000000e+10 1.748324242228489e-01 -1.030271573249966e-01
8.519200000000000e+10 1.746449724221274e-01 -1.017116270023845e-01
8.524000000000000e+10 1.752075546379715e-01 -1.021538123644172e-01
8.528800000000000e+10 1.755426683905464e-01 -1.018672000005023e-01
8.533600000000000e+10 1.760077017213712e-01 -1.016669566296367e-01
8.538400000000000e+10 1.765485979501487e-01 -1.023908486161278e-01
8.543200000000000e+10 1.768454735176557e-01 -1.025350002908483e-01
8.548000000000000e+10 1.773017924005384e-01 -1.029027252131084e-01
8.552800000000000e+10 1.774679429241727e-01 -1.028806959969316e-01
8.557600000000000e+10 1.771753222840834e-01 -1.035608282013501e-01
8.562400000000000e+10 1.774313936192793e-01 -1.033067368036443e-01
8.567200000000000e+10 1.773393068256907e-01 -1.032496944239603e-01
8.572000000000000e+10 1.772692210634255e-01 -1.032248045044972e-01
8.576800000000000e+10 1.777938034944898e-01 -1.029993455522602e-01
8.581600000000000e+10 1.772080403960207e-01 -1.033588816146393e-01
8.586400000000000e+10 1.775030103305924e-01 -1.033170966038464e-01
8.591200000000000e+10 1.779767630666998e-01 -1.037887874368447e-01
8.596000000000000e+10 1.778013676420758e-01 -1.038116938262403e-01
8.600800000000000e+10 1.779218143940476e-01 -1.039408405630812e-01
8.605600000000000e+10 1.780385927044384e-01 -1.038632262305523e-01
8.610400000000000e+10 1.781533277490325e-01 -1.040139870278592e-01
8.615200000000000e+10 1.784646086621922e-01 -1.040243789616397e-01
8.620000000000000e+10 1.784284675989358e-01 -1.040720812446463e-01
8.624800000000000e+10 1.782611182049058e-01 -1.033282100763937e-01
8.629600000000000e+10 1.790081888308159e-01 -1.034528875329013e-01
8.634400000000000e+10 1.783651389700890e-01 -1.031686616690242e-01
8.639200000000000e+10 1.796740925487741e-01 -1.031785013278728e-01
8.644000000000000e+10 1.778789104280048e-01 -1.042864265805454e-01
8.648800000000000e+10 1.782281853212999e-01 -1.042569618796202e-01
8.653600000000000e+10 1.778039896907485e-01 -1.044150637159184e-01
8.658400000000000e+10 1.772323994104293e-01 -1.036949164781434e-01
8.663200000000000e+10 1.779831924354336e-01 -1.039401211072705e-01
8.668000000000000e+10 1.779908984104386e-01 -1.041430661329042e-01
8.672800000000000e+10 1.783849276394282e-01 -1.036342436607585e-01
8.677600000000000e+10 1.779290398919600e-01 -1.031477312100738e-01
8.682400000000000e+10 1.785302719901039e-01 -1.030770808194362e-01
8.687200000000000e+10 1.776537727184163e-01 -1.034003694551618e-01
8.692000000000000e+10 1.784185892002810e-01 -1.034453969507152e-01
8.696800000000000e+10 1.790013410205650e-01 -1.035389939599655e-01
8.701600000000000e+10 1.793620441413365e-01 -1.029717097015916e-01
8.706400000000000e+10 1.793553330165207e-01 -1.028913668238139e-01
8.711200000000000e+10 1.791580805456981e-01 -1.024611766467793e-01
8.716000000000000e+10 1.786444324659164e-01 -1.029035494527828e-01
8.720800000000000e+10 1.788552396716804e-01 -1.022834105783233e-01
8.725600000000000e+10 1.788032849109885e-01 -1.025394473547358e-01
8.730400000000000e+10 1.793166481663972e-01 -1.024460012944946e-01
8.735200000000000e+10 1.792119207558397e-01 -1.029941771938131e-01
8.740000000000000e+10 1.800753390373482e-01 -1.029005118070938e-01
8.744800000000000e+10 1.796840707519576e-01 -1.027333354809974e-01
8.749600000000000e+10 1.805839508114913e-01 -1.021448400023692e-01
8.754400000000000e+10 1.804824501039362e-01 -1.020198402965961e-01
8.759200000000000e+10 1.812290007711892e-01 -1.020739689744644e-01
8.764000000000000e+10 1.810768111224044e-01 -1.021687712310149e-01
8.768800000000000e+10 1.815942091988502e-01 -1.017987601959131e-01
8.773600000000000e+10 1.811009550272958e-01 -1.021176326102097e-01
8.778400000000000e+10 1.812294510704458e-01 -1.022551198290498e-01
8.783200000000000e+10 1.812703011239764e-01 -1.023287258804208e-01
8.788000000000000e+10 1.811919031685044e-01 -1.028213509225545e-01
8.792800000000000e+10 1.811422395733888e-01 -1.026013269463514e-01
8.797600000000000e+10 1.811611540726903e-01 -1.027049203337832e-01
8.802400000000000e+10 1.819235390685533e-01 -1.022277157047657e-01
8.807200000000000e+10 1.822926506211753e-01 -1.025223212581438e-01
8.812000000000000e+10 1.829316736629007e-01 -1.019557408858343e-01
8.816800000000000e+10 1.827918770370665e-01 -1.030330128079573e-01
8.821600000000000e+10 1.837556286867818e-01 -1.023363493558439e-01
8.826400000000000e+10 1.835930820510591e-01 -1.025279902452025e-01
8.831200000000000e+10 1.835363322774277e-01 -1.025952541685783e-01
8.836000000000000e+10 1.833542721589310e-01 -1.030382897901382e-01
8.840800000000000e+10 1.828996745092832e-01 -1.028810551027975e-01
8.845600000000000e+10 1.828846606700909e-01 -1.029642420525683e-01
8.850400000000000e+10 1.827786122214666e-01 -1.026727806572516e-01
8.855200000000000e+10 1.833528392117122e-01 -1.025154777858949e-01
8.860000000000000e+10 1.839568223213417e-01 -1.015133486303791e-01
8.864800000000000e+10 1.870601020852081e-01 -9.937794219853326e-02
8.869600000000000e+10 1.831162854190307e-01 -1.011434183847622e-01
8.874400000000000e+10 1.833900053714195e-01 -1.032580692423156e-01
8.879200000000000e+10 1.834839001078773e-01 -1.038717733340833e-01
8.884000000000000e+10 1.839500801605121e-01 -1.035211913597610e-01
8.888800000000000e+10 1.860295515091587e-01 -1.014623806879667e-01
8.893600000000000e+10 1.834940077015006e-01 -1.032916193225796e-01
8.898400000000000e+10 1.837726350474084e-01 -1.040242507976182e-01
8.903200000000000e+10 1.840089171757440e-01 -1.043431422995137e-01
8.908000000000000e+10 1.834386094841030e-01 -1.043295894517498e-01
8.912800000000000e+10 1.836171264339114e-01 -1.044039254661068e-01
8.917600000000000e+10 1.832058305016695e-01 -1.047229439889836e-01
8.922400000000000e+10 1.833625434138432e-01 -1.047659463681997e-01
8.927200000000000e+10 1.832972507659675e-01 -1.046401014661038e-01
8.932000000000000e+10 1.832595844446123e-01 -1.048899032987371e-01
8.936800000000000e+10 1.835222887165537e-01 -1.047895815109448e-01
8.941600000000000e+10 1.839671428080629e-01 -1.051833341331834e-01
8.946400000000000e+10 1.838903533400895e-01 -1.052624803291820e-01
8.951200000000000e+10 1.839191129009469e-01 -1.056673455991216e-01
8.956000000000000e+10 1.841987675885953e-01 -1.060175344994304e-01
8.960800000000000e+10 1.836816235272434e-01 -1.060022311098909e-01
8.965600000000000e+10 1.840828185828430e-01 -1.063635240278026e-01
8.970400000000000e+10 1.836315844762135e-01 -1.065534928859847e-01
8.975200000000000e+10 1.833560988108839e-01 -1.064456556703169e-01
8.980000000000000e+10 1.824381820222502e-01 -1.066219880314383e-01
8.984800000000000e+10 1.830974414569479e-01 -1.062962772528743e-01
8.989600000000000e+10 1.832002985448329e-01 -1.060362256011552e-01
8.994400000000000e+10 1.832288203352079e-01 -1.062069801121221e-01
8.999200000000000e+10 1.835707945842341e-01 -1.057191724071463e-01
9.004000000000000e+10 1.840004015321447e-01 -1.058480429046624e-01
9.008800000000000e+10 1.843870464992712e-01 -1.057128573986450e-01
9.013600000000000e+10 1.852374300264992e-01 -1.062438335522889e-01
9.018400000000000e+10 1.842403973575186e-01 -1.059666676240262e-01
9.023200000000000e+10 1.840098499696952e-01 -1.058071828523761e-01
9.028000000000000e+10 1.835754601043079e-01 -1.056494226607029e-01
9.032800000000000e+10 1.834528834561994e-01 -1.055494950616866e-01
9.037600000000000e+10 1.835759862497503e-01 -1.053893891960277e-01
9.042400000000000e+10 1.842605037961977e-01 -1.054044511890181e-01
9.047200000000000e+10 1.841310828545847e-01 -1.054339665213082e-01
9.052000000000000e+10 1.842342924773787e-01 -1.057656190287596e-01
9.056800000000000e+10 1.842861306512439e-01 -1.053371526523392e-01
9.061600000000000e+10 1.844831222663265e-01 -1.055941637078066e-01
9.066400000000000e+10 1.846806074957533e-01 -1.053250336170146e-01
9.071200000000000e+10 1.848721634652034e-01 -1.051973749576602e-01
9.076000000000000e+10 1.856447708169056e-01 -1.048886730369078e-01
9.080800000000000e+10 1.859465302120332e-01 -1.047553857735022e-01
9.085600000000000e+10 1.860467959503625e-01 -1.044329858028522e-01
9.090400000000000e+10 1.861103410724892e-01 -1.048070954212956e-01
9.095200000000000e+10 1.859283219944382e-01 -1.046921218688966e-01
9.100000000000000e+10 1.858914380992478e-01 -1.052268628974077e-01
9.104800000000000e+10 1.852062990032902e-01 -1.048533060169278e-01
9.109600000000000e+10 1.853337937596846e-01 -1.048872473456831e-01
9.114400000000000e+10 1.850134498748775e-01 -1.049378681123733e-01
9.119200000000000e+10 1.852916364416580e-01 -1.046015487962110e-01
9.124000000000000e+10 1.855499977517882e-01 -1.045496815679164e-01
9.128800000000000e+10 1.859472172927212e-01 -1.041428077746705e-01
9.133600000000000e+10 1.864252900677327e-01 -1.042526604398653e-01
9.138400000000000e+10 1.870642309981381e-01 -1.039015223932396e-01
9.143200000000000e+10 1.876075577297490e-01 -1.039342821227057e-01
9.148000000000000e+10 1.876350927389517e-01 -1.037438501669394e-01
9.152800000000000e+10 1.876214390628279e-01 -1.043779213213285e-01
9.157600000000000e+10 1.874890704965025e-01 -1.042062709823909e-01
9.162400000000000e+10 1.874997149124827e-01 -1.041670151496891e-01
9.167200000000000e+10 1.869994177671207e-01 -1.042381904949686e-01
9.172000000000000e+10 1.867214275111741e-01 -1.044703623018867e-01
9.176800000000000e+10 1.866781212175861e-01 -1.045086657003056e-01
9.181600000000000e+10 1.868802398534100e-01 -1.044853169694876e-01
9.186400000000000e+10 1.868507629596507e-01 -1.048363140597969e-01
9.191200000000000e+10 1.871445805120196e-01 -1.047422575951893e-01
9.196000000000000e+10 1.876109973735865e-01 -1.049626335398940e-01
9.200800000000000e+10 1.874695859235024e-01 -1.051781937933513e-01
9.205600000000000e+10 1.879307942246874e-01 -1.054539360890590e-01
9.210400000000000e+10 1.883565151812554e-01 -1.049337304054076e-01
9.215200000000000e+10 1.887513966668997e-01 -1.050353952388670e-01
9.220000000000000e+10 1.887602520007171e-01 -1.048591682482873e-01
9.224800000000000e+10 1.893535319641096e-01 -1.049153528411104e-01
9.229600000000000e+10 1.888005668473205e-01 -1.048410119482336e-01
9.234400000000000e+10 1.891287438356611e-01 -1.049671197057273e-01
9.239200000000000e+10 1.891485493386905e-01 -1.046631476910172e-01
9.244000000000000e+10 1.889980313825711e-01 -1.048510877573481e-01
9.248800000000000e+10 1.886286088006054e-01 -1.044746971870479e-01
9.253600000000000e+10 1.888130947535757e-01 -1.042777699228520e-01
9.258400000000000e+10 1.887832404125925e-01 -1.041913618983792e-01
9.263200000000000e+10 1.892263046974443e-01 -1.042341279931633e-01
9.268000000000000e+10 1.895568843607206e-01 -1.037903818729926e-01
9.272800000000000e+10 1.902167253156881e-01 -1.036705774060269e-01
9.277600000000000e+10 1.907623743678342e-01 -1.032687946263556e-01
9.282400000000000e+10 1.909531392307773e-01 -1.032803387449407e-01
9.287200000000000e+10 1.911040908505873e-01 -1.032586018596068e-01
9.292000000000000e+10 1.911926551206102e-01 -1.033346203642647e-01
9.296800000000000e+10 1.906929558966561e-01 -1.031805952201981e-01
9.301600000000000e+10 1.911692134792030e-01 -1.030687338275581e-01
9.306400000000000e+10 1.909407628929783e-01 -1.028470528126289e-01
9.311200000000000e+10 1.911319108806522e-01 -1.025814377464948e-01
9.316000000000000e+10 1.909937591022710e-01 -1.023463992641884e-01
9.320800000000000e+10 1.912693525481492e-01 -1.020283581677376e-01
9.325600000000000e+10 1.913782382741820e-01 -1.020487383989088e-01
9.330400000000000e+10 1.916973358406102e-01 -1.017923242404963e-01
9.335200000000000e+10 1.921980614369238e-01 -1.019412136306131e-01
9.340000000000000e+10 1.924747014560985e-01 -1.016435943688513e-01
9.344800000000000e+10 1.931678639400020e-01 -1.012817113800508e-01
9.349600000000000e+10 1.929658525065750e-01 -1.012146302563071e-01
9.354400000000000e+10 1.935045929340876e-01 -1.008550450125002e-01
9.359200000000000e+10 1.939260131054715e-01 -1.008211827671494e-01
9.364000000000000e+10 1.939135641717312e-01 -1.005673976592864e-01
9.368800000000000e+10 1.938369651444936e-01 -1.004751278908718e-01
9.373600000000000e+10 1.940412911701429e-01 -1.004393826153327e-01
9.378400000000000e+10 1.933609920319474e-01 -1.004093319736919e-01
9.383200000000000e+10 1.938172887021344e-01 -1.003182298195910e-01
9.388000000000000e+10 1.933680957409020e-01 -1.004994672412402e-01
9.392800000000000e+10 1.939502500163542e-01 -1.000533998657855e-01
9.397600000000000e+10 1.941976705847349e-01 -1.001261863934951e-01
9.402400000000000e+10 1.947019784163969e-01 -1.001545451875089e-01
9.407200000000000e+10 1.952063665494400e-01 -1.003130253577632e-01
9.412000000000000e+10 1.958185623718676e-01 -1.002753437836452e-01
9.416800000000000e+10 1.960546430003918e-01 -1.002691122396342e-01
9.421600000000000e+10 1.959630071015255e-01 -1.005951849940218e-01
9.426400000000000e+10 1.964843390659040e-01 -1.005168724526357e-01
9.431200000000000e+10 1.959645327845236e-01 -1.010671387867807e-01
9.436000000000000e+10 1.961984687235212e-01 -1.010012855281136e-01
9.440800000000000e+10 1.964226869969546e-01 -1.014110921537093e-01
9.445600000000000e+10 1.961926388095908e-01 -1.014263928406774e-01
9.450400000000000e+10 1.962675818831696e-01 -1.015496332069237e-01
9.455200000000000e+10 1.961924949175190e-01 -1.016996353724806e-01
9.460000000000000e+10 1.964753322058468e-01 -1.016221774680314e-01
9.464800000000000e+10 1.965813928842235e-01 -1.017253121943897e-01
9.469600000000000e+10 1.970805983319682e-01 -1.014770777840330e-01
9.474400000000000e+10 1.972589132141066e-01 -1.019506376434070e-01
9.479200000000000e+10 1.974674513075116e-01 -1.019121805090346e-01
9.484000000000000e+10 1.973923753458364e-01 -1.018452627327637e-01
9.488800000000000e+10 1.976805707187290e-01 -1.019040820962835e-01
9.493600000000000e+10 1.970579811741910e-01 -1.018243687274319e-01
9.498400000000000e+10 1.965575697173237e-01 -1.012104014906278e-01
9.503200000000000e+10 1.965180567077305e-01 -1.013673205645395e-01
9.508000000000000e+10 1.964001676556504e-01 -1.017082191819990e-01
9.512800000000000e+10 1.961421403318147e-01 -1.019585235664396e-01
9.517600000000000e+10 1.960050181944285e-01 -1.020311410237991e-01
9.522400000000000e+10 1.954571663546090e-01 -1.023431402473213e-01
9.527200000000000e+10 1.956248117813617e-01 -1.026633081223339e-01
9.532000000000000e+10 1.951016501516838e-01 -1.025509726895840e-01
9.536800000000000e+10 1.954865402103056e-01 -1.028258460603480e-01
9.541600000000000e+10 1.958624120303076e-01 -1.025592276082605e-01
9.546400000000000e+10 1.963693052830778e-01 -1.028276776511296e-01
9.551200000000000e+10 1.964071321242301e-01 -1.030262909475501e-01
9.556000000000000e+10 1.968484158276682e-01 -1.029136121425300e-01
9.560800000000000e+10 1.968702171069875e-01 -1.031271211634354e-01
9.565600000000000e+10 1.968358849455860e-01 -1.031188097822024e-01
9.570400000000000e+10 1.968886251029994e-01 -1.031633707527499e-01
9.575200000000000e+10 1.972333602753530e-01 -1.029766114994585e-01
9.580000000000000e+10 1.968828920529136e-01 -1.031293869939067e-01
9.584800000000000e+10 1.965833692702918e-01 -1.031969630314694e-01
9.589600000000000e+10 1.966661879583638e-01 -1.032177767350568e-01
9.594400000000000e+10 1.969374520054011e-01 -1.030039598956119e-01
9.599200000000000e+10 1.969095978260723e-01 -1.032143611362441e-01
9.604000000000000e+10 1.969252737698448e-01 -1.032496318112152e-01
9.608800000000000e+10 1.974933330878947e-01 -1.030367825860622e-01
9.613600000000000e+10 1.976784767419775e-01 -1.029779216508501e-01
9.618400000000000e+10 1.980939817658899e-01 -1.026390124353624e-01
9.623200000000000e+10 1.978057949661373e-01 -1.032813442447730e-01
9.628000000000000e+10 1.982398578492907e-01 -1.029363960852976e-01
9.632800000000000e+10 1.983314865842445e-01 -1.034086860844107e-01
9.637600000000000e+10 1.983672090350673e-01 -1.032159568145750e-01
9.642400000000000e+10 1.983932541254549e-01 -1.035373362720934e-01
9.647200000000000e+10 1.985031443023207e-01 -1.034329287262194e-01
9.652000000000000e+10 1.983594263393696e-01 -1.036617447440733e-01
9.656800000000000e+10 1.983993261582000e-01 -1.031682979175947e-01
9.661600000000000e+10 1.982800229647606e-01 -1.039991194426874e-01
9.666400000000000e+10 1.978021097794040e-01 -1.040848967112686e-01
9.671200000000000e+10 1.979108482253398e-01 -1.039198305253804e-01
9.676000000000000e+10 1.974952172611761e-01 -1.042371061400090e-01
9.680800000000000e+10 1.980733394719697e-01 -1.038562755542492e-01
9.685600000000000e+10 1.979440626227231e-01 -1.039336546051254e-01
9.690400000000000e+10 1.983263874398719e-01 -1.037347132498852e-01
9.695200000000000e+10 1.986584389052779e-01 -1.035309310100472e-01
9.700000000000000e+10 1.988589440821828e-01 -1.033694939308083e-01
9.704800000000000e+10 1.991495234086268e-01 -1.033791044341403e-01
9.709600000000000e+10 1.994599034139565e-01 -1.031772048548708e-01
9.714400000000000e+10 1.997943779758248e-01 -1.033225773599304e-01
9.719200000000000e+10 2.000766223469788e-01 -1.029113521732394e-01
9.724000000000000e+10 2.005452744553498e-01 -1.028083499010444e-01
9.728800000000000e+10 1.997430870213090e-01 -1.027380823878955e-01
9.733600000000000e+10 2.002192338476150e-01 -1.026882402884987e-01
9.738400000000000e+10 2.002369792968321e-01 -1.025159863275625e-01
9.743200000000000e+10 2.001694259651230e-01 -1.026420781103068e-01
9.748000000000000e+10 2.004057591683267e-01 -1.024578029471039e-01
9.752800000000000e+10 1.996697425621657e-01 -1.030172684562517e-01
9.757600000000000e+10 2.003600115283312e-01 -1.026563141251468e-01
9.762400000000000e+10 1.999236320262042e-01 -1.026164936971336e-01
9.767200000000000e+10 2.005161749888269e-01 -1.026558561903386e-01
9.772000000000000e+10 2.006812358797732e-01 -1.028663982185563e-01
9.776800000000000e+10 2.008069305980129e-01 -1.030237890251567e-01
9.781600000000000e+10 1.999818604374825e-01 -1.028940943589871e-01
9.786400000000000e+10 2.011163145463556e-01 -1.025767595682798e-01
9.791200000000000e+10 2.015914543358539e-01 -1.026315488607949e-01
9.796000000000000e+10 2.020861286533282e-01 -1.024573227399944e-01
9.800800000000000e+10 2.021327705340260e-01 -1.027416809668114e-01
9.805600000000000e+10 2.019973363968737e-01 -1.027297899843217e-01
9.810400000000000e+10 2.018557944029802e-01 -1.028536383606050e-01
9.815200000000000e+10 2.020669620258966e-01 -1.026618372295945e-01
9.820000000000000e+10 2.018958025420484e-01 -1.027888829426341e-01
9.824800000000000e+10 2.025600380608563e-01 -1.023855060966411e-01
9.829600000000000e+10 2.023801813589509e-01 -1.024264270980266e-01
9.834400000000000e+10 2.026945092646393e-01 -1.021238810957762e-01
9.839200000000000e+10 2.027584321929214e-01 -1.024700348944834e-01
9.844000000000000e+10 2.027816076179690e-01 -1.027380905681615e-01
9.848800000000000e+10 2.026654330160106e-01 -1.023867260684474e-01
9.853600000000000e+10 2.026003655730860e-01 -1.025959150618301e-01
9.858400000000000e+10 2.022534266651004e-01 -1.027174008997556e-01
9.863200000000000e+10 2.029535071830446e-01 -1.022815778785493e-01
9.868000000000000e+10 2.030034358277619e-01 -1.022393348458225e-01
9.872800000000000e+10 2.034498436670215e-01 -1.021931905310771e-01
9.877600000000000e+10 2.038488899806406e-01 -1.023408619548026e-01
9.882400000000000e+10 2.036341282252341e-01 -1.031477819673308e-01
9.887200000000000e+10 2.039758372389059e-01 -1.028659574026352e-01
9.892000000000000e+10 2.043690612002503e-01 -1.029789721686909e-01
9.896800000000000e+10 2.044556718093701e-01 -1.028475470932840e-01
9.901600000000000e+10 2.048014358202762e-01 -1.032995360081050e-01
9.906400000000000e+10 2.043679194618386e-01 -1.030558600823878e-01
9.911200000000000e+10 2.034641749228808e-01 -1.037027266212004e-01
9.916000000000000e+10 2.049590224950296e-01 -1.030488696107961e-01
9.920800000000000e+10 2.053894839657048e-01 -1.029589651216654e-01
9.925600000000000e+10 2.056496688707213e-01 -1.030979596820666e-01
9.930400000000000e+10 2.055311340852860e-01 -1.030116172784650e-01
9.935200000000000e+10 2.058607338060381e-01 -1.032657096230199e-01
9.940000000000000e+10 2.057389359891998e-01 -1.027608007091042e-01
9.944800000000000e+10 2.056134475597954e-01 -1.032755452129991e-01
9.949600000000000e+10 2.055883670560884e-01 -1.027817384912974e-01
9.954400000000000e+10 2.054598419535729e-01 -1.029618663656328e-01
9.959200000000000e+10 2.053829416177905e-01 -1.028840883040560e-01
9.964000000000000e+10 2.055246000168757e-01 -1.026371797170306e-01
9.968800000000000e+10 2.059010888453997e-01 -1.023958550934673e-01
9.973600000000000e+10 2.057747278119362e-01 -1.024259342521045e-01
9.978400000000000e+10 2.059604708546110e-01 -1.024623871667867e-01
9.983200000000000e+10 2.061916037345523e-01 -1.023192672470485e-01
9.988000000000000e+10 2.065831288951757e-01 -1.026343069718913e-01
9.992800000000000e+10 2.064739433262594e-01 -1.026295527796598e-01
9.997600000000000e+10 2.067724644919066e-01 -1.021536728730055e-01
1.000240000000000e+11 2.067104828856910e-01 -1.023244196815758e-01
1.000720000000000e+11 2.070844681757157e-01 -1.019748918993575e-01
1.001200000000000e+11 2.070062774767894e-01 -1.024622693452211e-01
1.001680000000000e+11 2.066895740950257e-01 -1.023328024281886e-01
1.002160000000000e+11 2.068656660939473e-01 -1.026552110222830e-01
1.002640000000000e+11 2.070608147750625e-01 -1.026407535940851e-01
1.003120000000000e+11 2.072034688306539e-01 -1.027267008700277e-01
1.003600000000000e+11 2.072409321393979e-01 -1.026937844259176e-01
1.004080000000000e+11 2.078644969393558e-01 -1.022462181391528e-01
1.004560000000000e+11 2.083214286605427e-01 -1.028397127347234e-01
1.005040000000000e+11 2.079693921613801e-01 -1.019753195118780e-01
1.005520000000000e+11 2.079661288706892e-01 -1.029494589127859e-01
1.006000000000000e+11 2.088737621391808e-01 -1.021261516080117e-01
1.006480000000000e+11 2.089594479863208e-01 -1.027780868806767e-01
1.006960000000000e+11 2.100706988063916e-01 -1.022013099147989e-01
1.007440000000000e+11 2.095550496868508e-01 -1.020295519727529e-01
1.007920000000000e+11 2.094325744113285e-01 -1.019739400556665e-01
1.008400000000000e+11 2.097511038207685e-01 -1.022193077327023e-01
1.008880000000000e+11 2.101257257922584e-01 -1.024296258722708e-01
1.009360000000000e+11 2.097771650101601e-01 -1.023986495178963e-01
1.009840000000000e+11 2.095584063414085e-01 -1.020760957256920e-01
1.010320000000000e+11 2.093634216486660e-01 -1.026690445219378e-01
1.010800000000000e+11 2.092684363529207e-01 -1.023575620568570e-01
1.011280000000000e+11 2.093252109698132e-01 -1.021363295486548e-01
1.011760000000000e+11 2.088225171905628e-01 -1.024096890143951e-01
1.012240000000000e+11 2.095701730065712e-01 -1.018837786943789e-01
1.012720000000000e+11 2.095657859658160e-01 -1.021940082672272e-01
1.013200000000000e+11 2.099315991614095e-01 -1.019809202645310e-01
1.013680000000000e+11 2.101429477445105e-01 -1.023530888430524e-01
1.014160000000000e+11 2.101286521283847e-01 -1.022896173217250e-01
1.014640000000000e+11 2.092532085673569e-01 -1.025271968426199e-01
1.015120000000000e+11 2.095604333299572e-01 -1.022614277307288e-01
1.015600000000000e+11 2.094206561572296e-01 -1.031375088710429e-01
1.016080000000000e+11 2.098341811084662e-01 -1.028511129472039e-01
1.016560000000000e+11 2.091357508880613e-01 -1.030775383923227e-01
1.017040000000000e+11 2.107192225502481e-01 -1.024282694143350e-01
1.017520000000000e+11 2.097450620702567e-01 -1.026352722875354e-01
1.018000000000000e+11 2.102534516223494e-01 -1.010100759618510e-01
1.018480000000000e+11 2.103398699478888e-01 -1.014118874129079e-01
1.018960000000000e+11 2.106624327115119e-01 -1.018748387107275e-01
1.019440000000000e+11 2.112379637204150e-01 -1.017589336267228e-01
1.019920000000000e+11 2.108983752776703e-01 -9.989076969747664e-02
1.020400000000000e+11 2.122671011918564e-01 -9.994675858982509e-02
1.020880000000000e+11 2.120522632132873e-01 -1.013917481417576e-01
1.021360000000000e+11 2.114772354592136e-01 -1.011749030791922e-01
1.021840000000000e+11 2.113023127768911e-01 -1.004368561098092e-01
1.022320000000000e+11 2.113142693092351e-01 -1.002355955123536e-01
1.022800000000000e+11 2.119521556084594e-01 -9.974107090922960e-02
1.023280000000000e+11 2.133206772289921e-01 -9.798765860600313e-02
1.023760000000000e+11 2.118989634929079e-01 -9.917189038546477e-02
1.024240000000000e+11 2.125257059502716e-01 -1.003477587632558e-01
1.024720000000000e+11 2.126045571850027e-01 -1.005112349389524e-01
1.025200000000000e+11 2.121782930701800e-01 -1.004321248787303e-01
1.025680000000000e+11 2.123069798951464e-01 -1.002993122121211e-01
1.026160000000000e+11 2.122600690971417e-01 -1.010778484298076e-01
1.026640000000000e+11 2.123502270312059e-01 -1.002779118899831e-01
1.027120000000000e+11 2.130684303867884e-01 -9.964950397685382e-02
1.027600000000000e+11 2.130513486714944e-01 -9.991720715773816e-02
1.028080000000000e+11 2.134770093869548e-01 -9.983457334862098e-02
1.028560000000000e+11 2.136567335386028e-01 -1.002839752711146e-01
1.029040000000000e+11 2.136429799449241e-01 -1.002705349062824e-01
1.029520000000000e+11 2.132748525735354e-01 -1.002346900858980e-01
1.030000000000000e+11 2.131472867607584e-01 -1.008622661732618e-01
1.030480000000000e+11 2.126433320916574e-01 -1.003975658033100e-01
1.030960000000000e+11 2.130310203956126e-01 -1.002225336397004e-01
1.031440000000000e+11 2.132125616176056e-01 -9.976658024577953e-02
1.031920000000000e+11 2.145275884253522e-01 -9.889784296353950e-02
1.032400000000000e+11 2.139200839746614e-01 -9.967807666878888e-02
1.032880000000000e+11 2.143687482813412e-01 -9.968577761330634e-02
1.033360000000000e+11 2.141350444406543e-01 -1.001812444814449e-01
1.033840000000000e+11 2.148657415374866e-01 -9.981716644144926e-02
1.034320000000000e+11 2.149273373467217e-01 -1.000108353937098e-01
1.034800000000000e+11 2.148173249878483e-01 -9.988668680807374e-02
1.035280000000000e+11 2.147060825442294e-01 -1.001444167441395e-01
1.035760000000000e+11 2.151462170352998e-01 -9.978299311281409e-02
1.036240000000000e+11 2.149584537454466e-01 -9.969840186399584e-02
1.036720000000000e+11 2.145817566700456e-01 -1.004962043555037e-01
1.037200000000000e+11 2.145481631628534e-01 -1.007561908753275e-01
1.037680000000000e+11 2.147131835542081e-01 -1.002646561975931e-01
1.038160000000000e+11 2.144907772299806e-01 -1.009311485780377e-01
1.038640000000000e+11 2.120787529094881e-01 -1.048209287011737e-01
1.039120000000000e+11 2.149965640911320e-01 -9.993772857611022e-02
1.039600000000000e+11 2.142507843452630e-01 -1.006796733852750e-01
1.040080000000000e+11 2.145375852522645e-01 -9.988459331993652e-02
1.040560000000000e+11 2.144631935068755e-01 -1.002322694022685e-01
1.041040000000000e+11 2.144779258854377e-01 -1.005061459130218e-01
1.041520000000000e+11 2.149464617531048e-01 -1.015759064338974e-01
1.042000000000000e+11 2.152089294541980e-01 -1.004931972439446e-01
1.042480000000000e+11 2.154182911477311e-01 -1.009539291882533e-01
1.042960000000000e+11 2.157511073982615e-01 -1.011905369733820e-01
1.043440000000000e+11 2.148656128747332e-01 -1.020587023338614e-01
1.043920000000000e+11 2.150887554960613e-01 -1.021809378498486e-01
1.044400000000000e+11 2.152739631450507e-01 -1.011975901446907e-01
1.044880000000000e+11 2.150218334054017e-01 -1.006479582317027e-01
1.045360000000000e+11 2.153460232396729e-01 -1.002670695990075e-01
1.045840000000000e+11 2.153432843032789e-01 -9.988201853185970e-02
1.046320000000000e+11 2.151360508365520e-01 -9.980097048016119e-02
1.046800000000000e+11 2.155123198010621e-01 -9.954847968939312e-02
1.047280000000000e+11 2.160191228489182e-01 -9.933226158024333e-02
1.047760000000000e+11 2.165003316546656e-01 -9.910339944841622e-02
1.048240000000000e+11 2.165703630906363e-01 -9.900107184081836e-02
1.048720000000000e+11 2.169394265193278e-01 -9.865644956195647e-02
1.049200000000000e+11 2.174316108106201e-01 -9.917982574203715e-02
1.049680000000000e+11 2.179633516403240e-01 -9.758772772137901e-02
1.050160000000000e+11 2.183035111570879e-01 -9.764608312591859e-02
1.050640000000000e+11 2.176227724777278e-01 -9.883847840196379e-02
1.051120000000000e+11 2.182644045434021e-01 -9.957382614422511e-02
1.051600000000000e+11 2.181061861338477e-01 -9.952022375982654e-02
1.052080000000000e+11 2.181779294963319e-01 -9.986746376480621e-02
1.052560000000000e+11 2.183368377071265e-01 -9.976424528728201e-02
1.053040000000000e+11 2.187584838045738e-01 -9.955156329429499e-02
1.053520000000000e+11 2.183456768092399e-01 -1.000373632952499e-01
1.054000000000000e+11 2.187683533421017e-01 -9.955037126425549e-02
1.054480000000000e+11 2.187962335062744e-01 -9.959482682666168e-02
1.054960000000000e+11 2.190525113133279e-01 -9.918621169490896e-02
1.055440000000000e+11 2.187467620211564e-01 -9.951347407832958e-02
1.055920000000000e+11 2.196286525296612e-01 -9.932191329909008e-02
1.056400000000000e+11 2.191065788202922e-01 -9.961973800603706e-02
1.056880000000000e+11 2.195274244036245e-01 -9.900317767557429e-02
1.057360000000000e+11 2.197682208711915e-01 -9.947928897733489e-02
1.057840000000000e+11 2.203438973343889e-01 -9.917998652478402e-02
1.058320000000000e+11 2.197978886478925e-01 -9.931577249602454e-02
1.058800000000000e+11 2.201170443770980e-01 -9.928464986412434e-02
1.059280000000000e+11 2.194831918616343e-01 -9.961286627911163e-02
1.059760000000000e+11 2.198081805201336e-01 -9.968769161993599e-02
1.060240000000000e+11 2.191691384007270e-01 -9.961685805082712e-02
1.060720000000000e+11 2.198156878546261e-01 -9.909121205479397e-02
1.061200000000000e+11 2.191760762442188e-01 -9.937691292485835e-02
1.061680000000000e+11 2.198288894244396e-01 -9.889341248147986e-02
1.062160000000000e+11 2.196184730259422e-01 -9.884763003619854e-02
1.062640000000000e+11 2.198497186698129e-01 -9.856701645603998e-02
1.063120000000000e+11 2.195550916176902e-01 -9.883315949818060e-02
1.063600000000000e+11 2.201032542317770e-01 -9.861658302597012e-02
1.064080000000000e+11 2.199767869050162e-01 -9.903002267004328e-02
1.064560000000000e+11 2.194722354698430e-01 -9.907526209205282e-02
1.065040000000000e+11 2.196924709914609e-01 -9.733833453958089e-02
1.065520000000000e+11 2.197357908114349e-01 -9.856598889902674e-02
1.066000000000000e+11 2.201030625364475e-01 -9.861105531886120e-02
1.066480000000000e+11 2.196593058192366e-01 -9.853887005279661e-02
1.066960000000000e+11 2.196061201840158e-01 -9.838134827163272e-02
1.067440000000000e+11 2.208256659064707e-01 -9.937618188333036e-02
1.067920000000000e+11 2.204887991659359e-01 -9.928236325167969e-02
1.068400000000000e+11 2.204136669129529e-01 -9.936859742797384e-02
1.068880000000000e+11 2.204380005485328e-01 -9.975064812628201e-02
1.069360000000000e+11 2.209624485816407e-01 -9.902449237406385e-02
1.069840000000000e+11 2.212180187674219e-01 -9.970062616500244e-02
1.070320000000000e+11 2.217002990790330e-01 -9.914048780921166e-02
1.070800000000000e+11 2.221136921877707e-01 -9.955192541820565e-02
1.071280000000000e+11 2.228131601787595e-01 -9.860210397132868e-02
1.071760000000000e+11 2.227882785900622e-01 -9.923986511206126e-02
1.072240000000000e+11 2.229642234004770e-01 -9.928833045570967e-02
1.072720000000000e+11 2.228761458638855e-01 -9.973158447512169e-02
1.073200000000000e+11 2.222308446508565e-01 -9.969041604232744e-02
1.073680000000000e+11 2.224353943229355e-01 -1.001284817936264e-01
1.074160000000000e+11 2.219421050916938e-01 -9.996477288984038e-02
1.074640000000000e+11 2.215312989228374e-01 -1.004395456840166e-01
1.075120000000000e+11 2.211206787591457e-01 -9.996719348210110e-02
1.075600000000000e+11 2.212555514742294e-01 -9.972489211777613e-02
1.076080000000000e+11 2.215886668872093e-01 -9.945436124256199e-02
1.076560000000000e+11 2.226095575316012e-01 -9.912443406495529e-02
1.077040000000000e+11 2.223981807718813e-01 -9.968378487639917e-02
1.077520000000000e+11 2.231327761178350e-01 -9.894886323143268e-02
1.078000000000000e+11 2.234276955369947e-01 -9.920229734516975e-02
1.078480000000000e+11 2.234389152413386e-01 -9.948687135880609e-02
1.078960000000000e+11 2.232679379199365e-01 -9.965249554765074e-02
1.079440000000000e+11 2.231408352414913e-01 -9.908214907309837e-02
1.079920000000000e+11 2.230609822260811e-01 -9.983349659630121e-02
1.080400000000000e+11 2.228063933609718e-01 -9.940804925451681e-02
1.080880000000000e+11 2.228814677984226e-01 -9.919511870273126e-02
1.081360000000000e+11 2.225992621556742e-01 -1.000189478378094e-01
1.081840000000000e+11 2.231241996657672e-01 -9.965838799490133e-02
1.082320000000000e+11 2.230638376298633e-01 -1.000856100505398e-01
1.082800000000000e+11 2.236447388289673e-01 -9.977517975201203e-02
1.083280000000000e+11 2.235600807188465e-01 -1.001581728714037e-01
1.083760000000000e+11 2.238944493346195e-01 -1.001354134599471e-01
1.084240000000000e+11 2.245005280314360e-01 -9.956251507370675e-02
1.084720000000000e+11 2.250232261407145e-01 -9.921387668600591e-02
1.085200000000000e+11 2.255213812723222e-01 -9.878317812566209e-02
1.085680000000000e+11 2.257831107832761e-01 -9.864339340234397e-02
1.086160000000000e+11 2.257791457351876e-01 -9.889818125668387e-02
1.086640000000000e+11 2.261930298029709e-01 -9.865162188687060e-02
1.087120000000000e+11 2.259654685123427e-01 -9.881675818412937e-02
1.087600000000000e+11 2.259224573005370e-01 -9.878562303449891e-02
1.088080000000000e+11 2.255350004082271e-01 -9.889343733388664e-02
1.088560000000000e+11 2.256778351805013e-01 -9.903085378245188e-02
1.089040000000000e+11 2.249586472317065e-01 -9.908684456091259e-02
1.089520000000000e+11 2.252287164910386e-01 -9.905576285865249e-02
1.090000000000000e+11 2.252485842839355e-01 -9.867941951031584e-02
1.090480000000000e+11 2.261046726013771e-01 -9.835796245263279e-02
1.090960000000000e+11 2.272281931963966e-01 -9.781550788350730e-02
1.091440000000000e+11 2.276217700154397e-01 -9.880412463517876e-02
1.091920000000000e+11 2.267440973006840e-01 -9.958347639188063e-02
1.092400000000000e+11 2.273824866878983e-01 -9.933836466656544e-02
1.092880000000000e+11 2.273402512783546e-01 -9.949730486594589e-02
1.093360000000000e+11 2.280670734060160e-01 -9.936736815832148e-02
1.093840000000000e+11 2.274123710785266e-01 -9.969608973396200e-02
1.094320000000000e+11 2.269983298409104e-01 -9.966785571099608e-02
1.094800000000000e+11 2.268331543244332e-01 -9.953624620006815e-02
1.095280000000000e+11 2.263060340690389e-01 -9.944666743602126e-02
1.095760000000000e+11 2.271051493982555e-01 -9.932489984183727e-02
1.096240000000000e+11 2.263339857231813e-01 -9.876128514231731e-02
1.096720000000000e+11 2.269857146768388e-01 -9.870389233701553e-02
1.097200000000000e+11 2.283966397396715e-01 -9.798424156803483e-02
1.097680000000000e+11 2.272252260608684e-01 -9.900164013675869e-02
1.098160000000000e+11 2.279329567193873e-01 -9.886908103759055e-02
1.098640000000000e+11 2.278003477370788e-01 -9.901468293284064e-02
1.099120000000000e+11 2.283998849285633e-01 -9.862516702733402e-02
1.099600000000000e+11 2.292681344077335e-01 -9.811493282555400e-02
1.100080000000000e+11 2.287590131039302e-01 -9.808467723952620e-02
1.100560000000000e+11 2.286713164993364e-01 -9.773888664980840e-02
1.101040000000000e+11 2.286951524272328e-01 -9.705668220545165e-02
1.101520000000000e+11 2.286530728366800e-01 -9.668408525127131e-02
1.102000000000000e+11 2.290447694853933e-01 -9.752785235863960e-02
1.102480000000000e+11 2.278004295269406e-01 -9.686058762633377e-02
1.102960000000000e+11 2.277141457257158e-01 -9.673163616708995e-02
1.103440000000000e+11 2.273166893883196e-01 -9.622671671983483e-02
1.103920000000000e+11 2.276230665952940e-01 -9.607078280537902e-02
1.104400000000000e+11 2.275586618335852e-01 -9.568250826593842e-02
1.104880000000000e+11 2.276773071930559e-01 -9.593117034710669e-02
1.105360000000000e+11 2.280952276196998e-01 -9.598781797949262e-02
1.105840000000000e+11 2.272984146798985e-01 -9.500891889485547e-02
1.106320000000000e+11 2.292455311038413e-01 -9.591912476235004e-02
1.106800000000000e+11 2.304065666507195e-01 -9.548045680021706e-02
1.107280000000000e+11 2.304716274013734e-01 -9.633678498472785e-02
1.107760000000000e+11 2.306657614963797e-01 -9.617356307842502e-02
1.108240000000000e+11 2.305010677026488e-01 -9.644994086735596e-02
1.108720000000000e+11 2.301941893952258e-01 -9.685697548822225e-02
1.109200000000000e+11 2.302309082389423e-01 -9.672372265908834e-02
1.109680000000000e+11 2.301201939972265e-01 -9.642345074932507e-02
1.110160000000000e+11 2.297866392668863e-01 -9.619906429001342e-02
1.110640000000000e+11 2.303146237478784e-01 -9.609213616159655e-02
1.111120000000000e+11 2.303420580184004e-01 -9.616520605588108e-02
1.111600000000000e+11 2.308473664369041e-01 -9.605780712168845e-02
1.112080000000000e+11 2.309426719706690e-01 -9.617436908576076e-02
1.112560000000000e+11 2.317411148550773e-01 -9.618140063528136e-02
1.113040000000000e+11 2.315319298485227e-01 -9.652658316560854e-02
1.113520000000000e+11 2.323709663995528e-01 -9.638801412941136e-02
1.114000000000000e+11 2.325929943381817e-01 -9.709946119941938e-02
1.114480000000000e+11 2.326257564323524e-01 -9.688215418087107e-02
1.114960000000000e+11 2.324840085368221e-01 -9.684525866061980e-02
1.115440000000000e+11 2.325761006967730e-01 -9.656558351942561e-02
1.115920000000000e+11 2.320612826083233e-01 -9.700179766014477e-02
1.116400000000000e+11 2.319287428555150e-01 -9.693232490961171e-02
1.116880000000000e+11 2.320990451710591e-01 -9.818846614205293e-02
1.117360000000000e+11 2.324290255792926e-01 -9.745297828234184e-02
1.117840000000000e+11 2.322454742520085e-01 -9.798276538094128e-02
1.118320000000000e+11 2.325301826206062e-01 -9.807675680833751e-02
1.118800000000000e+11 2.320366092069702e-01 -9.900083619865716e-02
1.119280000000000e+11 2.324274636952267e-01 -9.900267064550121e-02
1.119760000000000e+11 2.326608101542259e-01 -9.904035634021086e-02
1.120240000000000e+11 2.332758700799330e-01 -9.533481245384724e-02
1.120720000000000e+11 2.333954986016807e-01 -9.477320466507201e-02
1.121200000000000e+11 2.343771523873719e-01 -9.455745194848694e-02
1.121680000000000e+11 2.340794592546048e-01 -9.504550800114911e-02
1.122160000000000e+11 2.345088141296128e-01 -9.557658571618301e-02
1.122640000000000e+11 2.347344620097363e-01 -9.594069997746385e-02
1.123120000000000e+11 2.361903045802585e-01 -9.669894713433388e-02
1.123600000000000e+11 2.327639939519587e-01 -9.678990237135926e-02
1.124080000000000e+11 2.339755954278442e-01 -9.706427272368436e-02
1.124560000000000e+11 2.337590655593051e-01 -9.777463406345806e-02
1.125040000000000e+11 2.350624865990274e-01 -9.699192613344852e-02
1.125520000000000e+11 2.342621931102636e-01 -9.828106469362777e-02
1.126000000000000e+11 2.347802956755820e-01 -9.856064015234117e-02
1.126480000000000e+11 2.348984172629311e-01 -9.950981237289992e-02
1.126960000000000e+11 2.358040153744150e-01 -9.944931187892458e-02
1.127440000000000e+11 2.354257299718199e-01 -1.007993707243018e-01
1.127920000000000e+11 2.361410830038567e-01 -1.014223045520084e-01
1.128400000000000e+11 2.364294341297630e-01 -1.026168611948220e-01
1.128880000000000e+11 2.365553093318994e-01 -1.035638258685579e-01
1.129360000000000e+11 2.360503449842269e-01 -1.041477509592875e-01
1.129840000000000e+11 2.356654344712305e-01 -1.042164709582915e-01
1.130320000000000e+11 2.354313658547333e-01 -1.044328284409962e-01
1.130800000000000e+11 2.351585909291425e-01 -1.037725693306552e-01
1.131280000000000e+11 2.348309267733230e-01 -1.038336499438900e-01
1.131760000000000e+11 2.345914513295745e-01 -1.033703833314889e-01
1.132240000000000e+11 2.346483245562796e-01 -1.035375389020464e-01
1.132720000000000e+11 2.347886601785908e-01 -1.029844901580674e-01
1.133200000000000e+11 2.345234490255979e-01 -1.039160924351090e-01
1.133680000000000e+11 2.343986349946348e-01 -1.039847873104232e-01
1.134160000000000e+11 2.343616676099124e-01 -1.044528286856903e-01
1.134640000000000e+11 2.349111016931931e-01 -1.034784356559572e-01
1.135120000000000e+11 2.348961766712254e-01 -1.041094546814196e-01
1.135600000000000e+11 2.357708183609077e-01 -1.035635822004738e-01
1.136080000000000e+11 2.356072267797672e-01 -1.041986442302989e-01
1.136560000000000e+11 2.362194013979020e-01 -1.035664335380098e-01
1.137040000000000e+11 2.364515834846342e-01 -1.034300472440001e-01
1.137520000000000e+11 2.361287052900523e-01 -1.035325620905091e-01
1.138000000000000e+11 2.363888960476823e-01 -1.037263952752547e-01
1.138480000000000e+11 2.361575701751135e-01 -1.039377696950790e-01
1.138960000000000e+11 2.361651710926549e-01 -1.031745405625709e-01
1.139440000000000e+11 2.352527319422469e-01 -1.030758624448501e-01
1.139920000000000e+11 2.354355874072732e-01 -1.029954178674928e-01
1.140400000000000e+11 2.350702487529725e-01 -1.024152741517715e-01
1.140880000000000e+11 2.352771990168403e-01 -1.031985157114921e-01
1.141360000000000e+11 2.349488171226137e-01 -1.026885343365572e-01
1.141840000000000e+11 2.352701847886502e-01 -1.030938897756492e-01
1.142320000000000e+11 2.355917365351949e-01 -1.024869810727817e-01
1.142800000000000e+11 2.358684891903944e-01 -1.027121991653308e-01
1.143280000000000e+11 2.364289426853161e-01 -1.027531122460194e-01
1.143760000000000e+11 2.365642507346847e-01 -1.028144001409868e-01
1.144240000000000e+11 2.365827600837327e-01 -1.028840715276225e-01
1.144720000000000e+11 2.363719983429739e-01 -1.030046405465426e-01
1.145200000000000e+11 2.363657480219416e-01 -1.027731583805718e-01
1.145680000000000e+11 2.362026461713701e-01 -1.025119607660388e-01
1.146160000000000e+11 2.358927087332792e-01 -1.025666855155068e-01
1.146640000000000e+11 2.364552594581805e-01 -1.025120537152479e-01
1.147120000000000e+11 2.364887975842441e-01 -1.026259952687947e-01
1.147600000000000e+11 2.361729958167709e-01 -1.026813413383774e-01
1.148080000000000e+11 2.362968216345370e-01 -1.030286940373940e-01
1.148560000000000e+11 2.367262065440566e-01 -1.022612552929057e-01
1.149040000000000e+11 2.370595204953435e-01 -1.025889953267683e-01
1.149520000000000e+11 2.370943565294716e-01 -1.021862168996660e-01
1.150000000000000e+11 2.373280182461824e-01 -1.031601569780365e-01
