! Generated by Phase I extraction
# Hz S RI R 50
6.700000000000000e+10 -7.635296164886868e-01 -7.063285090924253e-01
6.704800000000000e+10 -7.637241137161993e-01 -7.033410448500482e-01
6.709600000000000e+10 -7.618591535851754e-01 -7.028265769717679e-01
6.714400000000000e+10 -7.648671816757155e-01 -7.032242469329453e-01
6.719200000000000e+10 -7.660609134234361e-01 -7.034198008736265e-01
6.724000000000000e+10 -7.650330962151854e-01 -7.013019249132132e-01
6.728800000000000e+10 -7.703296550112008e-01 -6.984690209147467e-01
6.733600000000000e+10 -7.722329491226725e-01 -6.961359991090393e-01
6.738400000000000e+10 -7.688225508312891e-01 -6.977289729343711e-01
6.743200000000000e+10 -7.700911931613945e-01 -6.986150513230724e-01
6.748000000000000e+10 -7.703162114859989e-01 -6.953411245259048e-01
6.752800000000000e+10 -7.726241133021101e-01 -6.911340988157780e-01
6.757600000000000e+10 -7.794225793169034e-01 -6.909934243340098e-01
6.762400000000000e+10 -7.830456818998515e-01 -6.905714734267391e-01
6.767200000000000e+10 -7.828725440483209e-01 -6.911581629517979e-01
6.772000000000000e+10 -7.883978534296552e-01 -6.881477359114093e-01
6.776800000000000e+10 -7.924270263293391e-01 -6.840449359638837e-01
6.781600000000000e+10 -7.987452049779845e-01 -6.760210348130656e-01
6.786400000000000e+10 -7.996289865010120e-01 -6.728491457689134e-01
6.791200000000000e+10 -8.017142521483310e-01 -6.713500585817443e-01
6.796000000000000e+10 -7.967969273026800e-01 -6.716757941295959e-01
6.800800000000000e+10 -7.944896032552931e-01 -6.736956567347858e-01
6.805600000000000e+10 -7.929395610633999e-01 -6.738241051717015e-01
6.810400000000000e+10 -7.952261729192698e-01 -6.699078744072668e-01
6.815200000000000e+10 -7.961053943889459e-01 -6.725157144426561e-01
6.820000000000000e+10 -7.903088172008240e-01 -6.818112017668729e-01
6.824800000000000e+10 -7.887020873536764e-01 -6.837432965119571e-01
6.829600000000000e+10 -7.906893842539549e-01 -6.839759955970660e-01
6.834400000000000e+10 -7.960324593072636e-01 -6.821036998356327e-01
6.839200000000000e+10 -7.996027563840307e-01 -6.780881502581768e-01
6.844000000000000e+10 -7.984571890742161e-01 -6.804574010739959e-01
6.848800000000000e+10 -7.933814942712983e-01 -6.775217588878071e-01
6.853600000000000e+10 -7.907367000642177e-01 -6.776336355425469e-01
6.858400000000000e+10 -7.886348584194330e-01 -6.788948254666340e-01
6.863200000000000e+10 -7.898191041360675e-01 -6.823047212287797e-01
6.868000000000000e+10 -7.887248744836094e-01 -6.877619494373679e-01
6.872800000000000e+10 -7.883166578777331e-01 -6.902019886752694e-01
6.877600000000000e+10 -7.861601358689514e-01 -6.892868321829381e-01
6.882400000000000e+10 -7.903046725824223e-01 -6.849811478203802e-01
6.887200000000000e+10 -7.902679866867643e-01 -6.785793729520617e-01
6.892000000000000e+10 -7.893884390608420e-01 -6.791613486366290e-01
6.896800000000000e+10 -7.828579659921786e-01 -6.806920679747579e-01
6.901600000000000e+10 -7.768749571788826e-01 -6.903071399205816e-01
6.906400000000000e+10 -7.721686488513011e-01 -6.946129077371748e-01
6.911200000000000e+10 -7.744154998179067e-01 -6.941759893288219e-01
6.916000000000000e+10 -7.785033808693571e-01 -6.915062281530113e-01
6.920800000000000e+10 -7.754885075193013e-01 -6.917479046656810e-01
6.925600000000000e+10 -7.473101524720288e-01 -7.260923769746528e-01
6.930400000000000e+10 -7.389741534906400e-01 -7.282037051149254e-01
6.935200000000000e+10 -7.552119258824247e-01 -7.196574987150647e-01
6.940000000000000e+10 -7.594111376118210e-01 -7.131828809721626e-01
6.944800000000000e+10 -7.712349857195377e-01 -7.048649877175164e-01
6.949600000000000e+10 -7.735000011301529e-01 -7.009919093930739e-01
6.954400000000000e+10 -7.735274926944669e-01 -6.981933779341891e-01
6.959200000000000e+10 -7.757426440531112e-01 -6.942291218958015e-01
6.964000000000000e+10 -7.781417175740010e-01 -6.920637024353150e-01
6.968800000000000e+10 -7.784111448387468e-01 -6.891091348662356e-01
6.973600000000000e+10 -7.805883662086853e-01 -6.916208921289985e-01
6.978400000000000e+10 -7.788812444452445e-01 -6.937880086908415e-01
6.983200000000000e+10 -7.795071171949245e-01 -6.919941080660040e-01
6.988000000000000e+10 -7.850499430833867e-01 -6.895849272540033e-01
6.992800000000000e+10 -7.881785493991786e-01 -6.841832796844174e-01
6.997600000000000e+10 -7.910400851312576e-01 -6.822361681547088e-01
7.002400000000000e+10 -7.870927498847921e-01 -6.847533561397229e-01
7.007200000000000e+10 -7.851748534171082e-01 -6.851145636447636e-01
7.012000000000000e+10 -7.844514631175018e-01 -6.869594502178876e-01
7.016800000000000e+10 -7.844498489760978e-01 -6.856440688387118e-01
7.021600000000000e+10 -7.902660350979979e-01 -6.836974702905871e-01
7.026400000000000e+10 -7.881388078431293e-01 -6.843658598339611e-01
7.031200000000000e+10 -7.870018518484808e-01 -6.857531388213083e-01
7.036000000000000e+10 -7.870819806943495e-01 -6.862293956385396e-01
7.040800000000000e+10 -7.889729758908334e-01 -6.854365864186720e-01
7.045600000000000e+10 -7.874182170763286e-01 -6.853114937163008e-01
7.050400000000000e+10 -7.888976805983304e-01 -6.846406114623731e-01
7.055200000000000e+10 -7.836949991243773e-01 -6.849746634258882e-01
7.060000000000000e+10 -7.815612895339338e-01 -6.912785559679469e-01
7.064800000000000e+10 -7.771470979243809e-01 -6.922606636326349e-01
7.069600000000000e+10 -7.803050784014680e-01 -6.925638949246569e-01
7.074400000000000e+10 -7.822533034578439e-01 -6.915524266959293e-01
7.079200000000000e+10 -7.835186363145499e-01 -6.928393557480835e-01
7.084000000000000e+10 -7.832273903758722e-01 -6.942448449786295e-01
7.088800000000000e+10 -7.831505330503410e-01 -6.950580642255161e-01
7.093600000000000e+10 -7.865145381164788e-01 -6.921814568072571e-01
7.098400000000000e+10 -7.924804654743667e-01 -6.880452900966852e-01
7.103200000000000e+10 -7.935307344384938e-01 -6.864954449649906e-01
7.108000000000000e+10 -7.954636641119118e-01 -6.870318461968212e-01
7.112800000000000e+10 -7.954958826879637e-01 -6.861466757350499e-01
7.117600000000000e+10 -7.985508497965655e-01 -6.831942691488747e-01
7.122400000000000e+10 -8.075091670720993e-01 -6.796530344298124e-01
7.127200000000000e+10 -8.063529367337009e-01 -6.741077978858174e-01
7.132000000000000e+10 -8.113541780657897e-01 -6.748051995476737e-01
7.136800000000000e+10 -8.067498111699640e-01 -6.722647802923973e-01
7.141600000000000e+10 -8.091588115698993e-01 -6.741704397629593e-01
7.146400000000000e+10 -8.100726151598423e-01 -6.693883952644630e-01
7.151200000000000e+10 -8.142935824033853e-01 -6.658649240751002e-01
7.156000000000000e+10 -8.142939829655930e-01 -6.650431806674089e-01
7.160800000000000e+10 -8.159614744204973e-01 -6.658251598287268e-01
7.165600000000000e+10 -8.169190033574231e-01 -6.642746516044421e-01
7.170400000000000e+10 -8.197356914905125e-01 -6.634336679492706e-01
7.175200000000000e+10 -8.195630267610358e-01 -6.653305359264104e-01
7.180000000000000e+10 -8.190116638097689e-01 -6.664593152672448e-01
7.184800000000000e+10 -8.172338593959111e-01 -6.661437261968398e-01
7.189600000000000e+10 -8.185246798506304e-01 -6.682224579809826e-01
7.194400000000000e+10 -8.170499084794848e-01 -6.659430613905176e-01
7.199200000000000e+10 -8.185516025632980e-01 -6.649402949386741e-01
7.204000000000000e+10 -8.093754345820287e-01 -6.757832533938295e-01
7.208800000000000e+10 -8.038878612025758e-01 -6.795543055038110e-01
7.213600000000000e+10 -8.020841637385139e-01 -6.815158686500487e-01
7.218400000000000e+10 -8.021914629995472e-01 -6.809522533664235e-01
7.223200000000000e+10 -7.984161497352248e-01 -6.852283142533510e-01
7.228000000000000e+10 -7.819123038327299e-01 -6.993814699380856e-01
7.232800000000000e+10 -7.699566805016961e-01 -7.179493265631227e-01
7.237600000000000e+10 -7.573179158671607e-01 -7.295116555379465e-01
7.242400000000000e+10 -7.496530991561942e-01 -7.390615174892684e-01
7.247200000000000e+10 -7.415042353419820e-01 -7.493588179129352e-01
7.252000000000000e+10 -7.176760043417588e-01 -7.639936726686041e-01
7.256800000000000e+10 -6.867536092976776e-01 -7.917566281316236e-01
7.261600000000000e+10 -6.864717635771468e-01 -7.911495939126248e-01
7.266400000000000e+10 -6.934360880435245e-01 -7.895307420415099e-01
7.271200000000000e+10 -7.034335799198718e-01 -7.815567172193986e-01
7.276000000000000e+10 -7.056268139917966e-01 -7.801680737187029e-01
7.280800000000000e+10 -7.008897090936632e-01 -7.843262870510294e-01
7.285600000000000e+10 -6.984038015597031e-01 -7.833642896239872e-01
7.290400000000000e+10 -6.933223532610644e-01 -7.878389049743770e-01
7.295200000000000e+10 -7.000628150106294e-01 -7.798130920121636e-01
7.300000000000000e+10 -7.018779268928843e-01 -7.791423057788122e-01
7.304800000000000e+10 -7.040117061527312e-01 -7.768499230606302e-01
7.309600000000000e+10 -7.050496706968193e-01 -7.759631934801019e-01
7.314400000000000e+10 -7.124427127250006e-01 -7.719294761165668e-01
7.319200000000000e+10 -7.222827115550007e-01 -7.615661000720331e-01
7.324000000000000e+10 -7.360203674708623e-01 -7.504584204937228e-01
7.328800000000000e+10 -7.452223546341419e-01 -7.399887068723909e-01
7.333600000000000e+10 -7.530852726908250e-01 -7.329837987792615e-01
7.338400000000000e+10 -7.771946468027124e-01 -7.112113190758755e-01
7.343200000000000e+10 -7.800905608294467e-01 -7.070934942475746e-01
7.348000000000000e+10 -7.997842305815863e-01 -6.893670006690813e-01
7.352800000000000e+10 -8.087721111239545e-01 -6.803837796255353e-01
7.357600000000000e+10 -8.119119734476147e-01 -6.760593787854020e-01
7.362400000000000e+10 -8.134767260359247e-01 -6.741977117571949e-01
7.367200000000000e+10 -8.154397716139884e-01 -6.737490704989562e-01
7.372000000000000e+10 -8.149792649100102e-01 -6.708125846478162e-01
7.376800000000000e+10 -8.225929760322798e-01 -6.670532236708322e-01
7.381600000000000e+10 -8.289110343175163e-01 -6.581647159898388e-01
7.386400000000000e+10 -8.261455524834886e-01 -6.628949495186766e-01
7.391200000000000e+10 -8.102518079869223e-01 -6.789687813316022e-01
7.396000000000000e+10 -8.100340223300158e-01 -6.790057194579833e-01
7.400800000000000e+10 -8.114059807825720e-01 -6.765682410753361e-01
7.405600000000000e+10 -8.119776128601500e-01 -6.757286088489068e-01
7.410400000000000e+10 -8.124779127507062e-01 -6.735690072330301e-01
7.415200000000000e+10 -8.124821379702636e-01 -6.739206825279387e-01
7.420000000000000e+10 -8.149038132663341e-01 -6.682909371101885e-01
7.424800000000000e+10 -8.189292074429719e-01 -6.655781683866028e-01
7.429600000000000e+10 -8.215035457462451e-01 -6.592349994811312e-01
7.434400000000000e+10 -8.230840648033911e-01 -6.580076336983753e-01
7.439200000000000e+10 -8.219185863847798e-01 -6.582646495086700e-01
7.444000000000000e+10 -8.221450187257056e-01 -6.578470932902859e-01
7.448800000000000e+10 -8.234728655272873e-01 -6.575064704112829e-01
7.453600000000000e+10 -8.250111584356797e-01 -6.547637844823688e-01
7.458400000000000e+10 -8.250822961680949e-01 -6.549873298536028e-01
7.463200000000000e+10 -8.228303102658664e-01 -6.559894490100213e-01
7.468000000000000e+10 -8.187550858333510e-01 -6.581640432721692e-01
7.472800000000000e+10 -8.174240763420555e-01 -6.593163377948339e-01
7.477600000000000e+10 -8.172595556333094e-01 -6.565314491539035e-01
7.482400000000000e+10 -8.178115484992365e-01 -6.565662250587181e-01
7.487200000000000e+10 -8.171244185395687e-01 -6.571754493860505e-01
7.492000000000000e+10 -8.148829059872081e-01 -6.589484011348339e-01
7.496800000000000e+10 -8.152321938937037e-01 -6.575663893741793e-01
7.501600000000000e+10 -8.175946063790493e-01 -6.550142209718560e-01
7.506400000000000e+10 -8.195464650855627e-01 -6.521492721712384e-01
7.511200000000000e+10 -8.209450445618218e-01 -6.489688623572388e-01
7.516000000000000e+10 -8.204757105196940e-01 -6.503860848882352e-01
7.520800000000000e+10 -8.202886382169782e-01 -6.484160250907879e-01
7.525600000000000e+10 -8.211917713559964e-01 -6.491647045654459e-01
7.530400000000000e+10 -8.224415920041239e-01 -6.440919126850938e-01
7.535200000000000e+10 -8.228650059005737e-01 -6.443856302668429e-01
7.540000000000000e+10 -8.208930087808678e-01 -6.454620666657571e-01
7.544800000000000e+10 -8.192353857012659e-01 -6.496349860900954e-01
7.549600000000000e+10 -8.183180882279015e-01 -6.514994191637733e-01
7.554400000000000e+10 -8.204341759398203e-01 -6.512242059205715e-01
7.559200000000000e+10 -8.210153224187523e-01 -6.505871704383379e-01
7.564000000000000e+10 -8.191953624404287e-01 -6.521170747499807e-01
7.568800000000000e+10 -8.158970115888066e-01 -6.546729259866297e-01
7.573600000000000e+10 -8.117325716082272e-01 -6.581304913300904e-01
7.578400000000000e+10 -8.128005867544109e-01 -6.550066464073254e-01
7.583200000000000e+10 -8.133766055052586e-01 -6.541897153345287e-01
7.588000000000000e+10 -8.133547813764161e-01 -6.513786731248558e-01
7.592800000000000e+10 -8.122355306144616e-01 -6.539665278984959e-01
7.597600000000000e+10 -8.111126961825553e-01 -6.541452226006849e-01
7.602400000000000e+10 -8.117949335913649e-01 -6.552685222077231e-01
7.607200000000000e+10 -8.147033037031975e-01 -6.528341746700653e-01
7.612000000000000e+10 -8.162417969833673e-01 -6.524426332122759e-01
7.616800000000000e+10 -8.178560166510265e-01 -6.511020437115982e-01
7.621600000000000e+10 -8.141006234929329e-01 -6.535778871521739e-01
7.626400000000000e+10 -8.122957327037884e-01 -6.560840705369627e-01
7.631200000000000e+10 -8.144292944992254e-01 -6.529585763950372e-01
7.636000000000000e+10 -8.158454396900664e-01 -6.518908077040153e-01
7.640800000000000e+10 -8.176694929724566e-01 -6.498570365755649e-01
7.645600000000000e+10 -8.140328225370452e-01 -6.530983804954101e-01
7.650400000000000e+10 -8.123816688416973e-01 -6.558313899905607e-01
7.655200000000000e+10 -8.152415411931494e-01 -6.555431031658691e-01
7.660000000000000e+10 -8.179818247403200e-01 -6.523121128602242e-01
7.664800000000000e+10 -8.208219850063692e-01 -6.494498756202253e-01
7.669600000000000e+10 -8.234745828409876e-01 -6.469265778822864e-01
7.674400000000000e+10 -8.224668393816605e-01 -6.480357484390145e-01
7.679200000000000e+10 -8.236295619594307e-01 -6.448476039117670e-01
7.684000000000000e+10 -8.327039361202562e-01 -6.331753783523003e-01
7.688800000000000e+10 -8.322372677720333e-01 -6.330853645438614e-01
7.693600000000000e+10 -8.325049053846081e-01 -6.305217057705856e-01
7.698400000000000e+10 -8.341357658369799e-01 -6.288952161989051e-01
7.703200000000000e+10 -8.369325470810879e-01 -6.257059049861458e-01
7.708000000000000e+10 -8.403518075494495e-01 -6.236610791458377e-01
7.712800000000000e+10 -8.412071646281162e-01 -6.226432764944629e-01
7.717600000000000e+10 -8.399581739638832e-01 -6.233988345416838e-01
7.722400000000000e+10 -8.400090892986040e-01 -6.232630416396424e-01
7.727200000000000e+10 -8.396525785275644e-01 -6.248869823170422e-01
7.732000000000000e+10 -8.404618066983307e-01 -6.261729530949788e-01
7.736800000000000e+10 -8.403654474793533e-01 -6.270024136982533e-01
7.741600000000000e+10 -8.413113020447726e-01 -6.280438566901418e-01
7.746400000000000e+10 -8.406691749402969e-01 -6.281326822707400e-01
7.751200000000000e+10 -8.406181959335791e-01 -6.291363705331193e-01
7.756000000000000e+10 -8.406856982065647e-01 -6.290701067966091e-01
7.760800000000000e+10 -8.422035627098521e-01 -6.254978829917246e-01
7.765600000000000e+10 -8.393351647307451e-01 -6.332596683383919e-01
7.770400000000000e+10 -8.351460069123804e-01 -6.323791822230710e-01
7.775200000000000e+10 -8.315113370814370e-01 -6.378543631587759e-01
7.780000000000000e+10 -8.323922212036726e-01 -6.385506470231379e-01
7.784800000000000e+10 -8.316984138475874e-01 -6.396511853553806e-01
7.789600000000000e+10 -8.301085785923559e-01 -6.406893591153062e-01
7.794400000000000e+10 -8.288980498739165e-01 -6.403517508736790e-01
7.799200000000000e+10 -8.273119149373395e-01 -6.416582182424106e-01
7.804000000000000e+10 -8.295435873035156e-01 -6.400354858266089e-01
7.808800000000000e+10 -8.306650810682743e-01 -6.376169670231593e-01
7.813600000000000e+10 -8.341195704937835e-01 -6.355737188944095e-01
7.818400000000000e+10 -8.337665007643972e-01 -6.354131424112991e-01
7.823200000000000e+10 -8.350678470884846e-01 -6.375155129579413e-01
7.828000000000000e+10 -8.374814167475553e-01 -6.339210389425208e-01
7.832800000000000e+10 -8.422186363442588e-01 -6.289326077197912e-01
7.837600000000000e+10 -8.450693881488422e-01 -6.232330900948675e-01
7.842400000000000e+10 -8.470288777177759e-01 -6.243069496403517e-01
7.847200000000000e+10 -8.472629640584602e-01 -6.242303515171678e-01
7.852000000000000e+10 -8.449263091485759e-01 -6.245210236931925e-01
7.856800000000000e+10 -8.498269635967579e-01 -6.241280180539522e-01
7.861600000000000e+10 -8.513275612354915e-01 -6.204676960222317e-01
7.866400000000000e+10 -8.525230492617375e-01 -6.190862545139093e-01
7.871200000000000e+10 -8.495299455808721e-01 -6.219267537811197e-01
7.876000000000000e+10 -8.492321678073704e-01 -6.248441813121772e-01
7.880800000000000e+10 -8.465936438171277e-01 -6.265055796109898e-01
7.885600000000000e+10 -8.497539205366236e-01 -6.234491221382772e-01
7.890400000000000e+10 -8.526829239890804e-01 -6.194246441913080e-01
7.895200000000000e+10 -8.536435461925354e-01 -6.180607893899195e-01
7.900000000000000e+10 -8.517022994785872e-01 -6.164773532710650e-01
7.904800000000000e+10 -8.503949780323016e-01 -6.163456886078504e-01
7.909600000000000e+10 -8.517024893514873e-01 -6.152969344420205e-01
7.914400000000000e+10 -8.539416671413644e-01 -6.124618030339338e-01
7.919200000000000e+10 -8.570063663223917e-01 -6.120287970503058e-01
7.924000000000000e+10 -8.577748141152666e-01 -6.128268465364196e-01
7.928800000000000e+10 -8.598865797664621e-01 -6.121601791809996e-01
7.933600000000000e+10 -8.611090857863206e-01 -6.109749379495549e-01
7.938400000000000e+10 -8.631499755987866e-01 -6.091950171669785e-01
7.943200000000000e+10 -8.648373523078726e-01 -6.055231541128903e-01
7.948000000000000e+10 -8.613510094994009e-01 -6.083887516024042e-01
7.952800000000000e+10 -8.567614473056306e-01 -6.116066763213369e-01
7.957600000000000e+10 -8.531458258806800e-01 -6.196250692701027e-01
7.962400000000000e+10 -8.490056714845220e-01 -6.243298169191058e-01
7.967200000000000e+10 -8.505072497902247e-01 -6.244683308825254e-01
7.972000000000000e+10 -8.457997816443817e-01 -6.283920869906640e-01
7.976800000000000e+10 -8.398906489222024e-01 -6.357679712800912e-01
7.981600000000000e+10 -8.351890080472325e-01 -6.433456490660758e-01
7.986400000000000e+10 -8.365733459978507e-01 -6.436475454493849e-01
7.991200000000000e+10 -8.411513441688953e-01 -6.377056065447352e-01
7.996000000000000e+10 -8.455064875612703e-01 -6.330468412148538e-01
8.000800000000000e+10 -8.463923993550716e-01 -6.298860235269034e-01
8.005600000000000e+10 -8.465485662542038e-01 -6.308139151835862e-01
8.010400000000000e+10 -8.464194561818669e-01 -6.266390541996971e-01
8.015200000000000e+10 -8.482065462208682e-01 -6.233199816289394e-01
8.020000000000000e+10 -8.541269303478659e-01 -6.166924892870744e-01
8.024800000000000e+10 -8.567214312226177e-01 -6.148535574056471e-01
8.029600000000000e+10 -8.589275793955299e-01 -6.129708282290235e-01
8.034400000000000e+10 -8.585752195555572e-01 -6.124613581129764e-01
8.039200000000000e+10 -8.585414496818436e-01 -6.105790760646607e-01
8.044000000000000e+10 -8.610033250426129e-01 -6.073941320769716e-01
8.048800000000000e+10 -8.642250280792783e-01 -6.041778959614741e-01
8.053600000000000e+10 -8.667265568025028e-01 -6.022162073197329e-01
8.058400000000000e+10 -8.676652206519302e-01 -6.029098590646054e-01
8.063200000000000e+10 -8.689264360545926e-01 -6.007916987338893e-01
8.068000000000000e+10 -8.736757470930918e-01 -5.970396233359612e-01
8.072800000000000e+10 -8.745173197761889e-01 -5.947983185989384e-01
8.077600000000000e+10 -8.753388720239560e-01 -5.944889819149325e-01
8.082400000000000e+10 -8.733054731266483e-01 -5.957569907161608e-01
8.087200000000000e+10 -8.731184964488624e-01 -5.957658296691792e-01
8.092000000000000e+10 -8.719060409968572e-01 -5.974443629174353e-01
8.096800000000000e+10 -8.695840886565964e-01 -6.017361309770543e-01
8.101600000000000e+10 -8.674556339593980e-01 -6.020470742505071e-01
8.106400000000000e+10 -8.637571251772999e-01 -6.063414997348066e-01
8.111200000000000e+10 -8.645421152347413e-01 -6.069300011910528e-01
8.116000000000000e+10 -8.664089718188633e-01 -6.072200773504695e-01
8.120800000000000e+10 -8.627893937189434e-01 -6.107478736148353e-01
8.125600000000000e+10 -8.631177095482138e-01 -6.137524712225219e-01
8.130400000000000e+10 -8.636304569878049e-01 -6.109994894364006e-01
8.135200000000000e+10 -8.626101572053838e-01 -6.108917633376476e-01
8.140000000000000e+10 -8.620807878683004e-01 -6.082418086915546e-01
8.144800000000000e+10 -8.595929729705655e-01 -6.100585167652741e-01
8.149600000000000e+10 -8.602764529533863e-01 -6.114346458607233e-01
8.154400000000000e+10 -8.601719251565877e-01 -6.080173687592647e-01
8.159200000000000e+10 -8.594872331065966e-01 -6.078369365055000e-01
8.164000000000000e+10 -8.632374224683934e-01 -6.072884105916713e-01
8.168800000000000e+10 -8.641680724051231e-01 -6.057573273666415e-01
8.173600000000000e+10 -8.616165212669848e-01 -6.122659619643348e-01
8.178400000000000e+10 -8.554385772581922e-01 -6.165395059739287e-01
8.183200000000000e+10 -8.536541680513343e-01 -6.184787403148755e-01
8.188000000000000e+10 -8.531580627009284e-01 -6.167486790544234e-01
8.192800000000000e+10 -8.520576304464915e-01 -6.165566311819326e-01
8.197600000000000e+10 -8.470889188348539e-01 -6.204485451769451e-01
8.202400000000000e+10 -8.356324824614977e-01 -6.334919348934972e-01
8.207200000000000e+10 -8.348235625793863e-01 -6.337204059143143e-01
8.212000000000000e+10 -8.358945402899586e-01 -6.308083163709952e-01
8.216800000000000e+10 -8.406559569030849e-01 -6.255767085693020e-01
8.221600000000000e+10 -8.421609371753332e-01 -6.227544609896157e-01
8.226400000000000e+10 -8.429260385291164e-01 -6.240238547664984e-01
8.231200000000000e+10 -8.451947341349408e-01 -6.240853282441062e-01
8.236000000000000e+10 -8.500647735991449e-01 -6.204009172070315e-01
8.240800000000000e+10 -8.569647180325696e-01 -6.097147789097732e-01
8.245600000000000e+10 -8.625066224845321e-01 -6.030720549728409e-01
8.250400000000000e+10 -8.643826215969779e-01 -5.972927637014858e-01
8.255200000000000e+10 -8.653738067495168e-01 -5.954182034862857e-01
8.260000000000000e+10 -8.664700915038080e-01 -5.927026895594123e-01
8.264800000000000e+10 -8.665601107662374e-01 -5.873090155410846e-01
8.269600000000000e+10 -8.681949544877069e-01 -5.840886832190110e-01
8.274400000000000e+10 -8.691123452661740e-01 -5.821280784830600e-01
8.279200000000000e+10 -8.689595563147376e-01 -5.843085227743533e-01
8.284000000000000e+10 -8.698067866413506e-01 -5.844704773425796e-01
8.288800000000000e+10 -8.725964873603358e-01 -5.849432625441604e-01
8.293600000000000e+10 -8.753844434030637e-01 -5.828645548257080e-01
8.298400000000000e+10 -8.788117317611895e-01 -5.813779641694673e-01
8.303200000000000e+10 -8.814127379318837e-01 -5.822073353308667e-01
8.308000000000000e+10 -8.819581451683203e-01 -5.805551624479617e-01
8.312800000000000e+10 -8.822989075553354e-01 -5.809666299612433e-01
8.317600000000000e+10 -8.801510828439425e-01 -5.785297957884313e-01
8.322400000000000e+10 -8.789898783631590e-01 -5.770416177548445e-01
8.327200000000000e+10 -8.757459862211924e-01 -5.781385977568158e-01
8.332000000000000e+10 -8.727789756017769e-01 -5.807803660749788e-01
8.336800000000000e+10 -8.699820350224600e-01 -5.821320632800696e-01
8.341600000000000e+10 -8.678023214058266e-01 -5.853600824059282e-01
8.346400000000000e+10 -8.675810424682971e-01 -5.869205324577226e-01
8.351200000000000e+10 -8.689008193720162e-01 -5.886082753117987e-01
8.356000000000000e+10 -8.668777850458972e-01 -5.949037255775519e-01
8.360800000000000e+10 -8.655901923467595e-01 -5.989668847642475e-01
8.365600000000000e+10 -8.645220804457675e-01 -6.023572460025732e-01
8.370400000000000e+10 -8.674764878250633e-01 -5.976242402695217e-01
8.375200000000000e+10 -8.706960978252993e-01 -5.892756733229965e-01
8.380000000000000e+10 -8.710086106303430e-01 -5.864389735638124e-01
8.384800000000000e+10 -8.689512248490859e-01 -5.833729401905640e-01
8.389600000000000e+10 -8.678842639788107e-01 -5.825267964520658e-01
8.394400000000000e+10 -8.677712032101217e-01 -5.805458161079690e-01
8.399200000000000e+10 -8.728795859737217e-01 -5.749136201478660e-01
8.404000000000000e+10 -8.765859026769374e-01 -5.722108903070146e-01
8.408800000000000e+10 -8.801078225599828e-01 -5.732721820882455e-01
8.413600000000000e+10 -8.828719442772492e-01 -5.737387866377781e-01
8.418400000000000e+10 -8.861700960310827e-01 -5.723823419756472e-01
8.423200000000000e+10 -8.901117742270876e-01 -5.702301289943139e-01
8.428000000000000e+10 -8.915211250884992e-01 -5.678595671625604e-01
8.432800000000000e+10 -8.920830143013868e-01 -5.671254310615099e-01
8.437600000000000e+10 -8.885431824096132e-01 -5.676457874134528e-01
8.442400000000000e+10 -8.862462314155753e-01 -5.672927620543166e-01
8.447200000000000e+10 -8.835349387035206e-01 -5.676078179220754e-01
8.452000000000000e+10 -8.826674138413865e-01 -5.653174149713343e-01
8.456800000000000e+10 -8.803164203199135e-01 -5.668657217924995e-01
8.461600000000000e+10 -8.783706261605833e-01 -5.690216731871883e-01
8.466400000000000e+10 -8.765371523553425e-01 -5.705746476710338e-01
8.471200000000000e+10 -8.763481978566449e-01 -5.707796744181258e-01
8.476000000000000e+10 -8.787322170037469e-01 -5.698674301319808e-01
8.480800000000000e+10 -8.821332242514240e-01 -5.688367482763922e-01
8.485600000000000e+10 -8.835191207723099e-01 -5.685154114879377e-01
8.490400000000000e+10 -8.832499198105155e-01 -5.685173021806850e-01
8.495200000000000e+10 -8.811315454279851e-01 -5.723526274511138e-01
8.500000000000000e+10 -8.834495956294681e-01 -5.687503943484051e-01
8.504800000000000e+10 -8.824744112123460e-01 -5.682393066630612e-01
8.509600000000000e+10 -8.800372808329380e-01 -5.669508137030411e-01
8.514400000000000e+10 -8.823334921717569e-01 -5.616101692687149e-01
8.519200000000000e+10 -8.746415578412420e-01 -5.714451874776387e-01
8.524000000000000e+10 -8.643058825388001e-01 -5.861243989512042e-01
8.528800000000000e+10 -8.600726386057544e-01 -5.929283320492453e-01
8.533600000000000e+10 -8.597543018923303e-01 -5.939928082370866e-01
8.538400000000000e+10 -8.608789561816586e-01 -5.963434133173965e-01
8.543200000000000e+10 -8.671056118716342e-01 -5.897254241033943e-01
8.548000000000000e+10 -8.697991576714724e-01 -5.854083970138946e-01
8.552800000000000e+10 -8.750965143661885e-01 -5.817549913832039e-01
8.557600000000000e+10 -8.779041615808133e-01 -5.777122705082139e-01
8.562400000000000e+10 -8.814644179246924e-01 -5.694576819619577e-01
8.567200000000000e+10 -8.867030338455797e-01 -5.613511920295310e-01
8.572000000000000e+10 -8.889612984388184e-01 -5.568238992993472e-01
8.576800000000000e+10 -8.893808321661143e-01 -5.562195513317043e-01
8.581600000000000e+10 -8.883014669967517e-01 -5.584909547315763e-01
8.586400000000000e+10 -8.892394137306848e-01 -5.582604282395546e-01
8.591200000000000e+10 -8.888642887802592e-01 -5.581471023785790e-01
8.596000000000000e+10 -8.906639696143697e-01 -5.596711801126062e-01
8.600800000000000e+10 -8.920005123162219e-01 -5.595432489072701e-01
8.605600000000000e+10 -8.915924246423772e-01 -5.612791160501271e-01
8.610400000000000e+10 -8.914972365517441e-01 -5.616981538380602e-01
8.615200000000000e+10 -8.916165967579068e-01 -5.626351391636326e-01
8.620000000000000e+10 -8.926788322830628e-01 -5.612201387005277e-01
8.624800000000000e+10 -8.929454160103839e-01 -5.594937515893537e-01
8.629600000000000e+10 -8.989641686010909e-01 -5.538543322320886e-01
8.634400000000000e+10 -9.115888185007939e-01 -5.385585152972910e-01
8.639200000000000e+10 -9.133320118629337e-01 -5.316190528919217e-01
8.644000000000000e+10 -9.019100717377287e-01 -5.465662567076632e-01
8.648800000000000e+10 -8.966383557880024e-01 -5.568581636479294e-01
8.653600000000000e+10 -8.979572989291839e-01 -5.543014715817575e-01
8.658400000000000e+10 -8.981471713082049e-01 -5.584410855427449e-01
8.663200000000000e+10 -8.954037431483374e-01 -5.598542349972770e-01
8.668000000000000e+10 -8.935213487699522e-01 -5.638978230986905e-01
8.672800000000000e+10 -8.922353451837435e-01 -5.668163560115789e-01
8.677600000000000e+10 -8.968660999339443e-01 -5.679455348775624e-01
8.682400000000000e+10 -8.962737962739205e-01 -5.665655489467082e-01
8.687200000000000e+10 -8.938957866249442e-01 -5.694294006520623e-01
8.692000000000000e+10 -8.930918112536514e-01 -5.703995789721447e-01
8.696800000000000e+10 -8.917983096039057e-01 -5.687247833266149e-01
8.701600000000000e+10 -8.933003627691913e-01 -5.674941855261105e-01
8.706400000000000e+10 -8.941286419182690e-01 -5.652433936769388e-01
8.711200000000000e+10 -8.952276268409501e-01 -5.643833842977128e-01
8.716000000000000e+10 -8.926982923703702e-01 -5.657932931202491e-01
8.720800000000000e+10 -8.939051899031299e-01 -5.672055648143267e-01
8.725600000000000e+10 -8.970836199539863e-01 -5.624061607216604e-01
8.730400000000000e+10 -9.006121785620916e-01 -5.601537815516741e-01
8.735200000000000e+10 -9.019707098454229e-01 -5.574465809285410e-01
8.740000000000000e+10 -9.021961243458313e-01 -5.583623312867932e-01
8.744800000000000e+10 -9.028146659241931e-01 -5.570915395148258e-01
8.749600000000000e+10 -9.051507636348735e-01 -5.547142501001249e-01
8.754400000000000e+10 -9.064204558087390e-01 -5.507227999106982e-01
8.759200000000000e+10 -9.079199295822116e-01 -5.490395951627939e-01
8.764000000000000e+10 -9.092208807161315e-01 -5.481263899891629e-01
8.768800000000000e+10 -9.054985638901466e-01 -5.488609379039096e-01
8.773600000000000e+10 -9.099197817232594e-01 -5.448457598152253e-01
8.778400000000000e+10 -9.117460509654178e-01 -5.422179912672382e-01
8.783200000000000e+10 -9.133757860005708e-01 -5.401037820162862e-01
8.788000000000000e+10 -9.137244458530700e-01 -5.363419020406880e-01
8.792800000000000e+10 -9.149765526376396e-01 -5.355899097220265e-01
8.797600000000000e+10 -9.123938822394290e-01 -5.384839296002828e-01
8.802400000000000e+10 -9.165443547987637e-01 -5.328722004361912e-01
8.807200000000000e+10 -9.156408685840621e-01 -5.323835829841458e-01
8.812000000000000e+10 -9.212161343644830e-01 -5.278465071314217e-01
8.816800000000000e+10 -9.169504428341572e-01 -5.306754553431166e-01
8.821600000000000e+10 -9.153952055208385e-01 -5.299383995724543e-01
8.826400000000000e+10 -9.162521739284338e-01 -5.286317037535829e-01
8.831200000000000e+10 -9.171411122349912e-01 -5.281357363255357e-01
8.836000000000000e+10 -9.161070681366995e-01 -5.297311795858706e-01
8.840800000000000e+10 -9.138880449269715e-01 -5.319352920197850e-01
8.845600000000000e+10 -9.110828058126110e-01 -5.343760770623185e-01
8.850400000000000e+10 -9.159403795320027e-01 -5.283603011166962e-01
8.855200000000000e+10 -9.036143809734297e-01 -5.456641276844809e-01
8.860000000000000e+10 -9.037365283899524e-01 -5.458120234849653e-01
8.864800000000000e+10 -8.988430699862385e-01 -5.554770190921113e-01
8.869600000000000e+10 -9.031281424009462e-01 -5.437066338800146e-01
8.874400000000000e+10 -9.016577245245282e-01 -5.473253594628186e-01
8.879200000000000e+10 -9.011784320339495e-01 -5.482068016961892e-01
8.884000000000000e+10 -9.058088101148813e-01 -5.439815180600519e-01
8.888800000000000e+10 -9.046386191492224e-01 -5.471796275433869e-01
8.893600000000000e+10 -9.088727186066003e-01 -5.379495363108930e-01
8.898400000000000e+10 -9.095659278397958e-01 -5.350282459411444e-01
8.903200000000000e+10 -9.094796201491159e-01 -5.348462430654017e-01
8.908000000000000e+10 -9.081517915581760e-01 -5.328236654828731e-01
8.912800000000000e+10 -9.106321833038126e-01 -5.303125557658774e-01
8.917600000000000e+10 -9.101115130785726e-01 -5.288858688169856e-01
8.922400000000000e+10 -9.091246308311882e-01 -5.332982093116262e-01
8.927200000000000e+10 -9.091821882821508e-01 -5.321014966606099e-01
8.932000000000000e+10 -9.094408926815345e-01 -5.322795633675145e-01
8.936800000000000e+10 -9.109919923054700e-01 -5.297276488860463e-01
8.941600000000000e+10 -9.110657615145865e-01 -5.284738606647444e-01
8.946400000000000e+10 -9.111427620662794e-01 -5.268471251964867e-01
8.951200000000000e+10 -9.093904635812237e-01 -5.310500186114907e-01
8.956000000000000e+10 -9.103297969001537e-01 -5.274225896870881e-01
8.960800000000000e+10 -9.139820807279851e-01 -5.237194130056710e-01
8.965600000000000e+10 -9.141573864762988e-01 -5.218185597939731e-01
8.970400000000000e+10 -9.157587683889968e-01 -5.185414333984837e-01
8.975200000000000e+10 -9.146991374874964e-01 -5.201134360175625e-01
8.980000000000000e+10 -9.135049013706936e-01 -5.197699926219067e-01
8.984800000000000e+10 -9.110662280325765e-01 -5.210140082159436e-01
8.989600000000000e+10 -9.099273918283213e-01 -5.225375979045120e-01
8.994400000000000e+10 -9.119108713390196e-01 -5.231839268936817e-01
8.999200000000000e+10 -9.140596150054382e-01 -5.260250696595740e-01
9.004000000000000e+10 -9.147212834037384e-01 -5.262959059731808e-01
9.008800000000000e+10 -9.130340313361833e-01 -5.303160138455809e-01
9.013600000000000e+10 -9.116731261883871e-01 -5.287758499289762e-01
9.018400000000000e+10 -9.134743578089861e-01 -5.308538007547721e-01
9.023200000000000e+10 -9.147183328595702e-01 -5.286065700510258e-01
9.028000000000000e+10 -9.124596034618444e-01 -5.294336658328351e-01
9.032800000000000e+10 -9.102626207386429e-01 -5.313446714282752e-01
9.037600000000000e+10 -9.101482868965547e-01 -5.301991707952165e-01
9.042400000000000e+10 -9.095755167052526e-01 -5.288003550434880e-01
9.047200000000000e+10 -9.091515534937440e-01 -5.270658282129744e-01
9.052000000000000e+10 -9.083667835297279e-01 -5.303252211639072e-01
9.056800000000000e+10 -9.095413376499926e-01 -5.309351715068307e-01
9.061600000000000e+10 -9.085144181088657e-01 -5.331026217463947e-01
9.066400000000000e+10 -9.129109916098194e-01 -5.313282150994388e-01
9.071200000000000e+10 -9.139426503793815e-01 -5.276251421418414e-01
9.076000000000000e+10 -9.135092218206987e-01 -5.288406288301107e-01
9.080800000000000e+10 -9.134807732996686e-01 -5.320624452102296e-01
9.085600000000000e+10 -9.127452993454961e-01 -5.341143153499405e-01
9.090400000000000e+10 -9.130732911668789e-01 -5.320488927677466e-01
9.095200000000000e+10 -9.131467406349385e-01 -5.312298262757374e-01
9.100000000000000e+10 -9.113548188491879e-01 -5.306040338573981e-01
9.104800000000000e+10 -9.117731824147753e-01 -5.297989940102579e-01
9.109600000000000e+10 -9.079289495789626e-01 -5.324971233738386e-01
9.114400000000000e+10 -9.073342979917235e-01 -5.318591081361844e-01
9.119200000000000e+10 -9.087812002973887e-01 -5.317547645158038e-01
9.124000000000000e+10 -9.122297158667756e-01 -5.269860343598847e-01
9.128800000000000e+10 -9.132644966537162e-01 -5.279564157059587e-01
9.133600000000000e+10 -9.148229012651652e-01 -5.263074079356106e-01
9.138400000000000e+10 -9.179779830019041e-01 -5.259409796485530e-01
9.143200000000000e+10 -9.208765967899575e-01 -5.247803187470542e-01
9.148000000000000e+10 -9.223109215867533e-01 -5.241104924193610e-01
9.152800000000000e+10 -9.216576755779661e-01 -5.240138001427266e-01
9.157600000000000e+10 -9.218517278544497e-01 -5.234739014312312e-01
9.162400000000000e+10 -9.217350240419345e-01 -5.226687356721033e-01
9.167200000000000e+10 -9.218170868995241e-01 -5.209159521210396e-01
9.172000000000000e+10 -9.206561420422587e-01 -5.216033433053673e-01
9.176800000000000e+10 -9.184855302834234e-01 -5.221652804454131e-01
9.181600000000000e+10 -9.169765693892299e-01 -5.245774474776598e-01
9.186400000000000e+10 -9.160369102092044e-01 -5.239635774990932e-01
9.191200000000000e+10 -9.177611266706984e-01 -5.233931284207674e-01
9.196000000000000e+10 -9.185496122650426e-01 -5.230624627976669e-01
9.200800000000000e+10 -9.195984888272712e-01 -5.260291004686036e-01
9.205600000000000e+10 -9.217299848370309e-01 -5.240740465641089e-01
9.210400000000000e+10 -9.227342258691844e-01 -5.246802304897056e-01
9.215200000000000e+10 -9.255790038516759e-01 -5.208987716058608e-01
9.220000000000000e+10 -9.279922311625868e-01 -5.184811019207677e-01
9.224800000000000e+10 -9.272788330527856e-01 -5.170519414750614e-01
9.229600000000000e+10 -9.272080442531635e-01 -5.175703067604061e-01
9.234400000000000e+10 -9.263254024681895e-01 -5.176512754087189e-01
9.239200000000000e+10 -9.264315022155241e-01 -5.168647365006960e-01
9.244000000000000e+10 -9.250212176931597e-01 -5.179371489594700e-01
9.248800000000000e+10 -9.249506939114248e-01 -5.173580379211419e-01
9.253600000000000e+10 -9.229772855807539e-01 -5.184785572885757e-01
9.258400000000000e+10 -9.242900173558510e-01 -5.158832205038826e-01
9.263200000000000e+10 -9.255251947121023e-01 -5.160475693123260e-01
9.268000000000000e+10 -9.264229898299519e-01 -5.165020122233103e-01
9.272800000000000e+10 -9.277436766404542e-01 -5.163676374007894e-01
9.277600000000000e+10 -9.286774800873441e-01 -5.165691909453631e-01
9.282400000000000e+10 -9.304855377436584e-01 -5.147117638361633e-01
9.287200000000000e+10 -9.324782724306406e-01 -5.116554325791942e-01
9.292000000000000e+10 -9.317390860909309e-01 -5.126034866544652e-01
9.296800000000000e+10 -9.311233656707414e-01 -5.120467602953545e-01
9.301600000000000e+10 -9.289519478437018e-01 -5.135222772797335e-01
9.306400000000000e+10 -9.283217977042456e-01 -5.134412009725109e-01
9.311200000000000e+10 -9.281261647488360e-01 -5.115564342796152e-01
9.316000000000000e+10 -9.268471556082433e-01 -5.131476192297726e-01
9.320800000000000e+10 -9.250991674764868e-01 -5.171993512944343e-01
9.325600000000000e+10 -9.225744973651094e-01 -5.185691407456561e-01
9.330400000000000e+10 -9.223283902599366e-01 -5.200009352255441e-01
9.335200000000000e+10 -9.233596256483819e-01 -5.194275301169657e-01
9.340000000000000e+10 -9.253283849416870e-01 -5.183754458337663e-01
9.344800000000000e+10 -9.255464018305954e-01 -5.190418176084970e-01
9.349600000000000e+10 -9.276446043536483e-01 -5.175496787535214e-01
9.354400000000000e+10 -9.268397964676245e-01 -5.187523542619212e-01
9.359200000000000e+10 -9.297815730416318e-01 -5.139245027140829e-01
9.364000000000000e+10 -9.313445089397591e-01 -5.115689452802403e-01
9.368800000000000e+10 -9.314228243352455e-01 -5.092242652406610e-01
9.373600000000000e+10 -9.306248178233941e-01 -5.086331673204380e-01
9.378400000000000e+10 -9.296945920032700e-01 -5.104716197962440e-01
9.383200000000000e+10 -9.293376895060380e-01 -5.090172449659396e-01
9.388000000000000e+10 -9.294842403109450e-01 -5.082186890613307e-01
9.392800000000000e+10 -9.282154283925912e-01 -5.078948983775750e-01
9.397600000000000e+10 -9.277215424121671e-01 -5.091379591570212e-01
9.402400000000000e+10 -9.270185206451103e-01 -5.124558328243565e-01
9.407200000000000e+10 -9.263206429136153e-01 -5.140556196101084e-01
9.412000000000000e+10 -9.282829782747043e-01 -5.111682336587828e-01
9.416800000000000e+10 -9.295779412123900e-01 -5.120303726813723e-01
9.421600000000000e+10 -9.308519102994375e-01 -5.093000150965327e-01
9.426400000000000e+10 -9.308627848067771e-01 -5.087253803464358e-01
9.431200000000000e+10 -9.299204609949497e-01 -5.076651729016343e-01
9.436000000000000e+10 -9.312198108863255e-01 -5.062896111637860e-01
9.440800000000000e+10 -9.324710253871730e-01 -5.010916519141430e-01
9.445600000000000e+10 -9.330744809154465e-01 -4.999424852538133e-01
9.450400000000000e+10 -9.329346045269555e-01 -4.993315031381480e-01
9.455200000000000e+10 -9.323781161726266e-01 -4.991453447669270e-01
9.460000000000000e+10 -9.323876968743202e-01 -4.994229057301715e-01
9.464800000000000e+10 -9.330930060196929e-01 -4.960073795328070e-01
9.469600000000000e+10 -9.336525172604211e-01 -4.968054998509138e-01
9.474400000000000e+10 -9.339492321339348e-01 -4.950288242579816e-01
9.479200000000000e+10 -9.340722969347942e-01 -4.971161512954619e-01
9.484000000000000e+10 -9.338232995570114e-01 -5.005873458149319e-01
9.488800000000000e+10 -9.354547655644053e-01 -5.000402498625363e-01
9.493600000000000e+10 -9.382462230396670e-01 -5.002163717244960e-01
9.498400000000000e+10 -9.380090209799865e-01 -4.964321456534423e-01
9.503200000000000e+10 -9.370532331145609e-01 -4.976129392982591e-01
9.508000000000000e+10 -9.355541596906825e-01 -4.972299377924661e-01
9.512800000000000e+10 -9.362143592984330e-01 -4.955886856196485e-01
9.517600000000000e+10 -9.359756910881497e-01 -4.937996470811614e-01
9.522400000000000e+10 -9.360371565267603e-01 -4.929220593071669e-01
9.527200000000000e+10 -9.357888737343253e-01 -4.917943217992889e-01
9.532000000000000e+10 -9.360258220430583e-01 -4.920436093691589e-01
9.536800000000000e+10 -9.359390182666275e-01 -4.928445914028761e-01
9.541600000000000e+10 -9.375508118885054e-01 -4.918883609972986e-01
9.546400000000000e+10 -9.389810653741082e-01 -4.913757156816372e-01
9.551200000000000e+10 -9.400606980263355e-01 -4.906847147215462e-01
9.556000000000000e+10 -9.404358693759030e-01 -4.902420921205649e-01
9.560800000000000e+10 -9.404025736958227e-01 -4.922666762876622e-01
9.565600000000000e+10 -9.402300190331088e-01 -4.911096204528372e-01
9.570400000000000e+10 -9.399369660966583e-01 -4.906402626097127e-01
9.575200000000000e+10 -9.390624694232169e-01 -4.900966546902074e-01
9.580000000000000e+10 -9.383619750710539e-01 -4.899286950293109e-01
9.584800000000000e+10 -9.364608584990449e-01 -4.921672122670004e-01
9.589600000000000e+10 -9.362028348870479e-01 -4.910197188398902e-01
9.594400000000000e+10 -9.363746942895238e-01 -4.906151727604932e-01
9.599200000000000e+10 -9.366419956622558e-01 -4.882220488756654e-01
9.604000000000000e+10 -9.363375248231587e-01 -4.885554892238784e-01
9.608800000000000e+10 -9.359510529411712e-01 -4.895267877624084e-01
9.613600000000000e+10 -9.365916729784217e-01 -4.884405463352522e-01
9.618400000000000e+10 -9.371839756079950e-01 -4.882287270840463e-01
9.623200000000000e+10 -9.375226558229397e-01 -4.894794518809595e-01
9.628000000000000e+10 -9.373196141683171e-01 -4.907214286643544e-01
9.632800000000000e+10 -9.363216400124785e-01 -4.917659941544427e-01
9.637600000000000e+10 -9.370416503311865e-01 -4.920446160083680e-01
9.642400000000000e+10 -9.373530850124454e-01 -4.916552374610857e-01
9.647200000000000e+10 -9.374121663764389e-01 -4.907661766525809e-01
9.652000000000000e+10 -9.349767006067765e-01 -4.947600405325410e-01
9.656800000000000e+10 -9.358076188299850e-01 -4.937845659221530e-01
9.661600000000000e+10 -9.332725189289603e-01 -4.933906176922032e-01
9.666400000000000e+10 -9.359226511781268e-01 -4.914373437261397e-01
9.671200000000000e+10 -9.369313918041661e-01 -4.906599663988669e-01
9.676000000000000e+10 -9.373991906168022e-01 -4.901613807509566e-01
9.680800000000000e+10 -9.370277879551576e-01 -4.912320829642285e-01
9.685600000000000e+10 -9.380831043786830e-01 -4.913187685026340e-01
9.690400000000000e+10 -9.392399976347670e-01 -4.899125661452652e-01
9.695200000000000e+10 -9.403357794013928e-01 -4.891986652328644e-01
9.700000000000000e+10 -9.421190554240603e-01 -4.850857935209490e-01
9.704800000000000e+10 -9.424687563755669e-01 -4.868052540783263e-01
9.709600000000000e+10 -9.421748779822605e-01 -4.889439963939733e-01
9.714400000000000e+10 -9.425562430687711e-01 -4.870425222413189e-01
9.719200000000000e+10 -9.440364972307296e-01 -4.857962960020703e-01
9.724000000000000e+10 -9.421402790176757e-01 -4.884132269030295e-01
9.728800000000000e+10 -9.423927330766796e-01 -4.900104347342981e-01
9.733600000000000e+10 -9.407166303691102e-01 -4.928368976504419e-01
9.738400000000000e+10 -9.397706869652113e-01 -4.933612898131312e-01
9.743200000000000e+10 -9.410568285604936e-01 -4.938162364630798e-01
9.748000000000000e+10 -9.428576162768375e-01 -4.912852659680216e-01
9.752800000000000e+10 -9.431252554850313e-01 -4.906940918583931e-01
9.757600000000000e+10 -9.420546400775175e-01 -4.929317871079285e-01
9.762400000000000e+10 -9.423282067911513e-01 -4.916185431809182e-01
9.767200000000000e+10 -9.431271109062735e-01 -4.905285122611473e-01
9.772000000000000e+10 -9.441538530862389e-01 -4.885200403168773e-01
9.776800000000000e+10 -9.429612491572466e-01 -4.892659391415407e-01
9.781600000000000e+10 -9.439599988648608e-01 -4.930111137939050e-01
9.786400000000000e+10 -9.441594184570637e-01 -4.919927007189835e-01
9.791200000000000e+10 -9.447885266735906e-01 -4.894217714827140e-01
9.796000000000000e+10 -9.437834432812561e-01 -4.889098398807599e-01
9.800800000000000e+10 -9.435360036385769e-01 -4.882565659174252e-01
9.805600000000000e+10 -9.432294891558962e-01 -4.897401808735722e-01
9.810400000000000e+10 -9.424072825669756e-01 -4.925681435110530e-01
9.815200000000000e+10 -9.407181645574566e-01 -4.918447227848946e-01
9.820000000000000e+10 -9.439961081814343e-01 -4.912477991743672e-01
9.824800000000000e+10 -9.444919912317722e-01 -4.895292252461658e-01
9.829600000000000e+10 -9.455613362696466e-01 -4.870356236109804e-01
9.834400000000000e+10 -9.456520887056045e-01 -4.886534189107215e-01
9.839200000000000e+10 -9.465533476146016e-01 -4.881703163560199e-01
9.844000000000000e+10 -9.475038303421529e-01 -4.850597694870820e-01
9.848800000000000e+10 -9.503767145586121e-01 -4.820178914830029e-01
9.853600000000000e+10 -9.533561286927942e-01 -4.795965684374600e-01
9.858400000000000e+10 -9.535425781645455e-01 -4.768314244017907e-01
9.863200000000000e+10 -9.522711569706515e-01 -4.765785788173322e-01
9.868000000000000e+10 -9.512959734123823e-01 -4.748782282098260e-01
9.872800000000000e+10 -9.505501211536043e-01 -4.750755682027890e-01
9.877600000000000e+10 -9.512608488516086e-01 -4.758674560022762e-01
9.882400000000000e+10 -9.496403850183167e-01 -4.759681868986837e-01
9.887200000000000e+10 -9.480051190595997e-01 -4.792549244714411e-01
9.892000000000000e+10 -9.468688770424172e-01 -4.820109714358931e-01
9.896800000000000e+10 -9.468106822903057e-01 -4.819133952209401e-01
9.901600000000000e+10 -9.465784264967416e-01 -4.818587398434624e-01
9.906400000000000e+10 -9.462898791137569e-01 -4.826319064559088e-01
9.911200000000000e+10 -9.441403378823141e-01 -4.819548032053041e-01
9.916000000000000e+10 -9.434588152520460e-01 -4.852039247560318e-01
9.920800000000000e+10 -9.417798507504533e-01 -4.862781490189582e-01
9.925600000000000e+10 -9.419521635109622e-01 -4.850770251524661e-01
9.930400000000000e+10 -9.412616911299118e-01 -4.853698267124091e-01
9.935200000000000e+10 -9.404165386865787e-01 -4.854364892324948e-01
9.940000000000000e+10 -9.404591296767019e-01 -4.872542286877797e-01
9.944800000000000e+10 -9.382919264942942e-01 -4.846665097682188e-01
9.949600000000000e+10 -9.381438006793826e-01 -4.866641739279512e-01
9.954400000000000e+10 -9.385747122795420e-01 -4.854652203521777e-01
9.959200000000000e+10 -9.389393437293855e-01 -4.858375534678115e-01
9.964000000000000e+10 -9.371902429289563e-01 -4.888071219887914e-01
9.968800000000000e+10 -9.369958598469000e-01 -4.899992394475592e-01
9.973600000000000e+10 -9.360098297376676e-01 -4.932250343158355e-01
9.978400000000000e+10 -9.388235660192281e-01 -4.912714425729833e-01
9.983200000000000e+10 -9.418900160828646e-01 -4.901803622701720e-01
9.988000000000000e+10 -9.429437804836642e-01 -4.874162370105150e-01
9.992800000000000e+10 -9.434244968242350e-01 -4.866306090324111e-01
9.997600000000000e+10 -9.454076492901983e-01 -4.863810843379147e-01
1.000240000000000e+11 -9.484956855371000e-01 -4.818036487052110e-01
1.000720000000000e+11 -9.477368612730073e-01 -4.779804880770107e-01
1.001200000000000e+11 -9.504574564960996e-01 -4.779285659941287e-01
1.001680000000000e+11 -9.503025653609090e-01 -4.748478424336157e-01
1.002160000000000e+11 -9.507443260743521e-01 -4.762314126792062e-01
1.002640000000000e+11 -9.491480395225248e-01 -4.750450438090910e-01
1.003120000000000e+11 -9.480941675972752e-01 -4.743766539274996e-01
1.003600000000000e+11 -9.492317944063485e-01 -4.751900567692787e-01
1.004080000000000e+11 -9.460076813117931e-01 -4.752517345468400e-01
1.004560000000000e+11 -9.445153698786141e-01 -4.759733466942221e-01
1.005040000000000e+11 -9.501702225403678e-01 -4.795160381136814e-01
1.005520000000000e+11 -9.484324909287204e-01 -4.787438666495349e-01
1.006000000000000e+11 -9.488191319502198e-01 -4.781373026956644e-01
1.006480000000000e+11 -9.492744612088748e-01 -4.791987188655669e-01
1.006960000000000e+11 -9.449338345007681e-01 -4.808261459341861e-01
1.007440000000000e+11 -9.463972267427423e-01 -4.810818247446477e-01
1.007920000000000e+11 -9.467549743462695e-01 -4.841722706099337e-01
1.008400000000000e+11 -9.463524377416898e-01 -4.812280071125947e-01
1.008880000000000e+11 -9.458485381790921e-01 -4.831722345693956e-01
1.009360000000000e+11 -9.455795942086374e-01 -4.825311630781539e-01
1.009840000000000e+11 -9.435149444265816e-01 -4.858946866987290e-01
1.010320000000000e+11 -9.429978583363164e-01 -4.866115310324636e-01
1.010800000000000e+11 -9.433879808990107e-01 -4.856516638603815e-01
1.011280000000000e+11 -9.431465208116816e-01 -4.862205415238996e-01
1.011760000000000e+11 -9.446639989405859e-01 -4.858453756900344e-01
1.012240000000000e+11 -9.413389695028180e-01 -4.893175349194621e-01
1.012720000000000e+11 -9.399416328717470e-01 -4.927139184007661e-01
1.013200000000000e+11 -9.398995954152184e-01 -4.927270731102519e-01
1.013680000000000e+11 -9.406130646697687e-01 -4.904436030999253e-01
1.014160000000000e+11 -9.441932693895776e-01 -4.892098074574732e-01
1.014640000000000e+11 -9.422344404627170e-01 -4.893195015682598e-01
1.015120000000000e+11 -9.407522531149952e-01 -4.927685612138899e-01
1.015600000000000e+11 -9.361116607516375e-01 -4.992283022098932e-01
1.016080000000000e+11 -9.394329554532526e-01 -4.952562790622044e-01
1.016560000000000e+11 -9.400361790781169e-01 -4.933742010331641e-01
1.017040000000000e+11 -9.391056608089244e-01 -4.947752517324514e-01
1.017520000000000e+11 -9.408756679330013e-01 -4.850571096951863e-01
1.018000000000000e+11 -9.458248426302928e-01 -4.761760597184996e-01
1.018480000000000e+11 -9.481299779816712e-01 -4.750346352559991e-01
1.018960000000000e+11 -9.530420976167405e-01 -4.708154475292127e-01
1.019440000000000e+11 -9.539475128831492e-01 -4.625785521416934e-01
1.019920000000000e+11 -9.523714626616633e-01 -4.652521376485398e-01
1.020400000000000e+11 -9.531163752048744e-01 -4.679134071802386e-01
1.020880000000000e+11 -9.482790011937116e-01 -4.748328295043968e-01
1.021360000000000e+11 -9.463532102031007e-01 -4.789183985809373e-01
1.021840000000000e+11 -9.453462384455765e-01 -4.775191869050349e-01
1.022320000000000e+11 -9.456422006643673e-01 -4.752771055700943e-01
1.022800000000000e+11 -9.483312708263152e-01 -4.713554074149778e-01
1.023280000000000e+11 -9.498606744694887e-01 -4.661657571749974e-01
1.023760000000000e+11 -9.496594075527520e-01 -4.696022869656355e-01
1.024240000000000e+11 -9.494894331117921e-01 -4.735842467001110e-01
1.024720000000000e+11 -9.493591526027526e-01 -4.768560670052913e-01
1.025200000000000e+11 -9.447904380705441e-01 -4.776601317363032e-01
1.025680000000000e+11 -9.438856363934586e-01 -4.843376184348395e-01
1.026160000000000e+11 -9.419697519689979e-01 -4.826734534589549e-01
1.026640000000000e+11 -9.458777149817591e-01 -4.782090106049121e-01
1.027120000000000e+11 -9.429058481116320e-01 -4.752687349471774e-01
1.027600000000000e+11 -9.450374621103486e-01 -4.778668038261618e-01
1.028080000000000e+11 -9.448783222126329e-01 -4.768444600632269e-01
1.028560000000000e+11 -9.433904434420194e-01 -4.814047537775670e-01
1.029040000000000e+11 -9.438481191716324e-01 -4.784616328355451e-01
1.029520000000000e+11 -9.443661567150261e-01 -4.793750484444394e-01
1.030000000000000e+11 -9.428576660361870e-01 -4.779295466165438e-01
1.030480000000000e+11 -9.414248673319646e-01 -4.820589625028127e-01
1.030960000000000e+11 -9.367690017866518e-01 -4.858061008105288e-01
1.031440000000000e+11 -9.368368689071301e-01 -4.883503547412983e-01
1.031920000000000e+11 -9.384034440278323e-01 -4.826610270462295e-01
1.032400000000000e+11 -9.403740824124464e-01 -4.827136597260980e-01
1.032880000000000e+11 -9.415108853279749e-01 -4.797128565690070e-01
1.033360000000000e+11 -9.423091149934333e-01 -4.826955261547237e-01
1.033840000000000e+11 -9.431671741619244e-01 -4.787456105567552e-01
1.034320000000000e+11 -9.444561750056198e-01 -4.793704743921984e-01
1.034800000000000e+11 -9.479469300167032e-01 -4.739586135978206e-01
1.035280000000000e+11 -9.503511782252786e-01 -4.720424061421853e-01
1.035760000000000e+11 -9.499137004925896e-01 -4.702303322397658e-01
1.036240000000000e+11 -9.514679024754760e-01 -4.706188225625305e-01
1.036720000000000e+11 -9.513938876619120e-01 -4.703735643318415e-01
1.037200000000000e+11 -9.523919672417327e-01 -4.680215279120379e-01
1.037680000000000e+11 -9.530812173815458e-01 -4.667057177530403e-01
1.038160000000000e+11 -9.533398273096002e-01 -4.659787653051663e-01
1.038640000000000e+11 -9.537288013940651e-01 -4.668537903355883e-01
1.039120000000000e+11 -9.510940648904828e-01 -4.685112820958208e-01
1.039600000000000e+11 -9.489093428495040e-01 -4.731545893184687e-01
1.040080000000000e+11 -9.541828040836671e-01 -4.655787179998812e-01
1.040560000000000e+11 -9.545626940455378e-01 -4.662030050977069e-01
1.041040000000000e+11 -9.555164393120509e-01 -4.668277501548697e-01
1.041520000000000e+11 -9.560820123280626e-01 -4.696717521474336e-01
1.042000000000000e+11 -9.571000437772155e-01 -4.695121105449638e-01
1.042480000000000e+11 -9.580122805723739e-01 -4.679090591408859e-01
1.042960000000000e+11 -9.592901528955358e-01 -4.659561122557713e-01
1.043440000000000e+11 -9.593940176173504e-01 -4.666409930345926e-01
1.043920000000000e+11 -9.592062988504096e-01 -4.670825240093803e-01
1.044400000000000e+11 -9.591754359809983e-01 -4.665069393361295e-01
1.044880000000000e+11 -9.592772772651692e-01 -4.658150647408185e-01
1.045360000000000e+11 -9.581679632830059e-01 -4.653516434729475e-01
1.045840000000000e+11 -9.585000793068443e-01 -4.641616413615095e-01
1.046320000000000e+11 -9.577141411539358e-01 -4.670712483999162e-01
1.046800000000000e+11 -9.554856407528302e-01 -4.686972584305746e-01
1.047280000000000e+11 -9.558149210592316e-01 -4.691035688429668e-01
1.047760000000000e+11 -9.569429850680974e-01 -4.681479519755715e-01
1.048240000000000e+11 -9.578579013335418e-01 -4.665584100902799e-01
1.048720000000000e+11 -9.600270994271463e-01 -4.662315112438589e-01
1.049200000000000e+11 -9.602070603004231e-01 -4.666480172125170e-01
1.049680000000000e+11 -9.607379644483719e-01 -4.653120399696106e-01
1.050160000000000e+11 -9.621077521114988e-01 -4.627916207478695e-01
1.050640000000000e+11 -9.643086703052619e-01 -4.599749014542900e-01
1.051120000000000e+11 -9.659051212730644e-01 -4.563837725941750e-01
1.051600000000000e+11 -9.659014243875097e-01 -4.559923391025529e-01
1.052080000000000e+11 -9.650595145240237e-01 -4.549382839668450e-01
1.052560000000000e+11 -9.652445549462312e-01 -4.541540234395124e-01
1.053040000000000e+11 -9.654012183121533e-01 -4.535885814387616e-01
1.053520000000000e+11 -9.650616159923548e-01 -4.526027580734634e-01
1.054000000000000e+11 -9.653267535473559e-01 -4.526010758434159e-01
1.054480000000000e+11 -9.647466965574895e-01 -4.527418280593824e-01
1.054960000000000e+11 -9.638729633452187e-01 -4.525108454944087e-01
1.055440000000000e+11 -9.646299399473973e-01 -4.531176841390832e-01
1.055920000000000e+11 -9.641863417587277e-01 -4.529743301055790e-01
1.056400000000000e+11 -9.660394185502275e-01 -4.511832507907056e-01
1.056880000000000e+11 -9.657306793891364e-01 -4.518005928783801e-01
1.057360000000000e+11 -9.642116199911468e-01 -4.538990829774536e-01
1.057840000000000e+11 -9.654951980849760e-01 -4.526933694343171e-01
1.058320000000000e+11 -9.664917960919879e-01 -4.537367496190630e-01
1.058800000000000e+11 -9.680257464598769e-01 -4.513851049333453e-01
1.059280000000000e+11 -9.682174025656497e-01 -4.522284306896414e-01
1.059760000000000e+11 -9.659970046249451e-01 -4.536501717874165e-01
1.060240000000000e+11 -9.663376425888230e-01 -4.550774097117973e-01
1.060720000000000e+11 -9.655695481315903e-01 -4.551747232260409e-01
1.061200000000000e+11 -9.666333790271462e-01 -4.526197205416980e-01
1.061680000000000e+11 -9.651785429133443e-01 -4.546597021454761e-01
1.062160000000000e+11 -9.650388260764812e-01 -4.576181213189273e-01
1.062640000000000e+11 -9.634883477677513e-01 -4.595108633189354e-01
1.063120000000000e+11 -9.639801021138625e-01 -4.620130212203176e-01
1.063600000000000e+11 -9.641275355286609e-01 -4.629716078036942e-01
1.064080000000000e+11 -9.623982129452976e-01 -4.621922637493450e-01
1.064560000000000e+11 -9.624664464162637e-01 -4.660060449530946e-01
1.065040000000000e+11 -9.581203707550672e-01 -4.677296725134032e-01
1.065520000000000e+11 -9.548019734839179e-01 -4.731432672357618e-01
1.066000000000000e+11 -9.599016236069062e-01 -4.677079652894197e-01
1.066480000000000e+11 -9.616606320379025e-01 -4.663594368183670e-01
1.066960000000000e+11 -9.636668862766590e-01 -4.665381021316193e-01
1.067440000000000e+11 -9.629112860938434e-01 -4.660449832476046e-01
1.067920000000000e+11 -9.618672157340146e-01 -4.643123342653721e-01
1.068400000000000e+11 -9.638234929389632e-01 -4.627188846736588e-01
1.068880000000000e+11 -9.678895408173711e-01 -4.530637362159196e-01
1.069360000000000e+11 -9.681447190336504e-01 -4.584422578908109e-01
1.069840000000000e+11 -9.688978707571430e-01 -4.581755305683332e-01
1.070320000000000e+11 -9.704222719912290e-01 -4.593441333667547e-01
1.070800000000000e+11 -9.697763397128524e-01 -4.581822936646840e-01
1.071280000000000e+11 -9.702045175918003e-01 -4.584950542680566e-01
1.071760000000000e+11 -9.701120127443740e-01 -4.558158738313166e-01
1.072240000000000e+11 -9.700804047104729e-01 -4.565497289119559e-01
1.072720000000000e+11 -9.687463171067419e-01 -4.566344392060153e-01
1.073200000000000e+11 -9.684885557504798e-01 -4.572912504467624e-01
1.073680000000000e+11 -9.672877782402715e-01 -4.574055314504136e-01
1.074160000000000e+11 -9.679886801937501e-01 -4.565122244007331e-01
1.074640000000000e+11 -9.668427048746550e-01 -4.557313433367319e-01
1.075120000000000e+11 -9.669932416560505e-01 -4.570022439381067e-01
1.075600000000000e+11 -9.665020951160896e-01 -4.582142946732960e-01
1.076080000000000e+11 -9.664774494247547e-01 -4.572260873424373e-01
1.076560000000000e+11 -9.670419414378753e-01 -4.576050296340815e-01
1.077040000000000e+11 -9.721793328782782e-01 -4.501587624501074e-01
1.077520000000000e+11 -9.701349868298083e-01 -4.565433902551648e-01
1.078000000000000e+11 -9.712783543363550e-01 -4.574454125057721e-01
1.078480000000000e+11 -9.721603894673212e-01 -4.581611971276719e-01
1.078960000000000e+11 -9.728321914283492e-01 -4.574147457515982e-01
1.079440000000000e+11 -9.708995450258336e-01 -4.556582113404363e-01
1.079920000000000e+11 -9.701348359352827e-01 -4.573409139801567e-01
1.080400000000000e+11 -9.696409952784689e-01 -4.554877108665520e-01
1.080880000000000e+11 -9.691737531226007e-01 -4.563986315137327e-01
1.081360000000000e+11 -9.690204023136897e-01 -4.524713905913887e-01
1.081840000000000e+11 -9.698179541313574e-01 -4.531612019812955e-01
1.082320000000000e+11 -9.692929819062138e-01 -4.531334071529806e-01
1.082800000000000e+11 -9.698496872060109e-01 -4.515368818933573e-01
1.083280000000000e+11 -9.710065855089000e-01 -4.487812198383053e-01
1.083760000000000e+11 -9.721237809830120e-01 -4.485813314763744e-01
1.084240000000000e+11 -9.757400408632851e-01 -4.468091280741374e-01
1.084720000000000e+11 -9.789989423398370e-01 -4.452638422034028e-01
1.085200000000000e+11 -9.776317898716895e-01 -4.447823502838322e-01
1.085680000000000e+11 -9.762163664213842e-01 -4.467339789080921e-01
1.086160000000000e+11 -9.761094271971776e-01 -4.464993621178304e-01
1.086640000000000e+11 -9.749915699682780e-01 -4.479159493401735e-01
1.087120000000000e+11 -9.744645862319488e-01 -4.470188384778851e-01
1.087600000000000e+11 -9.733162603089281e-01 -4.489614469252809e-01
1.088080000000000e+11 -9.729242696502793e-01 -4.482440923345157e-01
1.088560000000000e+11 -9.721458465612686e-01 -4.463669645423905e-01
1.089040000000000e+11 -9.726457872287690e-01 -4.458299098416960e-01
1.089520000000000e+11 -9.724793659317837e-01 -4.466947942643842e-01
1.090000000000000e+11 -9.718875048187402e-01 -4.478428888148948e-01
1.090480000000000e+11 -9.685945822857720e-01 -4.522244741763499e-01
1.090960000000000e+11 -9.672468966528773e-01 -4.544496978840611e-01
1.091440000000000e+11 -9.671308894220572e-01 -4.568357935252032e-01
1.091920000000000e+11 -9.727094475765993e-01 -4.468799511251782e-01
1.092400000000000e+11 -9.737910448466722e-01 -4.484249533709768e-01
1.092880000000000e+11 -9.768567569180874e-01 -4.467753199632073e-01
1.093360000000000e+11 -9.779977036284794e-01 -4.461082844240310e-01
1.093840000000000e+11 -9.790792227110097e-01 -4.430361230925692e-01
1.094320000000000e+11 -9.778634267413840e-01 -4.421325177852076e-01
1.094800000000000e+11 -9.750974900657792e-01 -4.432809314656069e-01
1.095280000000000e+11 -9.740702471607560e-01 -4.433588413668318e-01
1.095760000000000e+11 -9.713291765802144e-01 -4.460471180096948e-01
1.096240000000000e+11 -9.697455442703447e-01 -4.467539800356693e-01
1.096720000000000e+11 -9.696306080307977e-01 -4.471488252678365e-01
1.097200000000000e+11 -9.669252068736292e-01 -4.550786035906729e-01
1.097680000000000e+11 -9.674813737341885e-01 -4.513995485842693e-01
1.098160000000000e+11 -9.665852178233129e-01 -4.543618925214784e-01
1.098640000000000e+11 -9.682080616100505e-01 -4.535644165673433e-01
1.099120000000000e+11 -9.705578929805097e-01 -4.516173333793524e-01
1.099600000000000e+11 -9.731539615887245e-01 -4.499466418035328e-01
1.100080000000000e+11 -9.752176180470211e-01 -4.474180256323090e-01
1.100560000000000e+11 -9.752173629396289e-01 -4.477907257099826e-01
1.101040000000000e+11 -9.759463605256012e-01 -4.463137542800910e-01
1.101520000000000e+11 -9.772418947246047e-01 -4.431571649297816e-01
1.102000000000000e+11 -9.784450039437523e-01 -4.364843483462073e-01
1.102480000000000e+11 -9.788967696481482e-01 -4.355552975347645e-01
1.102960000000000e+11 -9.785510324965319e-01 -4.326114380538839e-01
1.103440000000000e+11 -9.784980989159308e-01 -4.340613028025202e-01
1.103920000000000e+11 -9.774656401977772e-01 -4.309105555796843e-01
1.104400000000000e+11 -9.766588614874334e-01 -4.303660920394831e-01
1.104880000000000e+11 -9.772449098260564e-01 -4.312665186306610e-01
1.105360000000000e+11 -9.773493377298551e-01 -4.306182590884091e-01
1.105840000000000e+11 -9.717907389838538e-01 -4.263291608354964e-01
1.106320000000000e+11 -9.787888951093953e-01 -4.317710707112866e-01
1.106800000000000e+11 -9.767058722092906e-01 -4.421805190644748e-01
1.107280000000000e+11 -9.822485954300930e-01 -4.302522849009217e-01
1.107760000000000e+11 -9.852069532358291e-01 -4.299133108526680e-01
1.108240000000000e+11 -9.854659248193093e-01 -4.267401058270702e-01
1.108720000000000e+11 -9.854470170421078e-01 -4.258715754758240e-01
1.109200000000000e+11 -9.853142349417372e-01 -4.235862436187453e-01
1.109680000000000e+11 -9.848426873001536e-01 -4.206967059514365e-01
1.110160000000000e+11 -9.834090792576223e-01 -4.208724907041476e-01
1.110640000000000e+11 -9.819377140316009e-01 -4.216836501198433e-01
1.111120000000000e+11 -9.802966213065448e-01 -4.236455095630209e-01
1.111600000000000e+11 -9.786930489926795e-01 -4.250744764653186e-01
1.112080000000000e+11 -9.779312552376143e-01 -4.246483288833692e-01
1.112560000000000e+11 -9.779465014124465e-01 -4.249979378714640e-01
1.113040000000000e+11 -9.787577848108167e-01 -4.265112003041086e-01
1.113520000000000e+11 -9.787866027470787e-01 -4.300675153399932e-01
1.114000000000000e+11 -9.805610815077545e-01 -4.306576796252886e-01
1.114480000000000e+11 -9.830099092169653e-01 -4.281219868412869e-01
1.114960000000000e+11 -9.836534928701572e-01 -4.262784492854769e-01
1.115440000000000e+11 -9.844269060960721e-01 -4.245623194679210e-01
1.115920000000000e+11 -9.845301868483965e-01 -4.226968119853406e-01
1.116400000000000e+11 -9.837740902422633e-01 -4.219716149051382e-01
1.116880000000000e+11 -9.833448651688663e-01 -4.192443483839414e-01
1.117360000000000e+11 -9.824053089650290e-01 -4.194560313490014e-01
1.117840000000000e+11 -9.826234637852376e-01 -4.178489350139141e-01
1.118320000000000e+11 -9.828486405575645e-01 -4.176507714576415e-01
1.118800000000000e+11 -9.821014103895480e-01 -4.187024768585048e-01
1.119280000000000e+11 -9.815453184010090e-01 -4.190896697204495e-01
1.119760000000000e+11 -9.829462909175639e-01 -4.182565277459829e-01
1.120240000000000e+11 -9.850445377466558e-01 -4.114340821322873e-01
1.120720000000000e+11 -9.866857194912310e-01 -4.146583695209553e-01
1.121200000000000e+11 -9.869231276753015e-01 -4.145206751041379e-01
1.121680000000000e+11 -9.883535163736272e-01 -4.165170196786842e-01
1.122160000000000e+11 -9.901590982955052e-01 -4.146884311497630e-01
1.122640000000000e+11 -9.912697580142974e-01 -4.137873815657262e-01
1.123120000000000e+11 -9.885166530926722e-01 -4.136085997229494e-01
1.123600000000000e+11 -9.928456018208724e-01 -4.130468416049188e-01
1.124080000000000e+11 -9.924721561796750e-01 -4.118413621193273e-01
1.124560000000000e+11 -9.924087160489955e-01 -4.094827563741482e-01
1.125040000000000e+11 -9.902289082706810e-01 -4.096394871560546e-01
1.125520000000000e+11 -9.922678399822960e-01 -4.081293157667130e-01
1.126000000000000e+11 -9.924434793395402e-01 -4.071065852652559e-01
1.126480000000000e+11 -9.917840366480259e-01 -4.063477483050094e-01
1.126960000000000e+11 -9.902020288848958e-01 -4.045802236650654e-01
1.127440000000000e+11 -9.894296643729400e-01 -4.067714183576986e-01
1.127920000000000e+11 -9.901457420930527e-01 -4.060451649719027e-01
1.128400000000000e+11 -9.912099219835339e-01 -4.066347118598020e-01
1.128880000000000e+11 -9.920215574491543e-01 -4.074403901405194e-01
1.129360000000000e+11 -9.934974675860272e-01 -4.086955514581277e-01
1.129840000000000e+11 -9.933533863585395e-01 -4.056153532788510e-01
1.130320000000000e+11 -9.943783937674354e-01 -4.062011887993325e-01
1.130800000000000e+11 -9.949469981071026e-01 -4.023842278818521e-01
1.131280000000000e+11 -9.954240121118693e-01 -4.018674597317398e-01
1.131760000000000e+11 -9.952564450380360e-01 -3.999679358068141e-01
1.132240000000000e+11 -9.935822382918044e-01 -4.017154813582927e-01
1.132720000000000e+11 -9.928289178693753e-01 -4.000936622487950e-01
1.133200000000000e+11 -9.931421619118441e-01 -4.015291580254233e-01
1.133680000000000e+11 -9.945203828009895e-01 -3.969562670548587e-01
1.134160000000000e+11 -9.940210572270280e-01 -3.988162647040661e-01
1.134640000000000e+11 -9.940656119505190e-01 -3.962359691401273e-01
1.135120000000000e+11 -9.944556652403099e-01 -3.990426818783238e-01
1.135600000000000e+11 -9.938186312160299e-01 -3.979772839713552e-01
1.136080000000000e+11 -9.948632975341039e-01 -3.990301992850512e-01
1.136560000000000e+11 -9.945227135090936e-01 -3.987923747924443e-01
1.137040000000000e+11 -9.952326919964486e-01 -4.017283918883982e-01
1.137520000000000e+11 -9.946025720975339e-01 -4.025704432494858e-01
1.138000000000000e+11 -9.947455544434906e-01 -4.018001996599508e-01
1.138480000000000e+11 -9.951824372800012e-01 -4.022320956638947e-01
1.138960000000000e+11 -9.953982036962838e-01 -3.999406670854204e-01
1.139440000000000e+11 -9.955830687130046e-01 -3.995006282997576e-01
1.139920000000000e+11 -9.966594390745648e-01 -3.972190296402202e-01
1.140400000000000e+11 -9.966234052175644e-01 -3.948996293352414e-01
1.140880000000000e+11 -9.966898990734367e-01 -3.966142694313243e-01
1.141360000000000e+11 -9.971299146170212e-01 -3.931677406048825e-01
1.141840000000000e+11 -9.960185685138776e-01 -3.954616307130268e-01
1.142320000000000e+11 -9.968985117686764e-01 -3.920237427417541e-01
1.142800000000000e+11 -9.969548624564856e-01 -3.932459256431230e-01
1.143280000000000e+11 -9.982680974367932e-01 -3.945241542785337e-01
1.143760000000000e+11 -9.985455886700352e-01 -3.923676262937385e-01
1.144240000000000e+11 -1.000054351463230e+00 -3.924467751228994e-01
1.144720000000000e+11 -1.000054063551651e+00 -3.915143268511316e-01
1.145200000000000e+11 -1.000356176217584e+00 -3.902661623686071e-01
1.145680000000000e+11 -1.001272375152211e+00 -3.909443278164208e-01
1.146160000000000e+11 -1.001637486210190e+00 -3.883168156683339e-01
1.146640000000000e+11 -1.002488828160656e+00 -3.887048389771572e-01
1.147120000000000e+11 -1.002888443935410e+00 -3.873304963841493e-01
1.147600000000000e+11 -1.002639090462714e+00 -3.889846854427556e-01
1.148080000000000e+11 -1.002609904222284e+00 -3.877817599264198e-01
1.148560000000000e+11 -1.002188221488027e+00 -3.877666703348979e-01
1.149040000000000e+11 -1.002398700969306e+00 -3.873966958162510e-01
1.149520000000000e+11 -1.003794872951980e+00 -3.854612631739230e-01
1.150000000000000e+11 -1.003806377177086e+00 -3.845745138469642e-01
