! Generated by Phase I extraction
# Hz S RI R 50
1.100000000000000e+11 2.008471811592631e-01 1.341825908510819e-02
1.100408163265300e+11 1.913747492308106e-01 2.656755173603308e-02
1.100816326530600e+11 2.006149150575366e-01 2.741980640295791e-02
1.101224489795900e+11 2.046355438445602e-01 3.065474105771886e-02
1.101632653061200e+11 2.031740942919621e-01 3.697964287885879e-02
1.102040816326500e+11 2.010976257869190e-01 3.583735036716875e-02
1.102448979591800e+11 2.007826442155176e-01 3.439493010848117e-02
1.102857142857100e+11 2.012193408784555e-01 3.229482090792840e-02
1.103265306122400e+11 2.018477900864175e-01 3.018361014110291e-02
1.103673469387800e+11 2.024133640570326e-01 2.836120606592983e-02
1.104081632653100e+11 2.035825498897300e-01 2.640185871516692e-02
1.104489795918400e+11 2.046314607829486e-01 2.460872155099343e-02
1.104897959183700e+11 2.055956450647426e-01 2.319957634456844e-02
1.105306122449000e+11 2.063763421008261e-01 2.250982740980846e-02
1.105714285714300e+11 2.071852003378275e-01 2.231590718729373e-02
1.106122448979600e+11 2.083406336510008e-01 2.204665915206314e-02
1.106530612244900e+11 2.092058055937360e-01 2.156165447671250e-02
1.106938775510200e+11 2.102891195270969e-01 2.279154683974370e-02
1.107346938775500e+11 2.110225683542110e-01 2.355207343421715e-02
1.107755102040800e+11 2.111480458142374e-01 2.431575503658029e-02
1.108163265306100e+11 2.111307336932403e-01 2.566057988252037e-02
1.108571428571400e+11 2.109982170355145e-01 2.683332423078637e-02
1.108979591836700e+11 2.105065327773189e-01 2.816310642664124e-02
1.109387755102000e+11 2.097039058081684e-01 2.879959319903822e-02
1.109795918367300e+11 2.086934180034612e-01 2.878074780568066e-02
1.110204081632700e+11 2.076168477715236e-01 2.803010618578866e-02
1.110612244898000e+11 2.062625394903880e-01 2.705317639005880e-02
1.111020408163300e+11 2.041472558074545e-01 2.662467643424782e-02
1.111428571428600e+11 2.024307539365314e-01 2.581639596894112e-02
1.111836734693900e+11 2.012342824537399e-01 2.414233571460333e-02
1.112244897959200e+11 2.002131439327990e-01 2.216385120024656e-02
1.112653061224500e+11 1.992896111316133e-01 2.042275209548310e-02
1.113061224489800e+11 1.985694870701015e-01 1.839923130756136e-02
1.113469387755100e+11 1.982595552521990e-01 1.668052694828753e-02
1.113877551020400e+11 1.986418198288361e-01 1.490589595865138e-02
1.114285714285700e+11 1.995905210903630e-01 1.284235975339508e-02
1.114693877551000e+11 2.007799855264484e-01 1.099287668216628e-02
1.115102040816300e+11 2.021564293809657e-01 9.445403169438279e-03
1.115510204081600e+11 2.039142867701633e-01 7.938679824087387e-03
1.115918367346900e+11 2.054859751521823e-01 6.547817705312711e-03
1.116326530612200e+11 2.070179961746683e-01 5.548984798251826e-03
1.116734693877600e+11 2.084014446179536e-01 4.906100482265948e-03
1.117142857142900e+11 2.092499305883813e-01 4.667094359105877e-03
1.117551020408200e+11 2.102719937736099e-01 4.678574090272549e-03
1.117959183673500e+11 2.108181124374760e-01 5.063666735941491e-03
1.118367346938800e+11 2.116701291290227e-01 5.385299318094157e-03
1.118775510204100e+11 2.120701404241107e-01 6.024724401935919e-03
1.119183673469400e+11 2.120830143845921e-01 6.529826182505022e-03
1.119591836734700e+11 2.119668058366842e-01 7.501436765678541e-03
1.120000000000000e+11 2.115038068589124e-01 1.084149684985695e-02
1.120408163265300e+11 2.107256135089362e-01 1.263850418720299e-02
1.120816326530600e+11 2.103080198903671e-01 1.325220783297408e-02
1.121224489795900e+11 2.096779435606617e-01 1.383339221252936e-02
1.121632653061200e+11 2.089104924782109e-01 1.448195054241616e-02
1.122040816326500e+11 2.080291743394674e-01 1.499799673260992e-02
1.122448979591800e+11 2.076088639279219e-01 1.516175732267333e-02
1.122857142857100e+11 2.069124418815568e-01 1.524048256333154e-02
1.123265306122400e+11 2.061896258169921e-01 1.512579266488607e-02
1.123673469387800e+11 2.057198880619003e-01 1.482207615035717e-02
1.124081632653100e+11 2.053302721109935e-01 1.456292830054174e-02
1.124489795918400e+11 2.052182479259674e-01 1.419263093143693e-02
1.124897959183700e+11 2.054383641462846e-01 1.379492222064503e-02
1.125306122449000e+11 2.059084385115520e-01 1.335081851160823e-02
1.125714285714300e+11 2.064079712624104e-01 1.304505325139596e-02
1.126122448979600e+11 2.069655396105539e-01 1.264896109946644e-02
1.126530612244900e+11 2.073393864204210e-01 1.233959640233931e-02
1.126938775510200e+11 2.077562786477114e-01 1.252512467672177e-02
1.127346938775500e+11 2.082509541592857e-01 1.285408419980219e-02
1.127755102040800e+11 2.089313127603843e-01 1.312500251778342e-02
1.128163265306100e+11 2.091897147678316e-01 1.338422748580566e-02
1.128571428571400e+11 2.094835592035266e-01 1.342511175458841e-02
1.128979591836700e+11 2.095195336126935e-01 1.336139895749588e-02
1.129387755102000e+11 2.097174612227230e-01 1.309361325650551e-02
1.129795918367300e+11 2.100715786327759e-01 1.222659113652212e-02
1.130204081632700e+11 2.104595820189250e-01 1.187807520518220e-02
1.130612244898000e+11 2.105555662979357e-01 1.143968768648457e-02
1.131020408163300e+11 2.104783449159541e-01 1.139816767632144e-02
1.131428571428600e+11 2.104917498671205e-01 1.141702280162847e-02
1.131836734693900e+11 2.106415803126112e-01 1.176374353160104e-02
1.132244897959200e+11 2.103892294670419e-01 1.171149594178214e-02
1.132653061224500e+11 2.099072798673945e-01 1.142566958609881e-02
1.133061224489800e+11 2.097805601448283e-01 1.038734434131338e-02
1.133469387755100e+11 2.100353229412981e-01 9.593957452967697e-03
1.133877551020400e+11 2.104348645176237e-01 8.876730022023667e-03
1.134285714285700e+11 2.106264317798961e-01 8.483196025151581e-03
1.134693877551000e+11 2.108773141095315e-01 7.994324878651650e-03
1.135102040816300e+11 2.111814635251507e-01 7.858057470749651e-03
1.135510204081600e+11 2.116340078293733e-01 7.555955017427127e-03
1.135918367346900e+11 2.119519191645687e-01 7.655616695124895e-03
1.136326530612200e+11 2.118404583217503e-01 7.796821823051217e-03
1.136734693877600e+11 2.119642164889219e-01 7.910532993835222e-03
1.137142857142900e+11 2.121851700849895e-01 8.244766660213537e-03
1.137551020408200e+11 2.129453431235165e-01 8.314588010198153e-03
1.137959183673500e+11 2.132610121248813e-01 8.810440195558674e-03
1.138367346938800e+11 2.136828985883862e-01 9.589591392529425e-03
1.138775510204100e+11 2.136173205080479e-01 1.076464063218643e-02
1.139183673469400e+11 2.136135695264748e-01 1.150529607821592e-02
1.139591836734700e+11 2.131790404261075e-01 1.264855248968742e-02
1.140000000000000e+11 2.130831353921020e-01 1.377613295350281e-02
1.140408163265300e+11 2.122522295624128e-01 1.409574405559879e-02
1.140816326530600e+11 2.111941817341517e-01 1.407858241913862e-02
1.141224489795900e+11 2.099040828041480e-01 1.381520210745608e-02
1.141632653061200e+11 2.088113359238027e-01 1.316502115239214e-02
1.142040816326500e+11 2.075907260182576e-01 1.290205288445677e-02
1.142448979591800e+11 2.068195058380632e-01 1.224841515281044e-02
1.142857142857100e+11 2.063469864038465e-01 1.122596701865873e-02
1.143265306122400e+11 2.062695491045018e-01 1.073263793026992e-02
1.143673469387800e+11 2.064712810147078e-01 9.951375612963925e-03
1.144081632653100e+11 2.071069714583517e-01 9.144597948193533e-03
1.144489795918400e+11 2.081269964085425e-01 8.786385376905587e-03
1.144897959183700e+11 2.088404393523715e-01 8.728648479057344e-03
1.145306122449000e+11 2.101210529370328e-01 8.630641517825388e-03
1.145714285714300e+11 2.114985689529095e-01 9.002767045787589e-03
1.146122448979600e+11 2.124337160386707e-01 8.892598156448790e-03
1.146530612244900e+11 2.133328714711166e-01 9.195096419022646e-03
1.146938775510200e+11 2.144842228105313e-01 9.252991483372650e-03
1.147346938775500e+11 2.159517798209646e-01 9.457206754612471e-03
1.147755102040800e+11 2.171281044606525e-01 9.439126225465635e-03
1.148163265306100e+11 2.186862732738734e-01 9.757070360955427e-03
1.148571428571400e+11 2.200043479617567e-01 1.056551054861963e-02
1.148979591836700e+11 2.207034039436716e-01 1.171491899073904e-02
1.149387755102000e+11 2.207624399086274e-01 1.308549395079611e-02
1.149795918367300e+11 2.212671702291241e-01 1.408479036935753e-02
1.150204081632700e+11 2.210805031247541e-01 1.523582742098861e-02
1.150612244898000e+11 2.202945655897357e-01 1.615840620189574e-02
1.151020408163300e+11 2.194228006144344e-01 1.689363876878079e-02
1.151428571428600e+11 2.180926280407982e-01 1.716857895308047e-02
1.151836734693900e+11 2.168470951233585e-01 1.726511722449862e-02
1.152244897959200e+11 2.158310777227269e-01 1.688241117040936e-02
1.152653061224500e+11 2.148061672017650e-01 1.629474397302167e-02
1.153061224489800e+11 2.142307018077574e-01 1.579295640252817e-02
1.153469387755100e+11 2.136904737997612e-01 1.497485000732494e-02
1.153877551020400e+11 2.136289572662728e-01 1.431895460369639e-02
1.154285714285700e+11 2.135731782791513e-01 1.383143038213980e-02
1.154693877551000e+11 2.135892410795499e-01 1.354161619636518e-02
1.155102040816300e+11 2.140030938834357e-01 1.338369518454092e-02
1.155510204081600e+11 2.139967539611519e-01 1.354901078081917e-02
1.155918367346900e+11 2.136125656951847e-01 1.398922833658886e-02
1.156326530612200e+11 2.135774659089466e-01 1.436660703083619e-02
1.156734693877600e+11 2.132438824403122e-01 1.472279894878705e-02
1.157142857142900e+11 2.130114096387935e-01 1.549568212122902e-02
1.157551020408200e+11 2.129559671179070e-01 1.606829331995957e-02
1.157959183673500e+11 2.125858008843552e-01 1.663694115097007e-02
1.158367346938800e+11 2.122245111700729e-01 1.652526414497683e-02
1.158775510204100e+11 2.118479347020864e-01 1.660481934098006e-02
1.159183673469400e+11 2.117070775401648e-01 1.632646703178618e-02
1.159591836734700e+11 2.118016403505946e-01 1.596575067632006e-02
1.160000000000000e+11 2.118281423195008e-01 1.529135494905422e-02
1.160408163265300e+11 2.119966744971535e-01 1.462775879058863e-02
1.160816326530600e+11 2.124054751951534e-01 1.392372086063392e-02
1.161224489795900e+11 2.130526177621758e-01 1.326816124904055e-02
1.161632653061200e+11 2.140391582979338e-01 1.251705095360101e-02
1.162040816326500e+11 2.150827885642409e-01 1.215167518096360e-02
1.162448979591800e+11 2.161756304263061e-01 1.201306701030198e-02
1.162857142857100e+11 2.172174718101234e-01 1.234586173980203e-02
1.163265306122400e+11 2.184358764627375e-01 1.249686354581552e-02
1.163673469387800e+11 2.198406680496065e-01 1.280571525118147e-02
1.164081632653100e+11 2.208029980865257e-01 1.367793747548310e-02
1.164489795918400e+11 2.215552097920598e-01 1.447437700218772e-02
1.164897959183700e+11 2.218870267618597e-01 1.529490976628672e-02
1.165306122449000e+11 2.222149684446962e-01 1.615101375233987e-02
1.165714285714300e+11 2.220884936421657e-01 1.702615049667104e-02
1.166122448979600e+11 2.218740072775357e-01 1.805065271815262e-02
1.166530612244900e+11 2.218782753976898e-01 1.933061684231781e-02
1.166938775510200e+11 2.213862506902262e-01 2.047152551278567e-02
1.167346938775500e+11 2.205498938891060e-01 2.115617724253234e-02
1.167755102040800e+11 2.195811021788951e-01 2.190276175956473e-02
1.168163265306100e+11 2.185454719872937e-01 2.229884453270606e-02
1.168571428571400e+11 2.171151640248362e-01 2.248675517716080e-02
1.168979591836700e+11 2.158496472329852e-01 2.232377046067491e-02
1.169387755102000e+11 2.147169161553039e-01 2.215265587177842e-02
1.169795918367300e+11 2.138057069655190e-01 2.171404103739693e-02
1.170204081632700e+11 2.130997393028143e-01 2.131459778678160e-02
1.170612244898000e+11 2.126551082782901e-01 2.057990906886958e-02
1.171020408163300e+11 2.121493819215411e-01 2.017014565202226e-02
1.171428571428600e+11 2.120218368926722e-01 1.933336133373156e-02
1.171836734693900e+11 2.118137589870697e-01 1.862178349126696e-02
1.172244897959200e+11 2.117450426661804e-01 1.812499010470913e-02
1.172653061224500e+11 2.119070585995418e-01 1.763151200261174e-02
1.173061224489800e+11 2.120872382570436e-01 1.712619071652256e-02
1.173469387755100e+11 2.126131193257660e-01 1.670433911167383e-02
1.173877551020400e+11 2.131110769046595e-01 1.646976622703055e-02
1.174285714285700e+11 2.133053238075079e-01 1.659549406169701e-02
1.174693877551000e+11 2.136609561784588e-01 1.651158779305935e-02
1.175102040816300e+11 2.139169129301196e-01 1.647030933451717e-02
1.175510204081600e+11 2.143577735664338e-01 1.662329769251863e-02
1.175918367346900e+11 2.149162042859365e-01 1.706324626575269e-02
1.176326530612200e+11 2.151405129854534e-01 1.737083216148469e-02
1.176734693877600e+11 2.153609341023576e-01 1.727026206386834e-02
1.177142857142900e+11 2.156149354500783e-01 1.737075684544997e-02
1.177551020408200e+11 2.157761728923749e-01 1.739355615961237e-02
1.177959183673500e+11 2.159002092275468e-01 1.767173578954122e-02
1.178367346938800e+11 2.161987240526755e-01 1.795117535945417e-02
1.178775510204100e+11 2.164687637243559e-01 1.848347152672362e-02
1.179183673469400e+11 2.167138915712849e-01 1.871321285849630e-02
1.179591836734700e+11 2.167133221939427e-01 1.923300632549116e-02
1.180000000000000e+11 2.166374224174951e-01 1.944702882789615e-02
1.180408163265300e+11 2.179911584063506e-01 1.615637885559894e-02
1.180816326530600e+11 2.182456065910894e-01 1.638788544581952e-02
1.181224489795900e+11 2.180658428315616e-01 1.649087027959131e-02
1.181632653061200e+11 2.178104361190919e-01 1.638634965650868e-02
1.182040816326500e+11 2.179986640732113e-01 1.631203841839658e-02
1.182448979591800e+11 2.179026067838327e-01 1.600161570091484e-02
1.182857142857100e+11 2.177928041860706e-01 1.621707025350543e-02
1.183265306122400e+11 2.177625912969840e-01 1.618184007407241e-02
1.183673469387800e+11 2.178603457918752e-01 1.633370715801735e-02
1.184081632653100e+11 2.179247005875866e-01 1.619039206401831e-02
1.184489795918400e+11 2.180645721637282e-01 1.618758022979913e-02
1.184897959183700e+11 2.179261557207377e-01 1.597828977483307e-02
1.185306122449000e+11 2.174710371612548e-01 1.590365705327739e-02
1.185714285714300e+11 2.171575434905511e-01 1.553482104981405e-02
1.186122448979600e+11 2.164451740630445e-01 1.521951745053770e-02
1.186530612244900e+11 2.154971312654494e-01 1.516466992981026e-02
1.186938775510200e+11 2.146871281873158e-01 1.496500966063301e-02
1.187346938775500e+11 2.142022558659057e-01 1.486624299764511e-02
1.187755102040800e+11 2.134517855322489e-01 1.483848327059156e-02
1.188163265306100e+11 2.126541207665111e-01 1.481093153564379e-02
1.188571428571400e+11 2.121548080659825e-01 1.481963385746120e-02
1.188979591836700e+11 2.116710995879071e-01 1.451429562957566e-02
1.189387755102000e+11 2.117772420969482e-01 1.426428801133260e-02
1.189795918367300e+11 2.116518845502663e-01 1.421187874121250e-02
1.190204081632700e+11 2.116753849280894e-01 1.440049495919167e-02
1.190612244898000e+11 2.118343354310494e-01 1.420827167843580e-02
1.191020408163300e+11 2.119574850592625e-01 1.390990459579996e-02
1.191428571428600e+11 2.121397236389205e-01 1.399798112703582e-02
1.191836734693900e+11 2.124988615313044e-01 1.382433164486065e-02
1.192244897959200e+11 2.123985318264149e-01 1.394229712650950e-02
1.192653061224500e+11 2.124175002318557e-01 1.374031432405530e-02
1.193061224489800e+11 2.121187839008818e-01 1.366424892269986e-02
1.193469387755100e+11 2.122631553932719e-01 1.384293408304486e-02
1.193877551020400e+11 2.122043935809354e-01 1.460625426690296e-02
1.194285714285700e+11 2.120714642861840e-01 1.529340071395526e-02
1.194693877551000e+11 2.120798998877666e-01 1.561540507970004e-02
1.195102040816300e+11 2.119543733209842e-01 1.605376908879758e-02
1.195510204081600e+11 2.121642447789471e-01 1.690207501493057e-02
1.195918367346900e+11 2.120451748193020e-01 1.764356106749177e-02
1.196326530612200e+11 2.120976685683881e-01 1.829493882811990e-02
1.196734693877600e+11 2.121219510287762e-01 1.862587840390448e-02
1.197142857142900e+11 2.120448257778844e-01 1.916411949696345e-02
1.197551020408200e+11 2.118536259188388e-01 1.987504382240764e-02
1.197959183673500e+11 2.117128620448544e-01 2.003084060439890e-02
1.198367346938800e+11 2.117939172956456e-01 2.009440102117152e-02
1.198775510204100e+11 2.119096998667886e-01 2.018973017424324e-02
1.199183673469400e+11 2.114553775206517e-01 2.040516807110579e-02
1.199591836734700e+11 2.111719029935506e-01 2.050617479809589e-02
1.200000000000000e+11 2.107152632254941e-01 2.006469853337067e-02
1.200408163265300e+11 2.101245932289292e-01 1.982950642138018e-02
1.200816326530600e+11 2.096766412515626e-01 1.920222588142085e-02
1.201224489795900e+11 2.093983835124616e-01 1.866603592164223e-02
1.201632653061200e+11 2.093524653236700e-01 1.800259968780585e-02
1.202040816326500e+11 2.090623238162440e-01 1.777872555017043e-02
1.202448979591800e+11 2.089327111278211e-01 1.745855616998611e-02
1.202857142857100e+11 2.092286385266012e-01 1.718602100987890e-02
1.203265306122400e+11 2.100713008947625e-01 1.661829126950313e-02
1.203673469387800e+11 2.105318859792078e-01 1.634645838439769e-02
1.204081632653100e+11 2.110438735846523e-01 1.659815845679801e-02
1.204489795918400e+11 2.115532201818980e-01 1.652958022964044e-02
1.204897959183700e+11 2.122818512805383e-01 1.661716423897426e-02
1.205306122449000e+11 2.129000690714751e-01 1.652169794539532e-02
1.205714285714300e+11 2.133432184201302e-01 1.691622229501992e-02
1.206122448979600e+11 2.136857132468282e-01 1.760171426791424e-02
1.206530612244900e+11 2.137735328532622e-01 1.799969883358802e-02
1.206938775510200e+11 2.135489774174620e-01 1.878858830371607e-02
1.207346938775500e+11 2.134934626315310e-01 1.995145811886689e-02
1.207755102040800e+11 2.131667708753815e-01 2.119576018522199e-02
1.208163265306100e+11 2.128733658483732e-01 2.267593427804525e-02
1.208571428571400e+11 2.127310130849267e-01 2.396088062236131e-02
1.208979591836700e+11 2.126295694722393e-01 2.588689500555441e-02
1.209387755102000e+11 2.126089676062239e-01 2.702533002884013e-02
1.209795918367300e+11 2.123989651400436e-01 2.799551810026351e-02
1.210204081632700e+11 2.123038992164629e-01 2.894456280046318e-02
1.210612244898000e+11 2.119793862176572e-01 2.974628470485365e-02
1.211020408163300e+11 2.114308295669424e-01 3.057348165140966e-02
1.211428571428600e+11 2.111390553710546e-01 3.091128569066858e-02
1.211836734693900e+11 2.112180950226960e-01 3.106157555438835e-02
1.212244897959200e+11 2.113129265177880e-01 3.078748145174458e-02
1.212653061224500e+11 2.109562040790855e-01 3.001152544121074e-02
1.213061224489800e+11 2.106568397257439e-01 2.936870507212759e-02
1.213469387755100e+11 2.104986898391264e-01 2.882195490571949e-02
1.213877551020400e+11 2.102285510357905e-01 2.850911593142159e-02
1.214285714285700e+11 2.099935453242026e-01 2.833784038574018e-02
1.214693877551000e+11 2.096944760966862e-01 2.847789399984695e-02
1.215102040816300e+11 2.098345123306048e-01 2.831835408409680e-02
1.215510204081600e+11 2.102879611825201e-01 2.786829677579659e-02
1.215918367346900e+11 2.103484907960694e-01 2.778700473780695e-02
1.216326530612200e+11 2.107854295438446e-01 2.790641786681263e-02
1.216734693877600e+11 2.111241875432227e-01 2.768319008416748e-02
1.217142857142900e+11 2.116069854875496e-01 2.741602819421950e-02
1.217551020408200e+11 2.118352780244084e-01 2.727299404736652e-02
1.217959183673500e+11 2.121584459541221e-01 2.722841913855699e-02
1.218367346938800e+11 2.125324335374032e-01 2.707993304129953e-02
1.218775510204100e+11 2.126740284128964e-01 2.715340030361917e-02
1.219183673469400e+11 2.125156812725230e-01 2.688641995090382e-02
1.219591836734700e+11 2.124023335125878e-01 2.619756604808766e-02
1.220000000000000e+11 2.120815691669949e-01 2.573329684793256e-02
1.220408163265300e+11 2.120303050023561e-01 2.517958087254474e-02
1.220816326530600e+11 2.117206568021423e-01 2.440446917817920e-02
1.221224489795900e+11 2.113666070692727e-01 2.329712141394493e-02
1.221632653061200e+11 2.111611854863255e-01 2.221502783104621e-02
1.222040816326500e+11 2.113047946493621e-01 2.159468728486692e-02
1.222448979591800e+11 2.115155294716825e-01 2.087883200542189e-02
1.222857142857100e+11 2.118653874610043e-01 2.041287140650969e-02
1.223265306122400e+11 2.121995216687214e-01 2.007023418622636e-02
1.223673469387800e+11 2.130516165181189e-01 2.026952130255468e-02
1.224081632653100e+11 2.136875172004351e-01 2.019901954158922e-02
1.224489795918400e+11 2.144438104322247e-01 2.011884803714683e-02
1.224897959183700e+11 2.155627767798746e-01 2.040572116714112e-02
1.225306122449000e+11 2.158395858494745e-01 2.047344363728838e-02
1.225714285714300e+11 2.162673955418030e-01 2.073719318024685e-02
1.226122448979600e+11 2.166780697224122e-01 2.081538904246311e-02
1.226530612244900e+11 2.162930995940191e-01 2.118237155443821e-02
1.226938775510200e+11 2.158151639537510e-01 2.170603887836788e-02
1.227346938775500e+11 2.151416848627970e-01 2.254767965175723e-02
1.227755102040800e+11 2.142214884256443e-01 2.262978096146711e-02
1.228163265306100e+11 2.135941351600517e-01 2.283910301074313e-02
1.228571428571400e+11 2.130676322570842e-01 2.323570361692355e-02
1.228979591836700e+11 2.126024328478600e-01 2.369022035439648e-02
1.229387755102000e+11 2.121772833293779e-01 2.367881484091035e-02
1.229795918367300e+11 2.113929845442141e-01 2.381981838311409e-02
1.230204081632700e+11 2.109629776649748e-01 2.395421053301547e-02
1.230612244898000e+11 2.111529735774427e-01 2.379129784038738e-02
1.231020408163300e+11 2.115336503692783e-01 2.337430807269505e-02
1.231428571428600e+11 2.118574715932215e-01 2.277433820700340e-02
1.231836734693900e+11 2.121798936619444e-01 2.220665750430892e-02
1.232244897959200e+11 2.123226531032098e-01 2.148024833483957e-02
1.232653061224500e+11 2.125961987589756e-01 2.086627009949147e-02
1.233061224489800e+11 2.131386117764681e-01 1.983901632407363e-02
1.233469387755100e+11 2.135298414484139e-01 1.899284141047992e-02
1.233877551020400e+11 2.137313009875100e-01 1.841526803361542e-02
1.234285714285700e+11 2.135110631685436e-01 1.797490953264501e-02
1.234693877551000e+11 2.137723655278101e-01 1.773112134463654e-02
1.235102040816300e+11 2.139647504419654e-01 1.747238202279106e-02
1.235510204081600e+11 2.145337230982164e-01 1.732249422371938e-02
1.235918367346900e+11 2.150038239754276e-01 1.767366225015007e-02
1.236326530612200e+11 2.153826876337736e-01 1.803514654606365e-02
1.236734693877600e+11 2.160634578394980e-01 1.859043108457347e-02
1.237142857142900e+11 2.168931103408312e-01 1.901423953335445e-02
1.237551020408200e+11 2.174597697894807e-01 1.943427983769628e-02
1.237959183673500e+11 2.180193042661701e-01 1.991752831272100e-02
1.238367346938800e+11 2.186650831403272e-01 1.994002784626809e-02
1.238775510204100e+11 2.195789521360637e-01 2.014004507349561e-02
1.239183673469400e+11 2.200342668878294e-01 2.013695765891168e-02
1.239591836734700e+11 2.198856041760556e-01 1.981131327625575e-02
1.240000000000000e+11 2.195961105042266e-01 1.947197887313366e-02
1.240408163265300e+11 2.192150496249817e-01 1.961528653644179e-02
1.240816326530600e+11 2.188167475076524e-01 1.937985217115348e-02
1.241224489795900e+11 2.180846342364894e-01 1.901278005291774e-02
1.241632653061200e+11 2.171666236823660e-01 1.874869837183759e-02
1.242040816326500e+11 2.169682777243002e-01 1.841157615249648e-02
1.242448979591800e+11 2.167677256469337e-01 1.797372040415400e-02
1.242857142857100e+11 2.168694911545233e-01 1.736317888675009e-02
1.243265306122400e+11 2.170095073668020e-01 1.681194211732360e-02
1.243673469387800e+11 2.170375756978805e-01 1.668314034882729e-02
1.244081632653100e+11 2.172600773853377e-01 1.622045806045577e-02
1.244489795918400e+11 2.179987010621789e-01 1.580433420058175e-02
1.244897959183700e+11 2.188024633284182e-01 1.504594021663687e-02
1.245306122449000e+11 2.193049721737642e-01 1.458606521694304e-02
1.245714285714300e+11 2.196309085253469e-01 1.449560491323939e-02
1.246122448979600e+11 2.197383993042645e-01 1.425197749185328e-02
1.246530612244900e+11 2.200701801709527e-01 1.401679575643303e-02
1.246938775510200e+11 2.203203196372842e-01 1.380481340542364e-02
1.247346938775500e+11 2.202613038927179e-01 1.370838622163328e-02
1.247755102040800e+11 2.200367810047081e-01 1.394575131288412e-02
1.248163265306100e+11 2.195926236799327e-01 1.409003757511630e-02
1.248571428571400e+11 2.192582526664765e-01 1.393289711295448e-02
1.248979591836700e+11 2.187545539302939e-01 1.426509895128037e-02
1.249387755102000e+11 2.182639059585348e-01 1.438029218293951e-02
1.249795918367300e+11 2.175476602367329e-01 1.444019328333905e-02
1.250204081632700e+11 2.168640648864397e-01 1.434129699951026e-02
1.250612244898000e+11 2.164047435602079e-01 1.442974142479076e-02
1.251020408163300e+11 2.161289824012299e-01 1.430350264947582e-02
1.251428571428600e+11 2.160493163461747e-01 1.426490186958913e-02
1.251836734693900e+11 2.162332765686267e-01 1.389332927664359e-02
1.252244897959200e+11 2.161042094162652e-01 1.381393331918893e-02
1.252653061224500e+11 2.166438180325519e-01 1.359909834208974e-02
1.253061224489800e+11 2.170099997666322e-01 1.301870823920011e-02
1.253469387755100e+11 2.171413222366138e-01 1.247440798401959e-02
1.253877551020400e+11 2.175064265437186e-01 1.209259462262128e-02
1.254285714285700e+11 2.177064295182706e-01 1.142942169596943e-02
1.254693877551000e+11 2.177944136248609e-01 1.087999043047940e-02
1.255102040816300e+11 2.180574677788211e-01 1.047013062198182e-02
1.255510204081600e+11 2.183653486850139e-01 1.055305680998355e-02
1.255918367346900e+11 2.186365856122980e-01 1.028793295068263e-02
1.256326530612200e+11 2.189250213693163e-01 1.030662098551522e-02
1.256734693877600e+11 2.194197955327374e-01 1.041502821056806e-02
1.257142857142900e+11 2.201804606678470e-01 1.083848520527631e-02
1.257551020408200e+11 2.206107803946761e-01 1.109634241747750e-02
1.257959183673500e+11 2.210440926922374e-01 1.171433202688542e-02
1.258367346938800e+11 2.215254092630441e-01 1.203266610219974e-02
1.258775510204100e+11 2.219596153024124e-01 1.245533769042052e-02
1.259183673469400e+11 2.220416553525004e-01 1.269463571930566e-02
1.259591836734700e+11 2.221919834835610e-01 1.296210229852165e-02
1.260000000000000e+11 2.222097193332779e-01 1.346413365665750e-02
1.260408163265300e+11 2.222224339051604e-01 1.372446692315647e-02
1.260816326530600e+11 2.216257002371957e-01 1.372082924223441e-02
1.261224489795900e+11 2.213244085743355e-01 1.371607259612235e-02
1.261632653061200e+11 2.206392448292826e-01 1.345203751956315e-02
1.262040816326500e+11 2.199512679967673e-01 1.351044544340852e-02
1.262448979591800e+11 2.192328703738435e-01 1.351860635602941e-02
1.262857142857100e+11 2.185752860381530e-01 1.327926624913903e-02
1.263265306122400e+11 2.184652781778121e-01 1.291526691840305e-02
1.263673469387800e+11 2.183636800620167e-01 1.250074350752338e-02
1.264081632653100e+11 2.179511889434701e-01 1.246498838281952e-02
1.264489795918400e+11 2.176791066356993e-01 1.219818310515740e-02
1.264897959183700e+11 2.179479449027023e-01 1.162639989387792e-02
1.265306122449000e+11 2.179944089592295e-01 1.121116000232956e-02
1.265714285714300e+11 2.181196798548553e-01 1.104027283772967e-02
1.266122448979600e+11 2.183110106905201e-01 1.098513253108078e-02
1.266530612244900e+11 2.187299704468785e-01 1.103040120109610e-02
1.266938775510200e+11 2.193441865634188e-01 1.069518464539371e-02
1.267346938775500e+11 2.196069473071106e-01 1.075352792022042e-02
1.267755102040800e+11 2.199870406404262e-01 1.079153010418634e-02
1.268163265306100e+11 2.202773281853168e-01 1.084319157319712e-02
1.268571428571400e+11 2.207568455950283e-01 1.131943877593128e-02
1.268979591836700e+11 2.212645476570274e-01 1.164518227430039e-02
1.269387755102000e+11 2.216543485046966e-01 1.166082800718132e-02
1.269795918367300e+11 2.219965689219318e-01 1.190244494476092e-02
1.270204081632700e+11 2.222848147226268e-01 1.229785710247672e-02
1.270612244898000e+11 2.226829710839647e-01 1.299049485634711e-02
1.271020408163300e+11 2.230781637187963e-01 1.375778439382819e-02
1.271428571428600e+11 2.235945201660940e-01 1.458537599501743e-02
1.271836734693900e+11 2.240976923196880e-01 1.523980299398130e-02
1.272244897959200e+11 2.243496702794322e-01 1.568372630826322e-02
1.272653061224500e+11 2.243500822730868e-01 1.631000407916427e-02
1.273061224489800e+11 2.245962124271049e-01 1.693554960696654e-02
1.273469387755100e+11 2.247618982291876e-01 1.734057479727830e-02
1.273877551020400e+11 2.248543628024205e-01 1.734018087337477e-02
1.274285714285700e+11 2.245688866030393e-01 1.745646661733065e-02
1.274693877551000e+11 2.243874393026281e-01 1.733116467821889e-02
1.275102040816300e+11 2.240082329564541e-01 1.710016744331548e-02
1.275510204081600e+11 2.239201146638655e-01 1.707096523534992e-02
1.275918367346900e+11 2.238652907002750e-01 1.701034945601669e-02
1.276326530612200e+11 2.236598556599384e-01 1.689146868932165e-02
1.276734693877600e+11 2.234782293944015e-01 1.670198217679291e-02
1.277142857142900e+11 2.234701417136660e-01 1.656720146472663e-02
1.277551020408200e+11 2.239085727911052e-01 1.634444649549337e-02
1.277959183673500e+11 2.240399371755054e-01 1.672415105567909e-02
1.278367346938800e+11 2.243954264964885e-01 1.695021089987479e-02
1.278775510204100e+11 2.246164039002667e-01 1.722694252321696e-02
1.279183673469400e+11 2.249246775400758e-01 1.709709019917986e-02
1.279591836734700e+11 2.246984494840981e-01 1.699129150378818e-02
1.280000000000000e+11 2.244744096828707e-01 1.707992978283374e-02
1.280408163265300e+11 2.241493008476821e-01 1.706351107762901e-02
1.280816326530600e+11 2.238827673100116e-01 1.729342482282681e-02
1.281224489795900e+11 2.234981852414989e-01 1.784125716901191e-02
1.281632653061200e+11 2.229978334657405e-01 1.818537920452614e-02
1.282040816326500e+11 2.228683302514567e-01 1.856247736484778e-02
1.282448979591800e+11 2.227559697712052e-01 1.876648086137986e-02
1.282857142857100e+11 2.225944293191035e-01 1.898393812131412e-02
1.283265306122400e+11 2.223931370115705e-01 1.946898467366377e-02
1.283673469387800e+11 2.224227621649391e-01 1.953226133751514e-02
1.284081632653100e+11 2.225694439332035e-01 1.930858121279204e-02
1.284489795918400e+11 2.227083802972099e-01 1.918850897735315e-02
1.284897959183700e+11 2.231707345956132e-01 1.877467606354987e-02
1.285306122449000e+11 2.237333444463795e-01 1.844672149778423e-02
1.285714285714300e+11 2.242894476645384e-01 1.832512212254899e-02
1.286122448979600e+11 2.248681993510318e-01 1.777994392506323e-02
1.286530612244900e+11 2.257419321972140e-01 1.739112015788294e-02
1.286938775510200e+11 2.266304985469837e-01 1.697103415550011e-02
1.287346938775500e+11 2.272932593152478e-01 1.679867154176138e-02
1.287755102040800e+11 2.282420368833162e-01 1.639590213263994e-02
1.288163265306100e+11 2.287890308940027e-01 1.639051729568899e-02
1.288571428571400e+11 2.298734504410213e-01 1.642227215104797e-02
1.288979591836700e+11 2.306557819331512e-01 1.681670442943832e-02
1.289387755102000e+11 2.311378638852184e-01 1.748403748230597e-02
1.289795918367300e+11 2.317911188781747e-01 1.802995564687231e-02
1.290204081632700e+11 2.322772036005960e-01 1.865202830626892e-02
1.290612244898000e+11 2.328535950398743e-01 1.982878609463665e-02
1.291020408163300e+11 2.330629169317393e-01 2.073221470652855e-02
1.291428571428600e+11 2.333965536202826e-01 2.183637817965581e-02
1.291836734693900e+11 2.335212422054510e-01 2.291332359342641e-02
1.292244897959200e+11 2.331793376261467e-01 2.342240369972547e-02
1.292653061224500e+11 2.326137060134336e-01 2.409485064572439e-02
1.293061224489800e+11 2.323944822948689e-01 2.465386188473622e-02
1.293469387755100e+11 2.314977418879122e-01 2.483137539996359e-02
1.293877551020400e+11 2.305599901455922e-01 2.464237199277629e-02
1.294285714285700e+11 2.293775328133391e-01 2.444399455573174e-02
1.294693877551000e+11 2.285217226873756e-01 2.430477017390224e-02
1.295102040816300e+11 2.273192819130164e-01 2.409218714745245e-02
1.295510204081600e+11 2.265028818361726e-01 2.347572757039986e-02
1.295918367346900e+11 2.254733611974109e-01 2.258335627204744e-02
1.296326530612200e+11 2.245734419489277e-01 2.179444207721666e-02
1.296734693877600e+11 2.239248868586163e-01 2.067055033891964e-02
1.297142857142900e+11 2.233897301957839e-01 1.958085984837033e-02
1.297551020408200e+11 2.230387024151665e-01 1.854657766729342e-02
1.297959183673500e+11 2.229049523884560e-01 1.734340454456036e-02
1.298367346938800e+11 2.227104379681611e-01 1.633111286413878e-02
1.298775510204100e+11 2.229180136298999e-01 1.588077217630651e-02
1.299183673469400e+11 2.235846975634863e-01 1.515625501712028e-02
1.299591836734700e+11 2.243294366890198e-01 1.465705197504429e-02
1.300000000000000e+11 2.250195685238233e-01 1.424926656675470e-02
1.300408163265300e+11 2.258420744797001e-01 1.390587805107465e-02
1.300816326530600e+11 2.266857168382554e-01 1.364049799200278e-02
1.301224489795900e+11 2.272013352091273e-01 1.329737780946453e-02
1.301632653061200e+11 2.276977429737988e-01 1.361289048118324e-02
1.302040816326500e+11 2.282698730716009e-01 1.413274477423053e-02
1.302448979591800e+11 2.280270040273496e-01 1.457132602030492e-02
1.302857142857100e+11 2.279926447424299e-01 1.508236007918626e-02
1.303265306122400e+11 2.278896290500837e-01 1.532926462572783e-02
1.303673469387800e+11 2.270901664505700e-01 1.600062813985967e-02
1.304081632653100e+11 2.268748739902893e-01 1.640165595363900e-02
1.304489795918400e+11 2.265588429389784e-01 1.689391824787375e-02
1.304897959183700e+11 2.259976414152284e-01 1.702093350429000e-02
1.305306122449000e+11 2.254666985926473e-01 1.740726249206938e-02
1.305714285714300e+11 2.251688788349556e-01 1.796014135186517e-02
1.306122448979600e+11 2.248030250583737e-01 1.819792537869994e-02
1.306530612244900e+11 2.245810873300711e-01 1.878840632478455e-02
1.306938775510200e+11 2.242261201024966e-01 1.912041054342140e-02
1.307346938775500e+11 2.239297779767586e-01 1.873776612934757e-02
1.307755102040800e+11 2.235607985687160e-01 1.826934219721420e-02
1.308163265306100e+11 2.231359519012627e-01 1.772686151134965e-02
1.308571428571400e+11 2.225315810507104e-01 1.740262678035664e-02
1.308979591836700e+11 2.218090324007078e-01 1.684570084735294e-02
1.309387755102000e+11 2.209711313681290e-01 1.625966169542355e-02
1.309795918367300e+11 2.198180404092100e-01 1.591344437297026e-02
1.310204081632700e+11 2.183660498519665e-01 1.494121813811737e-02
1.310612244898000e+11 2.174978830524515e-01 1.474652717267702e-02
1.311020408163300e+11 2.167235953511080e-01 1.444006410512612e-02
1.311428571428600e+11 2.162032367119473e-01 1.354710372202719e-02
1.311836734693900e+11 2.156615290444675e-01 1.323682797549365e-02
1.312244897959200e+11 2.148512885625079e-01 1.341869980430702e-02
1.312653061224500e+11 2.143797150493996e-01 1.372356405057698e-02
1.313061224489800e+11 2.140281965233460e-01 1.372147954775674e-02
1.313469387755100e+11 2.141883777142162e-01 1.387579969622251e-02
1.313877551020400e+11 2.142987186904280e-01 1.381394229785393e-02
1.314285714285700e+11 2.140795258001891e-01 1.410462523771151e-02
1.314693877551000e+11 2.137510429045203e-01 1.403154946761379e-02
1.315102040816300e+11 2.138149358878262e-01 1.401961157649134e-02
1.315510204081600e+11 2.139749634516337e-01 1.447653197206176e-02
1.315918367346900e+11 2.136458197607086e-01 1.437135678156659e-02
1.316326530612200e+11 2.132700131196866e-01 1.422304337055928e-02
1.316734693877600e+11 2.125513392193566e-01 1.411559697668269e-02
1.317142857142900e+11 2.117149390995207e-01 1.385585100444947e-02
1.317551020408200e+11 2.109817323666479e-01 1.382078057994491e-02
1.317959183673500e+11 2.101515237228943e-01 1.365169859473513e-02
1.318367346938800e+11 2.092908803574121e-01 1.331869942113823e-02
1.318775510204100e+11 2.083793766383765e-01 1.304433308275157e-02
1.319183673469400e+11 2.074206180598181e-01 1.304494164590160e-02
1.319591836734700e+11 2.068964902571735e-01 1.350400524602420e-02
1.320000000000000e+11 2.067516020152125e-01 1.380639221739324e-02
1.320408163265300e+11 2.065864592545466e-01 1.391511409993730e-02
1.320816326530600e+11 2.068626378212506e-01 1.467881748374159e-02
1.321224489795900e+11 2.072628472053555e-01 1.530311145773392e-02
1.321632653061200e+11 2.078174778472614e-01 1.564127799689637e-02
1.322040816326500e+11 2.087189779267984e-01 1.603137470230178e-02
1.322448979591800e+11 2.091274260836011e-01 1.678044371704288e-02
1.322857142857100e+11 2.093916432073999e-01 1.731667610443985e-02
1.323265306122400e+11 2.098450046525468e-01 1.747798967241835e-02
1.323673469387800e+11 2.098839061506863e-01 1.737951293077358e-02
1.324081632653100e+11 2.095964562474625e-01 1.750810608406115e-02
1.324489795918400e+11 2.087349215185888e-01 1.793585584299833e-02
1.324897959183700e+11 2.086249730799024e-01 1.784913091769569e-02
1.325306122449000e+11 2.079294059888201e-01 1.801112415718358e-02
1.325714285714300e+11 2.068686903177223e-01 1.837073002355207e-02
1.326122448979600e+11 2.058557897045343e-01 1.839618324472959e-02
1.326530612244900e+11 2.049955600544825e-01 1.820251603432755e-02
1.326938775510200e+11 2.042832441536158e-01 1.817288644797015e-02
1.327346938775500e+11 2.031782498269988e-01 1.778664034864483e-02
1.327755102040800e+11 2.022974962317464e-01 1.814229382095560e-02
1.328163265306100e+11 2.016265424621484e-01 1.759954428603064e-02
1.328571428571400e+11 2.018986959775996e-01 1.711374503735093e-02
1.328979591836700e+11 2.022235214485997e-01 1.671956867062274e-02
1.329387755102000e+11 2.024525010274387e-01 1.593114322417784e-02
1.329795918367300e+11 2.031503236020553e-01 1.477224045401274e-02
1.330204081632700e+11 2.033670572509733e-01 1.373085748696261e-02
1.330612244898000e+11 2.042514248908279e-01 1.248166513987189e-02
1.331020408163300e+11 2.048789072073153e-01 1.165374906331195e-02
1.331428571428600e+11 2.051748832741319e-01 1.070075602188099e-02
1.331836734693900e+11 2.051387389843216e-01 9.839777577859372e-03
1.332244897959200e+11 2.052674238402803e-01 8.935838989502768e-03
1.332653061224500e+11 2.056612823310639e-01 7.849437594071413e-03
1.333061224489800e+11 2.064163024044960e-01 7.457057909383404e-03
1.333469387755100e+11 2.070916971464060e-01 7.251097128772351e-03
1.333877551020400e+11 2.072770809049211e-01 6.985173470559241e-03
1.334285714285700e+11 2.073829812202050e-01 7.069000678508713e-03
1.334693877551000e+11 2.073229845644218e-01 7.090027107370669e-03
1.335102040816300e+11 2.077534825535933e-01 7.637338563267357e-03
1.335510204081600e+11 2.082011009167474e-01 7.944152762667188e-03
1.335918367346900e+11 2.083818878195553e-01 8.659360891005800e-03
1.336326530612200e+11 2.086042023064268e-01 9.415885926693660e-03
1.336734693877600e+11 2.088562241577150e-01 1.009882936572477e-02
1.337142857142900e+11 2.093973059916965e-01 1.050502055311393e-02
1.337551020408200e+11 2.092386287075925e-01 1.106059249250044e-02
1.337959183673500e+11 2.089879297977485e-01 1.199212233737834e-02
1.338367346938800e+11 2.085187270580725e-01 1.256664631192823e-02
1.338775510204100e+11 2.081644836096838e-01 1.352304000712856e-02
1.339183673469400e+11 2.076717324337105e-01 1.373133141468298e-02
1.339591836734700e+11 2.067323027471250e-01 1.371318945341845e-02
1.340000000000000e+11 2.055998762191919e-01 1.369705795654449e-02
1.340408163265300e+11 2.043207542694307e-01 1.361829952158655e-02
1.340816326530600e+11 2.034858766421748e-01 1.318078294875230e-02
1.341224489795900e+11 2.025360827443373e-01 1.245941473128613e-02
1.341632653061200e+11 2.021570911556365e-01 1.181745087728792e-02
1.342040816326500e+11 2.018005925353861e-01 1.099616350413800e-02
1.342448979591800e+11 2.016466764194316e-01 1.039036373388590e-02
1.342857142857100e+11 2.016715435792671e-01 9.172369422768103e-03
1.343265306122400e+11 2.017966885534279e-01 8.088048362863174e-03
1.343673469387800e+11 2.019054447194339e-01 7.399416631276038e-03
1.344081632653100e+11 2.021486390364346e-01 6.496501361483034e-03
1.344489795918400e+11 2.031505883218946e-01 5.661117286922834e-03
1.344897959183700e+11 2.043326346195990e-01 4.738510927604728e-03
1.345306122449000e+11 2.053253049042476e-01 3.923171349515638e-03
1.345714285714300e+11 2.061424677210056e-01 3.129487540335858e-03
1.346122448979600e+11 2.072572078794006e-01 2.647611567233076e-03
1.346530612244900e+11 2.084563307283724e-01 2.110767647473670e-03
1.346938775510200e+11 2.096890233705146e-01 1.521655821626982e-03
1.347346938775500e+11 2.104461380624795e-01 1.025116869630981e-03
1.347755102040800e+11 2.111137350449137e-01 8.760678151336158e-04
1.348163265306100e+11 2.111020111918052e-01 6.435482872768024e-04
1.348571428571400e+11 2.114358898079163e-01 3.420271700016491e-04
1.348979591836700e+11 2.115118042991538e-01 -3.442882245251916e-04
1.349387755102000e+11 2.114695357019830e-01 -4.693715892101064e-04
1.349795918367300e+11 2.115843383889244e-01 -6.416110449334235e-04
1.350204081632700e+11 2.115050619438561e-01 -1.000560173018497e-03
1.350612244898000e+11 2.110696574987241e-01 -1.770311019023100e-03
1.351020408163300e+11 2.109918398192419e-01 -2.403519675704875e-03
1.351428571428600e+11 2.110066770786646e-01 -2.875730120610461e-03
1.351836734693900e+11 2.111889258233717e-01 -3.588758535750778e-03
1.352244897959200e+11 2.112205205069631e-01 -4.131908304351601e-03
1.352653061224500e+11 2.116441828417406e-01 -4.732305251854495e-03
1.353061224489800e+11 2.120199630331263e-01 -5.383023997809691e-03
1.353469387755100e+11 2.120952082586788e-01 -5.992643431318541e-03
1.353877551020400e+11 2.123063248805907e-01 -6.781889965199193e-03
1.354285714285700e+11 2.126777824009853e-01 -7.449466560421416e-03
1.354693877551000e+11 2.131932351960943e-01 -7.829642821992937e-03
1.355102040816300e+11 2.135575759108456e-01 -8.085779419204062e-03
1.355510204081600e+11 2.135478226093006e-01 -8.555841715431951e-03
1.355918367346900e+11 2.137224409867112e-01 -8.496062590630711e-03
1.356326530612200e+11 2.146727013063370e-01 -8.188237103949690e-03
1.356734693877600e+11 2.154676444418551e-01 -7.434322826614360e-03
1.357142857142900e+11 2.158214953528141e-01 -7.492643864850403e-03
1.357551020408200e+11 2.158364936162825e-01 -7.768812423499323e-03
1.357959183673500e+11 2.163178611792336e-01 -7.685852581141335e-03
1.358367346938800e+11 2.165919344978388e-01 -7.273812683547964e-03
1.358775510204100e+11 2.171088056000311e-01 -6.358321033181547e-03
1.359183673469400e+11 2.174846954480962e-01 -6.060513027579742e-03
1.359591836734700e+11 2.175612273551043e-01 -5.704640158037237e-03
1.360000000000000e+11 2.175607413890044e-01 -5.186485798983759e-03
1.360408163265300e+11 2.178082988568038e-01 -5.049473254886123e-03
1.360816326530600e+11 2.181250078123958e-01 -4.661391959898389e-03
1.361224489795900e+11 2.181196603358948e-01 -4.446645722818359e-03
1.361632653061200e+11 2.180522645944133e-01 -4.425256042057458e-03
1.362040816326500e+11 2.178579864903720e-01 -4.370486473779053e-03
1.362448979591800e+11 2.173284941862832e-01 -4.875440496207346e-03
1.362857142857100e+11 2.171715469324365e-01 -5.244034275724912e-03
1.363265306122400e+11 2.172230621594770e-01 -5.521282210681870e-03
1.363673469387800e+11 2.174130192617122e-01 -5.708500534237174e-03
1.364081632653100e+11 2.176387969226898e-01 -6.459072643951922e-03
1.364489795918400e+11 2.175764729888190e-01 -7.191212235895804e-03
1.364897959183700e+11 2.180468955588351e-01 -7.714597806664043e-03
1.365306122449000e+11 2.185601780805080e-01 -8.160887144642857e-03
1.365714285714300e+11 2.185881539806300e-01 -8.785965379000128e-03
1.366122448979600e+11 2.191084499777439e-01 -9.111663392712091e-03
1.366530612244900e+11 2.197065787356339e-01 -9.127556782790595e-03
1.366938775510200e+11 2.207463079019958e-01 -9.631386706323065e-03
1.367346938775500e+11 2.216348245689190e-01 -9.869998573842279e-03
1.367755102040800e+11 2.219082046323982e-01 -1.009330933384411e-02
1.368163265306100e+11 2.223378112988844e-01 -1.021716703249120e-02
1.368571428571400e+11 2.231180563784873e-01 -9.701895577543442e-03
1.368979591836700e+11 2.237653249665085e-01 -9.695704598500157e-03
1.369387755102000e+11 2.235328647062987e-01 -9.995120378700335e-03
1.369795918367300e+11 2.235295957508387e-01 -9.870386066870950e-03
1.370204081632700e+11 2.238550273494493e-01 -9.208471742198042e-03
1.370612244898000e+11 2.240278569780150e-01 -8.575997803449850e-03
1.371020408163300e+11 2.240427597092363e-01 -8.170444315260462e-03
1.371428571428600e+11 2.240999279969794e-01 -8.053132685711296e-03
1.371836734693900e+11 2.238941892824619e-01 -8.002382588038674e-03
1.372244897959200e+11 2.239165732107452e-01 -7.666126493323498e-03
1.372653061224500e+11 2.237204554209748e-01 -7.306362910556288e-03
1.373061224489800e+11 2.237894117979465e-01 -7.211157624103243e-03
1.373469387755100e+11 2.237241117425180e-01 -6.842919110053029e-03
1.373877551020400e+11 2.239294641754039e-01 -6.655738907698282e-03
1.374285714285700e+11 2.235088017672670e-01 -6.490043749972741e-03
1.374693877551000e+11 2.232840228164119e-01 -6.674509646752464e-03
1.375102040816300e+11 2.230387021766196e-01 -6.347368935712027e-03
1.375510204081600e+11 2.229818385974446e-01 -5.947044799057067e-03
1.375918367346900e+11 2.224302583959612e-01 -6.028143796048288e-03
1.376326530612200e+11 2.218211550009084e-01 -6.258799388029254e-03
1.376734693877600e+11 2.210058690237011e-01 -6.113201612165203e-03
1.377142857142900e+11 2.206804892368626e-01 -5.734584682407140e-03
1.377551020408200e+11 2.202935658417360e-01 -5.608913247131398e-03
1.377959183673500e+11 2.195373610993593e-01 -5.640308509373824e-03
1.378367346938800e+11 2.192626261478523e-01 -5.375111398232896e-03
1.378775510204100e+11 2.189071781013846e-01 -5.012550412895572e-03
1.379183673469400e+11 2.183595452050673e-01 -4.608143652325179e-03
1.379591836734700e+11 2.180044894404090e-01 -4.561253000229699e-03
1.380000000000000e+11 2.178049309465706e-01 -4.601222570431694e-03
1.380408163265300e+11 2.176274871521540e-01 -4.385723909192736e-03
1.380816326530600e+11 2.173441300354587e-01 -4.148553688557580e-03
1.381224489795900e+11 2.172813571493070e-01 -4.270108052862154e-03
1.381632653061200e+11 2.174604393011070e-01 -3.851543375954046e-03
1.382040816326500e+11 2.173766584366107e-01 -3.369946455258199e-03
1.382448979591800e+11 2.175208740297760e-01 -3.589070699777929e-03
1.382857142857100e+11 2.171385711258266e-01 -4.094988935847890e-03
1.383265306122400e+11 2.172062681272333e-01 -3.877965355143113e-03
1.383673469387800e+11 2.172327077164588e-01 -3.732711639227968e-03
1.384081632653100e+11 2.171169086507010e-01 -3.810916986215184e-03
1.384489795918400e+11 2.165833644264692e-01 -3.984964685111420e-03
1.384897959183700e+11 2.162504241565079e-01 -4.026296884173234e-03
1.385306122449000e+11 2.161640291439050e-01 -3.933693388693352e-03
1.385714285714300e+11 2.157361380340490e-01 -4.211089110954816e-03
1.386122448979600e+11 2.151731493753175e-01 -4.468562969294611e-03
1.386530612244900e+11 2.146398913670909e-01 -4.787790457043773e-03
1.386938775510200e+11 2.144102333641281e-01 -4.729084064825064e-03
1.387346938775500e+11 2.144737205993075e-01 -4.500695802344876e-03
1.387755102040800e+11 2.148977649019435e-01 -4.740571075263136e-03
1.388163265306100e+11 2.148341632426345e-01 -4.767574427835557e-03
1.388571428571400e+11 2.151113745968169e-01 -4.592976060554130e-03
1.388979591836700e+11 2.152477657422952e-01 -4.556094664098004e-03
1.389387755102000e+11 2.159734493873819e-01 -4.119544117016003e-03
1.389795918367300e+11 2.168400056733268e-01 -3.852531033587972e-03
1.390204081632700e+11 2.175311239293316e-01 -3.432467122165016e-03
1.390612244898000e+11 2.175828545361974e-01 -3.331959271137657e-03
1.391020408163300e+11 2.175040338447391e-01 -3.565644817776401e-03
1.391428571428600e+11 2.171614907564757e-01 -3.067074976966988e-03
1.391836734693900e+11 2.172964806751859e-01 -2.461775487265115e-03
1.392244897959200e+11 2.170364629914531e-01 -1.474795273784295e-03
1.392653061224500e+11 2.164558473648379e-01 -1.241920994384209e-03
1.393061224489800e+11 2.158838469762078e-01 -9.548002507216864e-04
1.393469387755100e+11 2.155007810094188e-01 -4.328120281450796e-04
1.393877551020400e+11 2.147939133633052e-01 -6.713871162597641e-06
1.394285714285700e+11 2.141492157905931e-01 6.617762031582783e-04
1.394693877551000e+11 2.134688701954651e-01 8.937092994321408e-04
1.395102040816300e+11 2.131657707839223e-01 9.429675647718657e-04
1.395510204081600e+11 2.128120701341879e-01 8.254626086372745e-04
1.395918367346900e+11 2.120952284839594e-01 5.516124384883765e-04
1.396326530612200e+11 2.114930394180207e-01 7.090169860776970e-04
1.396734693877600e+11 2.109972943310686e-01 3.913186352133574e-04
1.397142857142900e+11 2.109824006676592e-01 -3.387058908289582e-04
1.397551020408200e+11 2.106602940350009e-01 -7.496529165223347e-04
1.397959183673500e+11 2.106287194299559e-01 -7.415410781740574e-04
1.398367346938800e+11 2.097431956803307e-01 -1.037562904609344e-03
1.398775510204100e+11 2.097606781325793e-01 -1.277637338946589e-03
1.399183673469400e+11 2.092568804923531e-01 -2.055591652390741e-03
1.399591836734700e+11 2.091315640201512e-01 -2.174852799133186e-03
1.400000000000000e+11 2.094208463011520e-01 -2.322614188116485e-03
1.400408163265300e+11 2.091095671486981e-01 -2.689129324674830e-03
1.400816326530600e+11 2.088433680019047e-01 -3.164424017277062e-03
1.401224489795900e+11 2.083951214512786e-01 -4.621604425689096e-03
1.401632653061200e+11 2.077220602832377e-01 -5.209206806865571e-03
1.402040816326500e+11 2.077743987752848e-01 -5.356688555991833e-03
1.402448979591800e+11 2.078438432214411e-01 -5.452874832033956e-03
1.402857142857100e+11 2.077511550581672e-01 -5.914668461749960e-03
1.403265306122400e+11 2.073778394194961e-01 -6.594994852900700e-03
1.403673469387800e+11 2.076834523990896e-01 -7.108930935799286e-03
1.404081632653100e+11 2.082706703755811e-01 -6.918225428267721e-03
1.404489795918400e+11 2.084172121672930e-01 -7.142918218722392e-03
1.404897959183700e+11 2.086750520738543e-01 -6.958328301558053e-03
1.405306122449000e+11 2.091271889850158e-01 -7.150127296796652e-03
1.405714285714300e+11 2.096469255261916e-01 -6.735046549647629e-03
1.406122448979600e+11 2.096344493444402e-01 -6.248244772784724e-03
1.406530612244900e+11 2.105208144255049e-01 -5.689710980259090e-03
1.406938775510200e+11 2.105040486926615e-01 -5.878702068719856e-03
1.407346938775500e+11 2.108930298368992e-01 -5.745615418312419e-03
1.407755102040800e+11 2.103693221887747e-01 -5.093915543298258e-03
1.408163265306100e+11 2.098767326802484e-01 -3.766711894677532e-03
1.408571428571400e+11 2.095784922998206e-01 -3.516023098570468e-03
1.408979591836700e+11 2.093001426802870e-01 -3.844101474133990e-03
1.409387755102000e+11 2.087570121163819e-01 -3.899423590240419e-03
1.409795918367300e+11 2.084578615867709e-01 -3.360654285776631e-03
1.410204081632700e+11 2.080937323879048e-01 -2.811292498831636e-03
1.410612244898000e+11 2.077799344051070e-01 -2.864572010729746e-03
1.411020408163300e+11 2.081166010017204e-01 -2.427353277499333e-03
1.411428571428600e+11 2.080778111498774e-01 -1.397990354557333e-03
1.411836734693900e+11 2.082446229905492e-01 -3.317227343362169e-04
1.412244897959200e+11 2.076418721744294e-01 -1.064509704563388e-03
1.412653061224500e+11 2.068035223482924e-01 -1.582637264414943e-03
1.413061224489800e+11 2.067384685133441e-01 -1.188910577950860e-03
1.413469387755100e+11 2.064763690638206e-01 -3.904831529900786e-04
1.413877551020400e+11 2.065820393954296e-01 2.658874492197304e-04
1.414285714285700e+11 2.062979642737485e-01 -6.454101118968960e-04
1.414693877551000e+11 2.058850936457837e-01 -1.900944559504999e-03
1.415102040816300e+11 2.057791860497556e-01 -2.446398845315595e-03
1.415510204081600e+11 2.048798150507861e-01 -2.099887909432655e-03
1.415918367346900e+11 2.036377629238106e-01 -2.052588273710925e-03
1.416326530612200e+11 2.028360266804939e-01 -3.046687615459936e-03
1.416734693877600e+11 2.020067467681887e-01 -3.786369634198530e-03
1.417142857142900e+11 2.011458453793434e-01 -3.623421708308174e-03
1.417551020408200e+11 2.001563761436821e-01 -4.338456978145124e-03
1.417959183673500e+11 1.994977502968046e-01 -4.469611541311099e-03
1.418367346938800e+11 1.990418704222360e-01 -5.769728150163511e-03
1.418775510204100e+11 1.982338247247261e-01 -7.649996293619294e-03
1.419183673469400e+11 1.972721943812676e-01 -9.107596543453186e-03
1.419591836734700e+11 1.966679799906956e-01 -9.353862574867523e-03
1.420000000000000e+11 1.961873034181166e-01 -9.569838267691871e-03
1.420408163265300e+11 1.957114691108264e-01 -9.927677842976561e-03
1.420816326530600e+11 1.956312230867386e-01 -1.062984928593422e-02
1.421224489795900e+11 1.964528297558854e-01 -1.171969201302437e-02
1.421632653061200e+11 1.975278602752435e-01 -1.283283263698289e-02
1.422040816326500e+11 1.978802240913992e-01 -1.439515518977123e-02
1.422448979591800e+11 1.976535385086264e-01 -1.517033016482686e-02
1.422857142857100e+11 1.982409366156882e-01 -1.614988589447171e-02
1.423265306122400e+11 1.992156097785655e-01 -1.656325901852504e-02
1.423673469387800e+11 1.996617062461742e-01 -1.754147274741870e-02
1.424081632653100e+11 2.003808087588980e-01 -1.878204193282351e-02
1.424489795918400e+11 2.010560713913851e-01 -1.932224881455937e-02
1.424897959183700e+11 2.021626714202105e-01 -1.972576131303551e-02
1.425306122449000e+11 2.031572108908321e-01 -1.981444766295941e-02
1.425714285714300e+11 2.038031173420812e-01 -2.038286198107721e-02
1.426122448979600e+11 2.042229914599412e-01 -2.076217375686533e-02
1.426530612244900e+11 2.056945645623075e-01 -2.063703078263088e-02
1.426938775510200e+11 2.070919831092961e-01 -2.041910301359123e-02
1.427346938775500e+11 2.080002646954096e-01 -2.054371389757344e-02
1.427755102040800e+11 2.087671200112207e-01 -2.051084170452155e-02
1.428163265306100e+11 2.100689131328999e-01 -2.011027479993675e-02
1.428571428571400e+11 2.111087405673697e-01 -2.021487650604076e-02
1.428979591836700e+11 2.118697743616094e-01 -1.994435801667588e-02
1.429387755102000e+11 2.127786481228228e-01 -1.978579933335088e-02
1.429795918367300e+11 2.133033842173974e-01 -1.954507093488798e-02
1.430204081632700e+11 2.141098270161582e-01 -1.925363053707139e-02
1.430612244898000e+11 2.142481103309513e-01 -1.954711485686572e-02
1.431020408163300e+11 2.138882313883636e-01 -1.938528558514622e-02
1.431428571428600e+11 2.138575993003288e-01 -1.918886115577918e-02
1.431836734693900e+11 2.140376276567801e-01 -1.959577163297255e-02
1.432244897959200e+11 2.140894262924178e-01 -1.988232468370507e-02
1.432653061224500e+11 2.137864782433805e-01 -1.996596669844824e-02
1.433061224489800e+11 2.139763649161414e-01 -1.995972055037977e-02
1.433469387755100e+11 2.138855966531736e-01 -2.039518995112855e-02
1.433877551020400e+11 2.144788783408600e-01 -2.075022608200909e-02
1.434285714285700e+11 2.144344611080207e-01 -2.105530539126405e-02
1.434693877551000e+11 2.146265953863907e-01 -2.108291525783456e-02
1.435102040816300e+11 2.146558615008287e-01 -2.130236216443222e-02
1.435510204081600e+11 2.150084662697657e-01 -2.189630630192693e-02
1.435918367346900e+11 2.152177684200641e-01 -2.218891348200972e-02
1.436326530612200e+11 2.154981767505491e-01 -2.217114833728970e-02
1.436734693877600e+11 2.157765896083628e-01 -2.258284971245072e-02
1.437142857142900e+11 2.156652460075581e-01 -2.314425130609287e-02
1.437551020408200e+11 2.155480743224767e-01 -2.356155531328771e-02
1.437959183673500e+11 2.157437262389176e-01 -2.338255355273302e-02
1.438367346938800e+11 2.157915543962202e-01 -2.382671833647612e-02
1.438775510204100e+11 2.149853981413036e-01 -2.383744622843054e-02
1.439183673469400e+11 2.142604480430679e-01 -2.411787002190206e-02
1.439591836734700e+11 2.144118059489127e-01 -2.420102166739140e-02
1.440000000000000e+11 2.141810586566385e-01 -2.443302333344874e-02
1.440408163265300e+11 2.144852952944161e-01 -2.467175123588479e-02
1.440816326530600e+11 2.143044876626516e-01 -2.525697705413707e-02
1.441224489795900e+11 2.143790735862899e-01 -2.561861408386838e-02
1.441632653061200e+11 2.150055764872653e-01 -2.581643977212175e-02
1.442040816326500e+11 2.148031331468637e-01 -2.624161490596054e-02
1.442448979591800e+11 2.147792715114186e-01 -2.595427150397724e-02
1.442857142857100e+11 2.152918832725887e-01 -2.552009948895929e-02
1.443265306122400e+11 2.152771586149689e-01 -2.536437319702125e-02
1.443673469387800e+11 2.153046556030364e-01 -2.515148631075879e-02
1.444081632653100e+11 2.158197702276843e-01 -2.521530356174339e-02
1.444489795918400e+11 2.161593149896821e-01 -2.450623131102861e-02
1.444897959183700e+11 2.162713956573514e-01 -2.397626407570041e-02
1.445306122449000e+11 2.165320637128419e-01 -2.366562252179607e-02
1.445714285714300e+11 2.166119937024368e-01 -2.361346529412544e-02
1.446122448979600e+11 2.170701288716455e-01 -2.364658876351524e-02
1.446530612244900e+11 2.172241966451864e-01 -2.380020839741653e-02
1.446938775510200e+11 2.172365683442970e-01 -2.399407612885947e-02
1.447346938775500e+11 2.176952199984733e-01 -2.414585202081976e-02
1.447755102040800e+11 2.179019672912278e-01 -2.422088358698512e-02
1.448163265306100e+11 2.180178091524712e-01 -2.425453918802295e-02
1.448571428571400e+11 2.186135150129151e-01 -2.456960562892904e-02
1.448979591836700e+11 2.189821443754375e-01 -2.449021620773344e-02
1.449387755102000e+11 2.192056880605300e-01 -2.433124859530250e-02
1.449795918367300e+11 2.194453211676665e-01 -2.455042082459886e-02
1.450204081632700e+11 2.196957491808367e-01 -2.443239950752566e-02
1.450612244898000e+11 2.201566156968852e-01 -2.395391945792273e-02
1.451020408163300e+11 2.200619978005770e-01 -2.371645135991843e-02
1.451428571428600e+11 2.200413604012952e-01 -2.331964448135461e-02
1.451836734693900e+11 2.199607344148545e-01 -2.217462628174714e-02
1.452244897959200e+11 2.196511475989222e-01 -2.152255976783102e-02
1.452653061224500e+11 2.196706091091289e-01 -2.148784711694160e-02
1.453061224489800e+11 2.194566984982052e-01 -2.154701485640105e-02
1.453469387755100e+11 2.196113840636694e-01 -2.116879207823470e-02
1.453877551020400e+11 2.194378921933291e-01 -2.038851646005554e-02
1.454285714285700e+11 2.190117991921728e-01 -1.996781243332434e-02
1.454693877551000e+11 2.185882261757735e-01 -2.035218080791244e-02
1.455102040816300e+11 2.188649769814243e-01 -1.970898624528193e-02
1.455510204081600e+11 2.187878908437788e-01 -1.930030323907529e-02
1.455918367346900e+11 2.184832417276899e-01 -1.921368986291464e-02
1.456326530612200e+11 2.185532971068319e-01 -1.941441594758415e-02
1.456734693877600e+11 2.185340219240827e-01 -2.060729235805639e-02
1.457142857142900e+11 2.183523999192996e-01 -2.131776296405940e-02
1.457551020408200e+11 2.183204453518566e-01 -2.118468476995050e-02
1.457959183673500e+11 2.185320662445982e-01 -2.066141445617380e-02
1.458367346938800e+11 2.187456960939233e-01 -2.044278694828920e-02
1.458775510204100e+11 2.190309111035207e-01 -2.070514537063484e-02
1.459183673469400e+11 2.191917990382860e-01 -2.101323409208592e-02
1.459591836734700e+11 2.190351266333724e-01 -2.155288649729734e-02
1.460000000000000e+11 2.195913686486804e-01 -2.145147096943207e-02
1.460408163265300e+11 2.197964189046074e-01 -2.107299838777932e-02
1.460816326530600e+11 2.197700761985051e-01 -2.087264356266850e-02
1.461224489795900e+11 2.196932345862731e-01 -2.142515247644119e-02
1.461632653061200e+11 2.205397903437495e-01 -2.134598445065714e-02
1.462040816326500e+11 2.214268412669911e-01 -2.061218751487088e-02
1.462448979591800e+11 2.224639367315807e-01 -1.947028625412568e-02
1.462857142857100e+11 2.237510309666322e-01 -1.885277601818647e-02
1.463265306122400e+11 2.243804075048524e-01 -1.917684191552571e-02
1.463673469387800e+11 2.259889472839325e-01 -1.944853867944324e-02
1.464081632653100e+11 2.269789414128109e-01 -1.881008665843135e-02
1.464489795918400e+11 2.274409976570504e-01 -1.840906473332676e-02
1.464897959183700e+11 2.276288807817401e-01 -1.764879459773952e-02
1.465306122449000e+11 2.280812820593616e-01 -1.735643136479126e-02
1.465714285714300e+11 2.291122229651967e-01 -1.659866323183824e-02
1.466122448979600e+11 2.300941217584873e-01 -1.624926194980190e-02
1.466530612244900e+11 2.304217198362627e-01 -1.662523159301229e-02
1.466938775510200e+11 2.304787241414964e-01 -1.594577470364605e-02
1.467346938775500e+11 2.303287323460489e-01 -1.492571484548116e-02
1.467755102040800e+11 2.307754771728563e-01 -1.407186462903691e-02
1.468163265306100e+11 2.302604725479233e-01 -1.392619327803816e-02
1.468571428571400e+11 2.298313579506391e-01 -1.405454555756503e-02
1.468979591836700e+11 2.300922676767917e-01 -1.253155240690225e-02
1.469387755102000e+11 2.310209377009957e-01 -1.193337784096136e-02
1.469795918367300e+11 2.309730500068247e-01 -1.205198758374390e-02
1.470204081632700e+11 2.304342348070670e-01 -1.205471157181715e-02
1.470612244898000e+11 2.301826120357751e-01 -1.104077060809684e-02
1.471020408163300e+11 2.304345378079876e-01 -1.019940645012850e-02
1.471428571428600e+11 2.306518483369786e-01 -9.744375508971382e-03
1.471836734693900e+11 2.311800813804314e-01 -9.087646138686688e-03
1.472244897959200e+11 2.319756824120946e-01 -8.320936516776496e-03
1.472653061224500e+11 2.321450727493274e-01 -8.781456080644410e-03
1.473061224489800e+11 2.325991378377640e-01 -8.468185449510290e-03
1.473469387755100e+11 2.326995370413360e-01 -7.694438433509227e-03
1.473877551020400e+11 2.328915332800225e-01 -6.929423341738763e-03
1.474285714285700e+11 2.331676435268897e-01 -6.764733353788882e-03
1.474693877551000e+11 2.326850583994214e-01 -6.735378717218175e-03
1.475102040816300e+11 2.329266904232586e-01 -6.452782258415939e-03
1.475510204081600e+11 2.331601380584289e-01 -5.776679213654621e-03
1.475918367346900e+11 2.331300085654645e-01 -5.662006728758225e-03
1.476326530612200e+11 2.322181347943061e-01 -5.858701762447632e-03
1.476734693877600e+11 2.320190402825303e-01 -6.005166297755123e-03
1.477142857142900e+11 2.317991992128044e-01 -5.368530829515629e-03
1.477551020408200e+11 2.315194780045729e-01 -3.605615773965846e-03
1.477959183673500e+11 2.315938361300995e-01 -3.067121014593251e-03
1.478367346938800e+11 2.314862738755310e-01 -3.259187171224523e-03
1.478775510204100e+11 2.311778128123675e-01 -3.990779794736448e-03
1.479183673469400e+11 2.309813571033703e-01 -3.786652814025696e-03
1.479591836734700e+11 2.309755935335838e-01 -3.134426740586017e-03
1.480000000000000e+11 2.312014102435434e-01 -2.797874525591224e-03
1.480408163265300e+11 2.317002120165417e-01 -2.957034821629960e-03
1.480816326530600e+11 2.316015937890506e-01 -3.163700285523646e-03
1.481224489795900e+11 2.322373414759715e-01 -3.446119468519725e-03
1.481632653061200e+11 2.327939818350934e-01 -3.190143872072358e-03
1.482040816326500e+11 2.335195953333868e-01 -2.963355950995692e-03
1.482448979591800e+11 2.343730177591445e-01 -2.461129470859440e-03
1.482857142857100e+11 2.351461983470325e-01 -2.573799336807112e-03
1.483265306122400e+11 2.349690932722351e-01 -2.998020472025263e-03
1.483673469387800e+11 2.350675535008891e-01 -3.177394157221437e-03
1.484081632653100e+11 2.354908176770095e-01 -1.776220740110568e-03
1.484489795918400e+11 2.363688121100054e-01 -7.080211476858220e-04
1.484897959183700e+11 2.362748244522977e-01 1.610627578705985e-04
1.485306122449000e+11 2.360116404485357e-01 1.240949280289564e-03
1.485714285714300e+11 2.355498785725059e-01 1.787237364460846e-03
1.486122448979600e+11 2.356487517309517e-01 3.138610444286527e-03
1.486530612244900e+11 2.355563521765710e-01 5.152712147772454e-03
1.486938775510200e+11 2.358174881418175e-01 6.690842019642269e-03
1.487346938775500e+11 2.348928779569843e-01 7.501549413089638e-03
1.487755102040800e+11 2.334716414481255e-01 8.302932819911429e-03
1.488163265306100e+11 2.328324951732413e-01 9.735477958846515e-03
1.488571428571400e+11 2.322887046186136e-01 1.065807849105333e-02
1.488979591836700e+11 2.314924016757307e-01 1.186299340615402e-02
1.489387755102000e+11 2.307743973030597e-01 1.301812726629803e-02
1.489795918367300e+11 2.295100180012831e-01 1.315861516565171e-02
1.490204081632700e+11 2.284198926529954e-01 1.287854991856913e-02
1.490612244898000e+11 2.268444988863557e-01 1.242629931942820e-02
1.491020408163300e+11 2.256482776440419e-01 1.234916871190960e-02
1.491428571428600e+11 2.248460080924721e-01 1.278878867482356e-02
1.491836734693900e+11 2.243481568326982e-01 1.247650715923116e-02
1.492244897959200e+11 2.231636685458822e-01 1.033764309663398e-02
1.492653061224500e+11 2.213900912855402e-01 9.007207241926517e-03
1.493061224489800e+11 2.195455255885920e-01 7.697877511305067e-03
1.493469387755100e+11 2.182814573291801e-01 7.594602222958949e-03
1.493877551020400e+11 2.175111271189659e-01 6.424830809086797e-03
1.494285714285700e+11 2.168933308152875e-01 4.527741596214333e-03
1.494693877551000e+11 2.156179746754358e-01 2.509235527990766e-03
1.495102040816300e+11 2.150706225992030e-01 1.927811679309279e-03
1.495510204081600e+11 2.145000130947579e-01 1.501195412198992e-03
1.495918367346900e+11 2.150862381087204e-01 1.377531581610587e-03
1.496326530612200e+11 2.156542434641599e-01 -3.405207138170144e-04
1.496734693877600e+11 2.158175872108449e-01 -2.432368088061680e-03
1.497142857142900e+11 2.153459829767356e-01 -3.759993636606018e-03
1.497551020408200e+11 2.160971859603946e-01 -3.924856455964827e-03
1.497959183673500e+11 2.165646932570823e-01 -3.697918996349538e-03
1.498367346938800e+11 2.175057890367130e-01 -3.925683832116229e-03
1.498775510204100e+11 2.182893022507106e-01 -3.936614282289732e-03
1.499183673469400e+11 2.194673735119084e-01 -4.009308896637938e-03
1.499591836734700e+11 2.200589173264964e-01 -3.589652926569947e-03
1.500000000000000e+11 2.206632522715662e-01 -3.198680509047929e-03
1.500408163265300e+11 2.204043689444751e-01 -2.322168986135374e-03
1.500816326530600e+11 2.203880385809222e-01 -1.853988181978527e-03
1.501224489795900e+11 2.207993824348923e-01 -1.225322761251270e-03
1.501632653061200e+11 2.211744547498282e-01 -1.157248299354106e-04
1.502040816326500e+11 2.198144037368680e-01 8.521836459007044e-04
1.502448979591800e+11 2.184097431101925e-01 1.903508006867011e-03
1.502857142857100e+11 2.172953350685527e-01 2.522159192731038e-03
1.503265306122400e+11 2.164999207594613e-01 3.109834350938236e-03
1.503673469387800e+11 2.153923523342841e-01 4.162831698867836e-03
1.504081632653100e+11 2.143186764554467e-01 5.709057043344045e-03
1.504489795918400e+11 2.129441627134493e-01 6.548661043601022e-03
1.504897959183700e+11 2.122475489347616e-01 6.629168039527348e-03
1.505306122449000e+11 2.117615415660563e-01 6.085902264794094e-03
1.505714285714300e+11 2.109423397232694e-01 5.127813929230282e-03
1.506122448979600e+11 2.092094397661207e-01 3.817245051198995e-03
1.506530612244900e+11 2.085794878455312e-01 3.726119970899381e-03
1.506938775510200e+11 2.081734718645238e-01 3.598416883359396e-03
1.507346938775500e+11 2.073763645693208e-01 2.519135097948558e-03
1.507755102040800e+11 2.071236588949400e-01 1.468396344932615e-03
1.508163265306100e+11 2.061523182343881e-01 -5.166749922383037e-04
1.508571428571400e+11 2.053729842349634e-01 -2.401075217113378e-03
1.508979591836700e+11 2.055356226608228e-01 -3.601174962804761e-03
1.509387755102000e+11 2.057085468888275e-01 -5.211818168396664e-03
1.509795918367300e+11 2.049749910068945e-01 -7.544844527112486e-03
1.510204081632700e+11 2.037603871261760e-01 -8.926731387712151e-03
1.510612244898000e+11 2.031309078650871e-01 -9.951085369365705e-03
1.511020408163300e+11 2.029680883468326e-01 -1.063762475324537e-02
1.511428571428600e+11 2.034634754576467e-01 -1.201738863893840e-02
1.511836734693900e+11 2.036006081404418e-01 -1.379701080651142e-02
1.512244897959200e+11 2.032877314703588e-01 -1.528784400464993e-02
1.512653061224500e+11 2.032039352400551e-01 -1.531687913705650e-02
1.513061224489800e+11 2.032435284931467e-01 -1.633605717655139e-02
1.513469387755100e+11 2.045308603987210e-01 -1.709306323918161e-02
1.513877551020400e+11 2.055840557199075e-01 -1.815853702881957e-02
1.514285714285700e+11 2.067027323827773e-01 -1.964640809310955e-02
1.514693877551000e+11 2.068265951509356e-01 -2.020586273085053e-02
1.515102040816300e+11 2.075308498146461e-01 -2.110989842898063e-02
1.515510204081600e+11 2.077951963506136e-01 -2.207113619661032e-02
1.515918367346900e+11 2.084089772512720e-01 -2.351435410161495e-02
1.516326530612200e+11 2.088500246670156e-01 -2.409410137558944e-02
1.516734693877600e+11 2.090607645771570e-01 -2.439794591499021e-02
1.517142857142900e+11 2.088594010770002e-01 -2.474884000469944e-02
1.517551020408200e+11 2.090163111465236e-01 -2.508193633586729e-02
1.517959183673500e+11 2.096106605551202e-01 -2.522475762715765e-02
1.518367346938800e+11 2.094304087555232e-01 -2.589166751567397e-02
1.518775510204100e+11 2.088562483923818e-01 -2.622337445127097e-02
1.519183673469400e+11 2.081440830995630e-01 -2.724169347334538e-02
1.519591836734700e+11 2.081195224628690e-01 -2.771222880952812e-02
1.520000000000000e+11 2.078905843742883e-01 -2.815756432960196e-02
1.520408163265300e+11 2.078454229422873e-01 -2.765219223239286e-02
1.520816326530600e+11 2.072194211206745e-01 -2.833859006440003e-02
1.521224489795900e+11 2.071242814178176e-01 -2.948643043023998e-02
1.521632653061200e+11 2.069907751015841e-01 -3.057675376713145e-02
1.522040816326500e+11 2.068075123505679e-01 -3.114569326861092e-02
1.522448979591800e+11 2.063819959208025e-01 -3.154098350626221e-02
1.522857142857100e+11 2.060894586237622e-01 -3.238939072741983e-02
1.523265306122400e+11 2.065677509878472e-01 -3.286484975638433e-02
1.523673469387800e+11 2.072113264523029e-01 -3.370491290206989e-02
1.524081632653100e+11 2.075024316814051e-01 -3.416562695211615e-02
1.524489795918400e+11 2.068149646250968e-01 -3.478025139675590e-02
1.524897959183700e+11 2.058913028088392e-01 -3.541005189761386e-02
1.525306122449000e+11 2.052984846858074e-01 -3.645485106200194e-02
1.525714285714300e+11 2.049556985942476e-01 -3.709693703202691e-02
1.526122448979600e+11 2.046155529983719e-01 -3.780024513262462e-02
1.526530612244900e+11 2.041767408811357e-01 -3.794927627157361e-02
1.526938775510200e+11 2.032787013843129e-01 -3.877811016401872e-02
1.527346938775500e+11 2.023141538622998e-01 -3.929864688329400e-02
1.527755102040800e+11 2.022620140555063e-01 -3.945460855373379e-02
1.528163265306100e+11 2.016786488307746e-01 -4.046540265847758e-02
1.528571428571400e+11 2.019386414653834e-01 -4.201836805431974e-02
1.528979591836700e+11 2.012429174670320e-01 -4.466325367804994e-02
1.529387755102000e+11 2.010021098694945e-01 -4.602005397140797e-02
1.529795918367300e+11 2.006354085964046e-01 -4.811529103378907e-02
1.530204081632700e+11 2.015100144125967e-01 -4.974236130355983e-02
1.530612244898000e+11 2.030301364865289e-01 -5.112084940547913e-02
1.531020408163300e+11 2.030174939858256e-01 -5.298040127757983e-02
1.531428571428600e+11 2.032747489005144e-01 -5.521879943335868e-02
1.531836734693900e+11 2.043984879670668e-01 -5.753685399574022e-02
1.532244897959200e+11 2.069237631780715e-01 -5.814499696667971e-02
1.532653061224500e+11 2.087758205971868e-01 -5.942247690351380e-02
1.533061224489800e+11 2.094472909880882e-01 -6.095644093040664e-02
1.533469387755100e+11 2.106598640809525e-01 -6.222862477632885e-02
1.533877551020400e+11 2.128529096935198e-01 -6.245630433572283e-02
1.534285714285700e+11 2.153505706241549e-01 -6.226129830363984e-02
1.534693877551000e+11 2.171821549050972e-01 -6.261555561684796e-02
1.535102040816300e+11 2.186017971554044e-01 -6.294898974226351e-02
1.535510204081600e+11 2.200742646288900e-01 -6.260406160357387e-02
1.535918367346900e+11 2.222215318712442e-01 -6.312852601639539e-02
1.536326530612200e+11 2.244085818251313e-01 -6.269512751077760e-02
1.536734693877600e+11 2.247616549883135e-01 -6.180710322833095e-02
1.537142857142900e+11 2.259029850926949e-01 -6.045968705779790e-02
1.537551020408200e+11 2.272818521889504e-01 -6.021507950939368e-02
1.537959183673500e+11 2.284156162492950e-01 -5.963312114854730e-02
1.538367346938800e+11 2.293345210166148e-01 -5.937637367662313e-02
1.538775510204100e+11 2.294516700236849e-01 -5.811103694031274e-02
1.539183673469400e+11 2.296377453198803e-01 -5.724227200670849e-02
1.539591836734700e+11 2.291386393346286e-01 -5.750746973861107e-02
1.540000000000000e+11 2.290326561341381e-01 -5.717454921539926e-02
1.540408163265300e+11 2.291519967316571e-01 -5.693189226309525e-02
1.540816326530600e+11 2.295042417846754e-01 -5.761758797280101e-02
1.541224489795900e+11 2.291131095370554e-01 -5.725414282184787e-02
1.541632653061200e+11 2.280494199477453e-01 -5.862928299971443e-02
1.542040816326500e+11 2.275260298576028e-01 -5.918509588698809e-02
1.542448979591800e+11 2.279794226944058e-01 -5.950309563379669e-02
1.542857142857100e+11 2.283152183605354e-01 -6.035946926107026e-02
1.543265306122400e+11 2.278706173419951e-01 -6.219619854413650e-02
1.543673469387800e+11 2.281323848911566e-01 -6.377269649415568e-02
1.544081632653100e+11 2.286087062757629e-01 -6.556030188708657e-02
1.544489795918400e+11 2.304710068103857e-01 -6.727411117432332e-02
1.544897959183700e+11 2.310278860010508e-01 -6.943914785014170e-02
1.545306122449000e+11 2.318749653557056e-01 -7.088481819233046e-02
1.545714285714300e+11 2.335730295699797e-01 -7.179743184665112e-02
1.546122448979600e+11 2.355037610562128e-01 -7.336028844424390e-02
1.546530612244900e+11 2.373872113870445e-01 -7.407125277135682e-02
1.546938775510200e+11 2.397239422093762e-01 -7.471082287355123e-02
1.547346938775500e+11 2.418699619874146e-01 -7.380139420443345e-02
1.547755102040800e+11 2.439677327824477e-01 -7.435222774533194e-02
1.548163265306100e+11 2.452120124522887e-01 -7.621079491765770e-02
1.548571428571400e+11 2.473491059453008e-01 -7.643980889109701e-02
1.548979591836700e+11 2.497036459923774e-01 -7.435500444831869e-02
1.549387755102000e+11 2.509459697599889e-01 -7.156358235788127e-02
1.549795918367300e+11 2.535117211751429e-01 -7.051235805791355e-02
1.550204081632700e+11 2.621052990651860e-01 -8.200681294423179e-02
1.550612244898000e+11 2.670220598295179e-01 -7.939227779328069e-02
1.551020408163300e+11 2.682224096415171e-01 -8.020889424447138e-02
1.551428571428600e+11 2.682265269006461e-01 -8.228964486440390e-02
1.551836734693900e+11 2.685184942002927e-01 -8.113320817213988e-02
1.552244897959200e+11 2.695382020221727e-01 -7.984862413807918e-02
1.552653061224500e+11 2.709776535951274e-01 -7.790978525764884e-02
1.553061224489800e+11 2.713024670173766e-01 -7.813874167209889e-02
1.553469387755100e+11 2.704899163279360e-01 -7.778478140167566e-02
1.553877551020400e+11 2.707474927853328e-01 -7.630126520422932e-02
1.554285714285700e+11 2.710580734476826e-01 -7.509768796964410e-02
1.554693877551000e+11 2.715314002567269e-01 -7.497066747804626e-02
1.555102040816300e+11 2.710742471465112e-01 -7.620534711028834e-02
1.555510204081600e+11 2.709505855222345e-01 -7.610048059686947e-02
1.555918367346900e+11 2.713797733659604e-01 -7.548552461136321e-02
1.556326530612200e+11 2.716122296038068e-01 -7.496946856965696e-02
1.556734693877600e+11 2.720594345532404e-01 -7.586635729687055e-02
1.557142857142900e+11 2.720556216619242e-01 -7.614660674550312e-02
1.557551020408200e+11 2.728613530088658e-01 -7.620086404056187e-02
1.557959183673500e+11 2.738483732246087e-01 -7.521841282079242e-02
1.558367346938800e+11 2.752437004754293e-01 -7.542576170536944e-02
1.558775510204100e+11 2.760298116758181e-01 -7.432464346184084e-02
1.559183673469400e+11 2.769724247711532e-01 -7.441624906266084e-02
1.559591836734700e+11 2.776577521650022e-01 -7.463919018940741e-02
1.560000000000000e+11 2.796733573178861e-01 -7.340468506340747e-02
1.560408163265300e+11 2.810516639886151e-01 -7.170650946305314e-02
1.560816326530600e+11 2.818846046592946e-01 -7.041789068670341e-02
1.561224489795900e+11 2.817184084132811e-01 -7.038482266485337e-02
1.561632653061200e+11 2.829342021582948e-01 -7.013752012464233e-02
1.562040816326500e+11 2.847211906200938e-01 -6.714067654349500e-02
1.562448979591800e+11 2.857447863004351e-01 -6.541516473462099e-02
1.562857142857100e+11 2.858431009611827e-01 -6.402459266303075e-02
1.563265306122400e+11 2.855577343970167e-01 -6.303848490158720e-02
1.563673469387800e+11 2.856412284343260e-01 -6.121743968127839e-02
1.564081632653100e+11 2.859887988531357e-01 -5.859876429480079e-02
1.564489795918400e+11 2.857985199618922e-01 -5.732032575192756e-02
1.564897959183700e+11 2.850780699119024e-01 -5.547216029212830e-02
1.565306122449000e+11 2.841599544885218e-01 -5.428477240692393e-02
1.565714285714300e+11 2.841460531824849e-01 -5.229930651605452e-02
1.566122448979600e+11 2.843107896212644e-01 -5.017045755435765e-02
1.566530612244900e+11 2.832890427462014e-01 -4.928316998051174e-02
1.566938775510200e+11 2.818901541460792e-01 -4.758027662482835e-02
1.567346938775500e+11 2.818129191037040e-01 -4.587040689550423e-02
1.567755102040800e+11 2.822051045549252e-01 -4.445289704299522e-02
1.568163265306100e+11 2.821446957542649e-01 -4.372875574297860e-02
1.568571428571400e+11 2.811654267580793e-01 -4.347069652552187e-02
1.568979591836700e+11 2.804191894476560e-01 -4.293094545568538e-02
1.569387755102000e+11 2.802522430354900e-01 -4.225087223644641e-02
1.569795918367300e+11 2.802842865809639e-01 -4.290130316114647e-02
1.570204081632700e+11 2.810257391030807e-01 -4.310258159087964e-02
1.570612244898000e+11 2.809705751345880e-01 -4.282568715884645e-02
1.571020408163300e+11 2.807891451313173e-01 -4.116733480274316e-02
1.571428571428600e+11 2.802002404849464e-01 -3.936983699503499e-02
1.571836734693900e+11 2.798704489669473e-01 -3.950701758169514e-02
1.572244897959200e+11 2.804424134469359e-01 -3.916425670162350e-02
1.572653061224500e+11 2.807745126669837e-01 -3.874585342170744e-02
1.573061224489800e+11 2.805531466771780e-01 -3.648922721978883e-02
1.573469387755100e+11 2.805146960520146e-01 -3.409396656975128e-02
1.573877551020400e+11 2.803649587387584e-01 -3.319023479468405e-02
1.574285714285700e+11 2.803376372086824e-01 -3.252110682507352e-02
1.574693877551000e+11 2.803831367120159e-01 -3.016565013129405e-02
1.575102040816300e+11 2.801257172486459e-01 -2.712456777096739e-02
1.575510204081600e+11 2.803131448964136e-01 -2.524159048519359e-02
1.575918367346900e+11 2.799669819202311e-01 -2.382068546731919e-02
1.576326530612200e+11 2.797407111829393e-01 -2.253471197479513e-02
1.576734693877600e+11 2.792752469078082e-01 -1.987194357832451e-02
1.577142857142900e+11 2.792415780198395e-01 -1.761004991051236e-02
1.577551020408200e+11 2.796159369288778e-01 -1.641785335487180e-02
1.577959183673500e+11 2.785434116299116e-01 -1.622648683218961e-02
1.578367346938800e+11 2.769710872445473e-01 -1.550844689311668e-02
1.578775510204100e+11 2.760577515568843e-01 -1.393699503931779e-02
1.579183673469400e+11 2.749479100300452e-01 -1.250269454011273e-02
1.579591836734700e+11 2.738725215760737e-01 -1.173952910584408e-02
1.580000000000000e+11 2.718501629802694e-01 -1.149786924717972e-02
1.580408163265300e+11 2.704433280958007e-01 -1.131749799766659e-02
1.580816326530600e+11 2.697147879892979e-01 -9.642810077985628e-03
1.581224489795900e+11 2.683886546959768e-01 -8.206516824410523e-03
1.581632653061200e+11 2.667266649622910e-01 -8.222891734584634e-03
1.582040816326500e+11 2.645548975357315e-01 -9.885671904672018e-03
1.582448979591800e+11 2.633131708024004e-01 -9.545597337748030e-03
1.582857142857100e+11 2.626614007064564e-01 -8.121915986490605e-03
1.583265306122400e+11 2.621246310585099e-01 -7.434600422874550e-03
1.583673469387800e+11 2.616667803846286e-01 -7.700630622558200e-03
1.584081632653100e+11 2.610899030911022e-01 -8.139445521840852e-03
1.584489795918400e+11 2.608226991073918e-01 -7.213721494084446e-03
1.584897959183700e+11 2.595249853663340e-01 -6.434546238073527e-03
1.585306122449000e+11 2.587328186689137e-01 -5.514185348232195e-03
1.585714285714300e+11 2.587199804997224e-01 -4.834615006290329e-03
1.586122448979600e+11 2.582125779268381e-01 -4.962433895502424e-03
1.586530612244900e+11 2.574815458738077e-01 -4.158755815132729e-03
1.586938775510200e+11 2.566091958097301e-01 -2.214097887365271e-03
1.587346938775500e+11 2.554139398073977e-01 -2.266932565658502e-03
1.587755102040800e+11 2.543476659757584e-01 -1.442921373282421e-03
1.588163265306100e+11 2.527963738880047e-01 -1.317462930653589e-03
1.588571428571400e+11 2.505969017319955e-01 -1.854559209789106e-03
1.588979591836700e+11 2.488767395720839e-01 -1.284742251346677e-03
1.589387755102000e+11 2.468076552972456e-01 -6.388467042196638e-04
1.589795918367300e+11 2.452740860145340e-01 -2.581338451851210e-04
1.590204081632700e+11 2.436976878863620e-01 -4.280648975343546e-05
1.590612244898000e+11 2.417244130817358e-01 2.726993034138128e-04
1.591020408163300e+11 2.401311587132107e-01 1.214880296919887e-04
1.591428571428600e+11 2.388199419166105e-01 -1.015637232468586e-03
1.591836734693900e+11 2.377689286688774e-01 -2.053419580399008e-03
1.592244897959200e+11 2.367626532062435e-01 -2.534235842927267e-03
1.592653061224500e+11 2.355583812071254e-01 -2.981773632828321e-03
1.593061224489800e+11 2.340160051371745e-01 -4.284258824499051e-03
1.593469387755100e+11 2.334492427514401e-01 -5.586925683380464e-03
1.593877551020400e+11 2.339782189960074e-01 -7.610337721105430e-03
1.594285714285700e+11 2.331577083834336e-01 -9.163866195488044e-03
1.594693877551000e+11 2.320912787979783e-01 -1.106452348405217e-02
1.595102040816300e+11 2.320662178315087e-01 -1.187349158298411e-02
1.595510204081600e+11 2.317621341380535e-01 -1.385017450582175e-02
1.595918367346900e+11 2.316630014297086e-01 -1.525297364706642e-02
1.596326530612200e+11 2.311807775354889e-01 -1.772558761435720e-02
1.596734693877600e+11 2.307362002639233e-01 -1.964668273035689e-02
1.597142857142900e+11 2.303562419747570e-01 -2.028107927741345e-02
1.597551020408200e+11 2.292536813957829e-01 -2.012830673101296e-02
1.597959183673500e+11 2.286287956144902e-01 -2.001591641144953e-02
1.598367346938800e+11 2.285546825958127e-01 -2.083938453127223e-02
1.598775510204100e+11 2.275938422844833e-01 -2.089379811966425e-02
1.599183673469400e+11 2.264113309284698e-01 -2.099665073409612e-02
1.599591836734700e+11 2.256443221166562e-01 -1.963732140920380e-02
1.600000000000000e+11 2.309386640604240e-01 -2.066698011617961e-02
1.600408163265300e+11 2.295899343943471e-01 -2.509026232416123e-02
1.600816326530600e+11 2.282275660110611e-01 -2.590275279892231e-02
1.601224489795900e+11 2.264345393640896e-01 -2.649167467582998e-02
1.601632653061200e+11 2.246590470901823e-01 -2.603917507143891e-02
1.602040816326500e+11 2.235346933408621e-01 -2.483753076980654e-02
1.602448979591800e+11 2.209125339493765e-01 -2.435831939408458e-02
1.602857142857100e+11 2.181765382997089e-01 -2.501483780722332e-02
1.603265306122400e+11 2.158016678026594e-01 -2.641458906526511e-02
1.603673469387800e+11 2.131638612197518e-01 -2.779090473636043e-02
1.604081632653100e+11 2.114239342463604e-01 -3.041719637592703e-02
1.604489795918400e+11 2.087900963634532e-01 -3.252294107502988e-02
1.604897959183700e+11 2.055437082818995e-01 -3.497724948368869e-02
1.605306122449000e+11 2.023698333626794e-01 -3.708325707176768e-02
1.605714285714300e+11 1.996923912175801e-01 -4.102921297596728e-02
1.606122448979600e+11 1.984861501253532e-01 -4.547042465705675e-02
1.606530612244900e+11 1.971805494026675e-01 -4.936784226037427e-02
1.606938775510200e+11 1.953489398130801e-01 -5.311723299089284e-02
1.607346938775500e+11 1.947246539005842e-01 -5.813850112828022e-02
1.607755102040800e+11 1.949273653214859e-01 -6.180842454712532e-02
1.608163265306100e+11 1.955613069899279e-01 -6.677728275696407e-02
1.608571428571400e+11 1.956020722168041e-01 -7.109732435968139e-02
1.608979591836700e+11 1.961931851984391e-01 -7.576606307199062e-02
1.609387755102000e+11 1.971210168157952e-01 -8.042186442527563e-02
1.609795918367300e+11 1.990184541322706e-01 -8.447454567687761e-02
1.610204081632700e+11 2.017311394822424e-01 -8.759228186851745e-02
1.610612244898000e+11 2.032577596018658e-01 -9.031266786691587e-02
1.611020408163300e+11 2.046400932986251e-01 -9.240642385332529e-02
1.611428571428600e+11 2.063508433250982e-01 -9.370737477412656e-02
1.611836734693900e+11 2.090654367328750e-01 -9.439991376327889e-02
1.612244897959200e+11 2.109842147118794e-01 -9.437709093506069e-02
1.612653061224500e+11 2.127563163844072e-01 -9.577199863353345e-02
1.613061224489800e+11 2.142738078772948e-01 -9.554134632058413e-02
1.613469387755100e+11 2.151582196855034e-01 -9.581137883644894e-02
1.613877551020400e+11 2.166101814404020e-01 -9.604163729044152e-02
1.614285714285700e+11 2.174739234294921e-01 -9.657642126487806e-02
1.614693877551000e+11 2.175550962561331e-01 -9.575302657075112e-02
1.615102040816300e+11 2.172232248161296e-01 -9.452839173181954e-02
1.615510204081600e+11 2.167817215048578e-01 -9.341533602670886e-02
1.615918367346900e+11 2.158951984821584e-01 -9.247273111443405e-02
1.616326530612200e+11 2.148411460082147e-01 -9.182070709111433e-02
1.616734693877600e+11 2.130750417843542e-01 -9.195800112857988e-02
1.617142857142900e+11 2.116839015114317e-01 -9.258621828823249e-02
1.617551020408200e+11 2.108253855639868e-01 -9.343222373876127e-02
1.617959183673500e+11 2.096697067909413e-01 -9.440653162041127e-02
1.618367346938800e+11 2.076382117944596e-01 -9.636207935463841e-02
1.618775510204100e+11 2.059699630336922e-01 -9.875676931525962e-02
1.619183673469400e+11 2.057218966777548e-01 -1.018751687592203e-01
1.619591836734700e+11 2.047901904086518e-01 -1.050419198001802e-01
1.620000000000000e+11 2.035060932832355e-01 -1.094124767875075e-01
1.620408163265300e+11 2.028838210706431e-01 -1.138971132926576e-01
1.620816326530600e+11 2.017455383211141e-01 -1.174837304020891e-01
1.621224489795900e+11 2.024450453285590e-01 -1.219611933357333e-01
1.621632653061200e+11 2.025306697313954e-01 -1.258013131088060e-01
1.622040816326500e+11 2.025602782838755e-01 -1.306303354652756e-01
1.622448979591800e+11 2.038745025231318e-01 -1.349661095445098e-01
1.622857142857100e+11 2.056358888109533e-01 -1.396221793522405e-01
1.623265306122400e+11 2.069570051198076e-01 -1.435992224551350e-01
1.623673469387800e+11 2.078148252548100e-01 -1.470748991772484e-01
1.624081632653100e+11 2.097840866822850e-01 -1.496408185096728e-01
1.624489795918400e+11 2.129138428476859e-01 -1.518343433970121e-01
1.624897959183700e+11 2.155158233254550e-01 -1.542506669517993e-01
1.625306122449000e+11 2.174515209336938e-01 -1.563627034124301e-01
1.625714285714300e+11 2.198409907956960e-01 -1.587322676358611e-01
1.626122448979600e+11 2.247638911503423e-01 -1.590584329232276e-01
1.626530612244900e+11 2.282315728017270e-01 -1.594099613450298e-01
1.626938775510200e+11 2.310175501023937e-01 -1.631268592668846e-01
1.627346938775500e+11 2.352900469488674e-01 -1.665298350990272e-01
1.627755102040800e+11 2.388377505070843e-01 -1.683968395690541e-01
1.628163265306100e+11 2.422825328581486e-01 -1.678075201493243e-01
1.628571428571400e+11 2.450041100666359e-01 -1.680125798923575e-01
1.628979591836700e+11 2.470010220755020e-01 -1.686686650467217e-01
1.629387755102000e+11 2.490349477237875e-01 -1.682207421201597e-01
1.629795918367300e+11 2.517985759679948e-01 -1.661051663314828e-01
1.630204081632700e+11 2.533650211479915e-01 -1.655138574170975e-01
1.630612244898000e+11 2.553756780380183e-01 -1.654563910548247e-01
1.631020408163300e+11 2.566266672544658e-01 -1.657235129542234e-01
1.631428571428600e+11 2.578418146545866e-01 -1.648502040734532e-01
1.631836734693900e+11 2.589586653480441e-01 -1.628199349140813e-01
1.632244897959200e+11 2.595517514434572e-01 -1.615258819742346e-01
1.632653061224500e+11 2.603445259515942e-01 -1.608694149515439e-01
1.633061224489800e+11 2.615177126694673e-01 -1.616095054612072e-01
1.633469387755100e+11 2.625076572745766e-01 -1.618430108460586e-01
1.633877551020400e+11 2.626119897638740e-01 -1.624285887911289e-01
1.634285714285700e+11 2.637341179183504e-01 -1.620370628666493e-01
1.634693877551000e+11 2.647500030681068e-01 -1.616002741483252e-01
1.635102040816300e+11 2.662218318985313e-01 -1.615971612964626e-01
1.635510204081600e+11 2.669422669741845e-01 -1.634415369119258e-01
1.635918367346900e+11 2.669835140090991e-01 -1.654373446904062e-01
1.636326530612200e+11 2.667611094454528e-01 -1.664515253731781e-01
1.636734693877600e+11 2.677630202156254e-01 -1.653746565140264e-01
1.637142857142900e+11 2.689602064936338e-01 -1.653626475664499e-01
1.637551020408200e+11 2.696620163084069e-01 -1.685390468583526e-01
1.637959183673500e+11 2.703067611494196e-01 -1.704796312220298e-01
1.638367346938800e+11 2.708846910285458e-01 -1.703260683484855e-01
1.638775510204100e+11 2.712810344973579e-01 -1.688647506180175e-01
1.639183673469400e+11 2.722510145778947e-01 -1.693448151267205e-01
1.639591836734700e+11 2.725419962020811e-01 -1.710552994288936e-01
1.640000000000000e+11 2.736544862285192e-01 -1.722867483619102e-01
1.640408163265300e+11 2.754224991587301e-01 -1.722293566199035e-01
1.640816326530600e+11 2.772026155494868e-01 -1.720416284304168e-01
1.641224489795900e+11 2.785066532136592e-01 -1.732826104748980e-01
1.641632653061200e+11 2.806390519889159e-01 -1.738045003684506e-01
1.642040816326500e+11 2.833909263394352e-01 -1.749029750249839e-01
1.642448979591800e+11 2.859485735171130e-01 -1.760692439067039e-01
1.642857142857100e+11 2.883777488785139e-01 -1.774436457517801e-01
1.643265306122400e+11 2.906557511685487e-01 -1.786810118045316e-01
1.643673469387800e+11 2.937572506587392e-01 -1.795104143965981e-01
1.644081632653100e+11 2.977938360354017e-01 -1.801063558984385e-01
1.644489795918400e+11 3.012913953272624e-01 -1.810875313458307e-01
1.644897959183700e+11 3.047060017496676e-01 -1.818363095829585e-01
1.645306122449000e+11 3.077179685509990e-01 -1.829895697840730e-01
1.645714285714300e+11 3.099204654898069e-01 -1.818541314532638e-01
1.646122448979600e+11 3.136133947789829e-01 -1.799259331893008e-01
1.646530612244900e+11 3.174396073491978e-01 -1.771962071952523e-01
1.646938775510200e+11 3.211345449195666e-01 -1.740640318663754e-01
1.647346938775500e+11 3.236237081988885e-01 -1.727493710076073e-01
1.647755102040800e+11 3.270788456055854e-01 -1.707625736104750e-01
1.648163265306100e+11 3.304589729731751e-01 -1.668823145865551e-01
1.648571428571400e+11 3.338319281758108e-01 -1.623063399548910e-01
1.648979591836700e+11 3.362372420664390e-01 -1.572758266496339e-01
1.649387755102000e+11 3.387897080851787e-01 -1.528201940794205e-01
1.649795918367300e+11 3.399260036295061e-01 -1.491641582588151e-01
1.650204081632700e+11 3.410283975833997e-01 -1.442906699975215e-01
1.650612244898000e+11 3.404535995742601e-01 -1.399527199667005e-01
1.651020408163300e+11 3.407226810244888e-01 -1.351644132786465e-01
1.651428571428600e+11 3.419708653637799e-01 -1.302773235437096e-01
1.651836734693900e+11 3.419748397417011e-01 -1.264923906090167e-01
1.652244897959200e+11 3.397789338889757e-01 -1.224003521485723e-01
1.652653061224500e+11 3.369250962688677e-01 -1.196635762909009e-01
1.653061224489800e+11 3.349655101695360e-01 -1.169452135550735e-01
1.653469387755100e+11 3.333545187633314e-01 -1.146211248407260e-01
1.653877551020400e+11 3.319410071013819e-01 -1.128310494577439e-01
1.654285714285700e+11 3.296503041464452e-01 -1.109709409709892e-01
1.654693877551000e+11 3.266863385646590e-01 -1.091500098170020e-01
1.655102040816300e+11 3.234418235126537e-01 -1.077815752480323e-01
1.655510204081600e+11 3.217244108963079e-01 -1.074422089872099e-01
1.655918367346900e+11 3.200309456219282e-01 -1.073735239605326e-01
1.656326530612200e+11 3.181014242776140e-01 -1.086598907827408e-01
1.656734693877600e+11 3.168233758176561e-01 -1.094888797172771e-01
1.657142857142900e+11 3.160818596342810e-01 -1.102691838807151e-01
1.657551020408200e+11 3.162838360752387e-01 -1.119807180725064e-01
1.657959183673500e+11 3.166279076882519e-01 -1.132323263220953e-01
1.658367346938800e+11 3.175028527032401e-01 -1.148069878147454e-01
1.658775510204100e+11 3.197382686498604e-01 -1.164114238977022e-01
1.659183673469400e+11 3.227408566560964e-01 -1.171160784461398e-01
1.659591836734700e+11 3.260454862863723e-01 -1.177185343802793e-01
1.660000000000000e+11 3.283437051540586e-01 -1.199134260717242e-01
1.660408163265300e+11 3.305718051377611e-01 -1.209467540214354e-01
1.660816326530600e+11 3.346061902906641e-01 -1.205065635790328e-01
1.661224489795900e+11 3.396091432088720e-01 -1.199545672657406e-01
1.661632653061200e+11 3.441776488517225e-01 -1.190527741761386e-01
1.662040816326500e+11 3.474566897161245e-01 -1.186485927388319e-01
1.662448979591800e+11 3.505940253889437e-01 -1.161152345299787e-01
1.662857142857100e+11 3.534610621750491e-01 -1.129306964804427e-01
1.663265306122400e+11 3.571088030449418e-01 -1.089848178504590e-01
1.663673469387800e+11 3.598822305873154e-01 -1.044611266890826e-01
1.664081632653100e+11 3.608143927623105e-01 -1.005330492396932e-01
1.664489795918400e+11 3.615698439600092e-01 -9.673586688801381e-02
1.664897959183700e+11 3.635265941941109e-01 -9.050846106918183e-02
1.665306122449000e+11 3.656723975790196e-01 -8.409581915456003e-02
1.665714285714300e+11 3.675445795968736e-01 -7.831550526306900e-02
1.666122448979600e+11 3.681374930046115e-01 -7.338523856588282e-02
1.666530612244900e+11 3.672603217696774e-01 -6.901454984778560e-02
1.666938775510200e+11 3.655842231732090e-01 -6.501902484241237e-02
1.667346938775500e+11 3.640055040310313e-01 -6.088587192724486e-02
1.667755102040800e+11 3.638105159351862e-01 -5.699772181869509e-02
1.668163265306100e+11 3.635903591309604e-01 -5.260410977776700e-02
1.668571428571400e+11 3.617824930205923e-01 -5.066795287537879e-02
1.668979591836700e+11 3.591564396701001e-01 -4.904015285703491e-02
1.669387755102000e+11 3.566984181171939e-01 -4.770534153475092e-02
1.669795918367300e+11 3.544087755240614e-01 -4.577209210433914e-02
1.670204081632700e+11 3.513757671463438e-01 -4.384582961373010e-02
1.670612244898000e+11 3.483202628777038e-01 -4.434454916365633e-02
1.671020408163300e+11 3.461931953060017e-01 -4.609693769789598e-02
1.671428571428600e+11 3.445019809037677e-01 -4.690481201697407e-02
1.671836734693900e+11 3.419264965653750e-01 -4.635272485876459e-02
1.672244897959200e+11 3.393390900155668e-01 -4.567154145368145e-02
1.672653061224500e+11 3.375229862748286e-01 -4.637599241678196e-02
1.673061224489800e+11 3.369727579303239e-01 -4.894151573552861e-02
1.673469387755100e+11 3.357508270136672e-01 -5.010874297639906e-02
1.673877551020400e+11 3.340437446349438e-01 -5.080612984700197e-02
1.674285714285700e+11 3.326559599651163e-01 -5.096752195191916e-02
1.674693877551000e+11 3.325708422797510e-01 -5.140123129909203e-02
1.675102040816300e+11 3.322485791546217e-01 -5.285534290098073e-02
1.675510204081600e+11 3.317927699662487e-01 -5.434692666204079e-02
1.675918367346900e+11 3.316883818632639e-01 -5.487130756719379e-02
1.676326530612200e+11 3.309813213253606e-01 -5.551730881956442e-02
1.676734693877600e+11 3.299869818318398e-01 -5.663071890746708e-02
1.677142857142900e+11 3.304258464037300e-01 -5.750337303730441e-02
1.677551020408200e+11 3.303102146844100e-01 -6.002613498841002e-02
1.677959183673500e+11 3.303382416726278e-01 -6.192071537782672e-02
1.678367346938800e+11 3.299125633429690e-01 -6.275497893715593e-02
1.678775510204100e+11 3.291927479081486e-01 -6.468128270765504e-02
1.679183673469400e+11 3.278320252105060e-01 -6.580443049712967e-02
1.679591836734700e+11 3.262650812533556e-01 -6.595970634354728e-02
1.680000000000000e+11 3.241740553139827e-01 -6.742897653738618e-02
1.680408163265300e+11 3.229237866265804e-01 -6.804234028503249e-02
1.680816326530600e+11 3.212549649195288e-01 -7.037120715161094e-02
1.681224489795900e+11 3.206226643317819e-01 -6.950502609921255e-02
1.681632653061200e+11 3.196512411473020e-01 -6.919922604629938e-02
1.682040816326500e+11 3.186131859966409e-01 -6.972092109950885e-02
1.682448979591800e+11 3.181961676725267e-01 -7.204421414316398e-02
1.682857142857100e+11 3.184936384690167e-01 -7.364741456137901e-02
1.683265306122400e+11 3.188455761803299e-01 -7.315315335413834e-02
1.683673469387800e+11 3.192541907141741e-01 -7.162763425226559e-02
1.684081632653100e+11 3.195169770912789e-01 -7.146264522676042e-02
1.684489795918400e+11 3.195277003893321e-01 -7.161309592755767e-02
1.684897959183700e+11 3.192033302274511e-01 -6.964902320137430e-02
1.685306122449000e+11 3.185241754226117e-01 -6.800838846043861e-02
1.685714285714300e+11 3.175932034833670e-01 -6.780348666192539e-02
1.686122448979600e+11 3.174544137230294e-01 -6.728813308784322e-02
1.686530612244900e+11 3.159978063456644e-01 -6.509484969868744e-02
1.686938775510200e+11 3.135891076392711e-01 -6.169562339752203e-02
1.687346938775500e+11 3.106178442494373e-01 -5.893845600570850e-02
1.687755102040800e+11 3.082662661390541e-01 -5.772512888089251e-02
1.688163265306100e+11 3.063603783188082e-01 -5.593523443276444e-02
1.688571428571400e+11 3.031905200430304e-01 -5.334603996255682e-02
1.688979591836700e+11 2.983642440425929e-01 -5.155893633043470e-02
1.689387755102000e+11 2.937945441363222e-01 -4.982080755023770e-02
1.689795918367300e+11 2.905456841144507e-01 -4.843416990880270e-02
1.690204081632700e+11 2.867476420831688e-01 -4.875733943489021e-02
1.690612244898000e+11 2.820256119782418e-01 -4.847959794829960e-02
1.691020408163300e+11 2.779212246840733e-01 -4.951728783347414e-02
1.691428571428600e+11 2.728152686795705e-01 -5.083868227186875e-02
1.691836734693900e+11 2.690614562544048e-01 -5.267238701575128e-02
1.692244897959200e+11 2.657569509056275e-01 -5.537006494558359e-02
1.692653061224500e+11 2.610201986507936e-01 -5.738594306728168e-02
1.693061224489800e+11 2.572951418736490e-01 -6.090455217395595e-02
1.693469387755100e+11 2.542729780987649e-01 -6.555061836470992e-02
1.693877551020400e+11 2.519471107796785e-01 -7.073933102290043e-02
1.694285714285700e+11 2.503489758423422e-01 -7.527142531970074e-02
1.694693877551000e+11 2.480995720456518e-01 -8.001673032813152e-02
1.695102040816300e+11 2.462691620361926e-01 -8.487109726721166e-02
1.695510204081600e+11 2.454182704573700e-01 -9.055506366222717e-02
1.695918367346900e+11 2.442410597033347e-01 -9.635701016692119e-02
1.696326530612200e+11 2.438767369000602e-01 -1.019679743918524e-01
1.696734693877600e+11 2.436960932713846e-01 -1.075411793784866e-01
1.697142857142900e+11 2.431537173669182e-01 -1.125080366092468e-01
1.697551020408200e+11 2.431697796127544e-01 -1.166638081432863e-01
1.697959183673500e+11 2.432791623454959e-01 -1.206573684990619e-01
1.698367346938800e+11 2.438000967071873e-01 -1.243981361007454e-01
1.698775510204100e+11 2.447605845925373e-01 -1.282966498756094e-01
1.699183673469400e+11 2.459380395475964e-01 -1.309505928949967e-01
1.699591836734700e+11 2.466033319160941e-01 -1.339035980110593e-01
1.700000000000000e+11 2.479810236291925e-01 -1.362058099505694e-01
