! Generated by Phase I extraction
# Hz S RI R 50
1.000000000000000e+07 9.862918968613988e-01 -3.223085187171038e-03
5.186875000000000e+07 1.003206716909620e+00 -1.004313231602402e-02
9.373750000000000e+07 9.992936197440230e-01 -9.948559092841907e-03
1.356062500000000e+08 9.912476221822845e-01 -8.483300018780487e-03
1.774750000000000e+08 1.000509797203908e+00 -6.429595428856383e-03
2.193437500000000e+08 1.002854089796672e+00 -5.956705587799523e-03
2.612125000000000e+08 1.000135997202282e+00 -5.370816473514183e-03
3.030812500000000e+08 1.000712684183740e+00 -4.202369934407151e-03
3.449500000000000e+08 9.953585840665361e-01 -3.808418796367547e-03
3.868187500000000e+08 1.000559369659942e+00 -3.226431059170802e-03
4.286875000000000e+08 9.951262465439580e-01 -3.040562279745627e-03
4.705562500000000e+08 9.937033572880305e-01 -2.609228516195077e-03
5.124250000000000e+08 9.964503068613330e-01 -2.102390204677790e-03
5.542937500000000e+08 9.942102617741236e-01 -1.930747703312391e-03
5.961625000000000e+08 9.944382256911508e-01 -1.711352378963724e-03
6.380312500000000e+08 9.940519132188822e-01 -1.564565786824569e-03
6.799000000000000e+08 9.967239458955131e-01 -1.489607046085430e-03
7.217687500000000e+08 9.963149910583528e-01 -1.551666925507512e-03
7.636375000000000e+08 9.949239998106919e-01 -1.327063609716373e-03
8.055062500000000e+08 9.943510260893383e-01 -1.232433777241198e-03
8.473750000000000e+08 9.925404952796697e-01 -1.128394872979829e-03
8.892437500000000e+08 9.951577092677076e-01 -8.223093192111085e-04
9.311125000000000e+08 9.974597254821017e-01 -9.113370788516586e-04
9.729812500000000e+08 9.939666368381811e-01 -5.078631938247531e-04
1.014850000000000e+09 9.963716526274163e-01 -5.130995232646643e-04
1.056718750000000e+09 9.958433607386182e-01 -3.693857566827028e-04
1.098587500000000e+09 9.985457206663286e-01 -1.645377977010917e-04
1.140456250000000e+09 9.955239893245128e-01 -1.941735478396874e-04
1.182325000000000e+09 9.959034750413296e-01 2.921371122437670e-06
1.224193750000000e+09 9.961665570040523e-01 6.165246871687801e-05
1.266062500000000e+09 9.956010521598525e-01 1.721766218062732e-04
1.307931250000000e+09 9.952274906337335e-01 2.896609476026156e-04
1.349800000000000e+09 9.947385178583089e-01 3.618370699226302e-04
1.391668750000000e+09 9.939416259062823e-01 5.051229901007874e-04
1.433537500000000e+09 9.934689731343865e-01 5.382999657481592e-04
1.475406250000000e+09 9.938633922466786e-01 7.540989505805935e-04
1.517275000000000e+09 9.948287087958744e-01 5.677986118506751e-04
1.559143750000000e+09 9.955043694456458e-01 6.111420330023047e-04
1.601012500000000e+09 9.952663276922251e-01 7.166671047241771e-04
1.642881250000000e+09 9.929308157898848e-01 4.718237681872195e-04
1.684750000000000e+09 9.941625730270465e-01 7.399341510457172e-04
1.726618750000000e+09 9.954063832099121e-01 3.752088957946592e-04
1.768487500000000e+09 9.948162079386216e-01 4.999811979255140e-04
1.810356250000000e+09 9.948544234781665e-01 4.121667863046225e-04
1.852225000000000e+09 9.950078737095391e-01 3.264529169450612e-04
1.894093750000000e+09 9.965276319683567e-01 5.100169757339730e-04
1.935962500000000e+09 9.948617184674791e-01 2.578409188175074e-04
1.977831250000000e+09 9.944765754770294e-01 4.367768433917093e-04
2.019700000000000e+09 9.953283577491804e-01 2.421939821067996e-04
2.061568750000000e+09 9.961141026731682e-01 3.039864121380969e-04
2.103437500000000e+09 9.956024503008916e-01 2.656187135939043e-04
2.145306250000000e+09 9.956527231575667e-01 1.609338723144258e-04
2.187175000000000e+09 9.957011431703796e-01 3.910842551721952e-04
2.229043750000000e+09 9.952047953219804e-01 3.173159151168953e-04
2.270912500000000e+09 9.955925626187834e-01 1.711614348914515e-03
2.312781250000000e+09 9.953397141603902e-01 2.060646711752100e-03
2.354650000000000e+09 9.963233048607407e-01 2.117813421827983e-03
2.396518750000000e+09 9.964405185697810e-01 2.259747467087060e-03
2.438387500000000e+09 9.952396271593407e-01 2.273628922305610e-03
2.480256250000000e+09 9.963151367450976e-01 2.463032818007467e-03
2.522125000000000e+09 9.956111372076778e-01 2.368573695300445e-03
2.563993750000000e+09 9.952692016175551e-01 2.467044536438603e-03
2.605862500000000e+09 9.955644604104401e-01 2.516826188679047e-03
2.647731250000000e+09 9.957788937150396e-01 2.556578863452342e-03
2.689600000000000e+09 9.950886179397227e-01 2.759913098450505e-03
2.731468750000000e+09 9.939275851799366e-01 2.640806714763863e-03
2.773337500000000e+09 9.947145548445302e-01 2.859819934991412e-03
2.815206250000000e+09 9.942799823585614e-01 2.826943642763903e-03
2.857075000000000e+09 9.951076643186266e-01 2.990845166981234e-03
2.898943750000000e+09 9.947133190900191e-01 3.053231821421593e-03
2.940812500000000e+09 9.953831851883107e-01 2.988078266610281e-03
2.982681250000000e+09 9.959351413208467e-01 3.271236182135416e-03
3.024550000000000e+09 9.951835616193812e-01 3.109169967950571e-03
3.066418750000000e+09 9.944616334868724e-01 3.385136749052331e-03
3.108287500000000e+09 9.946794098297663e-01 3.340152683844613e-03
3.150156250000000e+09 9.950608573122718e-01 3.402888699846873e-03
3.192025000000000e+09 9.955135208477912e-01 3.490409486190988e-03
3.233893750000000e+09 9.948842470195852e-01 3.410779263379535e-03
3.275762500000000e+09 9.947078809449240e-01 3.624900965974814e-03
3.317631250000000e+09 9.943846848813261e-01 3.567318587785383e-03
3.359500000000000e+09 9.952111517119384e-01 3.780880172414293e-03
3.401368750000000e+09 9.957973444142172e-01 3.740977928482001e-03
3.443237500000000e+09 9.951248527976795e-01 3.730479765997545e-03
3.485106250000000e+09 9.946232405981509e-01 3.895459679829764e-03
3.526975000000000e+09 9.945883397778493e-01 3.867485313081640e-03
3.568843750000000e+09 9.955946380104236e-01 4.103365108236245e-03
3.610712500000000e+09 9.953414635808822e-01 3.997739509420268e-03
3.652581250000000e+09 9.948733847076661e-01 4.124244483730352e-03
3.694450000000000e+09 9.946778029131040e-01 4.147020563902784e-03
3.736318750000000e+09 9.947780998295240e-01 4.152894174121938e-03
3.778187500000000e+09 9.950370560021723e-01 4.334771873271296e-03
3.820056250000000e+09 9.953986037261157e-01 4.209038023139482e-03
3.861925000000000e+09 9.959871880647883e-01 4.370084426733253e-03
3.903793750000000e+09 9.950429337851711e-01 4.298616343273773e-03
3.945662500000000e+09 9.949419798175182e-01 4.435035370510087e-03
3.987531250000000e+09 9.956197394995074e-01 4.474849085747307e-03
4.029400000000000e+09 9.955960475811215e-01 4.447507884676377e-03
4.071268750000000e+09 9.959253403019047e-01 4.614566280715057e-03
4.113137500000000e+09 9.956387635581920e-01 4.477072895545743e-03
4.155006250000000e+09 9.953237797751791e-01 4.693243804111638e-03
4.196875000000000e+09 9.949676912676964e-01 4.608931458370914e-03
4.238743750000000e+09 9.960170006760199e-01 4.713167002585488e-03
4.280612500000000e+09 9.964025341442090e-01 4.783108162870763e-03
4.322481250000000e+09 9.957830404535386e-01 4.723796358767075e-03
4.364350000000000e+09 9.956793213528446e-01 4.928354789839502e-03
4.406218750000000e+09 9.956833998659632e-01 4.782316657159481e-03
4.448087500000000e+09 9.965429773619868e-01 4.986929292040066e-03
4.489956250000000e+09 9.965626805867472e-01 4.936031372914607e-03
4.531825000000000e+09 9.964210968511389e-01 5.013696504813812e-03
4.573693750000000e+09 9.961292912392276e-01 5.138909527377509e-03
4.615562500000000e+09 9.957558291965578e-01 5.054020823984774e-03
4.657431250000000e+09 9.968949018615265e-01 5.309482035910748e-03
4.699300000000000e+09 9.965251016540401e-01 5.195108054343508e-03
4.741168750000000e+09 9.960768774838702e-01 5.345882707787760e-03
4.783037500000000e+09 9.965435922167167e-01 5.406882294012647e-03
4.824906250000000e+09 9.963601567293797e-01 5.369089115071915e-03
4.866775000000000e+09 9.966915883973591e-01 5.509700200733311e-03
4.908643750000000e+09 9.964225279219681e-01 5.432367393148790e-03
4.950512500000000e+09 9.967268866171242e-01 5.653827259975502e-03
4.992381250000000e+09 9.961902267176159e-01 5.585380770042159e-03
5.034250000000000e+09 9.966781244425656e-01 5.657224294639161e-03
5.076118750000000e+09 9.970251455288033e-01 5.752367029034585e-03
5.117987500000000e+09 9.972224356127123e-01 5.692662852138739e-03
5.159856250000000e+09 9.969649306351287e-01 5.872231794232130e-03
5.201725000000000e+09 9.969620087579572e-01 5.839252976510730e-03
5.243593750000000e+09 9.972851762256442e-01 6.026630302749088e-03
5.285462500000000e+09 9.971434012279631e-01 5.971120077638826e-03
5.327331250000000e+09 9.973693910088601e-01 5.942691257845705e-03
5.369200000000000e+09 9.974967391656689e-01 6.096079979262605e-03
5.411068750000000e+09 9.975687811925106e-01 6.110971973668060e-03
5.452937500000000e+09 9.977316476090341e-01 6.343179565058484e-03
5.494806250000000e+09 9.973778757816691e-01 6.182247854846310e-03
5.536675000000000e+09 9.975256521757113e-01 6.292034261642527e-03
5.578543750000000e+09 9.973931390632332e-01 6.389005257798089e-03
5.620412500000000e+09 9.976037891512080e-01 6.436740948539928e-03
5.662281250000000e+09 9.974852956818434e-01 6.527311610714721e-03
5.704150000000000e+09 9.974346769699904e-01 6.490273109415548e-03
5.746018750000000e+09 9.974129307601212e-01 6.612465685082046e-03
5.787887500000000e+09 9.970458829731772e-01 6.624076605288820e-03
5.829756250000000e+09 9.968308392932818e-01 6.773221598418181e-03
5.871625000000000e+09 9.968347509797266e-01 6.791647255122668e-03
5.913493750000000e+09 9.962658807489815e-01 6.780140156571980e-03
5.955362500000000e+09 9.963585152086066e-01 6.912618331100913e-03
5.997231250000000e+09 9.962708596365621e-01 6.824565127259275e-03
6.039100000000000e+09 9.962171975540323e-01 7.093039157605981e-03
6.080968750000000e+09 9.961919727151907e-01 7.063309160549472e-03
6.122837500000000e+09 9.960207208646911e-01 7.141336370326110e-03
6.164706250000000e+09 9.964422508024526e-01 7.214453650430810e-03
6.206575000000000e+09 9.964711754452122e-01 7.128080658780920e-03
6.248443750000000e+09 9.964974919975096e-01 7.260818228914065e-03
6.290312500000000e+09 9.962420726779102e-01 7.213429165799787e-03
6.332181250000000e+09 9.965085181742606e-01 7.420964471758635e-03
6.374050000000000e+09 9.966388855761332e-01 7.356855125827655e-03
6.415918750000000e+09 9.959513129509843e-01 7.419120180975193e-03
6.457787500000000e+09 9.964015211784013e-01 7.533701544249127e-03
6.499656250000000e+09 9.960393360206571e-01 7.508829835719748e-03
6.541525000000000e+09 9.962589203554284e-01 7.711340397952932e-03
6.583393750000000e+09 9.963894446378381e-01 7.575114509828547e-03
6.625262500000000e+09 9.961381196573630e-01 7.749142313579959e-03
6.667131250000000e+09 9.961060288819290e-01 7.765258183123880e-03
6.709000000000000e+09 9.963565480408755e-01 7.724282696982753e-03
6.750868750000000e+09 9.965834561028197e-01 7.855951158798084e-03
6.792737500000000e+09 9.963795764844849e-01 7.794901612607966e-03
6.834606250000000e+09 9.963260285729946e-01 7.847248517552669e-03
6.876475000000000e+09 9.957523006153816e-01 7.732127493934720e-03
6.918343750000000e+09 9.958218716091415e-01 7.862797985197017e-03
6.960212500000000e+09 9.960151333141464e-01 7.877836742672390e-03
7.002081250000000e+09 9.960566845210000e-01 7.953091317155983e-03
7.043950000000000e+09 9.963076554775130e-01 8.158302066824882e-03
7.085818750000000e+09 9.962042305417435e-01 7.974882282681284e-03
7.127687500000000e+09 9.967899308256608e-01 8.224563164941011e-03
7.169556250000000e+09 9.969352862114984e-01 8.102743214001224e-03
7.211425000000000e+09 9.970843170540027e-01 8.286273671487746e-03
7.253293750000000e+09 9.973746495701858e-01 8.347109175321854e-03
7.295162500000000e+09 9.979256699402942e-01 8.197494029500929e-03
7.337031250000000e+09 9.984165888289556e-01 8.400369383252688e-03
7.378900000000000e+09 9.983453579525436e-01 8.337548353862601e-03
7.420768750000000e+09 9.986131793487086e-01 8.363430210458267e-03
7.462637500000000e+09 9.983718966339777e-01 8.446222542065219e-03
7.504506250000000e+09 9.979609983673593e-01 8.455280610127449e-03
7.546375000000000e+09 9.978196938661273e-01 8.510866458777383e-03
7.588243750000000e+09 9.966904352950315e-01 8.469559867587718e-03
7.630112500000000e+09 9.967848851523604e-01 8.614002371458580e-03
7.671981250000000e+09 9.973250370690137e-01 8.587587972182925e-03
7.713850000000000e+09 9.973067127092172e-01 8.698426534712670e-03
7.755718750000000e+09 9.970350090470480e-01 8.703068035232606e-03
7.797587500000000e+09 9.970995587639546e-01 8.665755781089713e-03
7.839456250000000e+09 9.972386340689758e-01 8.804876133888615e-03
7.881325000000000e+09 9.971108935079440e-01 8.730175240128099e-03
7.923193750000000e+09 9.969144304977345e-01 8.881034923269505e-03
7.965062500000000e+09 9.968147000491528e-01 8.850455700419341e-03
8.006931250000000e+09 9.967347850078601e-01 8.950942745344297e-03
8.048800000000000e+09 9.968659572327957e-01 9.019997174013368e-03
8.090668750000000e+09 9.966088955630131e-01 8.959629193774713e-03
8.132537500000000e+09 9.967933877716985e-01 9.136835540491708e-03
8.174406250000000e+09 9.965361575131225e-01 8.979872775630783e-03
8.216275000000000e+09 9.967219869948187e-01 9.218778161658248e-03
8.258143750000000e+09 9.969108048950809e-01 9.157572497313460e-03
8.300012500000000e+09 9.964269328887161e-01 9.273298405878372e-03
8.341881250000000e+09 9.966518118093987e-01 9.335841130259604e-03
8.383750000000000e+09 9.962836978183786e-01 9.284541650288712e-03
8.425618750000000e+09 9.963685787124159e-01 9.503814751541030e-03
8.467487500000000e+09 9.966639589535689e-01 9.398778417344055e-03
8.509356250000000e+09 9.964458046271120e-01 9.568137708524403e-03
8.551225000000000e+09 9.967076639487077e-01 9.556707161564116e-03
8.593093750000000e+09 9.967140551638433e-01 9.634841001892850e-03
8.634962500000000e+09 9.970826934421706e-01 9.686663967838495e-03
8.676831250000000e+09 9.970953435822899e-01 9.681305953460553e-03
8.718700000000000e+09 9.970888665500962e-01 9.734045406723129e-03
8.760568750000000e+09 9.969715932686231e-01 9.624071430491356e-03
8.802437500000000e+09 9.968465362175136e-01 9.789820839149109e-03
8.844306250000000e+09 9.972865510826049e-01 9.783186708391177e-03
8.886175000000000e+09 9.970571154992633e-01 9.859246764494223e-03
8.928043750000000e+09 9.970223914886583e-01 9.978351205498618e-03
8.969912500000000e+09 9.966439754325331e-01 9.947492314233045e-03
9.011781250000000e+09 9.968459300076440e-01 1.020626353601423e-02
9.053650000000000e+09 9.966505258769990e-01 1.019873295422641e-02
9.095518750000000e+09 9.968333374301241e-01 1.029908361071305e-02
9.137387500000000e+09 9.971458255487519e-01 1.030489804363752e-02
9.179256250000000e+09 9.970577350664560e-01 1.025048929827779e-02
9.221125000000000e+09 9.974713046769165e-01 1.039236040000157e-02
9.262993750000000e+09 9.976599206295785e-01 1.029124428336363e-02
9.304862500000000e+09 9.981955958280093e-01 1.047104509535500e-02
9.346731250000000e+09 9.983056140125862e-01 1.054794393219756e-02
9.388600000000000e+09 9.983285904920900e-01 1.045676062691448e-02
9.430468750000000e+09 9.989089352334354e-01 1.061002770632771e-02
9.472337500000000e+09 9.983340904466819e-01 1.049842047722818e-02
9.514206250000000e+09 9.985200346211147e-01 1.065949129235684e-02
9.556075000000000e+09 9.984183927002811e-01 1.053350585724497e-02
9.597943750000000e+09 9.988354910521506e-01 1.060830757581385e-02
9.639812500000000e+09 9.987976015062920e-01 1.065124702610742e-02
9.681681250000000e+09 9.982527363808457e-01 1.063778082356020e-02
9.723550000000000e+09 9.980867644918090e-01 1.072609139504301e-02
9.765418750000000e+09 9.980250908743660e-01 1.077546254531853e-02
9.807287500000000e+09 9.980175223264370e-01 1.088467038286421e-02
9.849156250000000e+09 9.979690571107749e-01 1.078365623834155e-02
9.891025000000000e+09 9.979261487160024e-01 1.066558244155119e-02
9.932893750000000e+09 9.979842139654880e-01 1.074440062249130e-02
9.974762500000000e+09 9.980612622371228e-01 1.059510909607514e-02
1.001663125000000e+10 9.985042080801171e-01 1.084086170115873e-02
1.005850000000000e+10 9.981296780993160e-01 1.080478635628822e-02
1.010036875000000e+10 9.983200271577490e-01 1.105461316450894e-02
1.014223750000000e+10 9.986353899614853e-01 1.111874831367972e-02
1.018410625000000e+10 9.985911186902958e-01 1.117764244670302e-02
1.022597500000000e+10 9.988228023629254e-01 1.155522607905386e-02
1.026784375000000e+10 9.983423284654310e-01 1.152470875949727e-02
1.030971250000000e+10 9.977621667422466e-01 1.167431187199714e-02
1.035158125000000e+10 9.972907917396935e-01 1.171410290329782e-02
1.039345000000000e+10 9.974703598128312e-01 1.184029917606198e-02
1.043531875000000e+10 9.979365037874200e-01 1.186203088107429e-02
1.047718750000000e+10 9.978415345693696e-01 1.186733198398844e-02
1.051905625000000e+10 9.977459721384043e-01 1.192812909508398e-02
1.056092500000000e+10 9.978875130980099e-01 1.184014646920651e-02
1.060279375000000e+10 9.979323143997091e-01 1.194480618792414e-02
1.064466250000000e+10 9.978007161246312e-01 1.180343658824526e-02
1.068653125000000e+10 9.980219288162282e-01 1.196591723633646e-02
1.072840000000000e+10 9.981414976447555e-01 1.193517693252334e-02
1.077026875000000e+10 9.978113379036070e-01 1.177766479631443e-02
1.081213750000000e+10 9.983394947879045e-01 1.204908611180720e-02
1.085400625000000e+10 9.990262116724526e-01 1.212024961764901e-02
1.089587500000000e+10 9.992960550042910e-01 1.236627972106125e-02
1.093774375000000e+10 9.994725056121843e-01 1.219560946006288e-02
1.097961250000000e+10 9.997496427331747e-01 1.207483676191378e-02
1.102148125000000e+10 1.000086615671437e+00 1.207485971680397e-02
1.106335000000000e+10 9.993117803594648e-01 1.193069639182465e-02
1.110521875000000e+10 9.990320050021403e-01 1.204187696109533e-02
1.114708750000000e+10 9.987094618529415e-01 1.194787251528486e-02
1.118895625000000e+10 9.984878419806286e-01 1.201837325083386e-02
1.123082500000000e+10 9.988080491996864e-01 1.194457310036743e-02
1.127269375000000e+10 9.984826515710091e-01 1.204063275657137e-02
1.131456250000000e+10 9.983912420293379e-01 1.206697710121462e-02
1.135643125000000e+10 9.989024699233243e-01 1.213589627544902e-02
1.139830000000000e+10 9.993257223245083e-01 1.235116589673990e-02
1.144016875000000e+10 9.989836667542759e-01 1.220846634363720e-02
1.148203750000000e+10 9.987368708313406e-01 1.227434490917113e-02
1.152390625000000e+10 9.988391369628036e-01 1.234407601732023e-02
1.156577500000000e+10 9.988623077082515e-01 1.247285709201427e-02
1.160764375000000e+10 9.995220628285026e-01 1.269691781628590e-02
1.164951250000000e+10 9.989366478927764e-01 1.256244875292580e-02
1.169138125000000e+10 9.991970240670003e-01 1.252687668770576e-02
1.173325000000000e+10 9.999109157244553e-01 1.261632633032133e-02
1.177511875000000e+10 9.995852562549076e-01 1.255844342121267e-02
1.181698750000000e+10 9.996308745964477e-01 1.251524196258904e-02
1.185885625000000e+10 9.991091190017829e-01 1.255957817437922e-02
1.190072500000000e+10 9.995165077390979e-01 1.278153675559404e-02
1.194259375000000e+10 9.997034071008881e-01 1.259920213514021e-02
1.198446250000000e+10 9.994270763306619e-01 1.279382071155909e-02
1.202633125000000e+10 1.000059408728236e+00 1.276846838206148e-02
1.206820000000000e+10 1.000865529662276e+00 1.274509664045589e-02
1.211006875000000e+10 1.000702027654541e+00 1.292138955019295e-02
1.215193750000000e+10 9.987988233168027e-01 1.267014729284359e-02
1.219380625000000e+10 9.978726874868589e-01 1.268904986452904e-02
1.223567500000000e+10 9.973765621287257e-01 1.262770513684982e-02
1.227754375000000e+10 9.977095049068118e-01 1.265342719368252e-02
1.231941250000000e+10 9.980419725956233e-01 1.275543597952132e-02
1.236128125000000e+10 9.983302482354611e-01 1.278287191621574e-02
1.240315000000000e+10 9.987366858390241e-01 1.278626889597448e-02
1.244501875000000e+10 9.993980621744140e-01 1.280862553001648e-02
1.248688750000000e+10 9.998561482149715e-01 1.289012483379882e-02
1.252875625000000e+10 9.999593376903232e-01 1.296261700702905e-02
1.257062500000000e+10 9.997260621875252e-01 1.303299436897466e-02
1.261249375000000e+10 9.999709059101521e-01 1.332962329081777e-02
1.265436250000000e+10 1.000163879233502e+00 1.344962281266817e-02
1.269623125000000e+10 9.999469405443256e-01 1.384044405430514e-02
1.273810000000000e+10 9.989522894384461e-01 1.347690315339487e-02
1.277996875000000e+10 9.979657503024051e-01 1.342494240434280e-02
1.282183750000000e+10 9.976726859111472e-01 1.352069323009021e-02
1.286370625000000e+10 9.978121780413444e-01 1.330238536260438e-02
1.290557500000000e+10 9.980930652628477e-01 1.360271272596696e-02
1.294744375000000e+10 9.978666477601456e-01 1.349099346300178e-02
1.298931250000000e+10 9.982929752192675e-01 1.375489352140673e-02
1.303118125000000e+10 1.000201316609962e+00 1.367828249684693e-02
1.307305000000000e+10 1.000561864226583e+00 1.362864864221311e-02
1.311491875000000e+10 1.001103644397108e+00 1.349864401774862e-02
1.315678750000000e+10 1.001635224655374e+00 1.358423466650185e-02
1.319865625000000e+10 1.001418199914258e+00 1.352360398271389e-02
1.324052500000000e+10 1.001241186663523e+00 1.337291614724684e-02
1.328239375000000e+10 1.000931923390799e+00 1.355730228223068e-02
1.332426250000000e+10 1.000131095309456e+00 1.336376131443899e-02
1.336613125000000e+10 1.000089333235344e+00 1.340414101176473e-02
1.340800000000000e+10 9.993949538255326e-01 1.343408972949531e-02
1.344986875000000e+10 9.987250098174831e-01 1.362011521209908e-02
1.349173750000000e+10 9.988715851032407e-01 1.385772717396752e-02
1.353360625000000e+10 9.984438632682692e-01 1.371963355821177e-02
1.357547500000000e+10 9.988194670893467e-01 1.389571399893305e-02
1.361734375000000e+10 1.000074173078793e+00 1.399146168507042e-02
1.365921250000000e+10 1.000139998459216e+00 1.401446077589099e-02
1.370108125000000e+10 9.996350745192357e-01 1.419047012484441e-02
1.374295000000000e+10 9.989120937022048e-01 1.425485732918331e-02
1.378481875000000e+10 1.000154261803544e+00 1.460928771972409e-02
1.382668750000000e+10 1.001178821955223e+00 1.451546182317797e-02
1.386855625000000e+10 1.001230243583491e+00 1.468172657757454e-02
1.391042500000000e+10 1.000802276316738e+00 1.471790825516575e-02
1.395229375000000e+10 9.999015327289276e-01 1.466190970392909e-02
1.399416250000000e+10 1.000137624542191e+00 1.486709323723657e-02
1.403603125000000e+10 1.001230564018220e+00 1.492512896834117e-02
1.407790000000000e+10 1.002262027609866e+00 1.524330200402733e-02
1.411976875000000e+10 1.002154292615564e+00 1.478329519186710e-02
1.416163750000000e+10 1.001961537374399e+00 1.472377019588429e-02
1.420350625000000e+10 1.001812749149383e+00 1.448402073605801e-02
1.424537500000000e+10 1.000588705990215e+00 1.424474588241788e-02
1.428724375000000e+10 9.990070228931031e-01 1.427747766783637e-02
1.432911250000000e+10 9.989617878914839e-01 1.425234312333550e-02
1.437098125000000e+10 9.995456850105708e-01 1.417354641525464e-02
1.441285000000000e+10 9.994455712604225e-01 1.399050728949206e-02
1.445471875000000e+10 9.986813259766877e-01 1.399794406243882e-02
1.449658750000000e+10 9.976116142759481e-01 1.408705109257476e-02
1.453845625000000e+10 9.974185230337391e-01 1.451773640402726e-02
1.458032500000000e+10 9.985943610037599e-01 1.526660739331029e-02
1.462219375000000e+10 9.996959317408927e-01 1.544016864753945e-02
1.466406250000000e+10 9.990856184638787e-01 1.553863938708178e-02
1.470593125000000e+10 9.990987652957822e-01 1.563950354586895e-02
1.474780000000000e+10 9.992631512643992e-01 1.566776625794390e-02
1.478966875000000e+10 1.000423620237921e+00 1.587676802236958e-02
1.483153750000000e+10 1.000914865243804e+00 1.590601072830418e-02
1.487340625000000e+10 1.000606806120297e+00 1.588325829590320e-02
1.491527500000000e+10 1.000650114397396e+00 1.576767503032909e-02
1.495714375000000e+10 1.000952399084438e+00 1.594413193500990e-02
1.499901250000000e+10 1.001599645436270e+00 1.595207777816023e-02
1.504088125000000e+10 1.001642034000439e+00 1.586621096725306e-02
1.508275000000000e+10 1.001763155652706e+00 1.595600105500279e-02
1.512461875000000e+10 1.001753610926604e+00 1.580415415163098e-02
1.516648750000000e+10 1.001803131097626e+00 1.579092994460332e-02
1.520835625000000e+10 1.002374529330723e+00 1.613569147464423e-02
1.525022500000000e+10 1.002595736477137e+00 1.622665630766631e-02
1.529209375000000e+10 1.003177341762560e+00 1.635030738432591e-02
1.533396250000000e+10 1.002962598698013e+00 1.632463958088115e-02
1.537583125000000e+10 1.003231170020689e+00 1.603204089626236e-02
1.541770000000000e+10 1.003264927492789e+00 1.574845811840238e-02
1.545956875000000e+10 1.002776491281333e+00 1.555946704088287e-02
1.550143750000000e+10 1.001539900906874e+00 1.507479249130362e-02
1.554330625000000e+10 9.999442049510354e-01 1.504724533040001e-02
1.558517500000000e+10 9.986234421581593e-01 1.471639741929240e-02
1.562704375000000e+10 9.975734056383562e-01 1.488219259504211e-02
1.566891250000000e+10 9.982999721493784e-01 1.558595211673320e-02
1.571078125000000e+10 9.992266932967386e-01 1.566963506490227e-02
1.575265000000000e+10 9.994649260932199e-01 1.550716868619065e-02
1.579451875000000e+10 9.994319499016194e-01 1.553046910870091e-02
1.583638750000000e+10 9.991646937571963e-01 1.559774412601290e-02
1.587825625000000e+10 9.988819444195107e-01 1.575006076461701e-02
1.592012500000000e+10 9.994901030095810e-01 1.595056429696933e-02
1.596199375000000e+10 1.000773494748864e+00 1.596662260157286e-02
1.600386250000000e+10 1.001160156071671e+00 1.577768194113010e-02
1.604573125000000e+10 1.000758848364392e+00 1.562062312385405e-02
1.608760000000000e+10 1.000969221415746e+00 1.554528588275814e-02
1.612946875000000e+10 1.001190337070686e+00 1.554497612988050e-02
1.617133750000000e+10 1.001053599800451e+00 1.546736989832751e-02
1.621320625000000e+10 1.000239564289313e+00 1.541789570501698e-02
1.625507500000000e+10 1.000294288973541e+00 1.537773141180122e-02
1.629694375000000e+10 1.000821697029144e+00 1.543042625739541e-02
1.633881250000000e+10 1.001165037084474e+00 1.555263555709409e-02
1.638068125000000e+10 1.000507348365189e+00 1.574317621599916e-02
1.642255000000000e+10 1.000056234593256e+00 1.545136840712464e-02
1.646441875000000e+10 1.000593262459175e+00 1.556430834949818e-02
1.650628750000000e+10 1.000730462124274e+00 1.539886942446575e-02
1.654815625000000e+10 1.000190467705084e+00 1.513805593247530e-02
1.659002500000000e+10 1.000082044974572e+00 1.533712564288483e-02
1.663189375000000e+10 1.001336436030073e+00 1.566029406821394e-02
1.667376250000000e+10 1.001988632754593e+00 1.554923421128272e-02
1.671563125000000e+10 1.001701207371961e+00 1.512943787701897e-02
1.675750000000000e+10 1.001750953929543e+00 1.531289566397919e-02
1.679936875000000e+10 1.002409454628801e+00 1.553756039964932e-02
1.684123750000000e+10 1.003092163116299e+00 1.584531980050227e-02
1.688310625000000e+10 1.003151523962471e+00 1.579010476599358e-02
1.692497500000000e+10 1.003386608798243e+00 1.593668700444315e-02
1.696684375000000e+10 1.004654918267795e+00 1.669249464136845e-02
1.700871250000000e+10 1.004548317417983e+00 1.641658021559861e-02
1.705058125000000e+10 1.002616004877851e+00 1.594943654937105e-02
1.709245000000000e+10 1.000274325857167e+00 1.577351471288306e-02
1.713431875000000e+10 9.988112086447352e-01 1.592668678497645e-02
1.717618750000000e+10 9.996167067361647e-01 1.622884522428740e-02
1.721805625000000e+10 1.001200624270737e+00 1.610893337507952e-02
1.725992500000000e+10 1.001546462764594e+00 1.609849801004994e-02
1.730179375000000e+10 1.001477462505647e+00 1.596500164065671e-02
1.734366250000000e+10 1.001491384114716e+00 1.606401643463577e-02
1.738553125000000e+10 1.001930176753719e+00 1.630026373021996e-02
1.742740000000000e+10 1.001381277862591e+00 1.667482379310136e-02
1.746926875000000e+10 1.000869080653209e+00 1.690292482529932e-02
1.751113750000000e+10 1.001994018138132e+00 1.664237390880847e-02
1.755300625000000e+10 1.001604118951342e+00 1.688036627422860e-02
1.759487500000000e+10 1.001501630660627e+00 1.675598388989410e-02
1.763674375000000e+10 1.000607595425183e+00 1.675844481453382e-02
1.767861250000000e+10 1.000625211675302e+00 1.683503152287676e-02
1.772048125000000e+10 1.000560896658652e+00 1.717366402779490e-02
1.776235000000000e+10 1.001969670459998e+00 1.783364560468471e-02
1.780421875000000e+10 1.003150519638640e+00 1.764124051745813e-02
1.784608750000000e+10 1.002542893408238e+00 1.726859740438148e-02
1.788795625000000e+10 1.003162951499621e+00 1.717313407028278e-02
1.792982500000000e+10 1.003497182923062e+00 1.712264886843974e-02
1.797169375000000e+10 1.003015297377198e+00 1.617171095226718e-02
1.801356250000000e+10 1.001404447537940e+00 1.605680892723226e-02
1.805543125000000e+10 9.998115775105105e-01 1.632402854957031e-02
1.809730000000000e+10 1.000339211643303e+00 1.658363071683938e-02
1.813916875000000e+10 1.001766881331426e+00 1.710347871326154e-02
1.818103750000000e+10 1.001801599977280e+00 1.683587904810193e-02
1.822290625000000e+10 1.001261082516980e+00 1.710018234398664e-02
1.826477500000000e+10 1.001211674030994e+00 1.706713527980368e-02
1.830664375000000e+10 9.996567302713638e-01 1.714361610186361e-02
1.834851250000000e+10 9.999170721308239e-01 1.740363975039652e-02
1.839038125000000e+10 1.000169346933066e+00 1.763796399758068e-02
1.843225000000000e+10 1.000560098110246e+00 1.793590053036434e-02
1.847411875000000e+10 1.001348934112722e+00 1.748524924701088e-02
1.851598750000000e+10 9.996993734437961e-01 1.715602979332227e-02
1.855785625000000e+10 9.997340063257333e-01 1.704732482210750e-02
1.859972500000000e+10 9.984312332664512e-01 1.682178454455874e-02
1.864159375000000e+10 9.979117821966581e-01 1.685369359706709e-02
1.868346250000000e+10 9.987451350060653e-01 1.688067384101713e-02
1.872533125000000e+10 9.991991986499672e-01 1.695197622918508e-02
1.876720000000000e+10 1.000254239591260e+00 1.708905908822247e-02
1.880906875000000e+10 1.001808699750021e+00 1.705415483146670e-02
1.885093750000000e+10 1.003007164905780e+00 1.686895571439084e-02
1.889280625000000e+10 1.001905195558178e+00 1.610765123722075e-02
1.893467500000000e+10 1.000811812155583e+00 1.622991376911977e-02
1.897654375000000e+10 9.986347047101921e-01 1.618977509232033e-02
1.901841250000000e+10 9.995914389967006e-01 1.636416998046681e-02
1.906028125000000e+10 1.000049423391107e+00 1.628582747306997e-02
1.910215000000000e+10 1.000638428705024e+00 1.640415028951238e-02
1.914401875000000e+10 1.001962439843464e+00 1.639169694757820e-02
1.918588750000000e+10 1.002109419544339e+00 1.609187771111645e-02
1.922775625000000e+10 1.002591987984352e+00 1.610524663399710e-02
1.926962500000000e+10 1.001764023689644e+00 1.596709271633828e-02
1.931149375000000e+10 1.002064001079814e+00 1.639444378971325e-02
1.935336250000000e+10 1.003148694770245e+00 1.712366067969968e-02
1.939523125000000e+10 1.003338571263883e+00 1.750657996795548e-02
1.943710000000000e+10 1.004039020806070e+00 1.743864117205918e-02
1.947896875000000e+10 1.003530011836489e+00 1.765387677408164e-02
1.952083750000000e+10 1.003413712914047e+00 1.787992550204807e-02
1.956270625000000e+10 1.003344604660475e+00 1.790007421224133e-02
1.960457500000000e+10 1.002563796341204e+00 1.737525472735963e-02
1.964644375000000e+10 1.001293881181822e+00 1.770769221327197e-02
1.968831250000000e+10 1.000257165375469e+00 1.765471015710294e-02
1.973018125000000e+10 1.000562185134248e+00 1.790370255666883e-02
1.977205000000000e+10 1.001884284368160e+00 1.842563558342390e-02
1.981391875000000e+10 1.002547586273819e+00 1.837118091440395e-02
1.985578750000000e+10 1.001783298998403e+00 1.828319423178867e-02
1.989765625000000e+10 1.002636858276345e+00 1.897904435134495e-02
1.993952500000000e+10 1.003044048397355e+00 1.968392944430622e-02
1.998139375000000e+10 1.002701302270802e+00 1.930972168150509e-02
2.002326250000000e+10 1.000875352493868e+00 1.921431850438350e-02
2.006513125000000e+10 9.993701239132043e-01 1.898727614906712e-02
2.010700000000000e+10 9.997337070693816e-01 1.879124538893118e-02
2.014886875000000e+10 1.000363292062679e+00 1.927068449477559e-02
2.019073750000000e+10 9.993027813435180e-01 1.873301797483547e-02
2.023260625000000e+10 9.992703672274940e-01 1.907580057302951e-02
2.027447500000000e+10 1.000532370181691e+00 1.909238303539584e-02
2.031634375000000e+10 1.001832402607059e+00 1.924627298114426e-02
2.035821250000000e+10 1.002219381762838e+00 1.891941150474667e-02
2.040008125000000e+10 1.001236607947521e+00 1.908356280525911e-02
2.044195000000000e+10 1.001595280178893e+00 1.998483396666092e-02
2.048381875000000e+10 1.003010831432819e+00 1.977962041338173e-02
2.052568750000000e+10 1.003362664645073e+00 1.962345425365089e-02
2.056755625000000e+10 1.003882922003670e+00 1.882243260936912e-02
2.060942500000000e+10 1.003848288227823e+00 1.860748485901094e-02
2.065129375000000e+10 1.003220150737007e+00 1.839229389496923e-02
2.069316250000000e+10 1.001737563507330e+00 1.839411754228139e-02
2.073503125000000e+10 1.001263414087217e+00 1.870345112709335e-02
2.077690000000000e+10 1.001080266911559e+00 1.793382483523490e-02
2.081876875000000e+10 1.001466511061837e+00 1.801036125888346e-02
2.086063750000000e+10 1.001778327650793e+00 1.809434288802943e-02
2.090250625000000e+10 1.000836225081679e+00 1.823568545410587e-02
2.094437500000000e+10 1.000235360571767e+00 1.821819235196412e-02
2.098624375000000e+10 1.000071449105871e+00 1.778894486872312e-02
2.102811250000000e+10 9.994196612567962e-01 1.815883682121786e-02
2.106998125000000e+10 9.992045523342256e-01 1.803338280190000e-02
2.111185000000000e+10 9.996621866608456e-01 1.869853610591991e-02
2.115371875000000e+10 9.999129553451491e-01 1.874370722818121e-02
2.119558750000000e+10 9.991424604249338e-01 1.831065841383914e-02
2.123745625000000e+10 9.995259098939369e-01 1.906926730970910e-02
2.127932500000000e+10 1.000581475231319e+00 2.014707980619453e-02
2.132119375000000e+10 1.001848504188375e+00 2.053898636671447e-02
2.136306250000000e+10 1.002355299024897e+00 2.049306184822302e-02
2.140493125000000e+10 1.002139073315050e+00 2.057152224021221e-02
2.144680000000000e+10 1.002529180968666e+00 2.025440428439622e-02
2.148866875000000e+10 1.002417914527151e+00 1.958697679180427e-02
2.153053750000000e+10 1.003237782263126e+00 1.932230663919265e-02
2.157240625000000e+10 1.003317938378444e+00 1.864743835294204e-02
2.161427500000000e+10 1.003038598128060e+00 1.890485966558675e-02
2.165614375000000e+10 1.002794931945449e+00 1.905913655818571e-02
2.169801250000000e+10 1.002166486281781e+00 1.901947858262509e-02
2.173988125000000e+10 1.002353280675575e+00 1.948241494342185e-02
2.178175000000000e+10 1.003651550562311e+00 1.887377695156222e-02
2.182361875000000e+10 1.003826290609436e+00 1.909531361001498e-02
2.186548750000000e+10 1.003887185499686e+00 1.955244369592290e-02
2.190735625000000e+10 1.003791492744546e+00 1.959772572934511e-02
2.194922500000000e+10 1.005900355599389e+00 1.994934689567715e-02
2.199109375000000e+10 1.006449903492722e+00 2.016786998616971e-02
2.203296250000000e+10 1.006899925781244e+00 1.968937376689656e-02
2.207483125000000e+10 1.005600122189817e+00 1.868810416888576e-02
2.211670000000000e+10 1.004397404120431e+00 1.858844382730731e-02
2.215856875000000e+10 1.003845144900196e+00 1.903910615276507e-02
2.220043750000000e+10 1.003865143968194e+00 1.909560942172809e-02
2.224230625000000e+10 1.004544654170942e+00 1.901664734074325e-02
2.228417500000000e+10 1.004308873717499e+00 1.898381209615256e-02
2.232604375000000e+10 1.004103278713344e+00 1.861184593578728e-02
2.236791250000000e+10 1.002720430615909e+00 1.792809110260996e-02
2.240978125000000e+10 1.001491343104977e+00 1.796361327762852e-02
2.245165000000000e+10 1.001908382404896e+00 1.804508740045285e-02
2.249351875000000e+10 1.003237931275857e+00 1.844288330712754e-02
2.253538750000000e+10 1.003084756787520e+00 1.818303747015707e-02
2.257725625000000e+10 1.003488292711929e+00 1.851152219719703e-02
2.261912500000000e+10 1.004265569677598e+00 1.846073835249568e-02
2.266099375000000e+10 1.002633116820968e+00 1.766731361379698e-02
2.270286250000000e+10 1.002883496588100e+00 1.761905300065204e-02
2.274473125000000e+10 1.003830156828087e+00 1.755336466902978e-02
2.278660000000000e+10 1.003868383577693e+00 1.804102605999337e-02
2.282846875000000e+10 1.002926294687284e+00 1.751734517043368e-02
2.287033750000000e+10 1.003930391573739e+00 1.781946328970497e-02
2.291220625000000e+10 1.002581089891668e+00 1.775129220156832e-02
2.295407500000000e+10 1.001994513377332e+00 1.810355219915128e-02
2.299594375000000e+10 1.002870513831295e+00 1.837619057697578e-02
2.303781250000000e+10 1.002521376175591e+00 1.813671752169524e-02
2.307968125000000e+10 1.002482000081439e+00 1.796952715182148e-02
2.312155000000000e+10 1.000720205638102e+00 1.782706643496002e-02
2.316341875000000e+10 9.992868375915265e-01 1.821226073867670e-02
2.320528750000000e+10 9.998735691397650e-01 1.918833184549224e-02
2.324715625000000e+10 1.001015428885712e+00 1.960530075442443e-02
2.328902500000000e+10 1.002756259879640e+00 2.040359505688729e-02
2.333089375000000e+10 1.004933536505650e+00 2.018576310566027e-02
2.337276250000000e+10 1.005769030115322e+00 2.004197100146899e-02
2.341463125000000e+10 1.004520420590238e+00 1.909422206212349e-02
2.345650000000000e+10 1.003975163661576e+00 1.927168526688986e-02
2.349836875000000e+10 1.003980237362842e+00 1.969254165086351e-02
2.354023750000000e+10 1.002979316832498e+00 1.954599290802616e-02
2.358210625000000e+10 1.003547613417632e+00 2.020540095248181e-02
2.362397500000000e+10 1.003307006005373e+00 2.017237944687522e-02
2.366584375000000e+10 1.002944436539173e+00 1.992032802460580e-02
2.370771250000000e+10 1.002980831806040e+00 1.991116187570719e-02
2.374958125000000e+10 1.003463871761031e+00 2.001820005138373e-02
2.379145000000000e+10 1.002234057838032e+00 1.933443281866774e-02
2.383331875000000e+10 1.001750134879827e+00 1.940016093198540e-02
2.387518750000000e+10 9.996235123145344e-01 1.895059360201157e-02
2.391705625000000e+10 9.994820950423883e-01 2.048530679761706e-02
2.395892500000000e+10 1.001837341440796e+00 2.102455154734718e-02
2.400079375000000e+10 1.004334683117073e+00 2.103504628370766e-02
2.404266250000000e+10 1.004620240364492e+00 2.063341199157064e-02
2.408453125000000e+10 1.004170734080621e+00 2.001924603162796e-02
2.412640000000000e+10 1.004840584115565e+00 2.002477862941901e-02
2.416826875000000e+10 1.003748808800165e+00 1.987374437393152e-02
2.421013750000000e+10 1.003551816075685e+00 1.990661606692739e-02
2.425200625000000e+10 1.002965285657211e+00 1.926464614629002e-02
2.429387500000000e+10 1.002130632235105e+00 1.976563024459029e-02
2.433574375000000e+10 1.003050347395899e+00 1.988012426524700e-02
2.437761250000000e+10 1.002443714480801e+00 1.952387956908274e-02
2.441948125000000e+10 1.002381962205834e+00 1.942596647408051e-02
2.446135000000000e+10 1.002790541350217e+00 1.931184925015148e-02
2.450321875000000e+10 1.002045660643695e+00 1.874324487709554e-02
2.454508750000000e+10 1.002915726618064e+00 1.901724840921823e-02
2.458695625000000e+10 1.002562092382536e+00 1.882320937931750e-02
2.462882500000000e+10 1.003505227551137e+00 1.829150324970963e-02
2.467069375000000e+10 1.003797430711704e+00 1.811640639390706e-02
2.471256250000000e+10 1.004158930212714e+00 1.872005960188648e-02
2.475443125000000e+10 1.005165535323894e+00 1.905098777739553e-02
2.479630000000000e+10 1.005953832599634e+00 1.886747312908403e-02
2.483816875000000e+10 1.006055757370822e+00 1.853760632919808e-02
2.488003750000000e+10 1.004796367861085e+00 1.856629372006371e-02
2.492190625000000e+10 1.005351818261531e+00 1.875961576609288e-02
2.496377500000000e+10 1.005370457101643e+00 1.823100845843208e-02
2.500564375000000e+10 1.003594045372626e+00 1.836411322807579e-02
2.504751250000000e+10 1.002533973376045e+00 1.806328974415113e-02
2.508938125000000e+10 1.001493759610161e+00 1.856893185034539e-02
2.513125000000000e+10 1.000026855289325e+00 1.854967108866486e-02
2.517311875000000e+10 9.993483295815718e-01 1.974958714645959e-02
2.521498750000000e+10 9.993843039123047e-01 1.943651261324210e-02
2.525685625000000e+10 9.997694621863891e-01 1.921177235486526e-02
2.529872500000000e+10 9.984547788844151e-01 1.885874022806748e-02
2.534059375000000e+10 9.984773007956536e-01 1.947496918807361e-02
2.538246250000000e+10 9.987287904459049e-01 1.988649577714715e-02
2.542433125000000e+10 1.000935904395032e+00 2.016941125590205e-02
2.546620000000000e+10 1.001953224261083e+00 2.015137538145739e-02
2.550806875000000e+10 1.001197269160911e+00 2.025039297682077e-02
2.554993750000000e+10 1.002740887130810e+00 2.071609589780971e-02
2.559180625000000e+10 1.002586191924492e+00 2.080520496740528e-02
2.563367500000000e+10 1.003220881392609e+00 2.071727736238082e-02
2.567554375000000e+10 1.002351860323314e+00 2.036406130244614e-02
2.571741250000000e+10 1.002954629664763e+00 2.029755290756405e-02
2.575928125000000e+10 1.002871868446207e+00 1.991817886539986e-02
2.580115000000000e+10 1.002364726133939e+00 1.965470358825678e-02
2.584301875000000e+10 1.001160954406967e+00 1.980742081646520e-02
2.588488750000000e+10 1.000350116582302e+00 2.019845140249870e-02
2.592675625000000e+10 1.000017541037052e+00 2.114224224153276e-02
2.596862500000000e+10 1.001054073552786e+00 2.175448259037355e-02
2.601049375000000e+10 1.002996485577436e+00 2.272131829401533e-02
2.605236250000000e+10 1.004250895457401e+00 2.255655563360454e-02
2.609423125000000e+10 1.004737580359272e+00 2.264550096234844e-02
2.613610000000000e+10 1.005445359080159e+00 2.244636209814318e-02
2.617796875000000e+10 1.005289553036395e+00 2.267202200029969e-02
2.621983750000000e+10 1.006167958900992e+00 2.363973420215362e-02
2.626170625000000e+10 1.007478421208790e+00 2.342256061741271e-02
2.630357500000000e+10 1.007470779122746e+00 2.303321188486151e-02
2.634544375000000e+10 1.007294485804298e+00 2.317415014932441e-02
2.638731250000000e+10 1.007448750072569e+00 2.326568867589127e-02
2.642918125000000e+10 1.006290305401090e+00 2.184090172095649e-02
2.647105000000000e+10 1.004302589571751e+00 2.227705587897297e-02
2.651291875000000e+10 1.005182355979933e+00 2.321163646076563e-02
2.655478750000000e+10 1.006282978739495e+00 2.237736734170729e-02
2.659665625000000e+10 1.005837916730986e+00 2.249872046536462e-02
2.663852500000000e+10 1.006522872236855e+00 2.180677859128893e-02
2.668039375000000e+10 1.007305293152439e+00 2.153048436462608e-02
2.672226250000000e+10 1.006571751522953e+00 2.093818914646405e-02
2.676413125000000e+10 1.004461773473562e+00 2.085405790526593e-02
2.680600000000000e+10 1.003260319830440e+00 1.995226327326220e-02
2.684786875000000e+10 1.001730258368953e+00 1.987447048871247e-02
2.688973750000000e+10 1.001713188441396e+00 2.084107238242491e-02
2.693160625000000e+10 1.003030818659511e+00 2.096092958351392e-02
2.697347500000000e+10 1.003040642388235e+00 2.068326718717844e-02
2.701534375000000e+10 1.002256360943480e+00 2.020785163480121e-02
2.705721250000000e+10 9.995836423441634e-01 2.052439735452345e-02
2.709908125000000e+10 9.998858448516447e-01 2.167366318604586e-02
2.714095000000000e+10 1.000590979536486e+00 2.121278574125534e-02
2.718281875000000e+10 1.001850761318547e+00 2.158396376499305e-02
2.722468750000000e+10 1.002306618294349e+00 2.114096348215348e-02
2.726655625000000e+10 1.002859473259359e+00 2.161465579801004e-02
2.730842500000000e+10 1.004315213137163e+00 2.134861997118017e-02
2.735029375000000e+10 1.004013524426273e+00 2.132109193776446e-02
2.739216250000000e+10 1.003377918152387e+00 2.081377477290615e-02
2.743403125000000e+10 1.004905859407812e+00 2.143960513244384e-02
2.747590000000000e+10 1.004770945230581e+00 2.088547576548262e-02
2.751776875000000e+10 1.002506361157467e+00 2.039098732730564e-02
2.755963750000000e+10 1.003680995614496e+00 2.115085188055042e-02
2.760150625000000e+10 1.004123233748528e+00 2.093467561876486e-02
2.764337500000000e+10 1.003428983931983e+00 2.163955831359853e-02
2.768524375000000e+10 1.004642486370487e+00 2.069032275302023e-02
2.772711250000000e+10 1.006134977258683e+00 2.060204942295968e-02
2.776898125000000e+10 1.006368143028460e+00 2.052469598004252e-02
2.781085000000000e+10 1.006176398845026e+00 2.010514142107368e-02
2.785271875000000e+10 1.005343761479904e+00 1.996276846429414e-02
2.789458750000000e+10 1.005302248708175e+00 2.025650546104257e-02
2.793645625000000e+10 1.005237466200801e+00 2.066062594627900e-02
2.797832500000000e+10 1.003457022988646e+00 2.052828288214823e-02
2.802019375000000e+10 1.003510778119523e+00 2.140014412052939e-02
2.806206250000000e+10 1.003911367763019e+00 2.137855383256226e-02
2.810393125000000e+10 1.004983982337676e+00 2.146840611619146e-02
2.814580000000000e+10 1.003138838089814e+00 2.111883613735020e-02
2.818766875000000e+10 1.003017643746223e+00 2.137769782402801e-02
2.822953750000000e+10 1.003383716237174e+00 2.223979081711184e-02
2.827140625000000e+10 1.003634179129289e+00 2.219933400129225e-02
2.831327500000000e+10 1.004442953186910e+00 2.259502507138637e-02
2.835514375000000e+10 1.005831601992779e+00 2.245848772241174e-02
2.839701250000000e+10 1.005203679475682e+00 2.154777374571555e-02
2.843888125000000e+10 1.004479934071817e+00 2.251965230480157e-02
2.848075000000000e+10 1.004145451519834e+00 2.325395464390353e-02
2.852261875000000e+10 1.004712050676982e+00 2.360206552009013e-02
2.856448750000000e+10 1.005466393945511e+00 2.302232169312247e-02
2.860635625000000e+10 1.006841057764901e+00 2.288376483517652e-02
2.864822500000000e+10 1.007147558700096e+00 2.277685385619859e-02
2.869009375000000e+10 1.006758898073489e+00 2.262241224974870e-02
2.873196250000000e+10 1.005902283306458e+00 2.245969441850770e-02
2.877383125000000e+10 1.006495704394383e+00 2.245984636043697e-02
2.881570000000000e+10 1.007572859853794e+00 2.215559490919524e-02
2.885756875000000e+10 1.007763651838267e+00 2.160012063625492e-02
2.889943750000000e+10 1.007028908832186e+00 2.167593784809947e-02
2.894130625000000e+10 1.005702511658362e+00 2.160638863141402e-02
2.898317500000000e+10 1.006137368508789e+00 2.195913658898114e-02
2.902504375000000e+10 1.006200536971870e+00 2.110531509522542e-02
2.906691250000000e+10 1.005634710786428e+00 2.115948207802266e-02
2.910878125000000e+10 1.006305307598086e+00 2.187139542854095e-02
2.915065000000000e+10 1.006485095262737e+00 2.114101789058348e-02
2.919251875000000e+10 1.004901280633520e+00 2.015785817289919e-02
2.923438750000000e+10 1.003884460151244e+00 2.107406008110457e-02
2.927625625000000e+10 1.003542556381526e+00 2.103845671057098e-02
2.931812500000000e+10 1.002567104675495e+00 2.116404756969050e-02
2.935999375000000e+10 1.002326094880410e+00 2.146945621556087e-02
2.940186250000000e+10 1.004511722314777e+00 2.197266094518725e-02
2.944373125000000e+10 1.004321457591107e+00 2.092192421105773e-02
2.948560000000000e+10 1.004265261140988e+00 2.069445478754092e-02
2.952746875000000e+10 1.002751591730480e+00 1.984148079430427e-02
2.956933750000000e+10 1.002632664477763e+00 2.108697512599031e-02
2.961120625000000e+10 1.002654337395953e+00 2.166549130246377e-02
2.965307500000000e+10 1.003466509770735e+00 2.142381791989805e-02
2.969494375000000e+10 1.002692852403200e+00 2.146185826503359e-02
2.973681250000000e+10 1.002709917601843e+00 2.198100167011231e-02
2.977868125000000e+10 1.004365816730811e+00 2.189224934122036e-02
2.982055000000000e+10 1.002646937961702e+00 2.148494393479192e-02
2.986241875000000e+10 1.003791928761639e+00 2.274521716822112e-02
2.990428750000000e+10 1.004452778290592e+00 2.274718606853170e-02
2.994615625000000e+10 1.004138998774360e+00 2.264664952717401e-02
2.998802500000000e+10 1.004435403295938e+00 2.260423076778043e-02
3.002989375000000e+10 1.004970915311338e+00 2.233222111769563e-02
3.007176250000000e+10 1.005692934518250e+00 2.182682113143118e-02
3.011363125000000e+10 1.006617484932407e+00 2.203693413880396e-02
3.015550000000000e+10 1.004956820175547e+00 2.223383413560271e-02
3.019736875000000e+10 1.004692902696991e+00 2.106911042368037e-02
3.023923750000000e+10 1.001910029152887e+00 2.058991608963431e-02
3.028110625000000e+10 1.001559511809870e+00 2.161572610254557e-02
3.032297500000000e+10 1.003346962905528e+00 2.211723465716696e-02
3.036484375000000e+10 1.004292166712970e+00 2.241743454325232e-02
3.040671250000000e+10 1.005257369588065e+00 2.182925905976373e-02
3.044858125000000e+10 1.004814089525804e+00 2.081119425954972e-02
3.049045000000000e+10 1.004358349610511e+00 2.094852924735136e-02
3.053231875000000e+10 1.004169444700093e+00 2.118062648344897e-02
3.057418750000000e+10 1.006673735497183e+00 2.168078458176409e-02
3.061605625000000e+10 1.005458507501575e+00 2.065742656653808e-02
3.065792500000000e+10 1.006072878493123e+00 2.117376221994841e-02
3.069979375000000e+10 1.005589138033228e+00 2.156318104008699e-02
3.074166250000000e+10 1.005422173678894e+00 2.087206700040633e-02
3.078353125000000e+10 1.005611627565522e+00 2.137709619163471e-02
3.082540000000000e+10 1.005529038528496e+00 2.094561870110420e-02
3.086726875000000e+10 1.005017128851670e+00 2.122543125301659e-02
3.090913750000000e+10 1.004426102237645e+00 2.049521134166626e-02
3.095100625000000e+10 1.003659102358776e+00 2.165289749302742e-02
3.099287500000000e+10 1.002135014843893e+00 2.176433581883929e-02
3.103474375000000e+10 1.003032051710361e+00 2.289229512413568e-02
3.107661250000000e+10 1.004237702470636e+00 2.210671493664432e-02
3.111848125000000e+10 1.003724051860926e+00 2.192375786950560e-02
3.116035000000000e+10 1.003551806379297e+00 2.327155869206938e-02
3.120221875000000e+10 1.002789156466176e+00 2.286286204287059e-02
3.124408750000000e+10 1.003622951857864e+00 2.267810613964831e-02
3.128595625000000e+10 1.004267882614131e+00 2.219248959631296e-02
3.132782500000000e+10 1.002760372526791e+00 2.167430627492469e-02
3.136969375000000e+10 1.002470809531136e+00 2.267605965506593e-02
3.141156250000000e+10 1.002279949797455e+00 2.218305712196474e-02
3.145343125000000e+10 1.001800170828647e+00 2.194924227392264e-02
3.149530000000000e+10 1.002060018986477e+00 2.311511628653173e-02
3.153716875000000e+10 1.001233162614519e+00 2.354470364899761e-02
3.157903750000000e+10 1.000494305384032e+00 2.333556707121190e-02
3.162090625000000e+10 1.001642447663949e+00 2.428620722677575e-02
3.166277500000000e+10 1.001904824890379e+00 2.503338835147518e-02
3.170464375000000e+10 1.002253055121187e+00 2.432913699020504e-02
3.174651250000000e+10 1.003289923561895e+00 2.475970808983547e-02
3.178838125000000e+10 1.004693898630753e+00 2.551530843111428e-02
3.183025000000000e+10 1.005623897989873e+00 2.374048172318422e-02
3.187211875000000e+10 1.004206123191785e+00 2.242661076648431e-02
3.191398750000000e+10 1.003271177584091e+00 2.254306305155235e-02
3.195585625000000e+10 1.002240583641159e+00 2.310032976891479e-02
3.199772500000000e+10 1.002788240308467e+00 2.323150262443889e-02
3.203959375000000e+10 1.003284426612487e+00 2.343212753012108e-02
3.208146250000000e+10 1.004480686426771e+00 2.389824860091831e-02
3.212333125000000e+10 1.004737686591466e+00 2.319065862182425e-02
3.216520000000000e+10 1.006585961731623e+00 2.385416519108225e-02
3.220706875000000e+10 1.005943044372932e+00 2.340878943559210e-02
3.224893750000000e+10 1.004723993601644e+00 2.375101617670868e-02
3.229080625000000e+10 1.004946489440570e+00 2.424822644955900e-02
3.233267500000000e+10 1.006128699126635e+00 2.436542540411012e-02
3.237454375000000e+10 1.007434970585003e+00 2.489761015179528e-02
3.241641250000000e+10 1.007465494346686e+00 2.400550035404863e-02
3.245828125000000e+10 1.007944051198012e+00 2.347749845818699e-02
3.250015000000000e+10 1.005947653620165e+00 2.265366812672859e-02
3.254201875000000e+10 1.006146188137309e+00 2.333338242865086e-02
3.258388750000000e+10 1.006430977430559e+00 2.272121173588430e-02
3.262575625000000e+10 1.004788739318968e+00 2.288327047728695e-02
3.266762500000000e+10 1.004223408005970e+00 2.363570147788071e-02
3.270949375000000e+10 1.003105404726678e+00 2.367866641513156e-02
3.275136250000000e+10 1.004270641588261e+00 2.585385861517235e-02
3.279323125000000e+10 1.005720903735828e+00 2.642121799323627e-02
3.283510000000000e+10 1.005728281128756e+00 2.430278614897205e-02
3.287696875000000e+10 1.007093584162812e+00 2.540115826786812e-02
3.291883750000000e+10 1.008867774079421e+00 2.430726259762732e-02
3.296070625000000e+10 1.009129789715453e+00 2.357027497984137e-02
3.300257500000000e+10 1.008886626339624e+00 2.367693868987713e-02
3.304444375000000e+10 1.008368678769014e+00 2.301698726600435e-02
3.308631250000000e+10 1.009320929565221e+00 2.426127806931930e-02
3.312818125000000e+10 1.008168517351996e+00 2.253445508826088e-02
3.317005000000000e+10 1.007762416534096e+00 2.339115953636496e-02
3.321191875000000e+10 1.005891387484982e+00 2.247125880623126e-02
3.325378750000000e+10 1.005522583250199e+00 2.347257771174959e-02
3.329565625000000e+10 1.006635305660488e+00 2.404218932070433e-02
3.333752500000000e+10 1.007097945866934e+00 2.303745496585285e-02
3.337939375000000e+10 1.007381956855482e+00 2.243731359946311e-02
3.342126250000000e+10 1.005247110679482e+00 2.234328106102044e-02
3.346313125000000e+10 1.005078191168466e+00 2.358451635968337e-02
3.350500000000000e+10 1.005336875910519e+00 2.269714642474347e-02
3.354686875000000e+10 1.004887357086038e+00 2.352908343189184e-02
3.358873750000000e+10 1.005410694233758e+00 2.290180249671939e-02
3.363060625000000e+10 1.005348073735645e+00 2.271732994229025e-02
3.367247500000000e+10 1.004899958776565e+00 2.144453801677170e-02
3.371434375000000e+10 1.004501989674331e+00 2.173581963166259e-02
3.375621250000000e+10 1.004406538833436e+00 2.194659644261776e-02
3.379808125000000e+10 1.003445258249398e+00 2.168113176803410e-02
3.383995000000000e+10 1.002757386992577e+00 2.263030329460737e-02
3.388181875000000e+10 1.003313247107846e+00 2.241399543034025e-02
3.392368750000000e+10 1.002803274252730e+00 2.419814014268755e-02
3.396555625000000e+10 1.002590660319039e+00 2.416871790815428e-02
3.400742500000000e+10 1.001152725138357e+00 2.537983195772423e-02
3.404929375000000e+10 1.000375102578269e+00 2.454902941500265e-02
3.409116250000000e+10 1.001995322566022e+00 2.494343549823226e-02
3.413303125000000e+10 1.001301817918608e+00 2.579507532743063e-02
3.417490000000000e+10 1.002170833182351e+00 2.574248234863067e-02
3.421676875000000e+10 1.002952513940008e+00 2.598817891951720e-02
3.425863750000000e+10 1.002114870954598e+00 2.535178697627179e-02
3.430050625000000e+10 1.001608547695215e+00 2.531269267107890e-02
3.434237500000000e+10 1.001999407272276e+00 2.599615171242997e-02
3.438424375000000e+10 1.004286938242933e+00 2.739699609959222e-02
3.442611250000000e+10 1.004568273722329e+00 2.653370837320974e-02
3.446798125000000e+10 1.004439811918423e+00 2.631072341093696e-02
3.450985000000000e+10 1.005641695780485e+00 2.820341066398482e-02
3.455171875000000e+10 1.007189917589950e+00 2.720980968700046e-02
3.459358750000000e+10 1.006784367394988e+00 2.642679168295316e-02
3.463545625000000e+10 1.005708625752972e+00 2.594973800351267e-02
3.467732500000000e+10 1.005821297090304e+00 2.628286026348725e-02
3.471919375000000e+10 1.007228460564765e+00 2.643573220958793e-02
3.476106250000000e+10 1.007783949792756e+00 2.691754793637438e-02
3.480293125000000e+10 1.006500958067508e+00 2.731424121139504e-02
3.484480000000000e+10 1.007788830473454e+00 2.668968783485398e-02
3.488666875000000e+10 1.007790479122257e+00 2.645741712657674e-02
3.492853750000000e+10 1.007701012969444e+00 2.573166655589063e-02
3.497040625000000e+10 1.008943521002901e+00 2.605428544851564e-02
3.501227500000000e+10 1.009651163038405e+00 2.543151863202227e-02
3.505414375000000e+10 1.008513548154842e+00 2.548507406329915e-02
3.509601250000000e+10 1.008705015037596e+00 2.553574842356812e-02
3.513788125000000e+10 1.008838101605511e+00 2.480296085286176e-02
3.517975000000000e+10 1.008720808467145e+00 2.419786540744405e-02
3.522161875000000e+10 1.008197520800469e+00 2.331533958006820e-02
3.526348750000000e+10 1.006784673516135e+00 2.303046176147066e-02
3.530535625000000e+10 1.006631220579156e+00 2.382859324993447e-02
3.534722500000000e+10 1.007015753636320e+00 2.258704388387648e-02
3.538909375000000e+10 1.007391871234957e+00 2.399714766722059e-02
3.543096250000000e+10 1.006867015334287e+00 2.397202791951977e-02
3.547283125000000e+10 1.006762528540256e+00 2.496418130445608e-02
3.551470000000000e+10 1.006190982927212e+00 2.488570367998246e-02
3.555656875000000e+10 1.006582367600860e+00 2.321986601594538e-02
3.559843750000000e+10 1.007811056245160e+00 2.325855967852655e-02
3.564030625000000e+10 1.007594398262975e+00 2.372970166086944e-02
3.568217500000000e+10 1.007834197367027e+00 2.293689996535226e-02
3.572404375000000e+10 1.006729406817131e+00 2.328368612418558e-02
3.576591250000000e+10 1.006902749960187e+00 2.368754590162475e-02
3.580778125000000e+10 1.006764253983404e+00 2.340546410341425e-02
3.584965000000000e+10 1.007030655219283e+00 2.389285205337572e-02
3.589151875000000e+10 1.006425317906453e+00 2.425409935951526e-02
3.593338750000000e+10 1.008327227684903e+00 2.415310551513602e-02
3.597525625000000e+10 1.008002156275839e+00 2.385187266918816e-02
3.601712500000000e+10 1.007027904521217e+00 2.358410009331721e-02
3.605899375000000e+10 1.008521113434581e+00 2.372159042023260e-02
3.610086250000000e+10 1.007434196517259e+00 2.212524655137618e-02
3.614273125000000e+10 1.007362787524761e+00 2.198885290049244e-02
3.618460000000000e+10 1.006479922532309e+00 2.194033016713486e-02
3.622646875000000e+10 1.004398709515781e+00 2.352004327032669e-02
3.626833750000000e+10 1.006107798519685e+00 2.454732993374976e-02
3.631020625000000e+10 1.004405487336438e+00 2.398713643425155e-02
3.635207500000000e+10 1.004421146502761e+00 2.496993505074488e-02
3.639394375000000e+10 1.006556158674480e+00 2.456965007615966e-02
3.643581250000000e+10 1.007706924793593e+00 2.590061064862677e-02
3.647768125000000e+10 1.008551870556496e+00 2.550667006245570e-02
3.651955000000000e+10 1.008398842113990e+00 2.494245675313965e-02
3.656141875000000e+10 1.009137972276885e+00 2.531124822369010e-02
3.660328750000000e+10 1.006521337166743e+00 2.553362739569021e-02
3.664515625000000e+10 1.007568283701445e+00 2.545612748357750e-02
3.668702500000000e+10 1.007135971325319e+00 2.513233161408424e-02
3.672889375000000e+10 1.006506262102178e+00 2.524026519253354e-02
3.677076250000000e+10 1.006125069331798e+00 2.576205758684936e-02
3.681263125000000e+10 1.006924285151405e+00 2.627721617410054e-02
3.685450000000000e+10 1.008488518963970e+00 2.687397909809785e-02
3.689636875000000e+10 1.008037544961817e+00 2.508946020942182e-02
3.693823750000000e+10 1.009790464713459e+00 2.658439508118350e-02
3.698010625000000e+10 1.007722486106693e+00 2.461767668618490e-02
3.702197500000000e+10 1.005709338232350e+00 2.481529113886830e-02
3.706384375000000e+10 1.005417088743340e+00 2.679287088417224e-02
3.710571250000000e+10 1.007595930900602e+00 2.596580022742158e-02
3.714758125000000e+10 1.008897851073275e+00 2.578704145025023e-02
3.718945000000000e+10 1.008725426555689e+00 2.571262644766103e-02
3.723131875000000e+10 1.009005738186988e+00 2.386835687883166e-02
3.727318750000000e+10 1.008581613115402e+00 2.531279373662030e-02
3.731505625000000e+10 1.007483972876277e+00 2.403340164628397e-02
3.735692500000000e+10 1.007972108718331e+00 2.346145938042832e-02
3.739879375000000e+10 1.008671877126170e+00 2.388646023779738e-02
3.744066250000000e+10 1.007748244448088e+00 2.453397755447463e-02
3.748253125000000e+10 1.007759122583791e+00 2.459772266382694e-02
3.752440000000000e+10 1.007417560121176e+00 2.413028337753260e-02
3.756626875000000e+10 1.006885700754985e+00 2.397668153725860e-02
3.760813750000000e+10 1.007054253914766e+00 2.518664908995708e-02
3.765000625000000e+10 1.006819724493685e+00 2.451635092888288e-02
3.769187500000000e+10 1.007970317526106e+00 2.430106453201695e-02
3.773374375000000e+10 1.008814365747188e+00 2.530777484631458e-02
3.777561250000000e+10 1.008169885498626e+00 2.333012507077947e-02
3.781748125000000e+10 1.006166008214130e+00 2.375377805963532e-02
3.785935000000000e+10 1.006950020343453e+00 2.417904193002791e-02
3.790121875000000e+10 1.006739478998978e+00 2.352451696482295e-02
3.794308750000000e+10 1.005504193382649e+00 2.447987163988396e-02
3.798495625000000e+10 1.004726171520067e+00 2.514919977654753e-02
3.802682500000000e+10 1.005249675039064e+00 2.653635238984347e-02
3.806869375000000e+10 1.006975788556170e+00 2.491118080551391e-02
3.811056250000000e+10 1.008348317140346e+00 2.496871173594012e-02
3.815243125000000e+10 1.009171583138989e+00 2.437931105824541e-02
3.819430000000000e+10 1.006808270589025e+00 2.341412713915031e-02
3.823616875000000e+10 1.006847078886757e+00 2.283299491295834e-02
3.827803750000000e+10 1.006326595353874e+00 2.366815294365399e-02
3.831990625000000e+10 1.005539585923288e+00 2.446351194944861e-02
3.836177500000000e+10 1.006540309570744e+00 2.438841716102719e-02
3.840364375000000e+10 1.006231716733873e+00 2.493155156443091e-02
3.844551250000000e+10 1.007345518286116e+00 2.416125029510217e-02
3.848738125000000e+10 1.006403449117551e+00 2.450533891237241e-02
3.852925000000000e+10 1.006408709693244e+00 2.439211359433984e-02
3.857111875000000e+10 1.007087226661740e+00 2.541173256427967e-02
3.861298750000000e+10 1.006135371458262e+00 2.588378217916470e-02
3.865485625000000e+10 1.007291620060881e+00 2.647198373836404e-02
3.869672500000000e+10 1.006638840869184e+00 2.594597905571564e-02
3.873859375000000e+10 1.007256958634011e+00 2.684014674218621e-02
3.878046250000000e+10 1.006924396187826e+00 2.726707197395502e-02
3.882233125000000e+10 1.007593312880521e+00 2.705161563537250e-02
3.886420000000000e+10 1.007729438662812e+00 2.702212884808080e-02
3.890606875000000e+10 1.008258735877660e+00 2.669233799961113e-02
3.894793750000000e+10 1.009738943504148e+00 2.653680049808765e-02
3.898980625000000e+10 1.010168954870906e+00 2.663735143573977e-02
3.903167500000000e+10 1.008961763446840e+00 2.602918412323749e-02
3.907354375000000e+10 1.009428091111279e+00 2.619894601871581e-02
3.911541250000000e+10 1.008834662125749e+00 2.559372997749283e-02
3.915728125000000e+10 1.007237380827333e+00 2.674739179442817e-02
3.919915000000000e+10 1.007007201977553e+00 2.566631919207084e-02
3.924101875000000e+10 1.008311102734959e+00 2.638328273639093e-02
3.928288750000000e+10 1.009356047652598e+00 2.565901409449147e-02
3.932475625000000e+10 1.008512664659307e+00 2.551918811619860e-02
3.936662500000000e+10 1.006609745730625e+00 2.583574929841035e-02
3.940849375000000e+10 1.005471220952849e+00 2.537834942409424e-02
3.945036250000000e+10 1.006667130282263e+00 2.621811486704243e-02
3.949223125000000e+10 1.006654753411590e+00 2.675589917949951e-02
3.953410000000000e+10 1.006929691248059e+00 2.788123247843114e-02
3.957596875000000e+10 1.009500741727609e+00 2.705155806057756e-02
3.961783750000000e+10 1.008088880682406e+00 2.863697198760434e-02
3.965970625000000e+10 1.006469297997920e+00 2.675055121807718e-02
3.970157500000000e+10 1.006927326690530e+00 2.713565181689871e-02
3.974344375000000e+10 1.007388234460910e+00 2.672286067676865e-02
3.978531250000000e+10 1.006475187283193e+00 2.667200192774953e-02
3.982718125000000e+10 1.007085995279339e+00 2.752024543921218e-02
3.986905000000000e+10 1.005681317175939e+00 2.691437923253201e-02
3.991091875000000e+10 1.004751894454015e+00 2.712616865505801e-02
3.995278750000000e+10 1.005780825953541e+00 2.799266605160533e-02
3.999465625000000e+10 1.006144844399352e+00 2.723726684509096e-02
4.003652500000000e+10 1.005535964821449e+00 2.841062148082136e-02
4.007839375000000e+10 1.006046790863675e+00 2.840657514315571e-02
4.012026250000000e+10 1.005076265536585e+00 2.823220793889608e-02
4.016213125000000e+10 1.004239737128251e+00 2.896758067077552e-02
4.020400000000000e+10 1.005223293997110e+00 2.874808575468447e-02
4.024586875000000e+10 1.006097243380528e+00 2.974651817810129e-02
4.028773750000000e+10 1.007128010459093e+00 2.756790690706059e-02
4.032960625000000e+10 1.006657946516999e+00 2.900127529350438e-02
4.037147500000000e+10 1.007883055903432e+00 2.923478066848260e-02
4.041334375000000e+10 1.008747050582657e+00 2.919100804326060e-02
4.045521250000000e+10 1.009932132949439e+00 2.766861353970424e-02
4.049708125000000e+10 1.009348209721757e+00 2.622873433223485e-02
4.053895000000000e+10 1.009957127030600e+00 2.806850611468436e-02
4.058081875000000e+10 1.009029564932329e+00 2.676033767305190e-02
4.062268750000000e+10 1.008671849405536e+00 2.750119403053109e-02
4.066455625000000e+10 1.009237694385726e+00 2.739152684621769e-02
4.070642500000000e+10 1.010505737897159e+00 2.894320993204097e-02
4.074829375000000e+10 1.011255934975526e+00 2.811136934445555e-02
4.079016250000000e+10 1.011668796318424e+00 2.767490586047620e-02
4.083203125000000e+10 1.011576197267671e+00 2.769078999928524e-02
4.087390000000000e+10 1.011276084929852e+00 2.808461619463589e-02
4.091576875000000e+10 1.011061791117708e+00 2.724121423010780e-02
4.095763750000000e+10 1.010993511508417e+00 2.623619444881295e-02
4.099950625000000e+10 1.010933936892727e+00 2.646307705987620e-02
4.104137500000000e+10 1.010399038770149e+00 2.570985986155924e-02
4.108324375000000e+10 1.011336854141706e+00 2.679174547034321e-02
4.112511250000000e+10 1.009815322544303e+00 2.631077042097264e-02
4.116698125000000e+10 1.009252877129548e+00 2.686279404971383e-02
4.120885000000000e+10 1.009604413108267e+00 2.741949903501080e-02
4.125071875000000e+10 1.010009159909406e+00 2.745401074889573e-02
4.129258750000000e+10 1.009362058878310e+00 2.780105566747644e-02
4.133445625000000e+10 1.009366411578139e+00 2.824181155880608e-02
4.137632500000000e+10 1.011057661424146e+00 2.816498139043766e-02
4.141819375000000e+10 1.011649663053809e+00 2.731547170676490e-02
4.146006250000000e+10 1.011221434569551e+00 2.671874418642665e-02
4.150193125000000e+10 1.008411427915341e+00 2.498353631276493e-02
4.154380000000000e+10 1.008299798159272e+00 2.722221310185408e-02
4.158566875000000e+10 1.008324212849562e+00 2.681176147914252e-02
4.162753750000000e+10 1.009523756170741e+00 2.826248379203616e-02
4.166940625000000e+10 1.009925156112871e+00 2.732796809036483e-02
4.171127500000000e+10 1.009702152543225e+00 2.793560043062780e-02
4.175314375000000e+10 1.008781292601368e+00 2.740486536488743e-02
4.179501250000000e+10 1.008968947178793e+00 2.791486266958984e-02
4.183688125000000e+10 1.009234960336991e+00 2.782772866856697e-02
4.187875000000000e+10 1.009222653753667e+00 2.827854436429813e-02
4.192061875000000e+10 1.010141195244556e+00 2.995848098305713e-02
4.196248750000000e+10 1.012036935598987e+00 2.865804103125325e-02
4.200435625000000e+10 1.011674702450318e+00 2.794895413862235e-02
4.204622500000000e+10 1.012399419209286e+00 2.881824584190886e-02
4.208809375000000e+10 1.011718406749866e+00 2.762640249799449e-02
4.212996250000000e+10 1.011662218653910e+00 2.777972833052914e-02
4.217183125000000e+10 1.010840461320139e+00 2.781110937175629e-02
4.221370000000000e+10 1.010148113327042e+00 2.757813860658399e-02
4.225556875000000e+10 1.010379154349111e+00 2.800169038040155e-02
4.229743750000000e+10 1.009708189819521e+00 2.710601327695926e-02
4.233930625000000e+10 1.009897034861917e+00 2.846575091838845e-02
4.238117500000000e+10 1.008254628386513e+00 2.709095282496111e-02
4.242304375000000e+10 1.009579559890567e+00 2.770156896932242e-02
4.246491250000000e+10 1.009160604945438e+00 2.776890960593808e-02
4.250678125000000e+10 1.009132332314352e+00 2.744457730093724e-02
4.254865000000000e+10 1.009200483413354e+00 2.780501553593514e-02
4.259051875000000e+10 1.009101673065552e+00 2.768330163173810e-02
4.263238750000000e+10 1.008216533728459e+00 2.804139486662428e-02
4.267425625000000e+10 1.006986986767486e+00 2.807813057492158e-02
4.271612500000000e+10 1.008245554512007e+00 2.951578932487089e-02
4.275799375000000e+10 1.009598314067883e+00 2.922642757693255e-02
4.279986250000000e+10 1.010800167413612e+00 2.931475241674513e-02
4.284173125000000e+10 1.010861185796375e+00 2.908786251835128e-02
4.288360000000000e+10 1.010945467444274e+00 2.917015242291076e-02
4.292546875000000e+10 1.011757406132779e+00 2.876443215079347e-02
4.296733750000000e+10 1.010966205212216e+00 2.791008456556280e-02
4.300920625000000e+10 1.010510724357170e+00 2.862351193180283e-02
4.305107500000000e+10 1.012046875281765e+00 2.856530740423891e-02
4.309294375000000e+10 1.012009611680625e+00 2.778752328496351e-02
4.313481250000000e+10 1.013386279359131e+00 2.835661173175075e-02
4.317668125000000e+10 1.011865846212659e+00 2.707763380354172e-02
4.321855000000000e+10 1.011206546960945e+00 2.767976899507543e-02
4.326041875000000e+10 1.012140364221354e+00 2.767324369001639e-02
4.330228750000000e+10 1.013170276893686e+00 2.798653397209478e-02
4.334415625000000e+10 1.011900496239240e+00 2.601307478688569e-02
4.338602500000000e+10 1.012149192068599e+00 2.604000637797114e-02
4.342789375000000e+10 1.011833992150730e+00 2.666048644304406e-02
4.346976250000000e+10 1.011270636032638e+00 2.669031437357625e-02
4.351163125000000e+10 1.011408482414405e+00 2.595356112308641e-02
4.355350000000000e+10 1.012543520264264e+00 2.756084581292609e-02
4.359536875000000e+10 1.011525501144079e+00 2.704782190296582e-02
4.363723750000000e+10 1.011901190734591e+00 2.667247577906887e-02
4.367910625000000e+10 1.010820196269987e+00 2.730946473693346e-02
4.372097500000000e+10 1.012393117462679e+00 2.764000788819371e-02
4.376284375000000e+10 1.012247387005433e+00 2.760174907757111e-02
4.380471250000000e+10 1.011411426628604e+00 2.735197062049245e-02
4.384658125000000e+10 1.011188008562949e+00 2.837236772054813e-02
4.388845000000000e+10 1.011121635395407e+00 2.868993475949287e-02
4.393031875000000e+10 1.010993553512945e+00 2.805412704791822e-02
4.397218750000000e+10 1.011245839450849e+00 2.825954379754248e-02
4.401405625000000e+10 1.010708159773552e+00 2.890762044943489e-02
4.405592500000000e+10 1.011461120016467e+00 2.746031313481186e-02
4.409779375000000e+10 1.010644600225462e+00 2.756811871847681e-02
4.413966250000000e+10 1.011403050758046e+00 2.783143516818249e-02
4.418153125000000e+10 1.010793328109303e+00 2.717554089917555e-02
4.422340000000000e+10 1.010970017324559e+00 2.835831469334451e-02
4.426526875000000e+10 1.011893315464147e+00 2.795132440037982e-02
4.430713750000000e+10 1.010585717976758e+00 2.903335986038406e-02
4.434900625000000e+10 1.011334658003140e+00 2.889104114125177e-02
4.439087500000000e+10 1.012072492490343e+00 2.808750960034296e-02
4.443274375000000e+10 1.013318197521689e+00 2.745385073158387e-02
4.447461250000000e+10 1.013247183676420e+00 2.839260000720484e-02
4.451648125000000e+10 1.012312612809571e+00 2.896195042406083e-02
4.455835000000000e+10 1.012283400366264e+00 2.941521795815153e-02
4.460021875000000e+10 1.012163631894756e+00 2.985866792154716e-02
4.464208750000000e+10 1.014329728596706e+00 3.009621391217429e-02
4.468395625000000e+10 1.013292781928167e+00 2.911723619945927e-02
4.472582500000000e+10 1.015899480715955e+00 2.855343723193149e-02
4.476769375000000e+10 1.012971085457506e+00 2.609448121634675e-02
4.480956250000000e+10 1.012702320663945e+00 2.827778363068099e-02
4.485143125000000e+10 1.011126265838074e+00 2.719502434822559e-02
4.489330000000000e+10 1.013339339598159e+00 2.866768864554068e-02
4.493516875000000e+10 1.013837980901555e+00 2.768278416084836e-02
4.497703750000000e+10 1.013230322035709e+00 2.688020933537682e-02
4.501890625000000e+10 1.013176233569558e+00 2.791400652418749e-02
4.506077500000000e+10 1.011962572036001e+00 2.741669298703242e-02
4.510264375000000e+10 1.013073179544629e+00 2.965968031578530e-02
4.514451250000000e+10 1.013178614302195e+00 2.783717935863807e-02
4.518638125000000e+10 1.012701785985427e+00 2.905910031315830e-02
4.522825000000000e+10 1.010690283013760e+00 2.847341665176533e-02
4.527011875000000e+10 1.012161875203468e+00 2.830025741722290e-02
4.531198750000000e+10 1.013296272715559e+00 2.795806275195287e-02
4.535385625000000e+10 1.011474070296133e+00 2.734646532566791e-02
4.539572500000000e+10 1.011764659670358e+00 2.883021149900865e-02
4.543759375000000e+10 1.011899428777243e+00 2.748525698721761e-02
4.547946250000000e+10 1.012363688421627e+00 2.713719382689946e-02
4.552133125000000e+10 1.010104731424017e+00 2.691581533691964e-02
4.556320000000000e+10 1.009250933419238e+00 2.854816411560552e-02
4.560506875000000e+10 1.010586283502829e+00 2.887608604932921e-02
4.564693750000000e+10 1.008715766480043e+00 2.841400757079225e-02
4.568880625000000e+10 1.009342171362003e+00 2.930055284339885e-02
4.573067500000000e+10 1.011463734545954e+00 2.894435557255363e-02
4.577254375000000e+10 1.010666179729246e+00 2.852400067131794e-02
4.581441250000000e+10 1.011306204189966e+00 2.879387059418166e-02
4.585628125000000e+10 1.009764812961343e+00 2.762478228150514e-02
4.589815000000000e+10 1.011057669515240e+00 2.847292551533002e-02
4.594001875000000e+10 1.009476023049842e+00 2.780146586909775e-02
4.598188750000000e+10 1.011044942977079e+00 2.847840432383453e-02
4.602375625000000e+10 1.009542715944268e+00 2.876239747344475e-02
4.606562500000000e+10 1.010353397760242e+00 2.877645429753650e-02
4.610749375000000e+10 1.010606384005719e+00 2.964387156667634e-02
4.614936250000000e+10 1.010443623952906e+00 2.878796102546075e-02
4.619123125000000e+10 1.009838447619043e+00 2.931405079883687e-02
4.623310000000000e+10 1.008973533794774e+00 2.982254919098377e-02
4.627496875000000e+10 1.010923216705653e+00 2.939478740440739e-02
4.631683750000000e+10 1.010007612694413e+00 3.046893967043410e-02
4.635870625000000e+10 1.010816541115854e+00 3.037390744851942e-02
4.640057500000000e+10 1.011392400622650e+00 3.075551558517395e-02
4.644244375000000e+10 1.012185848187158e+00 3.030154808688059e-02
4.648431250000000e+10 1.011682944557832e+00 3.048384028123378e-02
4.652618125000000e+10 1.012504932872091e+00 2.887209181121778e-02
4.656805000000000e+10 1.011862309941622e+00 3.019399665119915e-02
4.660991875000000e+10 1.011246880236481e+00 2.993601720239553e-02
4.665178750000000e+10 1.010882128192670e+00 2.923019685025986e-02
4.669365625000000e+10 1.010491309093197e+00 2.982631000103328e-02
4.673552500000000e+10 1.011315189990014e+00 2.933620960243902e-02
4.677739375000000e+10 1.010950921632451e+00 3.125749182506087e-02
4.681926250000000e+10 1.011495682112735e+00 3.109628810891208e-02
4.686113125000000e+10 1.012539609162000e+00 3.056320792880243e-02
4.690300000000000e+10 1.011622689070449e+00 3.027029787686512e-02
4.694486875000000e+10 1.011916793838697e+00 3.051487281555757e-02
4.698673750000000e+10 1.012877485389490e+00 3.054878818292897e-02
4.702860625000000e+10 1.014787472746618e+00 3.016681239931681e-02
4.707047500000000e+10 1.012778782679361e+00 2.988615461574503e-02
4.711234375000000e+10 1.012561696787487e+00 3.048410883090580e-02
4.715421250000000e+10 1.011559943700646e+00 2.993119162187704e-02
4.719608125000000e+10 1.013701439435854e+00 3.118750062581534e-02
4.723795000000000e+10 1.012186308502621e+00 2.929942351467275e-02
4.727981875000000e+10 1.011099882591195e+00 3.079884310698612e-02
4.732168750000000e+10 1.011829975183485e+00 3.048483728247609e-02
4.736355625000000e+10 1.013364816791249e+00 3.177441315787759e-02
4.740542500000000e+10 1.013494441381461e+00 3.135743491579394e-02
4.744729375000000e+10 1.012064921929015e+00 3.112785099376451e-02
4.748916250000000e+10 1.013714657520713e+00 3.108857689054648e-02
4.753103125000000e+10 1.012791581438606e+00 3.026120343246376e-02
4.757290000000000e+10 1.012926485621230e+00 3.146249858378384e-02
4.761476875000000e+10 1.013277630727115e+00 3.011332842014741e-02
4.765663750000000e+10 1.012025621421091e+00 3.054929835367745e-02
4.769850625000000e+10 1.011534804019834e+00 2.998528688653179e-02
4.774037500000000e+10 1.012162888859682e+00 3.041258380591130e-02
4.778224375000000e+10 1.011871975664494e+00 3.026721561378927e-02
4.782411250000000e+10 1.011282337416963e+00 3.069807420941154e-02
4.786598125000000e+10 1.011650464366801e+00 3.128997553738658e-02
4.790785000000000e+10 1.010549095489084e+00 3.045639974797927e-02
4.794971875000000e+10 1.010284682157767e+00 3.093481361538850e-02
4.799158750000000e+10 1.010880750862717e+00 3.075077191792476e-02
4.803345625000000e+10 1.009704543786779e+00 3.138971060437936e-02
4.807532500000000e+10 1.010992672955404e+00 3.178017171028274e-02
4.811719375000000e+10 1.011781568882400e+00 3.133702396346622e-02
4.815906250000000e+10 1.011630235711203e+00 3.104870976584191e-02
4.820093125000000e+10 1.010171097686468e+00 3.138887773814384e-02
4.824280000000000e+10 1.009653474295739e+00 3.132736015179231e-02
4.828466875000000e+10 1.009949822459763e+00 3.112968474490820e-02
4.832653750000000e+10 1.009915558473469e+00 3.198812495951023e-02
4.836840625000000e+10 1.010758018537752e+00 3.272831496444292e-02
4.841027500000000e+10 1.012191808948443e+00 3.257631788624661e-02
4.845214375000000e+10 1.010955414314529e+00 3.027801371230390e-02
4.849401250000000e+10 1.011324730299669e+00 3.208604480235554e-02
4.853588125000000e+10 1.011255536545904e+00 3.214306703201790e-02
4.857775000000000e+10 1.012250938935121e+00 3.294688832415006e-02
4.861961875000000e+10 1.012831084017632e+00 3.248266899425530e-02
4.866148750000000e+10 1.014518108484969e+00 3.192816582171838e-02
4.870335625000000e+10 1.013739573052131e+00 3.106019961085415e-02
4.874522500000000e+10 1.013622205182869e+00 3.095927805929199e-02
4.878709375000000e+10 1.013586734784115e+00 3.176987462847683e-02
4.882896250000000e+10 1.014976297884771e+00 3.078018787451560e-02
4.887083125000000e+10 1.013816822656487e+00 3.048021015080013e-02
4.891270000000000e+10 1.014104175217363e+00 3.004305707529906e-02
4.895456875000000e+10 1.014181011039333e+00 3.078638669580019e-02
4.899643750000000e+10 1.013757881271671e+00 3.065564754312564e-02
4.903830625000000e+10 1.014001305063006e+00 3.092779612656705e-02
4.908017500000000e+10 1.015111551922983e+00 3.123899235512805e-02
4.912204375000000e+10 1.015631542845530e+00 3.096318972677744e-02
4.916391250000000e+10 1.015426068087829e+00 3.123153955937032e-02
4.920578125000000e+10 1.016090277696615e+00 3.041948863090202e-02
4.924765000000000e+10 1.015878159712456e+00 3.101388367124585e-02
4.928951875000000e+10 1.016718188250234e+00 3.165011854646093e-02
4.933138750000000e+10 1.016956200830293e+00 3.080754439646602e-02
4.937325625000000e+10 1.016066389985151e+00 3.086438608663810e-02
4.941512500000000e+10 1.016850367797631e+00 3.008289635938982e-02
4.945699375000000e+10 1.016758998002211e+00 3.082083182600798e-02
4.949886250000000e+10 1.016458898398954e+00 3.093570618287208e-02
4.954073125000000e+10 1.016688511876930e+00 3.062795246747703e-02
4.958260000000000e+10 1.015959623300105e+00 3.175513490678961e-02
4.962446875000000e+10 1.015095343121094e+00 3.225718598659554e-02
4.966633750000000e+10 1.017315845253487e+00 3.279713791174818e-02
4.970820625000000e+10 1.018883987851780e+00 3.200495720480944e-02
4.975007500000000e+10 1.019495360181540e+00 3.157372699486007e-02
4.979194375000000e+10 1.018986264600356e+00 3.080707054883157e-02
4.983381250000000e+10 1.019057230791848e+00 3.093409874991529e-02
4.987568125000000e+10 1.020338937253579e+00 3.061944783644263e-02
4.991755000000000e+10 1.020682062925780e+00 2.913549330224989e-02
4.995941875000000e+10 1.018982431840526e+00 3.091693058982881e-02
5.000128750000000e+10 1.017915696663219e+00 2.790879108658591e-02
5.004315625000000e+10 1.016307444379961e+00 2.967002023222901e-02
5.008502500000000e+10 1.016289796233939e+00 2.941240251090749e-02
5.012689375000000e+10 1.014455035739410e+00 3.036200214319587e-02
5.016876250000000e+10 1.014516307100926e+00 3.108436522040186e-02
5.021063125000000e+10 1.015548454520257e+00 3.014312651543042e-02
5.025250000000000e+10 1.015088308876963e+00 3.208602765231491e-02
5.029436875000000e+10 1.015949222917191e+00 3.024911959030522e-02
5.033623750000000e+10 1.016081819511959e+00 3.193757797639137e-02
5.037810625000000e+10 1.014497851897585e+00 3.106307251757444e-02
5.041997500000000e+10 1.014794359417484e+00 3.197097275322799e-02
5.046184375000000e+10 1.014751792158987e+00 3.220398227015070e-02
5.050371250000000e+10 1.015469186064620e+00 3.289972603911166e-02
5.054558125000000e+10 1.016416305482093e+00 3.347088763299768e-02
5.058745000000000e+10 1.017552541723230e+00 3.183840971635386e-02
5.062931875000000e+10 1.016566327189642e+00 3.083230568023131e-02
5.067118750000000e+10 1.016192976090242e+00 3.056482244175668e-02
5.071305625000000e+10 1.014733643141219e+00 3.204231729255177e-02
5.075492500000000e+10 1.015157707258411e+00 3.137590970597006e-02
5.079679375000000e+10 1.014512898129345e+00 3.226787244666063e-02
5.083866250000000e+10 1.014987461652500e+00 3.162390495964813e-02
5.088053125000000e+10 1.014057513448956e+00 3.177189032050924e-02
5.092240000000000e+10 1.013607496404893e+00 3.298291504436968e-02
5.096426875000000e+10 1.016233092414638e+00 3.425496353911570e-02
5.100613750000000e+10 1.014624223460581e+00 3.264587821860317e-02
5.104800625000000e+10 1.015945003589225e+00 3.268013314163722e-02
5.108987500000000e+10 1.014389245690360e+00 3.143022841964288e-02
5.113174375000000e+10 1.013985570243223e+00 3.390467632294830e-02
5.117361250000000e+10 1.014289471637419e+00 3.240331977757885e-02
5.121548125000000e+10 1.015160225039844e+00 3.300671979390319e-02
5.125735000000000e+10 1.015163482687903e+00 3.320578118400749e-02
5.129921875000000e+10 1.016650391699669e+00 3.307525749437872e-02
5.134108750000000e+10 1.016017210554931e+00 3.245207138701275e-02
5.138295625000000e+10 1.015160373869271e+00 3.302312579808719e-02
5.142482500000000e+10 1.014906588033140e+00 3.449557985589612e-02
5.146669375000000e+10 1.016530880022721e+00 3.420693763595436e-02
5.150856250000000e+10 1.015433887898975e+00 3.434035237337967e-02
5.155043125000000e+10 1.014674756718188e+00 3.361832638203490e-02
5.159230000000000e+10 1.014919793454247e+00 3.426276903291704e-02
5.163416875000000e+10 1.016266768220469e+00 3.517225825345373e-02
5.167603750000000e+10 1.015947139429239e+00 3.420478703566957e-02
5.171790625000000e+10 1.016968808921867e+00 3.389075845673713e-02
5.175977500000000e+10 1.017145608195431e+00 3.282867866613844e-02
5.180164375000000e+10 1.016490857858376e+00 3.382116495835843e-02
5.184351250000000e+10 1.016617692427526e+00 3.331472897811635e-02
5.188538125000000e+10 1.014856869876201e+00 3.479513529084206e-02
5.192725000000000e+10 1.015998286199310e+00 3.581673154952067e-02
5.196911875000000e+10 1.017103031678519e+00 3.503105011041310e-02
5.201098750000000e+10 1.017259693411837e+00 3.493272853938383e-02
5.205285625000000e+10 1.017136648963533e+00 3.483325755729139e-02
5.209472500000000e+10 1.015787083204368e+00 3.537808795381425e-02
5.213659375000000e+10 1.019748208047337e+00 3.487512377017737e-02
5.217846250000000e+10 1.017298633014990e+00 3.540527701903773e-02
5.222033125000000e+10 1.018782824504427e+00 3.555497275313858e-02
5.226220000000000e+10 1.018035735176490e+00 3.347196226375642e-02
5.230406875000000e+10 1.017181691231003e+00 3.459909586703979e-02
5.234593750000000e+10 1.018790787049935e+00 3.442545560658871e-02
5.238780625000000e+10 1.018125567629411e+00 3.477940984874347e-02
5.242967500000000e+10 1.018049179668936e+00 3.280502431488558e-02
5.247154375000000e+10 1.017370416132070e+00 3.478831049747686e-02
5.251341250000000e+10 1.020167556754882e+00 3.401721517242645e-02
5.255528125000000e+10 1.017467205073133e+00 3.250454728190676e-02
5.259715000000000e+10 1.018520536113372e+00 3.274513256307964e-02
5.263901875000000e+10 1.018103713433498e+00 3.236369479508856e-02
5.268088750000000e+10 1.018697197535487e+00 3.352451326732312e-02
5.272275625000000e+10 1.019842855681619e+00 3.170116522998024e-02
5.276462500000000e+10 1.017145661459800e+00 3.115076463193951e-02
5.280649375000000e+10 1.017132470394815e+00 3.176103046188500e-02
5.284836250000000e+10 1.014787201032367e+00 3.151873499624430e-02
5.289023125000000e+10 1.013797876680896e+00 3.257874534966045e-02
5.293210000000000e+10 1.013619626843275e+00 3.311837109924107e-02
5.297396875000000e+10 1.013860959712718e+00 3.451192042976882e-02
5.301583750000000e+10 1.014950804224982e+00 3.466463175971064e-02
5.305770625000000e+10 1.014973262675395e+00 3.385010561607971e-02
5.309957500000000e+10 1.014744058191709e+00 3.369354199850214e-02
5.314144375000000e+10 1.015913659276944e+00 3.317683949473672e-02
5.318331250000000e+10 1.017560521790714e+00 3.443288247004549e-02
5.322518125000000e+10 1.016134628265410e+00 3.176157211085680e-02
5.326705000000000e+10 1.015993467650651e+00 3.359375372627715e-02
5.330891875000000e+10 1.015467781803803e+00 3.174579312728847e-02
5.335078750000000e+10 1.014623901052655e+00 3.351718567204225e-02
5.339265625000000e+10 1.015504593874774e+00 3.233645039396536e-02
5.343452500000000e+10 1.015026235764871e+00 3.366525199008277e-02
5.347639375000000e+10 1.015597554918461e+00 3.408413707957045e-02
5.351826250000000e+10 1.015697027181936e+00 3.317873350146670e-02
5.356013125000000e+10 1.016000205254399e+00 3.524471835658021e-02
5.360200000000000e+10 1.015715690145559e+00 3.199911964219271e-02
5.364386875000000e+10 1.014650420699075e+00 3.421207600468300e-02
5.368573750000000e+10 1.017698273919770e+00 3.292197722706659e-02
5.372760625000000e+10 1.016346549813873e+00 3.468506743271970e-02
5.376947500000000e+10 1.017523778550032e+00 3.395622611233405e-02
5.381134375000000e+10 1.016945039573150e+00 3.418019387675348e-02
5.385321250000000e+10 1.019209529759071e+00 3.510930927919361e-02
5.389508125000000e+10 1.018638892930452e+00 3.126915275828167e-02
5.393695000000000e+10 1.018201300434516e+00 3.266522799025076e-02
5.397881875000000e+10 1.016819109628626e+00 3.313230955877396e-02
5.402068750000000e+10 1.017967575722135e+00 3.395731340442924e-02
5.406255625000000e+10 1.018197146582397e+00 3.266183128281892e-02
5.410442500000000e+10 1.016936346118440e+00 3.334308000898573e-02
5.414629375000000e+10 1.018254163680765e+00 3.377080405275783e-02
5.418816250000000e+10 1.017771557116216e+00 3.238588804821418e-02
5.423003125000000e+10 1.017276973355328e+00 3.366959706928936e-02
5.427190000000000e+10 1.016895935101508e+00 3.342463472077755e-02
5.431376875000000e+10 1.016798600581438e+00 3.211233296942569e-02
5.435563750000000e+10 1.017466387659509e+00 3.259938338694763e-02
5.439750625000000e+10 1.014698141589442e+00 3.216482857049750e-02
5.443937500000000e+10 1.016112888181177e+00 3.294681431586919e-02
5.448124375000000e+10 1.017267864630294e+00 3.457786371564404e-02
5.452311250000000e+10 1.018242627228800e+00 3.404970663119065e-02
5.456498125000000e+10 1.017058061436847e+00 3.326089559390356e-02
5.460685000000000e+10 1.019338455489868e+00 3.256889043369180e-02
5.464871875000000e+10 1.020992175570212e+00 3.441846294862282e-02
5.469058750000000e+10 1.019703310167153e+00 3.157723444421270e-02
5.473245625000000e+10 1.018981792891266e+00 3.429781212868536e-02
5.477432500000000e+10 1.016775862523959e+00 3.085397866021293e-02
5.481619375000000e+10 1.019096283383578e+00 3.420269409963557e-02
5.485806250000000e+10 1.017595529037172e+00 3.148120762836573e-02
5.489993125000000e+10 1.018230041765506e+00 3.350520929722315e-02
5.494180000000000e+10 1.017857285192830e+00 3.332716527867242e-02
5.498366875000000e+10 1.016248602254315e+00 3.398811406411559e-02
5.502553750000000e+10 1.018703985175491e+00 3.397114471754271e-02
5.506740625000000e+10 1.016114033396514e+00 3.421689107962979e-02
5.510927500000000e+10 1.018820501922775e+00 3.497394865476075e-02
5.515114375000000e+10 1.017937785621627e+00 3.368750698402325e-02
5.519301250000000e+10 1.017417370836469e+00 3.557048480356526e-02
5.523488125000000e+10 1.017521835950961e+00 3.493766861799212e-02
5.527675000000000e+10 1.017071697629291e+00 3.703684749312719e-02
5.531861875000000e+10 1.017949126992314e+00 3.472402551836127e-02
5.536048750000000e+10 1.018927662472808e+00 3.656533367629586e-02
5.540235625000000e+10 1.018949444307331e+00 3.423893397047179e-02
5.544422500000000e+10 1.016299269871718e+00 3.318016876087496e-02
5.548609375000000e+10 1.017687910039524e+00 3.585678437652187e-02
5.552796250000000e+10 1.016691832846066e+00 3.415522207032808e-02
5.556983125000000e+10 1.017322187679502e+00 3.517637227609934e-02
5.561170000000000e+10 1.017457472768508e+00 3.404906714899532e-02
5.565356875000000e+10 1.015748928888772e+00 3.608609621903045e-02
5.569543750000000e+10 1.018636352008179e+00 3.684769592776688e-02
5.573730625000000e+10 1.019481946691282e+00 3.456765406258299e-02
5.577917500000000e+10 1.019022850748455e+00 3.620129441584023e-02
5.582104375000000e+10 1.020425420750366e+00 3.491075503775336e-02
5.586291250000000e+10 1.018742916942114e+00 3.424973533091840e-02
5.590478125000000e+10 1.018540299913526e+00 3.464044931269258e-02
5.594665000000000e+10 1.017125583978694e+00 3.562955357840116e-02
5.598851875000000e+10 1.020481992652935e+00 3.555199998458178e-02
5.603038750000000e+10 1.016910883574563e+00 3.356448076662358e-02
5.607225625000000e+10 1.018379861169215e+00 3.467882776102126e-02
5.611412500000000e+10 1.017197107874281e+00 3.327236109059830e-02
5.615599375000000e+10 1.016915094004378e+00 3.545647747402061e-02
5.619786250000000e+10 1.016226034580726e+00 3.325029648253653e-02
5.623973125000000e+10 1.013778040172411e+00 3.522279711618984e-02
5.628160000000000e+10 1.015953836277391e+00 3.688742764325673e-02
5.632346875000000e+10 1.018210789809673e+00 3.664026029715119e-02
5.636533750000000e+10 1.021855473255296e+00 3.687496059676965e-02
5.640720625000000e+10 1.020737419650879e+00 3.439422834627918e-02
5.644907500000000e+10 1.017235011672498e+00 3.606597983956545e-02
5.649094375000000e+10 1.019868894758773e+00 3.635573713334367e-02
5.653281250000000e+10 1.019274172566240e+00 3.629622513440307e-02
5.657468125000000e+10 1.019490875722337e+00 3.619449363301596e-02
5.661655000000000e+10 1.017239137574828e+00 3.508763033214622e-02
5.665841875000000e+10 1.018814025155060e+00 3.803924063326129e-02
5.670028750000000e+10 1.017606782711522e+00 3.553016726081985e-02
5.674215625000000e+10 1.019306151617224e+00 3.691112815598403e-02
5.678402500000000e+10 1.020449144600263e+00 3.604000120482165e-02
5.682589375000000e+10 1.020109886624485e+00 3.652778491893689e-02
5.686776250000000e+10 1.021897539216191e+00 3.588275848175077e-02
5.690963125000000e+10 1.020068493903941e+00 3.484024624955444e-02
5.695150000000000e+10 1.018988144990574e+00 3.583803088234624e-02
5.699336875000000e+10 1.016570968574023e+00 3.549032875701078e-02
5.703523750000000e+10 1.017717256499939e+00 3.704926191698878e-02
5.707710625000000e+10 1.020286255823276e+00 3.788308684492248e-02
5.711897500000000e+10 1.019082302850415e+00 3.794925911750033e-02
5.716084375000000e+10 1.018855461105513e+00 3.537910095525627e-02
5.720271250000000e+10 1.018319052068917e+00 3.691804524067448e-02
5.724458125000000e+10 1.019043061835690e+00 3.760802243640841e-02
5.728645000000000e+10 1.018760992810489e+00 3.586358765605176e-02
5.732831875000000e+10 1.021309476201085e+00 3.625399900445787e-02
5.737018750000000e+10 1.021436833410328e+00 3.520548086517636e-02
5.741205625000000e+10 1.020728148083544e+00 3.632217147085340e-02
5.745392500000000e+10 1.019194991836659e+00 3.343681144659440e-02
5.749579375000000e+10 1.018302793651050e+00 3.569248866696895e-02
5.753766250000000e+10 1.019593964670790e+00 3.497823729224381e-02
5.757953125000000e+10 1.020280824383025e+00 3.700119246803180e-02
5.762140000000000e+10 1.021938309187442e+00 3.643735846195312e-02
5.766326875000000e+10 1.020787763510418e+00 3.652126812721521e-02
5.770513750000000e+10 1.019397323508887e+00 3.472704344500163e-02
5.774700625000000e+10 1.019857021566926e+00 3.426179852671801e-02
5.778887500000000e+10 1.017556988382017e+00 3.717549701917648e-02
5.783074375000000e+10 1.017469363345788e+00 3.497048899183083e-02
5.787261250000000e+10 1.016241891349499e+00 3.725258268534656e-02
5.791448125000000e+10 1.018484971612571e+00 3.750013715158982e-02
5.795635000000000e+10 1.015871533566594e+00 3.914306276826273e-02
5.799821875000000e+10 1.018249029266246e+00 3.838777694412486e-02
5.804008750000000e+10 1.019260025712730e+00 3.906387986089090e-02
5.808195625000000e+10 1.021017395496680e+00 3.931697105080852e-02
5.812382500000000e+10 1.019918672168036e+00 3.721562980335683e-02
5.816569375000000e+10 1.021458820427299e+00 3.765231621702553e-02
5.820756250000000e+10 1.020966960002805e+00 3.860081195548190e-02
5.824943125000000e+10 1.019519460604034e+00 3.794644770195675e-02
5.829130000000000e+10 1.021397281530953e+00 3.930558802401486e-02
5.833316875000000e+10 1.018629881874435e+00 3.603655613162493e-02
5.837503750000000e+10 1.018546411513992e+00 3.791838063831272e-02
5.841690625000000e+10 1.019131141665172e+00 3.681142850407862e-02
5.845877500000000e+10 1.018831222552591e+00 3.896324218979438e-02
5.850064375000000e+10 1.018611615823613e+00 3.799249720617250e-02
5.854251250000000e+10 1.016584062678321e+00 3.857003780151740e-02
5.858438125000000e+10 1.020128663236296e+00 4.028056335279914e-02
5.862625000000000e+10 1.020957332539612e+00 3.791719149958540e-02
5.866811875000000e+10 1.019683253467823e+00 3.964436800240195e-02
5.870998750000000e+10 1.017607294154181e+00 3.598281050016644e-02
5.875185625000000e+10 1.017692063341110e+00 3.960898266854569e-02
5.879372500000000e+10 1.018076075177066e+00 3.791569651746642e-02
5.883559375000000e+10 1.017356286260385e+00 3.916945757637205e-02
5.887746250000000e+10 1.018070098908592e+00 3.962044197836987e-02
5.891933125000000e+10 1.018401385520252e+00 3.791332194492633e-02
5.896120000000000e+10 1.019972654645301e+00 4.146755227251840e-02
5.900306875000000e+10 1.020507519742065e+00 4.026541517719694e-02
5.904493750000000e+10 1.020997232073701e+00 4.194741280187601e-02
5.908680625000000e+10 1.021873000606021e+00 3.918010992876296e-02
5.912867500000000e+10 1.021503346084538e+00 4.003306952722069e-02
5.917054375000000e+10 1.023661075025551e+00 3.911474435243620e-02
5.921241250000000e+10 1.023408635104462e+00 3.576189252344255e-02
5.925428125000000e+10 1.023089008890865e+00 3.861071692477730e-02
5.929615000000000e+10 1.021532923544572e+00 3.667226634983550e-02
5.933801875000000e+10 1.018374731230485e+00 3.909985975965195e-02
5.937988750000000e+10 1.020100009065469e+00 3.795545743074161e-02
5.942175625000000e+10 1.019040393900311e+00 3.917984335957261e-02
5.946362500000000e+10 1.020193400170588e+00 3.843083113983008e-02
5.950549375000000e+10 1.015411340880862e+00 3.751917414863624e-02
5.954736250000000e+10 1.020188961845142e+00 4.019661076988502e-02
5.958923125000000e+10 1.017822870879085e+00 3.863024468548207e-02
5.963110000000000e+10 1.017833339243690e+00 4.141391620033337e-02
5.967296875000000e+10 1.018959337359616e+00 3.936633526242084e-02
5.971483750000000e+10 1.018105803697603e+00 4.157865145131560e-02
5.975670625000000e+10 1.019739352727300e+00 4.006240117985611e-02
5.979857500000000e+10 1.018288318069114e+00 3.762216029234950e-02
5.984044375000000e+10 1.019240648558555e+00 3.914769815932723e-02
5.988231250000000e+10 1.017361882365434e+00 3.983090088397923e-02
5.992418125000000e+10 1.020572207927419e+00 4.250326271915562e-02
5.996605000000000e+10 1.022680409655136e+00 4.092823406973869e-02
6.000791875000000e+10 1.021284073363813e+00 4.254762804582692e-02
6.004978750000000e+10 1.025003348127618e+00 4.022375896829147e-02
6.009165625000000e+10 1.022944010295853e+00 4.070721646537533e-02
6.013352500000000e+10 1.024450820812626e+00 4.028629189090062e-02
6.017539375000000e+10 1.024201362883943e+00 3.876095431875200e-02
6.021726250000000e+10 1.024949490501973e+00 4.039926713703981e-02
6.025913125000000e+10 1.024461346208570e+00 4.063947109385149e-02
6.030100000000000e+10 1.022246509535513e+00 3.844128423387460e-02
6.034286875000000e+10 1.021137807947818e+00 4.059850060511574e-02
6.038473750000000e+10 1.020800682627717e+00 3.943981257781330e-02
6.042660625000000e+10 1.022642460782243e+00 4.135397871197824e-02
6.046847500000000e+10 1.021709333511409e+00 3.818758554682650e-02
6.051034375000000e+10 1.022578794522518e+00 4.238491484235586e-02
6.055221250000000e+10 1.020897213089238e+00 4.034124143272912e-02
6.059408125000000e+10 1.023291179611128e+00 4.171116034962424e-02
6.063595000000000e+10 1.022509590749026e+00 4.226422687006890e-02
6.067781875000000e+10 1.022667671003326e+00 4.339579854420266e-02
6.071968750000000e+10 1.023480001261208e+00 4.135150776989662e-02
6.076155625000000e+10 1.023597418721303e+00 4.077838222068213e-02
6.080342500000000e+10 1.025618492616990e+00 4.198232011306963e-02
6.084529375000000e+10 1.027067083158636e+00 3.879385198862124e-02
6.088716250000000e+10 1.025727747621900e+00 4.092877178003341e-02
6.092903125000000e+10 1.024499239886088e+00 3.713652449858078e-02
6.097090000000000e+10 1.021858210425323e+00 4.019327110028534e-02
6.101276875000000e+10 1.025636225377160e+00 3.773772009757905e-02
6.105463750000000e+10 1.022014743973366e+00 4.125836173599574e-02
6.109650625000000e+10 1.023637163688858e+00 3.676716568546788e-02
6.113837500000000e+10 1.022648706068548e+00 3.938286869819319e-02
6.118024375000000e+10 1.024534967549179e+00 3.777039096026089e-02
6.122211250000000e+10 1.021407876903672e+00 3.692085819911473e-02
6.126398125000000e+10 1.021104453837618e+00 3.825129525178694e-02
6.130585000000000e+10 1.021255156057764e+00 3.680017291041804e-02
6.134771875000000e+10 1.020531063467626e+00 3.939897354550892e-02
6.138958750000000e+10 1.020568652390806e+00 3.611697615763668e-02
6.143145625000000e+10 1.018037406660156e+00 4.043329364034509e-02
6.147332500000000e+10 1.020386683939552e+00 4.059759909017004e-02
6.151519375000000e+10 1.018587661370829e+00 3.871124960837857e-02
6.155706250000000e+10 1.020543452772114e+00 4.110319425554031e-02
6.159893125000000e+10 1.020027538311043e+00 4.070985745947065e-02
6.164080000000000e+10 1.020433892998400e+00 4.475398277068881e-02
6.168266875000000e+10 1.023747737577480e+00 4.070472969696181e-02
6.172453750000000e+10 1.022466926955948e+00 4.068547285918921e-02
6.176640625000000e+10 1.023531582288435e+00 3.848714392976105e-02
6.180827500000000e+10 1.017884909501521e+00 3.761106888140265e-02
6.185014375000000e+10 1.021328661563520e+00 4.111262859250782e-02
6.189201250000000e+10 1.022133576289232e+00 4.037268069522589e-02
6.193388125000000e+10 1.020730496773713e+00 3.999365680734945e-02
6.197575000000000e+10 1.022061004409585e+00 4.009788136616553e-02
6.201761875000000e+10 1.017684622020229e+00 4.104184527395412e-02
6.205948750000000e+10 1.023404298034992e+00 4.406109813643942e-02
6.210135625000000e+10 1.018691677517538e+00 4.176489140957810e-02
6.214322500000000e+10 1.024978823636373e+00 4.554929944923754e-02
6.218509375000000e+10 1.022089569037230e+00 4.004738746789904e-02
6.222696250000000e+10 1.025980484396555e+00 4.338248081923723e-02
6.226883125000000e+10 1.025372964846606e+00 3.912466271647978e-02
6.231070000000000e+10 1.021839519759050e+00 4.117027074484973e-02
6.235256875000000e+10 1.023664349617045e+00 4.229021240905818e-02
6.239443750000000e+10 1.021547053830210e+00 4.272269421762898e-02
6.243630625000000e+10 1.025062043740285e+00 4.296243908885821e-02
6.247817500000000e+10 1.021159173068067e+00 3.915214369311575e-02
6.252004375000000e+10 1.022531937998418e+00 4.443127519525562e-02
6.256191250000000e+10 1.023719166259039e+00 4.240830870452159e-02
6.260378125000000e+10 1.023596426860445e+00 4.533108147266540e-02
6.264565000000000e+10 1.026928771440984e+00 4.172056947329878e-02
6.268751875000000e+10 1.025458970983444e+00 4.330328341460029e-02
6.272938750000000e+10 1.026833742385473e+00 4.436212854836322e-02
6.277125625000000e+10 1.026185252611653e+00 4.075449415004835e-02
6.281312500000000e+10 1.025504853135912e+00 4.190623073343504e-02
6.285499375000000e+10 1.027147887868090e+00 4.151571509719587e-02
6.289686250000000e+10 1.027770174834550e+00 4.100336813540834e-02
6.293873125000000e+10 1.027761987433623e+00 3.985899763148269e-02
6.298060000000000e+10 1.027214893432491e+00 4.033435486873732e-02
6.302246875000000e+10 1.028417784274568e+00 4.169117194784034e-02
6.306433750000000e+10 1.026371175872420e+00 4.049226405056215e-02
6.310620625000000e+10 1.023285196757543e+00 4.155438404761103e-02
6.314807500000000e+10 1.026320493723920e+00 4.133495529021195e-02
6.318994375000000e+10 1.024121461662994e+00 4.226194967420397e-02
6.323181250000000e+10 1.025667998000934e+00 4.161894639718352e-02
6.327368125000000e+10 1.024118971006526e+00 4.143783535823017e-02
6.331555000000000e+10 1.023145435270091e+00 4.533069469120007e-02
6.335741875000000e+10 1.024627976933316e+00 4.392685527024945e-02
6.339928750000000e+10 1.023404269685165e+00 4.569933629422263e-02
6.344115625000000e+10 1.025794551845658e+00 4.529000030180607e-02
6.348302500000000e+10 1.023925622787232e+00 4.510149334084000e-02
6.352489375000000e+10 1.026210445534720e+00 4.475063695717511e-02
6.356676250000000e+10 1.024296730601299e+00 4.408975536594292e-02
6.360863125000000e+10 1.026992771008096e+00 4.384044151171358e-02
6.365050000000000e+10 1.024960584831183e+00 4.147806003491621e-02
6.369236875000000e+10 1.021791977731735e+00 4.096455606526934e-02
6.373423750000000e+10 1.023583068038997e+00 4.446687364519118e-02
6.377610625000000e+10 1.023259456761565e+00 4.136633184527785e-02
6.381797500000000e+10 1.023651002350365e+00 4.306306241461937e-02
6.385984375000000e+10 1.023817108028457e+00 4.226785534787773e-02
6.390171250000000e+10 1.022385596560042e+00 4.420413583318359e-02
6.394358125000000e+10 1.022854315705337e+00 4.355741237826461e-02
6.398545000000000e+10 1.022417452004496e+00 4.359007804087785e-02
6.402731875000000e+10 1.020989883761456e+00 4.313876898586245e-02
6.406918750000000e+10 1.020309969649411e+00 4.378040577584424e-02
6.411105625000000e+10 1.019766701651251e+00 4.714721985824542e-02
6.415292500000000e+10 1.023320296470504e+00 4.496511287340062e-02
6.419479375000000e+10 1.021817106566672e+00 4.645668239412398e-02
6.423666250000000e+10 1.024396713957165e+00 4.541451120697425e-02
6.427853125000000e+10 1.023672684490371e+00 4.749474439042108e-02
6.432040000000000e+10 1.027672675540107e+00 4.615753053299085e-02
6.436226875000000e+10 1.023918041616849e+00 4.457116458173555e-02
6.440413750000000e+10 1.024256949715628e+00 4.395986198993054e-02
6.444600625000000e+10 1.025984208512162e+00 4.448956226223944e-02
6.448787500000000e+10 1.023347896254035e+00 4.483645301848273e-02
6.452974375000000e+10 1.023433612245728e+00 4.430221427148989e-02
6.457161250000000e+10 1.022623196232367e+00 4.470225030667175e-02
6.461348125000000e+10 1.024889283692677e+00 4.638345659115740e-02
6.465535000000000e+10 1.026436956980326e+00 4.676401952570278e-02
6.469721875000000e+10 1.027061313126298e+00 4.693747047326443e-02
6.473908750000000e+10 1.027678965859893e+00 4.416301246438424e-02
6.478095625000000e+10 1.025480163699800e+00 4.438240049817179e-02
6.482282500000000e+10 1.025456559840300e+00 4.631037560841313e-02
6.486469375000000e+10 1.025634233894888e+00 4.720070657059262e-02
6.490656250000000e+10 1.027492494299645e+00 4.627708134953576e-02
6.494843125000000e+10 1.028409579000026e+00 4.534389072417622e-02
6.499030000000000e+10 1.029201996156852e+00 4.604070414787820e-02
6.503216875000000e+10 1.028673504576719e+00 4.507222635395989e-02
6.507403750000000e+10 1.032200643887786e+00 4.622512088632946e-02
6.511590625000000e+10 1.031648924182726e+00 4.597525356397764e-02
6.515777500000000e+10 1.030794822823825e+00 4.428598524906294e-02
6.519964375000000e+10 1.030020160657759e+00 4.432294315317484e-02
6.524151250000000e+10 1.030312942473540e+00 4.571958119657787e-02
6.528338125000000e+10 1.029093775460315e+00 4.473373899657436e-02
6.532525000000000e+10 1.029415683731781e+00 4.684766270088155e-02
6.536711875000000e+10 1.027101312222552e+00 4.420375458518663e-02
6.540898750000000e+10 1.028910470942425e+00 4.691237132149519e-02
6.545085625000000e+10 1.028680494422409e+00 4.395257129075926e-02
6.549272500000000e+10 1.027746270127802e+00 4.547057999903558e-02
6.553459375000000e+10 1.026671462478392e+00 4.685708833030697e-02
6.557646250000000e+10 1.027841382392256e+00 4.425494698420781e-02
6.561833125000000e+10 1.027864311599440e+00 4.503182035022635e-02
6.566020000000000e+10 1.027978836948032e+00 4.472131228927382e-02
6.570206875000000e+10 1.026306180248463e+00 4.458379170525454e-02
6.574393750000000e+10 1.031477180579106e+00 4.732111358002098e-02
6.578580625000000e+10 1.028755316139678e+00 4.460189407741520e-02
6.582767500000000e+10 1.031395804843540e+00 4.612778873888710e-02
6.586954375000000e+10 1.027126630647691e+00 3.972066100326695e-02
6.591141250000000e+10 1.026819093355338e+00 4.366071458138646e-02
6.595328125000000e+10 1.028389642046911e+00 4.101526400104757e-02
6.599515000000000e+10 1.027247281223644e+00 4.289514107879811e-02
6.603701875000000e+10 1.030266395471898e+00 4.173500107048313e-02
6.607888750000000e+10 1.025114188848274e+00 3.966366110059242e-02
6.612075625000000e+10 1.027495372217170e+00 4.528644809759473e-02
6.616262500000000e+10 1.024484984412962e+00 3.989541346488936e-02
6.620449375000000e+10 1.024251872720596e+00 4.437742211981549e-02
6.624636250000000e+10 1.025962944077162e+00 4.166051062355248e-02
6.628823125000000e+10 1.022058191163369e+00 4.569436180332184e-02
6.633010000000000e+10 1.027323345298378e+00 4.113045324357835e-02
6.637196875000000e+10 1.019869802507575e+00 4.353493675887913e-02
6.641383750000000e+10 1.024367775167033e+00 4.398090404494995e-02
6.645570625000000e+10 1.021706827176147e+00 4.175142691414192e-02
6.649757500000000e+10 1.023329315377548e+00 4.533168596077470e-02
6.653944375000000e+10 1.025718280371801e+00 4.193737438681343e-02
6.658131250000000e+10 1.022055149426624e+00 4.679088423410859e-02
6.662318125000000e+10 1.026534528292078e+00 4.286416411609048e-02
6.666505000000000e+10 1.021241697473946e+00 4.518861920193600e-02
6.670691875000000e+10 1.026182582604607e+00 4.532108282930181e-02
6.674878750000000e+10 1.022624396734632e+00 4.061010356622141e-02
6.679065625000000e+10 1.022777363626747e+00 4.695013924613575e-02
6.683252500000000e+10 1.021627664237455e+00 4.417720791176482e-02
6.687439375000000e+10 1.020672364173162e+00 4.687435782752798e-02
6.691626250000000e+10 1.027154718212364e+00 4.818933058538027e-02
6.695813125000000e+10 1.021847585470151e+00 4.670826496351291e-02
6.700000000000000e+10 1.027329972378828e+00 4.805718084941333e-02
