! Generated by Phase I extraction
# Hz S RI R 50
6.700000000000000e+10 -1.053974850303332e+00 3.086804099674265e-02
6.704800000000000e+10 -1.057159362480823e+00 3.087355860667501e-02
6.709600000000000e+10 -1.059177017521764e+00 3.188430346015421e-02
6.714400000000000e+10 -1.058204378616598e+00 3.357706061362974e-02
6.719200000000000e+10 -1.054909031130521e+00 3.262087859102063e-02
6.724000000000000e+10 -1.059148869479778e+00 3.439100000176435e-02
6.728800000000000e+10 -1.054118035610158e+00 2.980714593625098e-02
6.733600000000000e+10 -1.056389974845392e+00 3.056672319317557e-02
6.738400000000000e+10 -1.060320596501346e+00 3.076587325945939e-02
6.743200000000000e+10 -1.061717088231036e+00 3.726927819024497e-02
6.748000000000000e+10 -1.062169929993601e+00 3.616464512217883e-02
6.752800000000000e+10 -1.062079197657953e+00 3.509548055781996e-02
6.757600000000000e+10 -1.057410082966955e+00 3.249718104353925e-02
6.762400000000000e+10 -1.058273811653852e+00 3.217959812180027e-02
6.767200000000000e+10 -1.058354552743795e+00 3.158375781948391e-02
6.772000000000000e+10 -1.057805352091751e+00 3.182412168922500e-02
6.776800000000000e+10 -1.058857648419954e+00 3.304429133478225e-02
6.781600000000000e+10 -1.058681025395223e+00 3.478571491250390e-02
6.786400000000000e+10 -1.057492817678434e+00 3.399354788412000e-02
6.791200000000000e+10 -1.055031817675131e+00 3.576605285176353e-02
6.796000000000000e+10 -1.056966249590380e+00 3.105087678086199e-02
6.800800000000000e+10 -1.057901790016842e+00 3.036094732518154e-02
6.805600000000000e+10 -1.058233199924570e+00 3.229241181699746e-02
6.810400000000000e+10 -1.058536813208463e+00 3.306894570199578e-02
6.815200000000000e+10 -1.058171565633774e+00 3.323591988275974e-02
6.820000000000000e+10 -1.057452409811499e+00 3.192261182068315e-02
6.824800000000000e+10 -1.056979808078336e+00 3.224665355592053e-02
6.829600000000000e+10 -1.058459224182608e+00 3.109842869020008e-02
6.834400000000000e+10 -1.058022399893287e+00 3.051301432077985e-02
6.839200000000000e+10 -1.058723083789373e+00 3.192919258671549e-02
6.844000000000000e+10 -1.056349380272608e+00 3.167386551381086e-02
6.848800000000000e+10 -1.059229712604485e+00 3.149686468427611e-02
6.853600000000000e+10 -1.058616437288204e+00 2.828690308752693e-02
6.858400000000000e+10 -1.060489530281515e+00 2.818668556765441e-02
6.863200000000000e+10 -1.060985217464804e+00 2.701410542917132e-02
6.868000000000000e+10 -1.059998277307996e+00 2.818655449118959e-02
6.872800000000000e+10 -1.058710328645954e+00 3.005422445357392e-02
6.877600000000000e+10 -1.056450198593377e+00 2.968090867522883e-02
6.882400000000000e+10 -1.056322053510582e+00 2.861256763624313e-02
6.887200000000000e+10 -1.055923654968036e+00 2.722985467899073e-02
6.892000000000000e+10 -1.057738666120163e+00 2.535771350591644e-02
6.896800000000000e+10 -1.057958822604995e+00 2.425893178568329e-02
6.901600000000000e+10 -1.060405529204036e+00 2.442528575233167e-02
6.906400000000000e+10 -1.058236316813264e+00 2.394347719228315e-02
6.911200000000000e+10 -1.057354807256443e+00 2.523656812889435e-02
6.916000000000000e+10 -1.055703608970848e+00 2.460374715451167e-02
6.920800000000000e+10 -1.054628691777313e+00 2.334958145816103e-02
6.925600000000000e+10 -1.057240740819890e+00 2.112975429065572e-02
6.930400000000000e+10 -1.057728345963766e+00 1.903416177565065e-02
6.935200000000000e+10 -1.060259797068721e+00 1.992955040104693e-02
6.940000000000000e+10 -1.060661223053623e+00 2.055849348031854e-02
6.944800000000000e+10 -1.060864379112302e+00 2.028384940717430e-02
6.949600000000000e+10 -1.059407406475670e+00 2.006179758522299e-02
6.954400000000000e+10 -1.060243094270344e+00 1.968421742828650e-02
6.959200000000000e+10 -1.059752840401811e+00 1.825875046039395e-02
6.964000000000000e+10 -1.060365023653773e+00 1.805476939063790e-02
6.968800000000000e+10 -1.060154773808967e+00 1.749041940841958e-02
6.973600000000000e+10 -1.060025168486735e+00 1.840211060446098e-02
6.978400000000000e+10 -1.060274291017388e+00 1.887216654376482e-02
6.983200000000000e+10 -1.059970910424880e+00 1.915667993150038e-02
6.988000000000000e+10 -1.060286525627255e+00 1.973338140885747e-02
6.992800000000000e+10 -1.060159185205592e+00 1.879802642811872e-02
6.997600000000000e+10 -1.061828493404670e+00 1.943125071766589e-02
7.002400000000000e+10 -1.061538170392389e+00 1.623593374916804e-02
7.007200000000000e+10 -1.061883240153676e+00 1.700368892158580e-02
7.012000000000000e+10 -1.061356034201572e+00 1.818762648093509e-02
7.016800000000000e+10 -1.060432097736984e+00 1.709379394314840e-02
7.021600000000000e+10 -1.060242326072551e+00 1.833638252971970e-02
7.026400000000000e+10 -1.059023617473949e+00 1.617672119052739e-02
7.031200000000000e+10 -1.060810112883606e+00 1.640036150327419e-02
7.036000000000000e+10 -1.060655718905425e+00 1.511631321893205e-02
7.040800000000000e+10 -1.062547094231971e+00 1.731458909621832e-02
7.045600000000000e+10 -1.061008360842115e+00 1.544767405092672e-02
7.050400000000000e+10 -1.062385861582339e+00 1.754296284162707e-02
7.055200000000000e+10 -1.060853829120178e+00 1.663875352823052e-02
7.060000000000000e+10 -1.060557939342845e+00 1.677068321691486e-02
7.064800000000000e+10 -1.060567163947805e+00 1.682037134345902e-02
7.069600000000000e+10 -1.058866513054021e+00 1.653015653456966e-02
7.074400000000000e+10 -1.061174441940217e+00 1.792187538165322e-02
7.079200000000000e+10 -1.058645340924821e+00 1.722732772652694e-02
7.084000000000000e+10 -1.061042496376558e+00 1.908987438093223e-02
7.088800000000000e+10 -1.057720619686276e+00 1.881228490353794e-02
7.093600000000000e+10 -1.059558675696556e+00 1.887240624466231e-02
7.098400000000000e+10 -1.057659235046683e+00 1.912375513156907e-02
7.103200000000000e+10 -1.058418528089390e+00 1.908211468478900e-02
7.108000000000000e+10 -1.057637983903372e+00 1.829301267424868e-02
7.112800000000000e+10 -1.058760468629609e+00 1.866256578974673e-02
7.117600000000000e+10 -1.057912402554935e+00 1.799918922242381e-02
7.122400000000000e+10 -1.056469529732216e+00 1.892994375437302e-02
7.127200000000000e+10 -1.057594897169841e+00 1.813724499503199e-02
7.132000000000000e+10 -1.056333055254072e+00 1.886127859556326e-02
7.136800000000000e+10 -1.057355252191918e+00 1.739390705080104e-02
7.141600000000000e+10 -1.054804564544457e+00 1.717395799540082e-02
7.146400000000000e+10 -1.056901499487041e+00 1.616877937920974e-02
7.151200000000000e+10 -1.053861928330683e+00 1.710293361279534e-02
7.156000000000000e+10 -1.056886516813609e+00 1.647819476324831e-02
7.160800000000000e+10 -1.053161512230254e+00 1.778595304012040e-02
7.165600000000000e+10 -1.055533512358197e+00 1.726250294162548e-02
7.170400000000000e+10 -1.053764463397188e+00 1.697202722180899e-02
7.175200000000000e+10 -1.055523478558157e+00 1.577972953244748e-02
7.180000000000000e+10 -1.054178175111053e+00 1.670140408915513e-02
7.184800000000000e+10 -1.054274549730214e+00 1.626382613766045e-02
7.189600000000000e+10 -1.055124073227748e+00 1.739444873452494e-02
7.194400000000000e+10 -1.056009579066748e+00 1.542922772593890e-02
7.199200000000000e+10 -1.055346945113773e+00 1.686352004164993e-02
7.204000000000000e+10 -1.054312143935750e+00 1.500099127830933e-02
7.208800000000000e+10 -1.055653532030702e+00 1.521788069850443e-02
7.213600000000000e+10 -1.055734134985661e+00 1.421609363478281e-02
7.218400000000000e+10 -1.056164007734131e+00 1.451343654374944e-02
7.223200000000000e+10 -1.057594147876751e+00 1.376596246907596e-02
7.228000000000000e+10 -1.057907846242288e+00 1.312175115496509e-02
7.232800000000000e+10 -1.057735076942095e+00 1.486417153309636e-02
7.237600000000000e+10 -1.057872903596778e+00 1.482799281319538e-02
7.242400000000000e+10 -1.057070912145345e+00 1.458986711602993e-02
7.247200000000000e+10 -1.057066214380303e+00 1.567796521758194e-02
7.252000000000000e+10 -1.060071080195313e+00 1.293167941941895e-02
7.256800000000000e+10 -1.058089169162820e+00 1.628147425326685e-02
7.261600000000000e+10 -1.059949853588289e+00 1.429518658805502e-02
7.266400000000000e+10 -1.058008721142410e+00 1.639703286129922e-02
7.271200000000000e+10 -1.058198731217476e+00 1.588230616979672e-02
7.276000000000000e+10 -1.058003800231375e+00 1.611803677442294e-02
7.280800000000000e+10 -1.057888634610017e+00 1.612242771005457e-02
7.285600000000000e+10 -1.058322999097028e+00 1.523263277022867e-02
7.290400000000000e+10 -1.059483036087513e+00 1.485662188690108e-02
7.295200000000000e+10 -1.059477804245654e+00 1.428784971850566e-02
7.300000000000000e+10 -1.061004942789042e+00 1.365620860675020e-02
7.304800000000000e+10 -1.059459329644973e+00 1.440807695800887e-02
7.309600000000000e+10 -1.060675778285421e+00 1.362399248617886e-02
7.314400000000000e+10 -1.058801702109797e+00 1.542229901122325e-02
7.319200000000000e+10 -1.059940305378750e+00 1.370505416752202e-02
7.324000000000000e+10 -1.058363408536398e+00 1.464083711799150e-02
7.328800000000000e+10 -1.059169079209027e+00 1.199132941406990e-02
7.333600000000000e+10 -1.058393580245503e+00 1.363546909270922e-02
7.338400000000000e+10 -1.058231818381924e+00 1.383212146019423e-02
7.343200000000000e+10 -1.055721734571534e+00 -5.870526039641294e-03
7.348000000000000e+10 -1.055080900554183e+00 1.419643029993993e-02
7.352800000000000e+10 -1.054942860505449e+00 1.370347325614248e-02
7.357600000000000e+10 -1.054744442314108e+00 1.348933395740098e-02
7.362400000000000e+10 -1.055084060744681e+00 1.329161675181091e-02
7.367200000000000e+10 -1.055894321487927e+00 1.328865614679887e-02
7.372000000000000e+10 -1.055557231226867e+00 4.493493478384149e-03
7.376800000000000e+10 -1.056969823019988e+00 1.374253049892023e-02
7.381600000000000e+10 -1.055897490211694e+00 1.384035079662987e-02
7.386400000000000e+10 -1.057096859958978e+00 1.299188313373988e-02
7.391200000000000e+10 -1.057771427450911e+00 1.692468148711513e-02
7.396000000000000e+10 -1.057818653822024e+00 1.612359204932398e-02
7.400800000000000e+10 -1.058467698849525e+00 1.445199704460879e-02
7.405600000000000e+10 -1.058136224712256e+00 1.486155733592537e-02
7.410400000000000e+10 -1.058174825294248e+00 1.398477167052292e-02
7.415200000000000e+10 -1.058710236495322e+00 1.345620119480295e-02
7.420000000000000e+10 -1.059251171646080e+00 1.192922829816727e-02
7.424800000000000e+10 -1.058719179635451e+00 1.329728322458178e-02
7.429600000000000e+10 -1.059128149827990e+00 1.202497207815684e-02
7.434400000000000e+10 -1.058151635632241e+00 1.247765138059698e-02
7.439200000000000e+10 -1.059105726002062e+00 1.194955188563965e-02
7.444000000000000e+10 -1.058775680019689e+00 1.230863521821351e-02
7.448800000000000e+10 -1.058516608291523e+00 1.227273758098324e-02
7.453600000000000e+10 -1.058821500699962e+00 1.326992668249130e-02
7.458400000000000e+10 -1.058337925192093e+00 1.370236042158820e-02
7.463200000000000e+10 -1.059849469195658e+00 1.427852125023804e-02
7.468000000000000e+10 -1.059306068800431e+00 1.433493470933985e-02
7.472800000000000e+10 -1.059819842991397e+00 1.390248286949220e-02
7.477600000000000e+10 -1.060373596483129e+00 1.292175608316353e-02
7.482400000000000e+10 -1.060791576449664e+00 1.250810138907239e-02
7.487200000000000e+10 -1.061905299474839e+00 1.154148911263332e-02
7.492000000000000e+10 -1.063106134779799e+00 1.306439003981680e-02
7.496800000000000e+10 -1.063317607256594e+00 1.222586933218306e-02
7.501600000000000e+10 -1.063324133115796e+00 1.243644313988547e-02
7.506400000000000e+10 -1.063079369396218e+00 1.245014981663586e-02
7.511200000000000e+10 -1.063878651143601e+00 1.163490028054374e-02
7.516000000000000e+10 -1.064777978344656e+00 1.333979605689020e-02
7.520800000000000e+10 -1.063999041293469e+00 1.246677687222398e-02
7.525600000000000e+10 -1.064570027635141e+00 1.323828039462595e-02
7.530400000000000e+10 -1.064950575212460e+00 1.124320890454561e-02
7.535200000000000e+10 -1.064806989357841e+00 1.239833704690917e-02
7.540000000000000e+10 -1.065152248319752e+00 1.296044618922850e-02
7.544800000000000e+10 -1.064759373206682e+00 1.345851895147865e-02
7.549600000000000e+10 -1.064257832313729e+00 1.275008463633069e-02
7.554400000000000e+10 -1.063379062591693e+00 1.260685971993099e-02
7.559200000000000e+10 -1.064164558395767e+00 1.235964992766949e-02
7.564000000000000e+10 -1.064502362047623e+00 1.246535241470997e-02
7.568800000000000e+10 -1.065357345731205e+00 1.252338350158454e-02
7.573600000000000e+10 -1.066710709879326e+00 1.364563641467875e-02
7.578400000000000e+10 -1.066316951986056e+00 1.313251150004960e-02
7.583200000000000e+10 -1.067310390560518e+00 1.362843089686182e-02
7.588000000000000e+10 -1.067668158055999e+00 1.276747186697291e-02
7.592800000000000e+10 -1.067136304663439e+00 1.417191076555654e-02
7.597600000000000e+10 -1.066279876987709e+00 1.308969434766362e-02
7.602400000000000e+10 -1.067422413734735e+00 1.253581072110314e-02
7.607200000000000e+10 -1.066389645943280e+00 1.295735172746034e-02
7.612000000000000e+10 -1.065982603755106e+00 1.306736705372702e-02
7.616800000000000e+10 -1.065982731209845e+00 1.284218868879628e-02
7.621600000000000e+10 -1.064494291466912e+00 1.308540677722376e-02
7.626400000000000e+10 -1.065175067097990e+00 1.238213677753785e-02
7.631200000000000e+10 -1.064227012485331e+00 1.245729689182691e-02
7.636000000000000e+10 -1.065133728024213e+00 1.237370023925307e-02
7.640800000000000e+10 -1.064201718585533e+00 1.238847014036656e-02
7.645600000000000e+10 -1.064917569062411e+00 1.228923351800320e-02
7.650400000000000e+10 -1.063958707953466e+00 1.205095708633972e-02
7.655200000000000e+10 -1.063848355790804e+00 1.219450575147765e-02
7.660000000000000e+10 -1.063342938747640e+00 1.198020909782103e-02
7.664800000000000e+10 -1.062769635801151e+00 1.177044066681790e-02
7.669600000000000e+10 -1.063700484476710e+00 1.220099691184454e-02
7.674400000000000e+10 -1.063287110444016e+00 1.251766375382480e-02
7.679200000000000e+10 -1.064197302077526e+00 1.163737272821680e-02
7.684000000000000e+10 -1.063013052133121e+00 1.202986628699257e-02
7.688800000000000e+10 -1.064754427587957e+00 1.191478123513775e-02
7.693600000000000e+10 -1.063462646127990e+00 1.172270897718027e-02
7.698400000000000e+10 -1.064809026036893e+00 1.182348479369940e-02
7.703200000000000e+10 -1.062925237332203e+00 1.119961334971967e-02
7.708000000000000e+10 -1.062541234930192e+00 1.069147216808571e-02
7.712800000000000e+10 -1.061269533134718e+00 9.609906181820541e-03
7.717600000000000e+10 -1.062311196891174e+00 8.412766923643917e-03
7.722400000000000e+10 -1.062238615977066e+00 6.550511635325855e-03
7.727200000000000e+10 -1.063744735033607e+00 6.400951019880315e-03
7.732000000000000e+10 -1.063400239861464e+00 7.794632114900529e-03
7.736800000000000e+10 -1.063750402378833e+00 7.907011862961708e-03
7.741600000000000e+10 -1.062673089850921e+00 9.452060058096359e-03
7.746400000000000e+10 -1.063069091228948e+00 9.190015580325712e-03
7.751200000000000e+10 -1.062796725607319e+00 8.403892261154082e-03
7.756000000000000e+10 -1.063273167199830e+00 1.015390576420944e-02
7.760800000000000e+10 -1.063194445004442e+00 1.029722662696614e-02
7.765600000000000e+10 -1.065151975205118e+00 1.034265019705653e-02
7.770400000000000e+10 -1.062872571613958e+00 1.144574886966237e-02
7.775200000000000e+10 -1.064406252703001e+00 1.143675522222588e-02
7.780000000000000e+10 -1.064743525804704e+00 1.145703043541603e-02
7.784800000000000e+10 -1.064822275635427e+00 1.148056643236639e-02
7.789600000000000e+10 -1.065073780242725e+00 1.111562410597433e-02
7.794400000000000e+10 -1.066161789869015e+00 1.136748114736239e-02
7.799200000000000e+10 -1.066282054882779e+00 1.158284264110620e-02
7.804000000000000e+10 -1.066346545205103e+00 1.228380199271983e-02
7.808800000000000e+10 -1.066567786902769e+00 1.197156721519869e-02
7.813600000000000e+10 -1.065565464420350e+00 1.245149519492428e-02
7.818400000000000e+10 -1.064856997834426e+00 1.257609861738216e-02
7.823200000000000e+10 -1.064794824372969e+00 1.207974642675672e-02
7.828000000000000e+10 -1.063297599161604e+00 1.114053929392509e-02
7.832800000000000e+10 -1.063416445219114e+00 1.079696911204252e-02
7.837600000000000e+10 -1.062781299919547e+00 1.061941031726978e-02
7.842400000000000e+10 -1.063301005032044e+00 9.408731972982039e-03
7.847200000000000e+10 -1.062695706721939e+00 9.668749772272623e-03
7.852000000000000e+10 -1.062850646683140e+00 8.762415344969349e-03
7.856800000000000e+10 -1.061760447932949e+00 9.696859500779293e-03
7.861600000000000e+10 -1.062052308761904e+00 9.034787826733757e-03
7.866400000000000e+10 -1.060874835083398e+00 9.623911855564573e-03
7.871200000000000e+10 -1.061120062382698e+00 8.821333018754436e-03
7.876000000000000e+10 -1.060551605789057e+00 9.920174696603857e-03
7.880800000000000e+10 -1.060666980285473e+00 9.107195533054823e-03
7.885600000000000e+10 -1.060770763420557e+00 9.095918689860731e-03
7.890400000000000e+10 -1.060973718224152e+00 9.980506532301597e-03
7.895200000000000e+10 -1.060650159438668e+00 1.002615258836351e-02
7.900000000000000e+10 -1.060212372590382e+00 9.162499384602557e-03
7.904800000000000e+10 -1.060717793215024e+00 8.769623291555085e-03
7.909600000000000e+10 -1.059564122160269e+00 7.985646068637850e-03
7.914400000000000e+10 -1.058223347084435e+00 6.251557590303695e-03
7.919200000000000e+10 -1.058342275914084e+00 4.946447538747741e-03
7.924000000000000e+10 -1.058044397844132e+00 4.066229215140936e-03
7.928800000000000e+10 -1.058404077892876e+00 3.228320672246785e-03
7.933600000000000e+10 -1.057791053290907e+00 2.901165815428805e-03
7.938400000000000e+10 -1.057996196513267e+00 2.663567914411454e-03
7.943200000000000e+10 -1.058522532307317e+00 2.278168381742817e-03
7.948000000000000e+10 -1.058589521022982e+00 3.083959524299946e-03
7.952800000000000e+10 -1.061120615312851e+00 3.314571973436756e-03
7.957600000000000e+10 -1.060122620898695e+00 3.989053109977534e-03
7.962400000000000e+10 -1.061832428267874e+00 3.934646180114943e-03
7.967200000000000e+10 -1.059602712378818e+00 3.577729953114406e-03
7.972000000000000e+10 -1.061519216627355e+00 3.170268347388491e-03
7.976800000000000e+10 -1.060572405639555e+00 2.973464808022261e-03
7.981600000000000e+10 -1.063220441634801e+00 3.610872604065428e-03
7.986400000000000e+10 -1.062091598786796e+00 4.135348738706557e-03
7.991200000000000e+10 -1.062061319512258e+00 4.779602070529913e-03
7.996000000000000e+10 -1.061623742494611e+00 5.617454744439488e-03
8.000800000000000e+10 -1.061515224599630e+00 5.746886830664379e-03
8.005600000000000e+10 -1.062324492770860e+00 5.602333323137933e-03
8.010400000000000e+10 -1.063289542610609e+00 4.745962388207111e-03
8.015200000000000e+10 -1.064310110494442e+00 4.941547262171710e-03
8.020000000000000e+10 -1.064734423157383e+00 4.978289748235037e-03
8.024800000000000e+10 -1.064870111398333e+00 5.817397296763792e-03
8.029600000000000e+10 -1.064613735031866e+00 5.894298982546700e-03
8.034400000000000e+10 -1.063862213457380e+00 5.232563446543150e-03
8.039200000000000e+10 -1.064758582483154e+00 4.280035381496854e-03
8.044000000000000e+10 -1.063377890007037e+00 3.926511869203318e-03
8.048800000000000e+10 -1.062726713705478e+00 3.251375769566382e-03
8.053600000000000e+10 -1.062439245941011e+00 2.961511591904284e-03
8.058400000000000e+10 -1.061496491683203e+00 3.483825115553433e-03
8.063200000000000e+10 -1.061871586058520e+00 2.809322970159344e-03
8.068000000000000e+10 -1.061780403554414e+00 3.843842114264169e-03
8.072800000000000e+10 -1.063236630007211e+00 4.098561266260671e-03
8.077600000000000e+10 -1.061805315424402e+00 5.389823238308053e-03
8.082400000000000e+10 -1.062950836915377e+00 4.685272441897270e-03
8.087200000000000e+10 -1.061947088812989e+00 5.174874007032647e-03
8.092000000000000e+10 -1.062323216522410e+00 4.663452608677135e-03
8.096800000000000e+10 -1.061504453336261e+00 4.727770122949156e-03
8.101600000000000e+10 -1.062527529863944e+00 3.028288796240205e-03
8.106400000000000e+10 -1.062472696053479e+00 3.277507905701053e-03
8.111200000000000e+10 -1.063267005579162e+00 3.434353720676877e-03
8.116000000000000e+10 -1.062774529180983e+00 4.101308655624712e-03
8.120800000000000e+10 -1.062581644653568e+00 3.899896682053823e-03
8.125600000000000e+10 -1.062649052421153e+00 5.155907852805456e-03
8.130400000000000e+10 -1.062449079021416e+00 4.481663383501731e-03
8.135200000000000e+10 -1.062722030477939e+00 4.213844551548033e-03
8.140000000000000e+10 -1.062768251875044e+00 2.209542510690127e-03
8.144800000000000e+10 -1.063295378545807e+00 3.071286058206200e-03
8.149600000000000e+10 -1.063554395380448e+00 2.060342592259656e-03
8.154400000000000e+10 -1.064041949576842e+00 2.848895112519997e-04
8.159200000000000e+10 -1.062836659434321e+00 -3.921988335386717e-04
8.164000000000000e+10 -1.063320166256279e+00 1.422368382575290e-03
8.168800000000000e+10 -1.063475164135375e+00 7.872191798440257e-04
8.173600000000000e+10 -1.062334533251236e+00 5.267004412472783e-04
8.178400000000000e+10 -1.062498766710234e+00 -9.497796395824920e-04
8.183200000000000e+10 -1.063507512642506e+00 -1.148128522374824e-03
8.188000000000000e+10 -1.064943618133976e+00 -7.292772056582025e-04
8.192800000000000e+10 -1.066588098796455e+00 3.333482367223055e-04
8.197600000000000e+10 -1.067915208534946e+00 1.368823444507248e-03
8.202400000000000e+10 -1.069045325459107e+00 2.503706054761044e-03
8.207200000000000e+10 -1.069757598193022e+00 2.944591669413601e-03
8.212000000000000e+10 -1.069142445491863e+00 2.828401510067573e-03
8.216800000000000e+10 -1.069381077730005e+00 3.668645765514060e-03
8.221600000000000e+10 -1.068336128852815e+00 3.346239506965471e-03
8.226400000000000e+10 -1.068947405861214e+00 4.214339255385234e-03
8.231200000000000e+10 -1.068638903011006e+00 5.087966584351573e-03
8.236000000000000e+10 -1.068641526538383e+00 5.489677093911509e-03
8.240800000000000e+10 -1.067975032350672e+00 4.371703184654566e-03
8.245600000000000e+10 -1.067667910718248e+00 3.666886511872228e-03
8.250400000000000e+10 -1.068168510214737e+00 2.948673221004796e-03
8.255200000000000e+10 -1.068485377055155e+00 2.575268915178321e-03
8.260000000000000e+10 -1.069323516149365e+00 1.665888348652745e-03
8.264800000000000e+10 -1.071099463621441e+00 1.725766564125957e-03
8.269600000000000e+10 -1.071680090943950e+00 1.798855545211233e-03
8.274400000000000e+10 -1.071793696096758e+00 1.387638392185005e-03
8.279200000000000e+10 -1.070608506485091e+00 1.502393780210522e-03
8.284000000000000e+10 -1.069880963611603e+00 1.274601403443329e-03
8.288800000000000e+10 -1.068683726030336e+00 2.404561757905531e-03
8.293600000000000e+10 -1.067725976728098e+00 2.396590412493602e-03
8.298400000000000e+10 -1.067079246161406e+00 3.429238885367827e-03
8.303200000000000e+10 -1.065981378980774e+00 4.184396719831931e-03
8.308000000000000e+10 -1.066104015151351e+00 4.214534974506865e-03
8.312800000000000e+10 -1.066553090297552e+00 4.849949874162243e-03
8.317600000000000e+10 -1.067997012299670e+00 4.523738608688436e-03
8.322400000000000e+10 -1.069085966086629e+00 5.212948643821975e-03
8.327200000000000e+10 -1.069901126391446e+00 5.776494228812385e-03
8.332000000000000e+10 -1.071323121240920e+00 4.704616704928497e-03
8.336800000000000e+10 -1.072012584352727e+00 5.858601655244839e-03
8.341600000000000e+10 -1.071821417429674e+00 6.092757402135037e-03
8.346400000000000e+10 -1.070519722658078e+00 5.706408695599107e-03
8.351200000000000e+10 -1.069683508544371e+00 4.835308634029612e-03
8.356000000000000e+10 -1.068457072994736e+00 4.741686188515491e-03
8.360800000000000e+10 -1.068313835150954e+00 4.295350949615604e-03
8.365600000000000e+10 -1.068007519052685e+00 4.486272881809880e-03
8.370400000000000e+10 -1.068541378088984e+00 3.221823762618137e-03
8.375200000000000e+10 -1.070156300263254e+00 1.646569345750573e-03
8.380000000000000e+10 -1.071608907028927e+00 1.867778300215203e-03
8.384800000000000e+10 -1.072602604595728e+00 2.340833530960686e-03
8.389600000000000e+10 -1.073870971833560e+00 1.517052622119518e-03
8.394400000000000e+10 -1.073889189293921e+00 1.380040303565400e-03
8.399200000000000e+10 -1.073665217643172e+00 1.231396875268730e-03
8.404000000000000e+10 -1.072796291669793e+00 1.358589266222259e-03
8.408800000000000e+10 -1.071043396184199e+00 1.105998359081701e-03
8.413600000000000e+10 -1.068750971043041e+00 1.227485163966408e-03
8.418400000000000e+10 -1.067649771221678e+00 8.253324622563107e-04
8.423200000000000e+10 -1.065352937219094e+00 1.714491292843499e-03
8.428000000000000e+10 -1.065976240188693e+00 2.033313298675906e-04
8.432800000000000e+10 -1.065897157767182e+00 1.464860713365113e-03
8.437600000000000e+10 -1.065814672890951e+00 1.773878250637301e-03
8.442400000000000e+10 -1.066727932098869e+00 2.075951779187687e-03
8.447200000000000e+10 -1.068351268097646e+00 1.764292428405263e-03
8.452000000000000e+10 -1.069903739025968e+00 9.483886691075368e-04
8.456800000000000e+10 -1.071291120120548e+00 8.165049581518727e-04
8.461600000000000e+10 -1.072412755762377e+00 5.365440528582157e-04
8.466400000000000e+10 -1.072264716187429e+00 2.652703457324149e-04
8.471200000000000e+10 -1.071843282935595e+00 8.536758098033722e-04
8.476000000000000e+10 -1.071085068657818e+00 1.105852980681591e-03
8.480800000000000e+10 -1.070538520164817e+00 -3.484783786455474e-04
8.485600000000000e+10 -1.070083189600172e+00 -1.681750248898570e-03
8.490400000000000e+10 -1.069267306821311e+00 -1.739935277209425e-03
8.495200000000000e+10 -1.069222446833940e+00 -1.788784272700782e-03
8.500000000000000e+10 -1.071288615129597e+00 -1.044993738810104e-03
8.504800000000000e+10 -1.071200452089034e+00 -2.071748896274246e-03
8.509600000000000e+10 -1.074411581723996e+00 -2.048710023327615e-03
8.514400000000000e+10 -1.072157523132051e+00 -5.966426979637352e-03
8.519200000000000e+10 -1.076823671963961e+00 2.175595301328283e-03
8.524000000000000e+10 -1.075160452858252e+00 -1.310207894630394e-03
8.528800000000000e+10 -1.072994766074850e+00 -2.431260061179522e-03
8.533600000000000e+10 -1.074885050851326e+00 1.014466647706997e-03
8.538400000000000e+10 -1.071214589887307e+00 -1.211507839631318e-03
8.543200000000000e+10 -1.071689529870580e+00 -1.793232470639932e-03
8.548000000000000e+10 -1.072009300946956e+00 -1.573031525616659e-03
8.552800000000000e+10 -1.071930395624171e+00 -2.461704058342247e-03
8.557600000000000e+10 -1.069646840514231e+00 -7.056069148800421e-04
8.562400000000000e+10 -1.070746344854188e+00 -2.789799896659095e-03
8.567200000000000e+10 -1.071662880552791e+00 -2.827628482268244e-03
8.572000000000000e+10 -1.073438751555416e+00 -2.492666842472069e-03
8.576800000000000e+10 -1.073310225128340e+00 -1.483740967661741e-03
8.581600000000000e+10 -1.074462258713429e+00 -2.852484652098752e-03
8.586400000000000e+10 -1.073806908102221e+00 -1.385363849388324e-03
8.591200000000000e+10 -1.074044906724800e+00 -2.101373282167032e-03
8.596000000000000e+10 -1.073462879061473e+00 -1.960453256776257e-03
8.600800000000000e+10 -1.072468267825148e+00 -2.949543769508449e-03
8.605600000000000e+10 -1.073161087558866e+00 -1.159334986779754e-03
8.610400000000000e+10 -1.072200631148728e+00 -2.459566382096798e-03
8.615200000000000e+10 -1.071597976290663e+00 -3.282764852010093e-03
8.620000000000000e+10 -1.071482941361847e+00 -4.163833318766035e-03
8.624800000000000e+10 -1.074974307742827e+00 2.187875884320733e-02
8.629600000000000e+10 -1.070876094267178e+00 -9.746508402159802e-04
8.634400000000000e+10 -1.075694721975099e+00 -1.185717776263674e-03
8.639200000000000e+10 -1.071091351991034e+00 -2.478920689237836e-03
8.644000000000000e+10 -1.074445345554944e+00 -2.418524873609661e-03
8.648800000000000e+10 -1.074273700843122e+00 -6.424868861184440e-04
8.653600000000000e+10 -1.074357526718179e+00 -4.820186866475409e-04
8.658400000000000e+10 -1.074965148793005e+00 7.607830762160192e-04
8.663200000000000e+10 -1.073382076839978e+00 -1.426845670365495e-03
8.668000000000000e+10 -1.072237468600588e+00 -1.760484030413354e-03
8.672800000000000e+10 -1.073526215335601e+00 -8.878269207760534e-06
8.677600000000000e+10 -1.072726664890591e+00 1.433528786698172e-04
8.682400000000000e+10 -1.071733047493495e+00 -1.655065995079751e-03
8.687200000000000e+10 -1.073405349625393e+00 -7.165276378616960e-04
8.692000000000000e+10 -1.073238243221513e+00 -1.108182046304706e-03
8.696800000000000e+10 -1.072194151514053e+00 -1.616759322652634e-03
8.701600000000000e+10 -1.071812011821251e+00 -1.101217696053161e-03
8.706400000000000e+10 -1.072535719465459e+00 -1.246252764093112e-03
8.711200000000000e+10 -1.073834381624821e+00 8.063784254268841e-04
8.716000000000000e+10 -1.073111952653061e+00 -9.158377098040394e-04
8.720800000000000e+10 -1.073525920367078e+00 -7.727494453141937e-04
8.725600000000000e+10 -1.072481266492189e+00 -2.261834273430002e-03
8.730400000000000e+10 -1.072218135844802e+00 -3.865162326936719e-03
8.735200000000000e+10 -1.070059946692038e+00 -3.384084812339868e-03
8.740000000000000e+10 -1.070057810404631e+00 -4.547540635755143e-03
8.744800000000000e+10 -1.070327488888295e+00 -2.024778054168614e-03
8.749600000000000e+10 -1.069789395500501e+00 -3.118259760702971e-03
8.754400000000000e+10 -1.071104767758634e+00 -2.978460609688435e-03
8.759200000000000e+10 -1.070354957196647e+00 -4.644629427457007e-03
8.764000000000000e+10 -1.071209007019959e+00 -2.931545011187796e-03
8.768800000000000e+10 -1.069604577908265e+00 -5.907585528776791e-03
8.773600000000000e+10 -1.072110761741770e+00 -3.152165569946275e-03
8.778400000000000e+10 -1.073235541195301e+00 -4.275789888570000e-03
8.783200000000000e+10 -1.071777617311574e+00 -5.251509750178275e-03
8.788000000000000e+10 -1.071937361982739e+00 -4.566207963809135e-03
8.792800000000000e+10 -1.072061648858649e+00 -5.107702604417562e-03
8.797600000000000e+10 -1.071191081191005e+00 -5.388738951549979e-03
8.802400000000000e+10 -1.071347993545052e+00 -4.778611737122355e-03
8.807200000000000e+10 -1.070202074010640e+00 -5.839102155256533e-03
8.812000000000000e+10 -1.071266483817181e+00 -5.363223532004192e-03
8.816800000000000e+10 -1.071042171962847e+00 -8.597035248301540e-03
8.821600000000000e+10 -1.071548233482762e+00 -9.028447332295880e-03
8.826400000000000e+10 -1.072145726259216e+00 -8.233747956327924e-03
8.831200000000000e+10 -1.072536113893197e+00 -7.408198728395736e-03
8.836000000000000e+10 -1.073159118739291e+00 -7.893580758822034e-03
8.840800000000000e+10 -1.073769911000528e+00 -7.125468103287749e-03
8.845600000000000e+10 -1.074220055684180e+00 -7.105198092765858e-03
8.850400000000000e+10 -1.074359946577365e+00 -8.501811189414149e-03
8.855200000000000e+10 -1.075776328946990e+00 -5.865085521834405e-03
8.860000000000000e+10 -1.075128709312024e+00 -1.855420656933744e-03
8.864800000000000e+10 -1.073002484372200e+00 -1.454657471848704e-02
8.869600000000000e+10 -1.077683057303804e+00 8.055290515400627e-04
8.874400000000000e+10 -1.077141415966813e+00 -9.170966662710334e-03
8.879200000000000e+10 -1.075841242815496e+00 -8.178291407863671e-03
8.884000000000000e+10 -1.076764517461143e+00 -7.697987868075740e-03
8.888800000000000e+10 -1.072667671756787e+00 -1.311011577318919e-02
8.893600000000000e+10 -1.077228262274261e+00 -7.736735638425332e-03
8.898400000000000e+10 -1.077859382411964e+00 -8.163017987062841e-03
8.903200000000000e+10 -1.079050812774829e+00 -7.415735408839861e-03
8.908000000000000e+10 -1.079210505118130e+00 -7.144687442030806e-03
8.912800000000000e+10 -1.080549681109359e+00 -6.447309834358630e-03
8.917600000000000e+10 -1.080097674850894e+00 -6.775372013238331e-03
8.922400000000000e+10 -1.081297570853847e+00 -5.996103259778494e-03
8.927200000000000e+10 -1.079754635172571e+00 -6.137270657604954e-03
8.932000000000000e+10 -1.079908345942828e+00 -5.388802573498923e-03
8.936800000000000e+10 -1.079173096963776e+00 -6.802605007538130e-03
8.941600000000000e+10 -1.078939742965806e+00 -6.349601298957983e-03
8.946400000000000e+10 -1.079867375557829e+00 -7.410195092470834e-03
8.951200000000000e+10 -1.079351872424276e+00 -5.992248430833993e-03
8.956000000000000e+10 -1.080236907744564e+00 -8.273927374734522e-03
8.960800000000000e+10 -1.080187442332037e+00 -6.000515283676140e-03
8.965600000000000e+10 -1.081635370319258e+00 -7.313926706410031e-03
8.970400000000000e+10 -1.081729597982158e+00 -5.062181122943390e-03
8.975200000000000e+10 -1.082398062929498e+00 -5.663147652569993e-03
8.980000000000000e+10 -1.082156837841008e+00 -4.345987047565854e-03
8.984800000000000e+10 -1.081700392857732e+00 -4.174648326185890e-03
8.989600000000000e+10 -1.080229478118856e+00 -4.220814242143859e-03
8.994400000000000e+10 -1.079155858634078e+00 -5.358265314944690e-03
8.999200000000000e+10 -1.077420217606254e+00 -4.538732995624651e-03
9.004000000000000e+10 -1.077629924824506e+00 -4.926058907977207e-03
9.008800000000000e+10 -1.076818301147419e+00 -4.631748004432687e-03
9.013600000000000e+10 -1.076874441619438e+00 -4.262947862285945e-03
9.018400000000000e+10 -1.075854200090535e+00 -4.276268137285121e-03
9.023200000000000e+10 -1.075899048643380e+00 -3.379929998855179e-03
9.028000000000000e+10 -1.076808873154666e+00 -4.838555733373170e-03
9.032800000000000e+10 -1.078149988695259e+00 -4.402077737726682e-03
9.037600000000000e+10 -1.078188730801704e+00 -4.934138117013499e-03
9.042400000000000e+10 -1.079227141590289e+00 -5.533210905264000e-03
9.047200000000000e+10 -1.078833899255922e+00 -5.649935539106317e-03
9.052000000000000e+10 -1.080176027539432e+00 -4.875666546655797e-03
9.056800000000000e+10 -1.078550420644280e+00 -3.791941388270757e-03
9.061600000000000e+10 -1.077934348469751e+00 -4.423677103397451e-03
9.066400000000000e+10 -1.075877529020186e+00 -6.108085437227764e-03
9.071200000000000e+10 -1.075575179287583e+00 -5.483939758690263e-03
9.076000000000000e+10 -1.074405325995959e+00 -6.548453504505246e-03
9.080800000000000e+10 -1.073915767439841e+00 -5.960271414308167e-03
9.085600000000000e+10 -1.074111067811089e+00 -6.792332223018520e-03
9.090400000000000e+10 -1.074794382083822e+00 -7.550167616867169e-03
9.095200000000000e+10 -1.075804038437804e+00 -7.853142896027333e-03
9.100000000000000e+10 -1.078572835719734e+00 -8.563595500232874e-03
9.104800000000000e+10 -1.078233637400884e+00 -7.038462176849378e-03
9.109600000000000e+10 -1.080971905536270e+00 -6.838275167927526e-03
9.114400000000000e+10 -1.079349225362174e+00 -6.856929489646814e-03
9.119200000000000e+10 -1.079782828658228e+00 -6.260151248227373e-03
9.124000000000000e+10 -1.078526162145892e+00 -6.451333940197821e-03
9.128800000000000e+10 -1.076940297546561e+00 -6.642471804059236e-03
9.133600000000000e+10 -1.076820818227323e+00 -7.843791864886105e-03
9.138400000000000e+10 -1.075289989963082e+00 -7.069465114974269e-03
9.143200000000000e+10 -1.075865405591615e+00 -7.327984143919090e-03
9.148000000000000e+10 -1.075620284667330e+00 -7.436464560817035e-03
9.152800000000000e+10 -1.076453143973898e+00 -7.237594547514582e-03
9.157600000000000e+10 -1.077064265674112e+00 -7.646835864235232e-03
9.162400000000000e+10 -1.077806553391229e+00 -7.368935821660052e-03
9.167200000000000e+10 -1.079092657422207e+00 -7.879784747736008e-03
9.172000000000000e+10 -1.080229443877273e+00 -6.985344032139397e-03
9.176800000000000e+10 -1.081123532409834e+00 -7.523222795372906e-03
9.181600000000000e+10 -1.081303220566942e+00 -7.584565317294152e-03
9.186400000000000e+10 -1.080805239030363e+00 -8.026042718047112e-03
9.191200000000000e+10 -1.080840653460246e+00 -7.828500332469589e-03
9.196000000000000e+10 -1.080412099781540e+00 -7.338086515918836e-03
9.200800000000000e+10 -1.079420178447516e+00 -6.837919771432823e-03
9.205600000000000e+10 -1.078858634768929e+00 -8.283379953884413e-03
9.210400000000000e+10 -1.077820557359922e+00 -7.748964506639457e-03
9.215200000000000e+10 -1.078472995000549e+00 -8.342803236263855e-03
9.220000000000000e+10 -1.077495646281760e+00 -8.698237531004745e-03
9.224800000000000e+10 -1.078788175601254e+00 -9.888823398152214e-03
9.229600000000000e+10 -1.078492770810806e+00 -8.842821008018578e-03
9.234400000000000e+10 -1.080026990040107e+00 -8.842102154622902e-03
9.239200000000000e+10 -1.079123911873891e+00 -8.806681154802926e-03
9.244000000000000e+10 -1.079944670805577e+00 -8.649023515196466e-03
9.248800000000000e+10 -1.080091923700892e+00 -9.082533784881389e-03
9.253600000000000e+10 -1.080014360628518e+00 -8.115887157367177e-03
9.258400000000000e+10 -1.079642738898466e+00 -9.143914789168013e-03
9.263200000000000e+10 -1.077895836040175e+00 -9.320896346870342e-03
9.268000000000000e+10 -1.077813522883375e+00 -9.616299239606800e-03
9.272800000000000e+10 -1.077112416363323e+00 -9.845875349039241e-03
9.277600000000000e+10 -1.076388074155542e+00 -1.029493261999786e-02
9.282400000000000e+10 -1.076658411209602e+00 -1.052313366173496e-02
9.287200000000000e+10 -1.076522909364595e+00 -1.066404502691344e-02
9.292000000000000e+10 -1.077198015379151e+00 -1.142206291451694e-02
9.296800000000000e+10 -1.077596980132755e+00 -1.005525731424439e-02
9.301600000000000e+10 -1.077907414325000e+00 -1.136974883125396e-02
9.306400000000000e+10 -1.078417378872639e+00 -9.937587763712936e-03
9.311200000000000e+10 -1.077813976931395e+00 -1.123889562228930e-02
9.316000000000000e+10 -1.078546559944744e+00 -1.078632639363654e-02
9.320800000000000e+10 -1.078238653199504e+00 -1.113067616822993e-02
9.325600000000000e+10 -1.078428434620632e+00 -1.142241241144278e-02
9.330400000000000e+10 -1.078034565169866e+00 -1.151191026453120e-02
9.335200000000000e+10 -1.077886267544443e+00 -1.219560864373595e-02
9.340000000000000e+10 -1.077193315308102e+00 -1.165338998963540e-02
9.344800000000000e+10 -1.077055451950759e+00 -1.246628171070936e-02
9.349600000000000e+10 -1.077026015204984e+00 -1.221359836107600e-02
9.354400000000000e+10 -1.077405208767043e+00 -1.221764916386467e-02
9.359200000000000e+10 -1.075668334261035e+00 -1.272286208179118e-02
9.364000000000000e+10 -1.076309630116665e+00 -1.296446004868931e-02
9.368800000000000e+10 -1.077866824284297e+00 -1.354272706050670e-02
9.373600000000000e+10 -1.079672320041456e+00 -1.296797607495415e-02
9.378400000000000e+10 -1.080990417126515e+00 -1.245633340532153e-02
9.383200000000000e+10 -1.081204236390968e+00 -1.213368648185887e-02
9.388000000000000e+10 -1.082033656877776e+00 -1.199621576052606e-02
9.392800000000000e+10 -1.081242510095420e+00 -1.186732714993209e-02
9.397600000000000e+10 -1.080818086508581e+00 -1.309996185263360e-02
9.402400000000000e+10 -1.079899739837184e+00 -1.297592298028444e-02
9.407200000000000e+10 -1.079977324201974e+00 -1.397403556604975e-02
9.412000000000000e+10 -1.079131633705740e+00 -1.414100192804867e-02
9.416800000000000e+10 -1.079750842740753e+00 -1.506161439993040e-02
9.421600000000000e+10 -1.080010320676794e+00 -1.451370033097659e-02
9.426400000000000e+10 -1.080841991114539e+00 -1.607911845617366e-02
9.431200000000000e+10 -1.082126512563154e+00 -1.441716724084834e-02
9.436000000000000e+10 -1.082568159511169e+00 -1.556982427009166e-02
9.440800000000000e+10 -1.082907187804735e+00 -1.459790467384143e-02
9.445600000000000e+10 -1.084002941517029e+00 -1.545454571625006e-02
9.450400000000000e+10 -1.083846051165266e+00 -1.449116320988648e-02
9.455200000000000e+10 -1.084139947046795e+00 -1.530110222676011e-02
9.460000000000000e+10 -1.084038017642078e+00 -1.500586278905120e-02
9.464800000000000e+10 -1.083783830848024e+00 -1.579260999943001e-02
9.469600000000000e+10 -1.083690525887525e+00 -1.580876996038985e-02
9.474400000000000e+10 -1.082861639592679e+00 -1.620159801996063e-02
9.479200000000000e+10 -1.082707397862675e+00 -1.719185046764677e-02
9.484000000000000e+10 -1.081712213867542e+00 -1.544210217638050e-02
9.488800000000000e+10 -1.080748919121796e+00 -1.602398559161119e-02
9.493600000000000e+10 -1.080470750281995e+00 -1.894972290963480e-02
9.498400000000000e+10 -1.084969497755095e+00 -1.490038474060730e-02
9.503200000000000e+10 -1.082873668048835e+00 -1.518882315283968e-02
9.508000000000000e+10 -1.083793831745307e+00 -1.786863034933435e-02
9.512800000000000e+10 -1.085695516937052e+00 -1.726361360666794e-02
9.517600000000000e+10 -1.086883651358532e+00 -1.613560392444478e-02
9.522400000000000e+10 -1.088411832215361e+00 -1.604429289203673e-02
9.527200000000000e+10 -1.088429492527335e+00 -1.524122252229008e-02
9.532000000000000e+10 -1.088915392961846e+00 -1.534911313400559e-02
9.536800000000000e+10 -1.087790075478990e+00 -1.549691427771196e-02
9.541600000000000e+10 -1.087691909339596e+00 -1.605743481728539e-02
9.546400000000000e+10 -1.086314135929938e+00 -1.573530623142996e-02
9.551200000000000e+10 -1.086348449532277e+00 -1.585027025962117e-02
9.556000000000000e+10 -1.085791568186502e+00 -1.693748440152839e-02
9.560800000000000e+10 -1.086305450476741e+00 -1.636773853138119e-02
9.565600000000000e+10 -1.086610015458971e+00 -1.677263202130691e-02
9.570400000000000e+10 -1.087135780863189e+00 -1.620867188740776e-02
9.575200000000000e+10 -1.087915523639614e+00 -1.593689879459939e-02
9.580000000000000e+10 -1.088300771121288e+00 -1.547377610179201e-02
9.584800000000000e+10 -1.089015051497498e+00 -1.527671241589854e-02
9.589600000000000e+10 -1.089728249413116e+00 -1.492066845822241e-02
9.594400000000000e+10 -1.090301037190430e+00 -1.496671572832339e-02
9.599200000000000e+10 -1.089911596627187e+00 -1.459873197479311e-02
9.604000000000000e+10 -1.089803260482653e+00 -1.418320120311898e-02
9.608800000000000e+10 -1.088980072608881e+00 -1.454676982055981e-02
9.613600000000000e+10 -1.087894041687178e+00 -1.437438017813893e-02
9.618400000000000e+10 -1.087535248677711e+00 -1.520440514486867e-02
9.623200000000000e+10 -1.086568774370219e+00 -1.524287718330138e-02
9.628000000000000e+10 -1.086055530876947e+00 -1.630336164102068e-02
9.632800000000000e+10 -1.085578517711939e+00 -1.659603964822192e-02
9.637600000000000e+10 -1.085694765411613e+00 -1.709511628544289e-02
9.642400000000000e+10 -1.085478472988997e+00 -1.686840073213606e-02
9.647200000000000e+10 -1.086171818101185e+00 -1.655194556097025e-02
9.652000000000000e+10 -1.086315361476353e+00 -1.604064891497737e-02
9.656800000000000e+10 -1.088742643158527e+00 -1.767655983919925e-02
9.661600000000000e+10 -1.087340209714304e+00 -1.497628365395753e-02
9.666400000000000e+10 -1.087394836751968e+00 -1.512516980038502e-02
9.671200000000000e+10 -1.087827582866443e+00 -1.440055610823396e-02
9.676000000000000e+10 -1.087277953696651e+00 -1.397656296086668e-02
9.680800000000000e+10 -1.087250162894178e+00 -1.489155116570655e-02
9.685600000000000e+10 -1.086410138540901e+00 -1.405940382003551e-02
9.690400000000000e+10 -1.086418529270637e+00 -1.602219206414317e-02
9.695200000000000e+10 -1.085773220285243e+00 -1.538089984434255e-02
9.700000000000000e+10 -1.085902449542762e+00 -1.554544983322356e-02
9.704800000000000e+10 -1.085404434534875e+00 -1.623817930078764e-02
9.709600000000000e+10 -1.085062447065101e+00 -1.612989539906828e-02
9.714400000000000e+10 -1.084701182283721e+00 -1.673071546202114e-02
9.719200000000000e+10 -1.083979201001027e+00 -1.620073431035962e-02
9.724000000000000e+10 -1.083908576434246e+00 -1.673427072328001e-02
9.728800000000000e+10 -1.084372998675012e+00 -1.711410690261187e-02
9.733600000000000e+10 -1.084338427487447e+00 -1.598112509406384e-02
9.738400000000000e+10 -1.085142077600009e+00 -1.702098641976100e-02
9.743200000000000e+10 -1.083832041468373e+00 -1.567786793112257e-02
9.748000000000000e+10 -1.085495765175484e+00 -1.710839062972879e-02
9.752800000000000e+10 -1.084081362929128e+00 -1.512141175951527e-02
9.757600000000000e+10 -1.085843494350891e+00 -1.722819767765258e-02
9.762400000000000e+10 -1.084843805102118e+00 -1.624790632910412e-02
9.767200000000000e+10 -1.085979788649836e+00 -1.760374292955126e-02
9.772000000000000e+10 -1.085152197011089e+00 -1.620064962877667e-02
9.776800000000000e+10 -1.085552014894247e+00 -1.798814818949846e-02
9.781600000000000e+10 -1.085030258954976e+00 -1.726367991074766e-02
9.786400000000000e+10 -1.085924118838905e+00 -1.914350584437942e-02
9.791200000000000e+10 -1.086155861639882e+00 -1.766415738717805e-02
9.796000000000000e+10 -1.086272378805642e+00 -1.801161296509408e-02
9.800800000000000e+10 -1.086478769898748e+00 -1.820335696716929e-02
9.805600000000000e+10 -1.086958147027670e+00 -1.757764424404677e-02
9.810400000000000e+10 -1.086613139361457e+00 -1.802334814110433e-02
9.815200000000000e+10 -1.086870836691575e+00 -1.697392308439393e-02
9.820000000000000e+10 -1.086688358878111e+00 -1.706245642647724e-02
9.824800000000000e+10 -1.085763674375931e+00 -1.664910560274805e-02
9.829600000000000e+10 -1.085802829324891e+00 -1.839572272428833e-02
9.834400000000000e+10 -1.086507873717939e+00 -1.735238417210303e-02
9.839200000000000e+10 -1.085869510385844e+00 -1.766513014473387e-02
9.844000000000000e+10 -1.086798536662495e+00 -1.799780011183334e-02
9.848800000000000e+10 -1.086360022615589e+00 -1.769140826362777e-02
9.853600000000000e+10 -1.088208893784985e+00 -1.721089238107269e-02
9.858400000000000e+10 -1.088605128910099e+00 -1.809026554387059e-02
9.863200000000000e+10 -1.089107135990372e+00 -1.781854696114492e-02
9.868000000000000e+10 -1.088918933565732e+00 -1.892656438580123e-02
9.872800000000000e+10 -1.089564554108816e+00 -1.950232440569957e-02
9.877600000000000e+10 -1.089913907884761e+00 -2.020685724942536e-02
9.882400000000000e+10 -1.090043434906650e+00 -1.888111228088159e-02
9.887200000000000e+10 -1.090481322187311e+00 -1.888005063899450e-02
9.892000000000000e+10 -1.089603722690106e+00 -1.876400405848815e-02
9.896800000000000e+10 -1.090253622660579e+00 -1.961068087108853e-02
9.901600000000000e+10 -1.089472344310284e+00 -1.863228982410937e-02
9.906400000000000e+10 -1.090196195103526e+00 -1.883988241384001e-02
9.911200000000000e+10 -1.090173834663567e+00 -1.903677750196761e-02
9.916000000000000e+10 -1.090625010141129e+00 -1.904585182897139e-02
9.920800000000000e+10 -1.091519098371154e+00 -1.879509532768160e-02
9.925600000000000e+10 -1.091015262316903e+00 -1.968836824848232e-02
9.930400000000000e+10 -1.092675512768154e+00 -1.944228342603689e-02
9.935200000000000e+10 -1.092719744491640e+00 -1.967915815690196e-02
9.940000000000000e+10 -1.093273658514929e+00 -1.910743042492511e-02
9.944800000000000e+10 -1.094157229026667e+00 -1.974401452933585e-02
9.949600000000000e+10 -1.093580566570650e+00 -1.907065387583768e-02
9.954400000000000e+10 -1.093667640447825e+00 -1.970700440462879e-02
9.959200000000000e+10 -1.093766832526435e+00 -1.982607251005030e-02
9.964000000000000e+10 -1.094021271089847e+00 -1.879031220912536e-02
9.968800000000000e+10 -1.093883186694717e+00 -1.908967069392844e-02
9.973600000000000e+10 -1.093168158226105e+00 -1.893356090736422e-02
9.978400000000000e+10 -1.092957022565928e+00 -2.079987589221778e-02
9.983200000000000e+10 -1.092667064258742e+00 -1.895964686311123e-02
9.988000000000000e+10 -1.092427682840233e+00 -2.019376098773150e-02
9.992800000000000e+10 -1.093171664894021e+00 -1.988473930379952e-02
9.997600000000000e+10 -1.094211889548997e+00 -1.911816471401775e-02
1.000240000000000e+11 -1.092283093142111e+00 -1.927370172057510e-02
1.000720000000000e+11 -1.094308292369725e+00 -1.942790275070591e-02
1.001200000000000e+11 -1.093137683944217e+00 -1.879504604085429e-02
1.001680000000000e+11 -1.094437780104003e+00 -2.047164317031142e-02
1.002160000000000e+11 -1.094593195940198e+00 -1.921150760826944e-02
1.002640000000000e+11 -1.094790873303844e+00 -2.188315190309306e-02
1.003120000000000e+11 -1.095069824094514e+00 -2.062418752521370e-02
1.003600000000000e+11 -1.095642082591436e+00 -2.131831980478893e-02
1.004080000000000e+11 -1.095931329570801e+00 -2.084378415151242e-02
1.004560000000000e+11 -1.096290701094052e+00 -2.057640506341592e-02
1.005040000000000e+11 -1.094347884679734e+00 -2.093728665400373e-02
1.005520000000000e+11 -1.096367265869102e+00 -2.033499812184942e-02
1.006000000000000e+11 -1.094575435640721e+00 -2.042962607737651e-02
1.006480000000000e+11 -1.094285369719812e+00 -2.267148691540045e-02
1.006960000000000e+11 -1.095097744121147e+00 -2.009773107256312e-02
1.007440000000000e+11 -1.097029194045983e+00 -2.115913633704635e-02
1.007920000000000e+11 -1.094566675031988e+00 -2.120469787581382e-02
1.008400000000000e+11 -1.094739177322943e+00 -2.161425298456101e-02
1.008880000000000e+11 -1.095891649492224e+00 -2.079643608683281e-02
1.009360000000000e+11 -1.096282351219302e+00 -2.048865081791043e-02
1.009840000000000e+11 -1.096866397386298e+00 -1.947174644719171e-02
1.010320000000000e+11 -1.096693004609001e+00 -2.032966510547651e-02
1.010800000000000e+11 -1.096744080125212e+00 -2.053978684809047e-02
1.011280000000000e+11 -1.096668916169240e+00 -2.014161211279125e-02
1.011760000000000e+11 -1.096755013093997e+00 -2.192763759804860e-02
1.012240000000000e+11 -1.097199065098794e+00 -2.052441915702282e-02
1.012720000000000e+11 -1.097323844569052e+00 -2.192558378724409e-02
1.013200000000000e+11 -1.097286801948321e+00 -2.303075289948711e-02
1.013680000000000e+11 -1.097402135077366e+00 -2.214713284324814e-02
1.014160000000000e+11 -1.097336262070516e+00 -2.320175588229641e-02
1.014640000000000e+11 -1.099033479954239e+00 -2.221209120196688e-02
1.015120000000000e+11 -1.100009893417460e+00 -2.134073455731822e-02
1.015600000000000e+11 -1.098026843780846e+00 -2.012820691890141e-02
1.016080000000000e+11 -1.096899355034265e+00 -2.236397810655577e-02
1.016560000000000e+11 -1.096684271611366e+00 -2.180596306949131e-02
1.017040000000000e+11 -1.096237724782671e+00 -2.297061313381384e-02
1.017520000000000e+11 -1.099923498856567e+00 -2.431663425306360e-02
1.018000000000000e+11 -1.101632500132169e+00 -2.103244837770242e-02
1.018480000000000e+11 -1.098696133896606e+00 -2.111712969215473e-02
1.018960000000000e+11 -1.095849581309793e+00 -2.077283182617051e-02
1.019440000000000e+11 -1.097765951042029e+00 -2.668418327049218e-02
1.019920000000000e+11 -1.101402747674323e+00 -2.263588345369095e-02
1.020400000000000e+11 -1.098028592857710e+00 -2.061432402093940e-02
1.020880000000000e+11 -1.096408740549148e+00 -2.191108542849411e-02
1.021360000000000e+11 -1.095503337411218e+00 -2.579766366947625e-02
1.021840000000000e+11 -1.098985485938311e+00 -2.625640915518992e-02
1.022320000000000e+11 -1.100362262319557e+00 -2.600963246592612e-02
1.022800000000000e+11 -1.101339653068740e+00 -2.493136667693333e-02
1.023280000000000e+11 -1.101767113059728e+00 -2.704201800512931e-02
1.023760000000000e+11 -1.102496253888655e+00 -2.116138360649088e-02
1.024240000000000e+11 -1.098751181695693e+00 -2.318989860730169e-02
1.024720000000000e+11 -1.098651565280958e+00 -2.185202527299644e-02
1.025200000000000e+11 -1.099637673561779e+00 -2.449381643150954e-02
1.025680000000000e+11 -1.099293353741641e+00 -2.388000823316561e-02
1.026160000000000e+11 -1.100579372992789e+00 -2.672868836412848e-02
1.026640000000000e+11 -1.099665060464332e+00 -2.334395866319831e-02
1.027120000000000e+11 -1.102698688826685e+00 -2.319140612794444e-02
1.027600000000000e+11 -1.101122063979379e+00 -2.421751318324716e-02
1.028080000000000e+11 -1.102459094723291e+00 -2.540021651321123e-02
1.028560000000000e+11 -1.100328775900850e+00 -2.718057099377193e-02
1.029040000000000e+11 -1.102830330196349e+00 -2.401582010939376e-02
1.029520000000000e+11 -1.102766179847355e+00 -2.367153480751177e-02
1.030000000000000e+11 -1.102954530719759e+00 -2.650182480174638e-02
1.030480000000000e+11 -1.103524317871591e+00 -2.278868002868522e-02
1.030960000000000e+11 -1.104714735034296e+00 -2.572849982980803e-02
1.031440000000000e+11 -1.104531309620550e+00 -2.260691737722368e-02
1.031920000000000e+11 -1.104575136291118e+00 -2.635071231857523e-02
1.032400000000000e+11 -1.104388924860326e+00 -2.351281954982635e-02
1.032880000000000e+11 -1.104551396788641e+00 -2.483699780994297e-02
1.033360000000000e+11 -1.103510310435340e+00 -2.263294116764722e-02
1.033840000000000e+11 -1.102676722594272e+00 -2.502260697921482e-02
1.034320000000000e+11 -1.102396665765455e+00 -2.366275894302935e-02
1.034800000000000e+11 -1.101439416624317e+00 -2.461877382991675e-02
1.035280000000000e+11 -1.102241998152803e+00 -2.255641414139864e-02
1.035760000000000e+11 -1.101497884191579e+00 -2.428574425837209e-02
1.036240000000000e+11 -1.101673008371289e+00 -2.452151626600882e-02
1.036720000000000e+11 -1.101631686450014e+00 -2.412964738161084e-02
1.037200000000000e+11 -1.102109944973528e+00 -2.569351355355308e-02
1.037680000000000e+11 -1.102561685077090e+00 -2.418374261350621e-02
1.038160000000000e+11 -1.103546251509758e+00 -2.424388951775240e-02
1.038640000000000e+11 -1.103741534716736e+00 -2.425476867321835e-02
1.039120000000000e+11 -1.103214703521903e+00 -2.429685137286533e-02
1.039600000000000e+11 -1.103029119638270e+00 -2.419425161332514e-02
1.040080000000000e+11 -1.102358696226207e+00 -2.401567856478901e-02
1.040560000000000e+11 -1.102046161921503e+00 -2.348213779287093e-02
1.041040000000000e+11 -1.102785209530687e+00 -2.296193809267310e-02
1.041520000000000e+11 -1.099585109779001e+00 -2.378694013136517e-02
1.042000000000000e+11 -1.101200886560423e+00 -2.493168172910783e-02
1.042480000000000e+11 -1.100713641033760e+00 -2.404919009073142e-02
1.042960000000000e+11 -1.100688163325128e+00 -2.464498138041594e-02
1.043440000000000e+11 -1.100297064266449e+00 -2.403429808259550e-02
1.043920000000000e+11 -1.100818615134582e+00 -2.590528145844842e-02
1.044400000000000e+11 -1.101112790185506e+00 -2.531321419814197e-02
1.044880000000000e+11 -1.102201190899757e+00 -2.634365504327038e-02
1.045360000000000e+11 -1.102328683935602e+00 -2.573569968178173e-02
1.045840000000000e+11 -1.103551610474084e+00 -2.368265058160888e-02
1.046320000000000e+11 -1.102844170676927e+00 -2.617125065606666e-02
1.046800000000000e+11 -1.104446069644981e+00 -2.393744824526728e-02
1.047280000000000e+11 -1.103491692716979e+00 -2.484809330151075e-02
1.047760000000000e+11 -1.102834926411903e+00 -2.393412843213093e-02
1.048240000000000e+11 -1.102812048079624e+00 -2.677741669947168e-02
1.048720000000000e+11 -1.102457620569107e+00 -2.541910314805348e-02
1.049200000000000e+11 -1.097307237517827e+00 -2.577003951025260e-02
1.049680000000000e+11 -1.100461594913127e+00 -2.544636002017672e-02
1.050160000000000e+11 -1.098352291673477e+00 -2.636884131631801e-02
1.050640000000000e+11 -1.099724157119064e+00 -2.663991611056535e-02
1.051120000000000e+11 -1.098081539181118e+00 -2.617019503298471e-02
1.051600000000000e+11 -1.099653760529541e+00 -2.657021598548953e-02
1.052080000000000e+11 -1.099577497612856e+00 -2.731507154206149e-02
1.052560000000000e+11 -1.100783436303908e+00 -2.681971869802132e-02
1.053040000000000e+11 -1.100948390943539e+00 -2.643711807646793e-02
1.053520000000000e+11 -1.101411502633556e+00 -2.530393696279603e-02
1.054000000000000e+11 -1.101585568236871e+00 -2.659707853710834e-02
1.054480000000000e+11 -1.100587544187214e+00 -2.474501488011289e-02
1.054960000000000e+11 -1.100213902285641e+00 -2.719491177722802e-02
1.055440000000000e+11 -1.100002568368079e+00 -2.569721124730159e-02
1.055920000000000e+11 -1.098949720143759e+00 -2.762623271576075e-02
1.056400000000000e+11 -1.100366304955914e+00 -2.528949756922997e-02
1.056880000000000e+11 -1.100594692503333e+00 -2.762257714657151e-02
1.057360000000000e+11 -1.099591724784915e+00 -2.728379174644902e-02
1.057840000000000e+11 -1.100628070390593e+00 -2.730763000447739e-02
1.058320000000000e+11 -1.099844528596960e+00 -2.604654010652024e-02
1.058800000000000e+11 -1.099791288995655e+00 -2.753680905974038e-02
1.059280000000000e+11 -1.100325939787790e+00 -2.568270599136798e-02
1.059760000000000e+11 -1.100895912662645e+00 -2.689667622792431e-02
1.060240000000000e+11 -1.100169378254737e+00 -2.553147350021861e-02
1.060720000000000e+11 -1.101929651876977e+00 -2.647418079252569e-02
1.061200000000000e+11 -1.100377944261901e+00 -2.570829186435768e-02
1.061680000000000e+11 -1.102082083427342e+00 -2.618224759431180e-02
1.062160000000000e+11 -1.101397357841548e+00 -2.635784004125233e-02
1.062640000000000e+11 -1.102086219462714e+00 -2.500901355501870e-02
1.063120000000000e+11 -1.101512765098670e+00 -2.544826202243531e-02
1.063600000000000e+11 -1.100967061608925e+00 -2.507190581990202e-02
1.064080000000000e+11 -1.100621934511675e+00 -2.730655889066559e-02
1.064560000000000e+11 -1.102831359218859e+00 -2.552713776070585e-02
1.065040000000000e+11 -1.101426881532550e+00 -2.515439453476399e-02
1.065520000000000e+11 -1.102075508153301e+00 -2.529949600775493e-02
1.066000000000000e+11 -1.102866671982631e+00 -2.620472875785950e-02
1.066480000000000e+11 -1.102063657849316e+00 -2.510661053528653e-02
1.066960000000000e+11 -1.103648816863227e+00 -2.722301874706929e-02
1.067440000000000e+11 -1.102477631797219e+00 -2.430878196030010e-02
1.067920000000000e+11 -1.102740413099959e+00 -2.628485108642916e-02
1.068400000000000e+11 -1.103063031929445e+00 -2.569484349362414e-02
1.068880000000000e+11 -1.102403530527956e+00 -2.603161110509251e-02
1.069360000000000e+11 -1.101741677187827e+00 -2.652026217585442e-02
1.069840000000000e+11 -1.099317633933463e+00 -2.446720224160520e-02
1.070320000000000e+11 -1.099797568498638e+00 -2.526953428014225e-02
1.070800000000000e+11 -1.098801687116572e+00 -2.591595070732107e-02
1.071280000000000e+11 -1.099988252494638e+00 -2.718566730396627e-02
1.071760000000000e+11 -1.100160815585385e+00 -2.541641146726768e-02
1.072240000000000e+11 -1.100989537002413e+00 -2.613951958510934e-02
1.072720000000000e+11 -1.101695272753169e+00 -2.502785338188725e-02
1.073200000000000e+11 -1.102434690425549e+00 -2.444896024642533e-02
1.073680000000000e+11 -1.103836388306860e+00 -2.481479386255921e-02
1.074160000000000e+11 -1.103103451871417e+00 -2.539028915618862e-02
1.074640000000000e+11 -1.104626880760645e+00 -2.528083200493504e-02
1.075120000000000e+11 -1.104502981240857e+00 -2.498590533645156e-02
1.075600000000000e+11 -1.104054545007344e+00 -2.606034626451008e-02
1.076080000000000e+11 -1.103315460507063e+00 -2.691666472746170e-02
1.076560000000000e+11 -1.103521341279470e+00 -2.775169878827426e-02
1.077040000000000e+11 -1.101912634554245e+00 -2.837756092321897e-02
1.077520000000000e+11 -1.101491640107358e+00 -2.701927963485165e-02
1.078000000000000e+11 -1.100299120944551e+00 -2.634715719292554e-02
1.078480000000000e+11 -1.100430948936441e+00 -2.606757154404458e-02
1.078960000000000e+11 -1.100017429819240e+00 -2.605921414519758e-02
1.079440000000000e+11 -1.100393858877555e+00 -2.826926151629686e-02
1.079920000000000e+11 -1.101798754571867e+00 -2.730934052989812e-02
1.080400000000000e+11 -1.102661582652388e+00 -2.771468717471689e-02
1.080880000000000e+11 -1.105659699842611e+00 -2.782488255765301e-02
1.081360000000000e+11 -1.105198901145788e+00 -2.735344237914187e-02
1.081840000000000e+11 -1.107323318004376e+00 -2.799256669691455e-02
1.082320000000000e+11 -1.105696128100429e+00 -2.751186894938303e-02
1.082800000000000e+11 -1.107067186046320e+00 -2.832295936899093e-02
1.083280000000000e+11 -1.105129766974545e+00 -2.922705860223043e-02
1.083760000000000e+11 -1.105321948343183e+00 -2.951462328356694e-02
1.084240000000000e+11 -1.103394491561805e+00 -2.767170400475125e-02
1.084720000000000e+11 -1.103142601260207e+00 -2.616047694444266e-02
1.085200000000000e+11 -1.102402797739548e+00 -2.898804739248168e-02
1.085680000000000e+11 -1.103336889104295e+00 -2.906843299127664e-02
1.086160000000000e+11 -1.103273622101279e+00 -2.963993200944610e-02
1.086640000000000e+11 -1.105612682122629e+00 -3.063471365860504e-02
1.087120000000000e+11 -1.106544134060892e+00 -2.814709362708663e-02
1.087600000000000e+11 -1.108690033364941e+00 -2.820390368658516e-02
1.088080000000000e+11 -1.108573008114228e+00 -2.699246704697140e-02
1.088560000000000e+11 -1.110262262624554e+00 -2.758533122573576e-02
1.089040000000000e+11 -1.108914275119061e+00 -2.696888645185922e-02
1.089520000000000e+11 -1.109250082808435e+00 -2.614318695251631e-02
1.090000000000000e+11 -1.106736078675950e+00 -2.696145042405414e-02
1.090480000000000e+11 -1.108595626712472e+00 -2.757206931782231e-02
1.090960000000000e+11 -1.107403242733141e+00 -2.508078858284162e-02
1.091440000000000e+11 -1.107983475123419e+00 -2.317026501388448e-02
1.091920000000000e+11 -1.107232508258142e+00 -2.770347464127596e-02
1.092400000000000e+11 -1.107768939892311e+00 -2.875331858212542e-02
1.092880000000000e+11 -1.107216231483653e+00 -2.825072073083216e-02
1.093360000000000e+11 -1.106449541186470e+00 -2.831282917256509e-02
1.093840000000000e+11 -1.107395404650298e+00 -2.879674559360218e-02
1.094320000000000e+11 -1.108312697044182e+00 -2.887713711730231e-02
1.094800000000000e+11 -1.110361715848599e+00 -3.692411238835420e-02
1.095280000000000e+11 -1.110905044908225e+00 -2.661871729997403e-02
1.095760000000000e+11 -1.110956322974703e+00 -2.756062342095261e-02
1.096240000000000e+11 -1.112547653793051e+00 -2.425093248011029e-02
1.096720000000000e+11 -1.111992506963460e+00 -2.490172372965938e-02
1.097200000000000e+11 -1.110345344826294e+00 -2.460740809548741e-02
1.097680000000000e+11 -1.110042338028361e+00 -2.587488694873359e-02
1.098160000000000e+11 -1.110294147391897e+00 -2.691907124682812e-02
1.098640000000000e+11 -1.108128575114340e+00 -2.600707402566647e-02
1.099120000000000e+11 -1.109202826096446e+00 -2.650401359462016e-02
1.099600000000000e+11 -1.105980776972529e+00 -2.607524784830926e-02
1.100080000000000e+11 -1.108950382773812e+00 -2.704295147477376e-02
1.100560000000000e+11 -1.107646549008926e+00 -2.542019069722705e-02
1.101040000000000e+11 -1.109709260954637e+00 -2.828353476852402e-02
1.101520000000000e+11 -1.110733808214015e+00 -2.483439578544293e-02
1.102000000000000e+11 -1.109360549077607e+00 -2.858015333914180e-02
1.102480000000000e+11 -1.113011621060516e+00 -2.872397548497362e-02
1.102960000000000e+11 -1.115047367499975e+00 -2.734497062849218e-02
1.103440000000000e+11 -1.115362188298050e+00 -2.472139265443331e-02
1.103920000000000e+11 -1.115127210856963e+00 -2.535684612674992e-02
1.104400000000000e+11 -1.114649703387249e+00 -2.462808039115515e-02
1.104880000000000e+11 -1.113844858750561e+00 -2.565238216573796e-02
1.105360000000000e+11 -1.112954468458407e+00 -2.585282561628334e-02
1.105840000000000e+11 -1.115667625820686e+00 -2.396859674904634e-02
1.106320000000000e+11 -1.112451847913361e+00 -2.394221544158209e-02
1.106800000000000e+11 -1.111732488458999e+00 -2.398514098732970e-02
1.107280000000000e+11 -1.111939412183292e+00 -2.311357910627844e-02
1.107760000000000e+11 -1.111405855688853e+00 -2.235589991990668e-02
1.108240000000000e+11 -1.112370541171887e+00 -2.332478960366921e-02
1.108720000000000e+11 -1.112714290513515e+00 -2.243571710076188e-02
1.109200000000000e+11 -1.112997942485920e+00 -2.176376763933625e-02
1.109680000000000e+11 -1.113879487391555e+00 -2.305520840854185e-02
1.110160000000000e+11 -1.116743554207483e+00 -2.041544462501337e-02
1.110640000000000e+11 -1.116091640095521e+00 -1.990386972298886e-02
1.111120000000000e+11 -1.117492879394926e+00 -2.012917149692304e-02
1.111600000000000e+11 -1.116593316938692e+00 -2.070076926522987e-02
1.112080000000000e+11 -1.117696478853970e+00 -2.042574326012511e-02
1.112560000000000e+11 -1.116701045290461e+00 -1.932232984857788e-02
1.113040000000000e+11 -1.116292534985807e+00 -1.959956003286918e-02
1.113520000000000e+11 -1.115415214110280e+00 -1.726809642685597e-02
1.114000000000000e+11 -1.114079074764983e+00 -1.813308891824678e-02
1.114480000000000e+11 -1.113625956298916e+00 -1.989796656428364e-02
1.114960000000000e+11 -1.113764446889543e+00 -1.947047237180647e-02
1.115440000000000e+11 -1.113930432476411e+00 -1.962004444293290e-02
1.115920000000000e+11 -1.115127809240815e+00 -1.981711000940187e-02
1.116400000000000e+11 -1.116699557662943e+00 -2.130605357564363e-02
1.116880000000000e+11 -1.116090688246678e+00 -2.173195487720272e-02
1.117360000000000e+11 -1.118345752852444e+00 -1.980012081317670e-02
1.117840000000000e+11 -1.118457508676069e+00 -1.858228234561218e-02
1.118320000000000e+11 -1.118712991585236e+00 -1.899642478426608e-02
1.118800000000000e+11 -1.117497931281556e+00 -1.862121917165905e-02
1.119280000000000e+11 -1.116862004899271e+00 -2.075166436553009e-02
1.119760000000000e+11 -1.115920991134604e+00 -1.850461784090140e-02
1.120240000000000e+11 -1.115733056410899e+00 -1.376112639393832e-02
1.120720000000000e+11 -1.114770249816609e+00 -1.073077751795228e-02
1.121200000000000e+11 -1.113839283084877e+00 -1.214890976539673e-02
1.121680000000000e+11 -1.113596391090548e+00 -1.131914855233396e-02
1.122160000000000e+11 -1.113193087027035e+00 -1.199072605464621e-02
1.122640000000000e+11 -1.112846871400984e+00 -1.191375444879771e-02
1.123120000000000e+11 -1.113273132570437e+00 -1.163272541717711e-02
1.123600000000000e+11 -1.114964580805372e+00 -1.030197958415783e-02
1.124080000000000e+11 -1.114682422805866e+00 -8.537929955713449e-03
1.124560000000000e+11 -1.114854426286275e+00 -1.181142724179568e-02
1.125040000000000e+11 -1.114284031823158e+00 -8.474724788790499e-03
1.125520000000000e+11 -1.114606844342118e+00 -8.407583499583303e-03
1.126000000000000e+11 -1.114485544850080e+00 -9.964907059768605e-03
1.126480000000000e+11 -1.113813249197151e+00 -9.677039099687016e-03
1.126960000000000e+11 -1.115208192181927e+00 -1.068013619878667e-02
1.127440000000000e+11 -1.116088876141883e+00 -8.547250713612094e-03
1.127920000000000e+11 -1.115460088327460e+00 -7.408057812727359e-03
1.128400000000000e+11 -1.114318479968666e+00 -6.350074877169121e-03
1.128880000000000e+11 -1.112954409811054e+00 -9.692283219581885e-03
1.129360000000000e+11 -1.112438285129421e+00 -7.089646466289231e-03
1.129840000000000e+11 -1.113250717566695e+00 -1.088753439594480e-02
1.130320000000000e+11 -1.112768036503048e+00 -9.250808815746154e-03
1.130800000000000e+11 -1.115125736602044e+00 -1.257644064718758e-02
1.131280000000000e+11 -1.115622692088143e+00 -8.231635935696860e-03
1.131760000000000e+11 -1.117511695631096e+00 -9.954213457038806e-03
1.132240000000000e+11 -1.118420401385556e+00 -6.727868595320157e-03
1.132720000000000e+11 -1.119024374514269e+00 -7.687499933334331e-03
1.133200000000000e+11 -1.117989529036796e+00 -6.209490392863854e-03
1.133680000000000e+11 -1.117843355574386e+00 -9.507516759935287e-03
1.134160000000000e+11 -1.117357702533481e+00 -7.323656683305767e-03
1.134640000000000e+11 -1.116900796108314e+00 -7.730493372308689e-03
1.135120000000000e+11 -1.116181350049293e+00 -6.111600902207403e-03
1.135600000000000e+11 -1.114426473840374e+00 -7.607209941835714e-03
1.136080000000000e+11 -1.113437188614897e+00 -6.741142336023395e-03
1.136560000000000e+11 -1.112259241288168e+00 -7.344916206507836e-03
1.137040000000000e+11 -1.112131485696177e+00 -6.340612335294425e-03
1.137520000000000e+11 -1.112130465686501e+00 -7.736532631953352e-03
1.138000000000000e+11 -1.111719010115680e+00 -7.510860490576834e-03
1.138480000000000e+11 -1.112395304249699e+00 -7.667339329369721e-03
1.138960000000000e+11 -1.112687251202966e+00 -8.478141695294865e-03
1.139440000000000e+11 -1.114540087070024e+00 -6.745491463384912e-03
1.139920000000000e+11 -1.114861022393668e+00 -6.326800169067858e-03
1.140400000000000e+11 -1.115623090168445e+00 -5.512202900000546e-03
1.140880000000000e+11 -1.115573744802602e+00 -4.248820147750396e-03
1.141360000000000e+11 -1.115338564212355e+00 -6.514239042035306e-03
1.141840000000000e+11 -1.115203078346458e+00 -4.718036760199341e-03
1.142320000000000e+11 -1.114207430126183e+00 -6.005365822987074e-03
1.142800000000000e+11 -1.112830181536723e+00 -6.820119740768534e-03
1.143280000000000e+11 -1.111985473016843e+00 -6.386743558440876e-03
1.143760000000000e+11 -1.111123394245003e+00 -7.213019465318999e-03
1.144240000000000e+11 -1.110451947516474e+00 -7.187145774257090e-03
1.144720000000000e+11 -1.110127518697707e+00 -7.328060606771896e-03
1.145200000000000e+11 -1.110671759866668e+00 -7.821590414442327e-03
1.145680000000000e+11 -1.110731416898871e+00 -7.190873342695469e-03
1.146160000000000e+11 -1.111752342339556e+00 -6.979985370523083e-03
1.146640000000000e+11 -1.111364063830957e+00 -6.007894906122613e-03
1.147120000000000e+11 -1.111661376061625e+00 -5.374597109453903e-03
1.147600000000000e+11 -1.112024032576441e+00 -4.169486281517490e-03
1.148080000000000e+11 -1.111944363287152e+00 -3.927512385404164e-03
1.148560000000000e+11 -1.111624212857922e+00 -3.890311153776971e-03
1.149040000000000e+11 -1.110641598048719e+00 -2.999467221913398e-03
1.149520000000000e+11 -1.111159580881427e+00 -2.279229953466164e-03
1.150000000000000e+11 -1.110394435411155e+00 -2.090019215470465e-03
