! Generated by Phase I extraction
# Hz S RI R 50
6.700000000000000e+10 9.384110589226206e-01 6.233099166249138e-02
6.704800000000000e+10 9.393985805224067e-01 6.743764827811295e-02
6.709600000000000e+10 9.401187208018766e-01 6.875821082341900e-02
6.714400000000000e+10 9.397433635959854e-01 6.896976469757554e-02
6.719200000000000e+10 9.384029116092832e-01 6.778784805936078e-02
6.724000000000000e+10 9.393706177199131e-01 6.824704730224054e-02
6.728800000000000e+10 9.376286148778833e-01 6.824940438231616e-02
6.733600000000000e+10 9.372030104589602e-01 6.940410813595022e-02
6.738400000000000e+10 9.375547180773781e-01 7.077912200318170e-02
6.743200000000000e+10 9.371441935258071e-01 7.065013074621630e-02
6.748000000000000e+10 9.382241233003584e-01 6.983585132989575e-02
6.752800000000000e+10 9.391495582049937e-01 6.900807442506958e-02
6.757600000000000e+10 9.361620631343578e-01 6.920224557425592e-02
6.762400000000000e+10 9.368817136454594e-01 7.042938008600226e-02
6.767200000000000e+10 9.349288531322234e-01 7.038426076693181e-02
6.772000000000000e+10 9.362043293037045e-01 7.067163728337664e-02
6.776800000000000e+10 9.352637175037024e-01 7.143382355754885e-02
6.781600000000000e+10 9.380428230138077e-01 7.098399316941142e-02
6.786400000000000e+10 9.365973872861735e-01 6.948220208622879e-02
6.791200000000000e+10 9.352051223446232e-01 6.720523102227866e-02
6.796000000000000e+10 9.361284930986614e-01 6.852199149443039e-02
6.800800000000000e+10 9.352536071174657e-01 6.935663446600238e-02
6.805600000000000e+10 9.358333794914884e-01 6.804780268263599e-02
6.810400000000000e+10 9.366777104722290e-01 6.747767812939488e-02
6.815200000000000e+10 9.376952268021035e-01 6.767619282995013e-02
6.820000000000000e+10 9.357768067518245e-01 6.825878760842242e-02
6.824800000000000e+10 9.342218999182017e-01 6.734004968009723e-02
6.829600000000000e+10 9.340581100442118e-01 6.968723355888455e-02
6.834400000000000e+10 9.348580114892153e-01 7.227751910839954e-02
6.839200000000000e+10 9.350577873137436e-01 7.274805932115377e-02
6.844000000000000e+10 9.360826863650857e-01 7.133268293855408e-02
6.848800000000000e+10 9.352109728693614e-01 6.956623961037831e-02
6.853600000000000e+10 9.369466361739291e-01 6.832346672251828e-02
6.858400000000000e+10 9.358419867102705e-01 6.888165216015520e-02
6.863200000000000e+10 9.367726452336631e-01 7.116581019208157e-02
6.868000000000000e+10 9.372132589628979e-01 7.152771145961491e-02
6.872800000000000e+10 9.368170604761401e-01 7.064429026583553e-02
6.877600000000000e+10 9.367205661086621e-01 6.761016854000469e-02
6.882400000000000e+10 9.352635870619345e-01 6.665347343233878e-02
6.887200000000000e+10 9.369864027972329e-01 6.428156489378642e-02
6.892000000000000e+10 9.351172717318590e-01 6.644343782598182e-02
6.896800000000000e+10 9.369666701016667e-01 6.379640751102862e-02
6.901600000000000e+10 9.351238026087861e-01 6.684526326946780e-02
6.906400000000000e+10 9.384556418167798e-01 6.576836351064726e-02
6.911200000000000e+10 9.370737373205378e-01 6.449282650252142e-02
6.916000000000000e+10 9.386935709669507e-01 6.298157309575418e-02
6.920800000000000e+10 9.363053057871873e-01 6.033143828777413e-02
6.925600000000000e+10 9.329548211517991e-01 6.641168668411931e-02
6.930400000000000e+10 9.337058724365287e-01 6.462129727021436e-02
6.935200000000000e+10 9.326250903728242e-01 6.979650115003559e-02
6.940000000000000e+10 9.340764892488256e-01 6.920965257217629e-02
6.944800000000000e+10 9.339981461868060e-01 7.234838602073496e-02
6.949600000000000e+10 9.364721175853006e-01 7.129950567714366e-02
6.954400000000000e+10 9.346009647237713e-01 7.089884802881646e-02
6.959200000000000e+10 9.359602942571401e-01 6.927165505042406e-02
6.964000000000000e+10 9.358211296166754e-01 6.987717896462575e-02
6.968800000000000e+10 9.360331039642764e-01 6.918655600031397e-02
6.973600000000000e+10 9.360523114205708e-01 7.003742040615478e-02
6.978400000000000e+10 9.354638511729879e-01 7.053401505363906e-02
6.983200000000000e+10 9.356728530670586e-01 6.962361380816656e-02
6.988000000000000e+10 9.354917829832540e-01 7.148459614226767e-02
6.992800000000000e+10 9.358423977122987e-01 7.085291179661127e-02
6.997600000000000e+10 9.357452316466679e-01 7.262374982209956e-02
7.002400000000000e+10 9.363374887230981e-01 7.207906698026963e-02
7.007200000000000e+10 9.366051363033661e-01 7.089748781006081e-02
7.012000000000000e+10 9.360209393639477e-01 6.959325543915053e-02
7.016800000000000e+10 9.359959921651394e-01 6.890905205277052e-02
7.021600000000000e+10 9.380329176091656e-01 6.878950308730840e-02
7.026400000000000e+10 9.347983123998529e-01 6.682768154162592e-02
7.031200000000000e+10 9.335196684329541e-01 6.793919097274122e-02
7.036000000000000e+10 9.331925408407840e-01 6.867598390468194e-02
7.040800000000000e+10 9.358878377985674e-01 6.924540643418448e-02
7.045600000000000e+10 9.358406263572352e-01 7.011604773180799e-02
7.050400000000000e+10 9.361155045296022e-01 6.936606233480506e-02
7.055200000000000e+10 9.338385794936932e-01 6.648204289892284e-02
7.060000000000000e+10 9.358262658008889e-01 6.677559205090894e-02
7.064800000000000e+10 9.354455216925427e-01 6.539301774740607e-02
7.069600000000000e+10 9.343899555569651e-01 6.552594121549590e-02
7.074400000000000e+10 9.361740129541694e-01 6.770833718361928e-02
7.079200000000000e+10 9.348587614890850e-01 6.800116783856040e-02
7.084000000000000e+10 9.367010799059162e-01 6.921851964433692e-02
7.088800000000000e+10 9.334285460644205e-01 6.763808716639994e-02
7.093600000000000e+10 9.385856582096261e-01 6.951643454096307e-02
7.098400000000000e+10 9.358667405801580e-01 6.926656046401833e-02
7.103200000000000e+10 9.367735430875807e-01 7.059540001153783e-02
7.108000000000000e+10 9.376559676071305e-01 7.135145278124876e-02
7.112800000000000e+10 9.376788071299460e-01 7.325797541558537e-02
7.117600000000000e+10 9.377767535914806e-01 7.290561011423795e-02
7.122400000000000e+10 9.381335811887896e-01 7.591998486773034e-02
7.127200000000000e+10 9.380318042700897e-01 7.409581143921877e-02
7.132000000000000e+10 9.354077015184374e-01 7.437291042553129e-02
7.136800000000000e+10 9.376616051114826e-01 7.164893244910490e-02
7.141600000000000e+10 9.348001256139019e-01 7.237411376242829e-02
7.146400000000000e+10 9.362981664045703e-01 7.007100033179584e-02
7.151200000000000e+10 9.343598476103622e-01 6.685503687229757e-02
7.156000000000000e+10 9.360944229297489e-01 6.848730135438100e-02
7.160800000000000e+10 9.364283530437737e-01 6.699381443108475e-02
7.165600000000000e+10 9.395843405144818e-01 6.702131333380945e-02
7.170400000000000e+10 9.382727057187892e-01 7.115822809647353e-02
7.175200000000000e+10 9.451587529181257e-01 8.126590942099662e-02
7.180000000000000e+10 9.438217229810395e-01 7.687331389043355e-02
7.184800000000000e+10 9.378789219533598e-01 7.073710950853127e-02
7.189600000000000e+10 9.387249144649623e-01 7.335841590428439e-02
7.194400000000000e+10 9.397980898078357e-01 7.496794551077721e-02
7.199200000000000e+10 9.381598187084772e-01 7.287641682591689e-02
7.204000000000000e+10 9.392125950961131e-01 7.384116777095120e-02
7.208800000000000e+10 9.393038308871631e-01 7.460006570170390e-02
7.213600000000000e+10 9.399707559283460e-01 7.606848881173138e-02
7.218400000000000e+10 9.416961380063443e-01 7.535182548753000e-02
7.223200000000000e+10 9.386337494930220e-01 7.673975164558983e-02
7.228000000000000e+10 9.371256405019119e-01 7.526273157916535e-02
7.232800000000000e+10 9.352354677770288e-01 7.431342273108718e-02
7.237600000000000e+10 9.337200979367312e-01 7.283421852475200e-02
7.242400000000000e+10 9.315331548844139e-01 7.118240700594290e-02
7.247200000000000e+10 9.292030251905884e-01 7.177284633041518e-02
7.252000000000000e+10 9.299591421602854e-01 7.079960816805293e-02
7.256800000000000e+10 9.268287539893069e-01 6.657540504980176e-02
7.261600000000000e+10 9.278504528913528e-01 6.733475608457971e-02
7.266400000000000e+10 9.275657545181160e-01 6.763054981783111e-02
7.271200000000000e+10 9.283689550611711e-01 6.910919791630007e-02
7.276000000000000e+10 9.284634052897641e-01 6.915391964814735e-02
7.280800000000000e+10 9.285724540486514e-01 6.983792673152690e-02
7.285600000000000e+10 9.268369268095686e-01 6.765191885677729e-02
7.290400000000000e+10 9.286003269096138e-01 6.908032512200217e-02
7.295200000000000e+10 9.274743260734046e-01 6.722381218222588e-02
7.300000000000000e+10 9.299304664528727e-01 7.076015200846789e-02
7.304800000000000e+10 9.286871837251618e-01 6.783331806299076e-02
7.309600000000000e+10 9.297110277593477e-01 7.060860660883528e-02
7.314400000000000e+10 9.277308920637788e-01 6.857761313047664e-02
7.319200000000000e+10 9.290974784796306e-01 7.043302698869976e-02
7.324000000000000e+10 9.281636470749236e-01 7.010913880074188e-02
7.328800000000000e+10 9.289052650611747e-01 7.291982328710125e-02
7.333600000000000e+10 9.297884607095107e-01 7.142412662829155e-02
7.338400000000000e+10 9.314834041829662e-01 7.316883853008284e-02
7.343200000000000e+10 9.269016986895263e-01 1.013047267748484e-01
7.348000000000000e+10 9.320251136017367e-01 7.156649745398046e-02
7.352800000000000e+10 9.330429986764572e-01 7.426082227564144e-02
7.357600000000000e+10 9.343578951827964e-01 7.425120217447216e-02
7.362400000000000e+10 9.331125927921706e-01 7.447608133457495e-02
7.367200000000000e+10 9.326209257200201e-01 7.575673472967195e-02
7.372000000000000e+10 9.268885899911115e-01 1.022378883707200e-01
7.376800000000000e+10 9.330916554831910e-01 7.607318130935173e-02
7.381600000000000e+10 9.330488368992722e-01 7.570488889410035e-02
7.386400000000000e+10 9.298957868998938e-01 9.131449252488516e-02
7.391200000000000e+10 9.328101252865506e-01 7.326657194925271e-02
7.396000000000000e+10 9.329970255632786e-01 7.468934837365987e-02
7.400800000000000e+10 9.348588130043738e-01 7.848157841631274e-02
7.405600000000000e+10 9.339566262107555e-01 7.805366015079666e-02
7.410400000000000e+10 9.344761576819879e-01 7.749729937232143e-02
7.415200000000000e+10 9.338565410153065e-01 7.832766584577948e-02
7.420000000000000e+10 9.355382376345421e-01 7.877900967994049e-02
7.424800000000000e+10 9.347263615423431e-01 7.755683643119446e-02
7.429600000000000e+10 9.363853604518980e-01 7.782802639112808e-02
7.434400000000000e+10 9.353738290983412e-01 7.671883546730517e-02
7.439200000000000e+10 9.357526296945360e-01 7.739586303868054e-02
7.444000000000000e+10 9.358873944224665e-01 7.705191381258022e-02
7.448800000000000e+10 9.366530892337381e-01 7.806797477860780e-02
7.453600000000000e+10 9.365568804727384e-01 7.730496727722494e-02
7.458400000000000e+10 9.371827581377546e-01 7.667111573208596e-02
7.463200000000000e+10 9.370858009277454e-01 7.680535462742806e-02
7.468000000000000e+10 9.368397931743354e-01 7.498726758786196e-02
7.472800000000000e+10 9.365926469705650e-01 7.463784917210084e-02
7.477600000000000e+10 9.375832194361929e-01 7.416391706581982e-02
7.482400000000000e+10 9.377542971814999e-01 7.430576770696634e-02
7.487200000000000e+10 9.375536875122920e-01 7.539354659009773e-02
7.492000000000000e+10 9.373194758915269e-01 7.484952290014137e-02
7.496800000000000e+10 9.377869456058144e-01 7.560591873820453e-02
7.501600000000000e+10 9.380121331153132e-01 7.621289985737496e-02
7.506400000000000e+10 9.372134333260987e-01 7.606317728326480e-02
7.511200000000000e+10 9.375548957404338e-01 7.718546748836604e-02
7.516000000000000e+10 9.364276178526940e-01 7.691586518754970e-02
7.520800000000000e+10 9.384311771404517e-01 7.752315403205112e-02
7.525600000000000e+10 9.375801493593121e-01 7.709062806215282e-02
7.530400000000000e+10 9.396628528722595e-01 7.778500518628313e-02
7.535200000000000e+10 9.387604734595920e-01 7.615343907879317e-02
7.540000000000000e+10 9.392810609000196e-01 7.520104237227661e-02
7.544800000000000e+10 9.380877557067140e-01 7.470793519503910e-02
7.549600000000000e+10 9.373843273027372e-01 7.511385383212360e-02
7.554400000000000e+10 9.374197895684085e-01 7.560683884987371e-02
7.559200000000000e+10 9.364949044409503e-01 7.643980287582872e-02
7.564000000000000e+10 9.362625021119794e-01 7.653107869859725e-02
7.568800000000000e+10 9.356414387060280e-01 7.664573156797269e-02
7.573600000000000e+10 9.345007405728720e-01 7.581650379815527e-02
7.578400000000000e+10 9.359562923737633e-01 7.525303073552729e-02
7.583200000000000e+10 9.353469368047336e-01 7.463777242365284e-02
7.588000000000000e+10 9.366890175598922e-01 7.480470456811404e-02
7.592800000000000e+10 9.353965552051591e-01 7.313219857053262e-02
7.597600000000000e+10 9.357056189515158e-01 7.309534302431184e-02
7.602400000000000e+10 9.352097934902157e-01 7.413587619069462e-02
7.607200000000000e+10 9.358933854701156e-01 7.479145136964366e-02
7.612000000000000e+10 9.348439085962348e-01 7.429352329029906e-02
7.616800000000000e+10 9.356668914800222e-01 7.544155313510056e-02
7.621600000000000e+10 9.347485821681123e-01 7.275546102325672e-02
7.626400000000000e+10 9.348232834797900e-01 7.398318528682322e-02
7.631200000000000e+10 9.358377668485907e-01 7.309589636163100e-02
7.636000000000000e+10 9.361388141332725e-01 7.446240092199781e-02
7.640800000000000e+10 9.378790111037733e-01 7.455050682079103e-02
7.645600000000000e+10 9.371819436523772e-01 7.440254736182486e-02
7.650400000000000e+10 9.384978221288023e-01 7.421648112630755e-02
7.655200000000000e+10 9.377280523375298e-01 7.467654862473690e-02
7.660000000000000e+10 9.389822127331722e-01 7.459277276518073e-02
7.664800000000000e+10 9.374655102020047e-01 7.388513800812270e-02
7.669600000000000e+10 9.386315502376469e-01 7.495598252127102e-02
7.674400000000000e+10 9.368124552149931e-01 7.312730045856244e-02
7.679200000000000e+10 9.386639743398415e-01 7.512346979382055e-02
7.684000000000000e+10 9.396943739344260e-01 7.376613490323956e-02
7.688800000000000e+10 9.380104920194237e-01 7.402051431821008e-02
7.693600000000000e+10 9.415202887278838e-01 7.327780210558069e-02
7.698400000000000e+10 9.417410419500087e-01 7.357423138230149e-02
7.703200000000000e+10 9.438965893623883e-01 7.244690151411010e-02
7.708000000000000e+10 9.428510429986765e-01 7.165424284567910e-02
7.712800000000000e+10 9.427308468755262e-01 7.035838914388369e-02
7.717600000000000e+10 9.412769750311113e-01 6.994205707174997e-02
7.722400000000000e+10 9.408073461111983e-01 7.126612062290580e-02
7.727200000000000e+10 9.391727908092751e-01 7.361018252434813e-02
7.732000000000000e+10 9.389013414127627e-01 7.438347720473884e-02
7.736800000000000e+10 9.382238722609382e-01 7.593157862505180e-02
7.741600000000000e+10 9.383294171487508e-01 7.386955603201678e-02
7.746400000000000e+10 9.375897725142081e-01 7.459382142406673e-02
7.751200000000000e+10 9.387926814472418e-01 7.783772979671480e-02
7.756000000000000e+10 9.386863675073984e-01 7.580447127461359e-02
7.760800000000000e+10 9.402693933958184e-01 7.470443695641608e-02
7.765600000000000e+10 9.420244107204145e-01 7.843815486024595e-02
7.770400000000000e+10 9.336699901695392e-01 7.090117613032623e-02
7.775200000000000e+10 9.372274345162077e-01 7.351862673771979e-02
7.780000000000000e+10 9.382690881839088e-01 7.409539428066392e-02
7.784800000000000e+10 9.376744538631860e-01 7.397214750632418e-02
7.789600000000000e+10 9.371182759790172e-01 7.308090308505753e-02
7.794400000000000e+10 9.362600175615489e-01 7.281066894898523e-02
7.799200000000000e+10 9.368560499650637e-01 7.226346465094238e-02
7.804000000000000e+10 9.356070375316186e-01 7.181161979199215e-02
7.808800000000000e+10 9.358042328992666e-01 7.215678453542353e-02
7.813600000000000e+10 9.370242285167268e-01 7.263581131129734e-02
7.818400000000000e+10 9.362235226816807e-01 7.120527759376337e-02
7.823200000000000e+10 9.363993636809982e-01 7.227983394354695e-02
7.828000000000000e+10 9.363006112155006e-01 7.372259227764938e-02
7.832800000000000e+10 9.366342487796278e-01 7.248808942959505e-02
7.837600000000000e+10 9.365267280973703e-01 7.054654038824010e-02
7.842400000000000e+10 9.386896688527120e-01 7.356458581816472e-02
7.847200000000000e+10 9.379732129508199e-01 7.163975787887952e-02
7.852000000000000e+10 9.366061821906400e-01 7.289366326671086e-02
7.856800000000000e+10 9.390043150902498e-01 7.321405444953433e-02
7.861600000000000e+10 9.407064013538913e-01 7.336399299012690e-02
7.866400000000000e+10 9.390547168483030e-01 7.251606993225350e-02
7.871200000000000e+10 9.394726662151132e-01 7.246647301900840e-02
7.876000000000000e+10 9.378043873980710e-01 7.227001239989687e-02
7.880800000000000e+10 9.363357787384262e-01 7.243894795534196e-02
7.885600000000000e+10 9.379872378515899e-01 7.417024460010865e-02
7.890400000000000e+10 9.399895507786399e-01 7.310774488009614e-02
7.895200000000000e+10 9.387261845301734e-01 7.242502884846432e-02
7.900000000000000e+10 9.400214885116918e-01 7.099181740543775e-02
7.904800000000000e+10 9.410219608787453e-01 6.985649698183455e-02
7.909600000000000e+10 9.408392503247605e-01 6.840667383042603e-02
7.914400000000000e+10 9.421119324857390e-01 6.713554998126361e-02
7.919200000000000e+10 9.400149045889789e-01 6.755024944268521e-02
7.924000000000000e+10 9.390491502232853e-01 6.824733256531494e-02
7.928800000000000e+10 9.377833676199976e-01 6.979898753961887e-02
7.933600000000000e+10 9.373465369347599e-01 7.141368912401815e-02
7.938400000000000e+10 9.382974069714470e-01 7.289085384167578e-02
7.943200000000000e+10 9.386327635181942e-01 7.432756884330853e-02
7.948000000000000e+10 9.376382741669371e-01 7.432770807590755e-02
7.952800000000000e+10 9.368317437793270e-01 7.500734503585020e-02
7.957600000000000e+10 9.383082677330500e-01 7.696858966752466e-02
7.962400000000000e+10 9.395828739545979e-01 7.819468765775152e-02
7.967200000000000e+10 9.395315160064406e-01 7.712650145591429e-02
7.972000000000000e+10 9.380036759308483e-01 7.883910780306630e-02
7.976800000000000e+10 9.353448392059478e-01 7.541519520964422e-02
7.981600000000000e+10 9.415782395419845e-01 7.502768998604399e-02
7.986400000000000e+10 9.385685071491161e-01 7.558174835485749e-02
7.991200000000000e+10 9.362340816976392e-01 7.475297397690391e-02
7.996000000000000e+10 9.369497110123847e-01 7.575176277716644e-02
8.000800000000000e+10 9.355991102504834e-01 7.428537063498951e-02
8.005600000000000e+10 9.322040461721038e-01 7.451671832109877e-02
8.010400000000000e+10 9.351581926707246e-01 7.697862979995479e-02
8.015200000000000e+10 9.352280727696652e-01 7.603334542349990e-02
8.020000000000000e+10 9.363707802637609e-01 7.663955217414334e-02
8.024800000000000e+10 9.364783999077622e-01 7.597390684952168e-02
8.029600000000000e+10 9.368995977300409e-01 7.492370054159635e-02
8.034400000000000e+10 9.366082379678810e-01 7.245086123406919e-02
8.039200000000000e+10 9.377353393263217e-01 7.431489212675511e-02
8.044000000000000e+10 9.340976654665143e-01 7.004505376975789e-02
8.048800000000000e+10 9.350544833884198e-01 7.217081806785276e-02
8.053600000000000e+10 9.375364636886966e-01 7.226262651532296e-02
8.058400000000000e+10 9.361689171427579e-01 7.275464434899341e-02
8.063200000000000e+10 9.350833568951809e-01 7.285664675766100e-02
8.068000000000000e+10 9.369675058137900e-01 7.543374490006120e-02
8.072800000000000e+10 9.367721927355986e-01 7.674979087060994e-02
8.077600000000000e+10 9.370575398180897e-01 7.542874015419311e-02
8.082400000000000e+10 9.374823168807365e-01 7.646417583561323e-02
8.087200000000000e+10 9.370296799942707e-01 7.444866451850836e-02
8.092000000000000e+10 9.369110738339116e-01 7.466556726803940e-02
8.096800000000000e+10 9.361011457751277e-01 7.324301195596850e-02
8.101600000000000e+10 9.388721556916722e-01 7.510269650827207e-02
8.106400000000000e+10 9.394751395314627e-01 7.418998608783815e-02
8.111200000000000e+10 9.397798383581321e-01 7.445436561427760e-02
8.116000000000000e+10 9.362942607980713e-01 7.432780483747684e-02
8.120800000000000e+10 9.351604728251690e-01 7.195316738032562e-02
8.125600000000000e+10 9.419241413868508e-01 7.472467930807669e-02
8.130400000000000e+10 9.419107068907766e-01 7.362477339370091e-02
8.135200000000000e+10 9.378278560607952e-01 7.372205638458727e-02
8.140000000000000e+10 9.348935494895853e-01 7.426516192908661e-02
8.144800000000000e+10 9.360988695614044e-01 7.017763575701018e-02
8.149600000000000e+10 9.367664816295266e-01 6.924195436627155e-02
8.154400000000000e+10 9.379177198003794e-01 7.312254318607615e-02
8.159200000000000e+10 9.316912891282276e-01 7.126548408913748e-02
8.164000000000000e+10 9.381747273850106e-01 7.004152253238771e-02
8.168800000000000e+10 9.408626681230828e-01 7.273477074979044e-02
8.173600000000000e+10 9.343005722997623e-01 7.395307271322590e-02
8.178400000000000e+10 9.310942509526425e-01 7.379119412399027e-02
8.183200000000000e+10 9.305699320730848e-01 7.332775534546263e-02
8.188000000000000e+10 9.352732863676779e-01 7.321892938917661e-02
8.192800000000000e+10 9.358837619260650e-01 7.461072607363468e-02
8.197600000000000e+10 9.345621545363848e-01 7.462994511851838e-02
8.202400000000000e+10 9.326002270943875e-01 7.309457463401330e-02
8.207200000000000e+10 9.315167297783344e-01 7.375219580314227e-02
8.212000000000000e+10 9.319710476178696e-01 7.234061747051743e-02
8.216800000000000e+10 9.342737967552989e-01 7.154853892995842e-02
8.221600000000000e+10 9.346900844330727e-01 7.019502260226121e-02
8.226400000000000e+10 9.356432813069347e-01 7.047648430784738e-02
8.231200000000000e+10 9.356886785309225e-01 7.056280653348657e-02
8.236000000000000e+10 9.359478136633079e-01 7.232139742134740e-02
8.240800000000000e+10 9.364044363726625e-01 7.228459151298453e-02
8.245600000000000e+10 9.366855171648041e-01 7.390768241004642e-02
8.250400000000000e+10 9.367703272408056e-01 7.361161054601953e-02
8.255200000000000e+10 9.378158643730043e-01 7.436145900007302e-02
8.260000000000000e+10 9.377807570010076e-01 7.406654623059326e-02
8.264800000000000e+10 9.373561555970774e-01 7.193250040439704e-02
8.269600000000000e+10 9.370924119601444e-01 7.171609480211905e-02
8.274400000000000e+10 9.368187117531910e-01 7.123322342133563e-02
8.279200000000000e+10 9.374964985407682e-01 7.110124255393645e-02
8.284000000000000e+10 9.384562243663209e-01 7.126776549545392e-02
8.288800000000000e+10 9.374648355855966e-01 7.074856511098619e-02
8.293600000000000e+10 9.368045799056919e-01 7.127238465594665e-02
8.298400000000000e+10 9.366231164732501e-01 7.210849434779489e-02
8.303200000000000e+10 9.360187761515992e-01 7.335683241361868e-02
8.308000000000000e+10 9.357310575844925e-01 7.407205384988169e-02
8.312800000000000e+10 9.338607747015991e-01 7.482145849491420e-02
8.317600000000000e+10 9.342904522049765e-01 7.505482754219146e-02
8.322400000000000e+10 9.344583308274392e-01 7.423322657390298e-02
8.327200000000000e+10 9.365832027067171e-01 7.250162344298931e-02
8.332000000000000e+10 9.363976618372705e-01 7.360873472989324e-02
8.336800000000000e+10 9.376693113359699e-01 7.115275551692292e-02
8.341600000000000e+10 9.393498715951989e-01 7.065289283639330e-02
8.346400000000000e+10 9.396277492630871e-01 7.006704580889515e-02
8.351200000000000e+10 9.403046199913278e-01 7.077561865260108e-02
8.356000000000000e+10 9.395621253638975e-01 6.944572465869026e-02
8.360800000000000e+10 9.387535781694863e-01 6.955189348832218e-02
8.365600000000000e+10 9.378604414745664e-01 6.946678498552347e-02
8.370400000000000e+10 9.382161024768204e-01 7.039369346693347e-02
8.375200000000000e+10 9.377548024107488e-01 7.171367049922284e-02
8.380000000000000e+10 9.356248622963894e-01 7.154965751519801e-02
8.384800000000000e+10 9.349738686051481e-01 6.962025044168947e-02
8.389600000000000e+10 9.348753748283755e-01 7.091140218732710e-02
8.394400000000000e+10 9.375807917610479e-01 7.067939665660267e-02
8.399200000000000e+10 9.387109281797306e-01 7.161041245288206e-02
8.404000000000000e+10 9.408033358479391e-01 7.173506827174972e-02
8.408800000000000e+10 9.413206349147097e-01 7.304438066833452e-02
8.413600000000000e+10 9.412876603573025e-01 7.280295887213942e-02
8.418400000000000e+10 9.425684408767525e-01 7.371120398289449e-02
8.423200000000000e+10 9.393184172458522e-01 7.181390079641560e-02
8.428000000000000e+10 9.417108450341141e-01 7.465980972910545e-02
8.432800000000000e+10 9.403220009246600e-01 7.368075119307547e-02
8.437600000000000e+10 9.386977649408121e-01 7.168927843585995e-02
8.442400000000000e+10 9.384363250486405e-01 7.119947058052445e-02
8.447200000000000e+10 9.385550991074556e-01 7.128765147740940e-02
8.452000000000000e+10 9.381844388835543e-01 7.106363493963173e-02
8.456800000000000e+10 9.392240497722765e-01 7.078265439435015e-02
8.461600000000000e+10 9.399163769684352e-01 7.055593859571099e-02
8.466400000000000e+10 9.410216659322150e-01 6.966448149279351e-02
8.471200000000000e+10 9.415285670138497e-01 6.713638576196559e-02
8.476000000000000e+10 9.416973700393557e-01 6.620235862568315e-02
8.480800000000000e+10 9.406766797287616e-01 6.882233837505730e-02
8.485600000000000e+10 9.395605849744570e-01 7.011258523438291e-02
8.490400000000000e+10 9.381613662446588e-01 6.896741219624351e-02
8.495200000000000e+10 9.375742865769486e-01 6.865488947718884e-02
8.500000000000000e+10 9.385156403997010e-01 6.946102262807341e-02
8.504800000000000e+10 9.357273310622491e-01 6.985854812505127e-02
8.509600000000000e+10 9.383318934965221e-01 7.133827142328542e-02
8.514400000000000e+10 9.361074953064156e-01 7.495895623353804e-02
8.519200000000000e+10 9.398982004657227e-01 6.873950654639438e-02
8.524000000000000e+10 9.395263726891518e-01 7.243732501204238e-02
8.528800000000000e+10 9.386409146419560e-01 7.193116675622806e-02
8.533600000000000e+10 9.419289193086497e-01 6.847829416178274e-02
8.538400000000000e+10 9.383899592787417e-01 6.914285905287837e-02
8.543200000000000e+10 9.386189803553895e-01 6.942833988842725e-02
8.548000000000000e+10 9.397168625693521e-01 6.950733095877595e-02
8.552800000000000e+10 9.402411486104075e-01 7.150463146537571e-02
8.557600000000000e+10 9.364725861827197e-01 6.686009766050161e-02
8.562400000000000e+10 9.381101833284926e-01 6.880619261729684e-02
8.567200000000000e+10 9.387039046932680e-01 7.006275082685415e-02
8.572000000000000e+10 9.405859211679410e-01 7.105460008863973e-02
8.576800000000000e+10 9.378359569093996e-01 7.011913374668498e-02
8.581600000000000e+10 9.389236918849051e-01 7.219075877511688e-02
8.586400000000000e+10 9.391676461308346e-01 7.135506326122111e-02
8.591200000000000e+10 9.405559567034171e-01 7.117406711967761e-02
8.596000000000000e+10 9.415716613473043e-01 7.177429701322795e-02
8.600800000000000e+10 9.410510732962548e-01 7.160596687700224e-02
8.605600000000000e+10 9.419182311251615e-01 6.978526799891600e-02
8.610400000000000e+10 9.406856923668371e-01 6.990657668092715e-02
8.615200000000000e+10 9.398548433070921e-01 7.021839937105591e-02
8.620000000000000e+10 9.384474374269486e-01 7.066961826142414e-02
8.624800000000000e+10 9.380703415143059e-01 4.218344901406718e-02
8.629600000000000e+10 9.358987293729173e-01 6.524264821824646e-02
8.634400000000000e+10 9.467216114803294e-01 7.216715785578232e-02
8.639200000000000e+10 9.420072457573284e-01 7.199199451447712e-02
8.644000000000000e+10 9.378358177286603e-01 7.153788087079820e-02
8.648800000000000e+10 9.408023760296842e-01 7.066318436013092e-02
8.653600000000000e+10 9.410558214841624e-01 7.003588939988392e-02
8.658400000000000e+10 9.440501814001857e-01 7.016950977802872e-02
8.663200000000000e+10 9.400816668917287e-01 7.022214815005588e-02
8.668000000000000e+10 9.379850682606714e-01 6.763658990331865e-02
8.672800000000000e+10 9.417535547628172e-01 6.466106342106565e-02
8.677600000000000e+10 9.431305833381031e-01 6.915429662711751e-02
8.682400000000000e+10 9.397636486186403e-01 6.973245293830892e-02
8.687200000000000e+10 9.401103043202163e-01 6.979749541018301e-02
8.692000000000000e+10 9.383615063142374e-01 6.999572119320674e-02
8.696800000000000e+10 9.373936896056140e-01 6.850527422010710e-02
8.701600000000000e+10 9.376421134981985e-01 6.722752566251136e-02
8.706400000000000e+10 9.379337532606498e-01 6.715876356532997e-02
8.711200000000000e+10 9.406256229913108e-01 6.578528697402300e-02
8.716000000000000e+10 9.393877728225752e-01 6.616294898824236e-02
8.720800000000000e+10 9.421691018111348e-01 6.618849800355284e-02
8.725600000000000e+10 9.431208399842176e-01 6.781149673572798e-02
8.730400000000000e+10 9.417884089366225e-01 6.963486342486623e-02
8.735200000000000e+10 9.393526795018220e-01 6.681390428946882e-02
8.740000000000000e+10 9.355500906472002e-01 6.716080410561232e-02
8.744800000000000e+10 9.379465781973978e-01 6.241808812681282e-02
8.749600000000000e+10 9.363165595739965e-01 6.347502436742329e-02
8.754400000000000e+10 9.410785243771580e-01 6.465151357579806e-02
8.759200000000000e+10 9.394410687025172e-01 6.699306631278001e-02
8.764000000000000e+10 9.437536987963437e-01 6.613187961913257e-02
8.768800000000000e+10 9.335472737920841e-01 6.576164305258442e-02
8.773600000000000e+10 9.424843238675625e-01 6.482067581926332e-02
8.778400000000000e+10 9.426064946393700e-01 6.772625287490036e-02
8.783200000000000e+10 9.406931624000866e-01 7.094422419436909e-02
8.788000000000000e+10 9.426096421044690e-01 6.714548070316675e-02
8.792800000000000e+10 9.411688018762997e-01 6.718079280371220e-02
8.797600000000000e+10 9.428124825096941e-01 6.646048803220453e-02
8.802400000000000e+10 9.427858031564659e-01 6.375213203502177e-02
8.807200000000000e+10 9.425093208151303e-01 6.449909135021488e-02
8.812000000000000e+10 9.465961844251054e-01 6.257294831409825e-02
8.816800000000000e+10 9.389471277194295e-01 7.048955442549498e-02
8.821600000000000e+10 9.348571120639944e-01 6.523026649058683e-02
8.826400000000000e+10 9.395961209741066e-01 6.121233042147563e-02
8.831200000000000e+10 9.405224501295765e-01 6.255272370598391e-02
8.836000000000000e+10 9.398327587567666e-01 6.579837763555381e-02
8.840800000000000e+10 9.402458471100017e-01 6.530362636509872e-02
8.845600000000000e+10 9.399402160164888e-01 6.318851804823805e-02
8.850400000000000e+10 9.385538080542480e-01 6.940652985447286e-02
8.855200000000000e+10 9.361630934247708e-01 5.231956007466410e-02
8.860000000000000e+10 9.395128747965050e-01 3.918808108234471e-02
8.864800000000000e+10 9.426858250759378e-01 4.566797025836207e-02
8.869600000000000e+10 9.336779187299372e-01 1.099261143244018e-02
8.874400000000000e+10 9.372200964761729e-01 6.783326532956212e-02
8.879200000000000e+10 9.342515550421275e-01 6.272175092865596e-02
8.884000000000000e+10 9.385240234101159e-01 6.319633881342943e-02
8.888800000000000e+10 9.407349726977637e-01 5.645442689346510e-02
8.893600000000000e+10 9.380441889200354e-01 7.088009685249569e-02
8.898400000000000e+10 9.340455680167855e-01 6.960781680848294e-02
8.903200000000000e+10 9.355908171446552e-01 6.603194049165019e-02
8.908000000000000e+10 9.316490640942638e-01 6.197742500961625e-02
8.912800000000000e+10 9.330135146588835e-01 6.422124787283980e-02
8.917600000000000e+10 9.353811308886408e-01 6.505793015230545e-02
8.922400000000000e+10 9.348361709136085e-01 6.425653518476503e-02
8.927200000000000e+10 9.365649231161506e-01 6.393211037099268e-02
8.932000000000000e+10 9.355558432348431e-01 6.236146269963300e-02
8.936800000000000e+10 9.351283741357901e-01 6.323741597952912e-02
8.941600000000000e+10 9.362196559027322e-01 6.070438292451664e-02
8.946400000000000e+10 9.354039139291502e-01 6.180805751298188e-02
8.951200000000000e+10 9.365701497371230e-01 6.236712805536857e-02
8.956000000000000e+10 9.326324615494667e-01 6.430822961424426e-02
8.960800000000000e+10 9.358554328923656e-01 5.998426627256045e-02
8.965600000000000e+10 9.337616254003668e-01 6.615851144207333e-02
8.970400000000000e+10 9.376273724557361e-01 6.046109219467991e-02
8.975200000000000e+10 9.348185462823501e-01 6.602917874650348e-02
8.980000000000000e+10 9.355202189012776e-01 6.115515786884334e-02
8.984800000000000e+10 9.362032110646038e-01 5.717104128351835e-02
8.989600000000000e+10 9.291844121094545e-01 5.457909241949361e-02
8.994400000000000e+10 9.351044738614086e-01 5.820157015582560e-02
8.999200000000000e+10 9.369712880743192e-01 5.988047815485817e-02
9.004000000000000e+10 9.393973763257486e-01 5.835638428459183e-02
9.008800000000000e+10 9.386111622143617e-01 5.941716017161309e-02
9.013600000000000e+10 9.410503927958221e-01 5.796032468414491e-02
9.018400000000000e+10 9.335894798007143e-01 5.619230303433649e-02
9.023200000000000e+10 9.329530328698061e-01 4.907893973441214e-02
9.028000000000000e+10 9.297815575961290e-01 5.738562725198725e-02
9.032800000000000e+10 9.339002164361967e-01 5.871972114662204e-02
9.037600000000000e+10 9.332340749689351e-01 5.851387305435413e-02
9.042400000000000e+10 9.353915663945055e-01 5.913922567273078e-02
9.047200000000000e+10 9.337373285398815e-01 5.782919455940628e-02
9.052000000000000e+10 9.390141157726816e-01 5.823964294559494e-02
9.056800000000000e+10 9.382271363731761e-01 5.133193233493059e-02
9.061600000000000e+10 9.298045025716760e-01 5.095257309374378e-02
9.066400000000000e+10 9.356003733844112e-01 5.876056691933000e-02
9.071200000000000e+10 9.369485457847483e-01 5.563107898968144e-02
9.076000000000000e+10 9.357355294630408e-01 5.387786091855722e-02
9.080800000000000e+10 9.363428282339872e-01 5.187917173197321e-02
9.085600000000000e+10 9.314266234927894e-01 5.176976749221993e-02
9.090400000000000e+10 9.299269767035528e-01 5.284544160755193e-02
9.095200000000000e+10 9.278481216264466e-01 5.517892532256709e-02
9.100000000000000e+10 9.288489903784409e-01 5.991547013099988e-02
9.104800000000000e+10 9.303214480779519e-01 5.727437763547803e-02
9.109600000000000e+10 9.301585405520276e-01 5.967853879826900e-02
9.114400000000000e+10 9.316758012223838e-01 5.763612751528457e-02
9.119200000000000e+10 9.314900619482297e-01 5.670204684451827e-02
9.124000000000000e+10 9.340597336250916e-01 5.543647655966094e-02
9.128800000000000e+10 9.309483789513266e-01 5.464821477657943e-02
9.133600000000000e+10 9.343473309157840e-01 5.625262094765823e-02
9.138400000000000e+10 9.327996310865502e-01 5.516709877115644e-02
9.143200000000000e+10 9.337264149065679e-01 5.618728544046794e-02
9.148000000000000e+10 9.316304746517340e-01 5.649477562797736e-02
9.152800000000000e+10 9.303441126059074e-01 5.581102523105733e-02
9.157600000000000e+10 9.303137113606774e-01 5.696668333481517e-02
9.162400000000000e+10 9.284152029720173e-01 5.767252170076630e-02
9.167200000000000e+10 9.280828257369841e-01 5.915359490951963e-02
9.172000000000000e+10 9.292427418913206e-01 5.813447310597054e-02
9.176800000000000e+10 9.286497362055864e-01 6.041473812386181e-02
9.181600000000000e+10 9.303173257316263e-01 5.943888280020697e-02
9.186400000000000e+10 9.319874401660795e-01 5.829099730940637e-02
9.191200000000000e+10 9.322263651294543e-01 5.890845191207691e-02
9.196000000000000e+10 9.329472393930479e-01 5.680430547665931e-02
9.200800000000000e+10 9.319850830046944e-01 5.634997010967422e-02
9.205600000000000e+10 9.319941139180019e-01 5.855997753657336e-02
9.210400000000000e+10 9.318970753474228e-01 5.764666316007834e-02
9.215200000000000e+10 9.329660316870106e-01 5.868385846211364e-02
9.220000000000000e+10 9.308775621807510e-01 5.963957854112135e-02
9.224800000000000e+10 9.301486109640508e-01 6.088627754238125e-02
9.229600000000000e+10 9.295748972591217e-01 5.992309227146465e-02
9.234400000000000e+10 9.305646102721430e-01 5.928371472647241e-02
9.239200000000000e+10 9.313858741990195e-01 5.980380952693436e-02
9.244000000000000e+10 9.311175396420236e-01 5.890311215643580e-02
9.248800000000000e+10 9.329808641234957e-01 5.992381268187363e-02
9.253600000000000e+10 9.345257457605922e-01 5.631345572854413e-02
9.258400000000000e+10 9.339373682537168e-01 5.659354995652171e-02
9.263200000000000e+10 9.343850514852875e-01 5.436427267150503e-02
9.268000000000000e+10 9.350303952945453e-01 5.482370024920265e-02
9.272800000000000e+10 9.346202391238191e-01 5.477089191385871e-02
9.277600000000000e+10 9.350196920147344e-01 5.481636096094905e-02
9.282400000000000e+10 9.345174387175139e-01 5.561079453323484e-02
9.287200000000000e+10 9.342673688580125e-01 5.570766747002027e-02
9.292000000000000e+10 9.340670841403523e-01 5.722804991839651e-02
9.296800000000000e+10 9.332470840577521e-01 5.609101696058091e-02
9.301600000000000e+10 9.339369460633135e-01 5.765016921573500e-02
9.306400000000000e+10 9.337405079877460e-01 5.623343587032658e-02
9.311200000000000e+10 9.355274819961892e-01 5.684704051536649e-02
9.316000000000000e+10 9.348235488247465e-01 5.669018408238077e-02
9.320800000000000e+10 9.355360912859974e-01 5.614609547248835e-02
9.325600000000000e+10 9.364471426068693e-01 5.517641699153720e-02
9.330400000000000e+10 9.367364193794138e-01 5.512081361138294e-02
9.335200000000000e+10 9.371101550419725e-01 5.561842323873790e-02
9.340000000000000e+10 9.370145360465963e-01 5.494198128315954e-02
9.344800000000000e+10 9.369385068238064e-01 5.584232888681093e-02
9.349600000000000e+10 9.362608824720678e-01 5.636191976115489e-02
9.354400000000000e+10 9.363878578232728e-01 5.722502216796237e-02
9.359200000000000e+10 9.332262427166934e-01 5.529496152342065e-02
9.364000000000000e+10 9.317521466029581e-01 5.677114823239422e-02
9.368800000000000e+10 9.324786321688880e-01 5.895066948423454e-02
9.373600000000000e+10 9.331848699914954e-01 5.984300638121987e-02
9.378400000000000e+10 9.334970155232211e-01 6.104413978666137e-02
9.383200000000000e+10 9.340345791330189e-01 5.983019083556111e-02
9.388000000000000e+10 9.355939821302841e-01 5.992179509267393e-02
9.392800000000000e+10 9.361652804917989e-01 5.692454259219324e-02
9.397600000000000e+10 9.353599692870456e-01 5.737307966309527e-02
9.402400000000000e+10 9.350897588116698e-01 5.576603248090457e-02
9.407200000000000e+10 9.350974276652660e-01 5.691148581106521e-02
9.412000000000000e+10 9.346707023314117e-01 5.633584862826497e-02
9.416800000000000e+10 9.344915104526856e-01 5.880335759485818e-02
9.421600000000000e+10 9.327112097854706e-01 5.741172443110443e-02
9.426400000000000e+10 9.324164583055699e-01 6.010552562774283e-02
9.431200000000000e+10 9.318736415918089e-01 5.864684129661062e-02
9.436000000000000e+10 9.312333519529772e-01 6.086753244422414e-02
9.440800000000000e+10 9.322235731272093e-01 5.950705684392103e-02
9.445600000000000e+10 9.328737131584144e-01 6.202418303761002e-02
9.450400000000000e+10 9.319948570011410e-01 6.049678418477056e-02
9.455200000000000e+10 9.333757976053517e-01 6.104883040523266e-02
9.460000000000000e+10 9.333753573663659e-01 6.028106801073402e-02
9.464800000000000e+10 9.350343929736417e-01 5.893461145942949e-02
9.469600000000000e+10 9.345968282593795e-01 5.919635313393539e-02
9.474400000000000e+10 9.362077909547304e-01 5.744332403291915e-02
9.479200000000000e+10 9.357826257434885e-01 5.897258904518682e-02
9.484000000000000e+10 9.358455434259262e-01 5.599837616874530e-02
9.488800000000000e+10 9.359328680956920e-01 5.548108045413960e-02
9.493600000000000e+10 9.306852126390395e-01 6.058016613249028e-02
9.498400000000000e+10 9.370782367883569e-01 5.761486731214518e-02
9.503200000000000e+10 9.310999270791442e-01 5.654167574119210e-02
9.508000000000000e+10 9.300165503410640e-01 5.872725078782387e-02
9.512800000000000e+10 9.319861255174744e-01 6.076457143841776e-02
9.517600000000000e+10 9.314955938666699e-01 5.910613447064101e-02
9.522400000000000e+10 9.323527223538909e-01 6.105434196363008e-02
9.527200000000000e+10 9.329057638921968e-01 5.882155921272049e-02
9.532000000000000e+10 9.338193801245741e-01 5.940034414610823e-02
9.536800000000000e+10 9.336284123254036e-01 5.696490935557896e-02
9.541600000000000e+10 9.351588817853786e-01 5.825708644076001e-02
9.546400000000000e+10 9.333140891023131e-01 5.598432996859989e-02
9.551200000000000e+10 9.339360694855340e-01 5.553839879876860e-02
9.556000000000000e+10 9.330137992700676e-01 5.561517379518086e-02
9.560800000000000e+10 9.318810866775017e-01 5.580656245127127e-02
9.565600000000000e+10 9.311037915621286e-01 5.589607845098120e-02
9.570400000000000e+10 9.313251207051798e-01 5.634211983169205e-02
9.575200000000000e+10 9.313244142356594e-01 5.570136866121581e-02
9.580000000000000e+10 9.306212560055710e-01 5.621748846137543e-02
9.584800000000000e+10 9.301982392226975e-01 5.609047215122424e-02
9.589600000000000e+10 9.315356294754504e-01 5.624693228806597e-02
9.594400000000000e+10 9.315049119979700e-01 5.645749264306915e-02
9.599200000000000e+10 9.329000613080576e-01 5.475712782135547e-02
9.604000000000000e+10 9.342170113714668e-01 5.342764323121120e-02
9.608800000000000e+10 9.343928494053798e-01 5.221560311595715e-02
9.613600000000000e+10 9.362729984070099e-01 5.012845775028831e-02
9.618400000000000e+10 9.354717829439964e-01 4.929208402057107e-02
9.623200000000000e+10 9.350694014307792e-01 4.855062690087236e-02
9.628000000000000e+10 9.347422420343203e-01 4.891841973346644e-02
9.632800000000000e+10 9.346438514802734e-01 4.821991824777778e-02
9.637600000000000e+10 9.336079084586248e-01 4.867594605962325e-02
9.642400000000000e+10 9.320432293103357e-01 4.782074866103689e-02
9.647200000000000e+10 9.321717331718956e-01 4.738355919840990e-02
9.652000000000000e+10 9.296862768145348e-01 4.717283069179138e-02
9.656800000000000e+10 9.384681285239886e-01 5.454989455654781e-02
9.661600000000000e+10 9.335380664622824e-01 4.727629960412803e-02
9.666400000000000e+10 9.339747576290954e-01 4.786932284634673e-02
9.671200000000000e+10 9.339358845587195e-01 4.708422561958327e-02
9.676000000000000e+10 9.338994477601378e-01 4.526410440888318e-02
9.680800000000000e+10 9.332501001376676e-01 4.573873087497104e-02
9.685600000000000e+10 9.343105517753932e-01 4.334105356917008e-02
9.690400000000000e+10 9.348192525992495e-01 4.718733393843676e-02
9.695200000000000e+10 9.339827433181833e-01 4.404279376386847e-02
9.700000000000000e+10 9.342475067179258e-01 4.587937027430760e-02
9.704800000000000e+10 9.323061895230755e-01 4.346910841262579e-02
9.709600000000000e+10 9.362142840417663e-01 4.345678699492648e-02
9.714400000000000e+10 9.360398532468994e-01 4.638199058635195e-02
9.719200000000000e+10 9.352494987295108e-01 4.266645345072020e-02
9.724000000000000e+10 9.311955717006477e-01 4.184154403244181e-02
9.728800000000000e+10 9.342250286413677e-01 4.666761637964352e-02
9.733600000000000e+10 9.335818838162814e-01 4.447375017751765e-02
9.738400000000000e+10 9.338776686986159e-01 4.626639194147437e-02
9.743200000000000e+10 9.340478413990508e-01 4.381051303492182e-02
9.748000000000000e+10 9.345073051367492e-01 4.729984927990670e-02
9.752800000000000e+10 9.345861141063305e-01 4.216869457444362e-02
9.757600000000000e+10 9.330457397513969e-01 4.598942379987395e-02
9.762400000000000e+10 9.331052544599182e-01 4.254021812477816e-02
9.767200000000000e+10 9.338116247051265e-01 4.482085745290644e-02
9.772000000000000e+10 9.325765217017001e-01 4.194340682071901e-02
9.776800000000000e+10 9.307251399172553e-01 4.364904173986544e-02
9.781600000000000e+10 9.241008411915783e-01 4.034868461857600e-02
9.786400000000000e+10 9.308199501769482e-01 4.807081249611766e-02
9.791200000000000e+10 9.388894435199781e-01 4.666489819017246e-02
9.796000000000000e+10 9.307560514238465e-01 4.414209342207580e-02
9.800800000000000e+10 9.332251204055217e-01 4.510672830400337e-02
9.805600000000000e+10 9.286529308036879e-01 4.350946603431426e-02
9.810400000000000e+10 9.298010655154709e-01 4.595121459718516e-02
9.815200000000000e+10 9.297518806535264e-01 4.266573453572538e-02
9.820000000000000e+10 9.325665659202160e-01 4.559256971091576e-02
9.824800000000000e+10 9.334232845853412e-01 4.333032235133441e-02
9.829600000000000e+10 9.312398538229997e-01 4.652597592044772e-02
9.834400000000000e+10 9.289068820321655e-01 4.232833504563899e-02
9.839200000000000e+10 9.307427397542974e-01 4.337248036909050e-02
9.844000000000000e+10 9.307851899444928e-01 4.488270177523698e-02
9.848800000000000e+10 9.339190408512861e-01 4.456469872494466e-02
9.853600000000000e+10 9.318510248357744e-01 4.533188142443212e-02
9.858400000000000e+10 9.289178372164550e-01 4.556222538469534e-02
9.863200000000000e+10 9.264942460438491e-01 4.173038100932252e-02
9.868000000000000e+10 9.261670714460244e-01 4.383304705540992e-02
9.872800000000000e+10 9.257540935004966e-01 4.550766348743567e-02
9.877600000000000e+10 9.290931174816123e-01 4.869447010521474e-02
9.882400000000000e+10 9.327145855353213e-01 4.582478860100579e-02
9.887200000000000e+10 9.314422243167284e-01 4.456351622221893e-02
9.892000000000000e+10 9.287901704332175e-01 4.270167942009125e-02
9.896800000000000e+10 9.278468475674428e-01 4.413843047093740e-02
9.901600000000000e+10 9.305878891913959e-01 4.291075215058034e-02
9.906400000000000e+10 9.335181816946065e-01 4.411877003061817e-02
9.911200000000000e+10 9.271263929800382e-01 4.094737989796431e-02
9.916000000000000e+10 9.305913076830037e-01 4.226831405476342e-02
9.920800000000000e+10 9.316136586413193e-01 4.164429071310642e-02
9.925600000000000e+10 9.298764002408080e-01 4.197595652778872e-02
9.930400000000000e+10 9.278170766195688e-01 4.282747042929057e-02
9.935200000000000e+10 9.330692374187544e-01 4.475195899763561e-02
9.940000000000000e+10 9.291337254072602e-01 4.130410059723911e-02
9.944800000000000e+10 9.302109591611187e-01 4.256670066290624e-02
9.949600000000000e+10 9.257004656404655e-01 3.845817604389556e-02
9.954400000000000e+10 9.266676931067973e-01 4.026323597527287e-02
9.959200000000000e+10 9.260869025821493e-01 4.116541216897564e-02
9.964000000000000e+10 9.296731222043888e-01 3.989168469935688e-02
9.968800000000000e+10 9.280286426372577e-01 4.039157661850352e-02
9.973600000000000e+10 9.272713786381628e-01 3.763949989524412e-02
9.978400000000000e+10 9.254080003485858e-01 4.173096470233771e-02
9.983200000000000e+10 9.288135414146580e-01 4.084376627111543e-02
9.988000000000000e+10 9.237731055893772e-01 4.113472498309072e-02
9.992800000000000e+10 9.268083264803467e-01 4.227062335440926e-02
9.997600000000000e+10 9.304422784295941e-01 4.349218053165462e-02
1.000240000000000e+11 9.251477253226280e-01 4.166569894829577e-02
1.000720000000000e+11 9.306745688061600e-01 4.365679393432403e-02
1.001200000000000e+11 9.255949882317643e-01 3.958921000761331e-02
1.001680000000000e+11 9.257093043491560e-01 4.375082970808041e-02
1.002160000000000e+11 9.233032431860355e-01 4.013393464166326e-02
1.002640000000000e+11 9.250200149643074e-01 4.435848850078915e-02
1.003120000000000e+11 9.249392986665431e-01 4.096997997092391e-02
1.003600000000000e+11 9.279703583228760e-01 4.394606750768420e-02
1.004080000000000e+11 9.260187972036006e-01 4.042769686945247e-02
1.004560000000000e+11 9.298298543823631e-01 3.818049962204879e-02
1.005040000000000e+11 9.227343442959997e-01 4.068821907682891e-02
1.005520000000000e+11 9.282692664879330e-01 4.128578758181672e-02
1.006000000000000e+11 9.247259982621864e-01 3.965159682987913e-02
1.006480000000000e+11 9.184764771059762e-01 4.098166526891358e-02
1.006960000000000e+11 9.256035601446715e-01 3.766547623814832e-02
1.007440000000000e+11 9.312066075796817e-01 4.512340636670501e-02
1.007920000000000e+11 9.212786290661140e-01 4.119634952114669e-02
1.008400000000000e+11 9.261712499445911e-01 4.140123239103397e-02
1.008880000000000e+11 9.231365017125059e-01 4.090858419787090e-02
1.009360000000000e+11 9.281205731864355e-01 4.222025404863027e-02
1.009840000000000e+11 9.268314539107961e-01 4.037015348747949e-02
1.010320000000000e+11 9.246188694896103e-01 4.042230370289278e-02
1.010800000000000e+11 9.247186770232780e-01 4.015548517819451e-02
1.011280000000000e+11 9.251581064885867e-01 3.879556113723150e-02
1.011760000000000e+11 9.229672756226842e-01 4.030797284502121e-02
1.012240000000000e+11 9.247202723192200e-01 3.776186595596506e-02
1.012720000000000e+11 9.239465050708410e-01 3.924388337609764e-02
1.013200000000000e+11 9.235313446452870e-01 4.063531763636577e-02
1.013680000000000e+11 9.235624738844678e-01 3.875987078676498e-02
1.014160000000000e+11 9.216460304429495e-01 4.158168600035941e-02
1.014640000000000e+11 9.228793651311330e-01 4.041061568987652e-02
1.015120000000000e+11 9.222117407940126e-01 4.034031340800460e-02
1.015600000000000e+11 9.179706449122987e-01 3.501430745456604e-02
1.016080000000000e+11 9.177194530447971e-01 3.863621817349953e-02
1.016560000000000e+11 9.183804289950561e-01 3.655886630560642e-02
1.017040000000000e+11 9.187690683617633e-01 3.816616126758956e-02
1.017520000000000e+11 9.246396381498836e-01 4.270912408498936e-02
1.018000000000000e+11 9.298862996693433e-01 4.033256205934124e-02
1.018480000000000e+11 9.252522261440659e-01 3.569821881055485e-02
1.018960000000000e+11 9.207863921196309e-01 3.096403977296072e-02
1.019440000000000e+11 9.245664157056130e-01 4.137150421650018e-02
1.019920000000000e+11 9.282030220586962e-01 3.842293312959368e-02
1.020400000000000e+11 9.229041551341073e-01 3.389050110264089e-02
1.020880000000000e+11 9.195507662454797e-01 3.183350406834980e-02
1.021360000000000e+11 9.179462932417800e-01 3.663111720223301e-02
1.021840000000000e+11 9.209040746840106e-01 4.001266983750329e-02
1.022320000000000e+11 9.222680055419044e-01 4.090966193564633e-02
1.022800000000000e+11 9.239835860130600e-01 4.174367032520693e-02
1.023280000000000e+11 9.245574186346039e-01 4.377681154786409e-02
1.023760000000000e+11 9.254288901968141e-01 3.885939358237246e-02
1.024240000000000e+11 9.223073659032566e-01 3.786829114298604e-02
1.024720000000000e+11 9.226618655040891e-01 3.801135038738328e-02
1.025200000000000e+11 9.234762961527548e-01 3.901116128785537e-02
1.025680000000000e+11 9.214974758681066e-01 4.000869240656060e-02
1.026160000000000e+11 9.249191379729492e-01 4.162377261969156e-02
1.026640000000000e+11 9.231958128357010e-01 3.855431645233362e-02
1.027120000000000e+11 9.274381211301040e-01 3.714699085447033e-02
1.027600000000000e+11 9.236482972975700e-01 3.825053490534880e-02
1.028080000000000e+11 9.229511046472701e-01 3.952873195809045e-02
1.028560000000000e+11 9.202887647811416e-01 4.035319474035009e-02
1.029040000000000e+11 9.204262616231956e-01 3.626437421130931e-02
1.029520000000000e+11 9.192488218447177e-01 3.754175557897604e-02
1.030000000000000e+11 9.193708861687639e-01 3.959172556879184e-02
1.030480000000000e+11 9.175043420734877e-01 3.601446514241965e-02
1.030960000000000e+11 9.194307158723785e-01 3.938253226760299e-02
1.031440000000000e+11 9.196456555892609e-01 3.730375915649946e-02
1.031920000000000e+11 9.219389296329026e-01 4.053720037712357e-02
1.032400000000000e+11 9.225904906315104e-01 3.873762456594077e-02
1.032880000000000e+11 9.233047689278441e-01 3.937009361295823e-02
1.033360000000000e+11 9.219673025793949e-01 3.670356888411118e-02
1.033840000000000e+11 9.229013580685231e-01 3.713532817901829e-02
1.034320000000000e+11 9.235581061066857e-01 3.624041363845907e-02
1.034800000000000e+11 9.230851512416881e-01 3.640995703775946e-02
1.035280000000000e+11 9.229011210269960e-01 3.476554514035585e-02
1.035760000000000e+11 9.221357131496019e-01 3.471708815196660e-02
1.036240000000000e+11 9.219210692172903e-01 3.594730493405495e-02
1.036720000000000e+11 9.211608700466228e-01 3.505228800257498e-02
1.037200000000000e+11 9.209017276027947e-01 3.771234938509969e-02
1.037680000000000e+11 9.206545791388969e-01 3.562673698007949e-02
1.038160000000000e+11 9.207592678621822e-01 3.751194216983224e-02
1.038640000000000e+11 9.207313803775129e-01 3.891950143735623e-02
1.039120000000000e+11 9.220186246698550e-01 3.715780251848213e-02
1.039600000000000e+11 9.226044621649615e-01 3.617512694245159e-02
1.040080000000000e+11 9.234552408441237e-01 3.596453547956662e-02
1.040560000000000e+11 9.243210583862205e-01 3.492661960925181e-02
1.041040000000000e+11 9.243387961454775e-01 3.463179627249103e-02
1.041520000000000e+11 9.219543337965429e-01 3.383122074994750e-02
1.042000000000000e+11 9.238043679990841e-01 3.591457867687169e-02
1.042480000000000e+11 9.230652277003197e-01 3.307046574734047e-02
1.042960000000000e+11 9.210692703896630e-01 3.287122442082946e-02
1.043440000000000e+11 9.174907662399842e-01 3.100014846573494e-02
1.043920000000000e+11 9.171200265164665e-01 3.405039925785455e-02
1.044400000000000e+11 9.173765895446481e-01 3.317325459490467e-02
1.044880000000000e+11 9.193520385417420e-01 3.607233750523976e-02
1.045360000000000e+11 9.191337853633565e-01 3.545767017022623e-02
1.045840000000000e+11 9.191024937100409e-01 3.216633211668560e-02
1.046320000000000e+11 9.157058814175463e-01 3.679926929644552e-02
1.046800000000000e+11 9.222890389129343e-01 3.408362313415530e-02
1.047280000000000e+11 9.197950534584473e-01 3.406660833626377e-02
1.047760000000000e+11 9.217659509024365e-01 3.155590001903179e-02
1.048240000000000e+11 9.254839471869943e-01 3.690401130382508e-02
1.048720000000000e+11 9.241898941147285e-01 3.435725648454455e-02
1.049200000000000e+11 9.144047959627558e-01 2.791457159665560e-02
1.049680000000000e+11 9.241944767094096e-01 2.982382922484744e-02
1.050160000000000e+11 9.213810025600192e-01 2.909605746589745e-02
1.050640000000000e+11 9.245649878643659e-01 3.252174203598235e-02
1.051120000000000e+11 9.195785704304839e-01 2.866782465375614e-02
1.051600000000000e+11 9.204624442760525e-01 3.139225319321240e-02
1.052080000000000e+11 9.187402355740983e-01 3.103546132820114e-02
1.052560000000000e+11 9.218150458994527e-01 3.302224253045333e-02
1.053040000000000e+11 9.214043373711620e-01 3.240350740357541e-02
1.053520000000000e+11 9.232261503207834e-01 3.101550563194675e-02
1.054000000000000e+11 9.233051430057037e-01 3.208638927457063e-02
1.054480000000000e+11 9.229492468469909e-01 2.872292937402810e-02
1.054960000000000e+11 9.237940739854797e-01 3.055108930821708e-02
1.055440000000000e+11 9.253237461485224e-01 2.915262903283326e-02
1.055920000000000e+11 9.177370555042051e-01 2.832239224334049e-02
1.056400000000000e+11 9.247839079203380e-01 2.616893639716937e-02
1.056880000000000e+11 9.234019382594840e-01 2.905205399753924e-02
1.057360000000000e+11 9.166522699626758e-01 2.826122049551493e-02
1.057840000000000e+11 9.262476360688273e-01 2.866112085743879e-02
1.058320000000000e+11 9.223773501729061e-01 2.837640155661968e-02
1.058800000000000e+11 9.195780788694122e-01 2.989485174392763e-02
1.059280000000000e+11 9.184306045743229e-01 2.870915027652952e-02
1.059760000000000e+11 9.161446140417685e-01 2.982724790105628e-02
1.060240000000000e+11 9.169633032278519e-01 2.799540098775757e-02
1.060720000000000e+11 9.218281666082875e-01 3.304959905721479e-02
1.061200000000000e+11 9.259943702986843e-01 3.216835821296833e-02
1.061680000000000e+11 9.223020045251151e-01 3.197101554540583e-02
1.062160000000000e+11 9.288038642046561e-01 3.520445822714264e-02
1.062640000000000e+11 9.196003530814956e-01 2.437819936432339e-02
1.063120000000000e+11 9.270741223599315e-01 3.050880575460958e-02
1.063600000000000e+11 9.160144053875102e-01 2.346048425142670e-02
1.064080000000000e+11 9.095234795568603e-01 2.621350168222966e-02
1.064560000000000e+11 9.367422466535311e-01 3.885973250029909e-02
1.065040000000000e+11 9.071763698624745e-01 1.700143553498443e-02
1.065520000000000e+11 9.140600640418245e-01 2.529904827719218e-02
1.066000000000000e+11 9.287766716085885e-01 3.549237858711215e-02
1.066480000000000e+11 9.187608567781049e-01 3.005697299461770e-02
1.066960000000000e+11 9.028220152350759e-01 2.665310989346135e-02
1.067440000000000e+11 9.265062361318589e-01 2.817587992180401e-02
1.067920000000000e+11 9.172036118755021e-01 2.707693028887781e-02
1.068400000000000e+11 9.187573532815230e-01 2.835739429899659e-02
1.068880000000000e+11 9.191479350320443e-01 2.938830035373837e-02
1.069360000000000e+11 9.083712778404236e-01 2.241734560634766e-02
1.069840000000000e+11 9.276427626866508e-01 2.523654856671849e-02
1.070320000000000e+11 9.207000106745519e-01 2.375425563160632e-02
1.070800000000000e+11 9.192465955803546e-01 2.571316541343810e-02
1.071280000000000e+11 9.168390755987399e-01 2.680685557213749e-02
1.071760000000000e+11 9.160774562519248e-01 2.221152518184791e-02
1.072240000000000e+11 9.197707106791954e-01 2.816308242795468e-02
1.072720000000000e+11 9.188978385939286e-01 2.581554505238382e-02
1.073200000000000e+11 9.179362311261873e-01 2.672738774167159e-02
1.073680000000000e+11 9.146997395050859e-01 2.757221273324060e-02
1.074160000000000e+11 9.104173713714095e-01 2.625071943458124e-02
1.074640000000000e+11 9.150464055671081e-01 3.032408813829932e-02
1.075120000000000e+11 9.228683236784472e-01 3.310334657561251e-02
1.075600000000000e+11 9.125023574852218e-01 2.634055117027148e-02
1.076080000000000e+11 9.172544582426708e-01 2.892042204390423e-02
1.076560000000000e+11 9.186290881058211e-01 3.124387689659400e-02
1.077040000000000e+11 9.209463621352069e-01 2.853859148309934e-02
1.077520000000000e+11 9.212222834337284e-01 2.567331924425119e-02
1.078000000000000e+11 9.212134669134187e-01 2.127167991344544e-02
1.078480000000000e+11 9.198020192412081e-01 2.336806292496730e-02
1.078960000000000e+11 9.174404529468525e-01 2.228869493829247e-02
1.079440000000000e+11 9.071088408644113e-01 2.437188503766677e-02
1.079920000000000e+11 9.160589505516183e-01 2.840656440823645e-02
1.080400000000000e+11 9.130993220711972e-01 2.943367791845166e-02
1.080880000000000e+11 9.072883104264748e-01 2.624862087513379e-02
1.081360000000000e+11 9.104220980331454e-01 2.733298336693402e-02
1.081840000000000e+11 9.140753920201142e-01 3.216401162638377e-02
1.082320000000000e+11 9.162868287329369e-01 3.116520230453918e-02
1.082800000000000e+11 9.159895285037214e-01 3.293609893052428e-02
1.083280000000000e+11 9.149302135432966e-01 3.269127506391369e-02
1.083760000000000e+11 9.179956751938374e-01 3.784347996209005e-02
1.084240000000000e+11 9.218087770881779e-01 3.517934778198396e-02
1.084720000000000e+11 9.161840532102219e-01 2.222348652235100e-02
1.085200000000000e+11 9.099738307385226e-01 2.441369930594806e-02
1.085680000000000e+11 9.108459185201903e-01 2.393166846646783e-02
1.086160000000000e+11 9.093796735272925e-01 2.730915739548522e-02
1.086640000000000e+11 9.122808005212605e-01 3.453278574781959e-02
1.087120000000000e+11 9.155629091229973e-01 3.263001766361372e-02
1.087600000000000e+11 9.142699492430322e-01 3.456540663582788e-02
1.088080000000000e+11 9.131128400897819e-01 3.254089551659593e-02
1.088560000000000e+11 9.150924510098843e-01 3.553980780717934e-02
1.089040000000000e+11 9.146532268969645e-01 3.339118709541174e-02
1.089520000000000e+11 9.148169324000677e-01 3.035592213442392e-02
1.090000000000000e+11 9.116229022189466e-01 2.619466222240260e-02
1.090480000000000e+11 9.099865688905332e-01 2.433871279874783e-02
1.090960000000000e+11 9.125364948934087e-01 2.011673222049300e-02
1.091440000000000e+11 9.181117874552857e-01 2.033507417820931e-02
1.091920000000000e+11 9.182366923121673e-01 2.099175960538330e-02
1.092400000000000e+11 9.183824015524857e-01 3.174487230644479e-02
1.092880000000000e+11 9.171135198221249e-01 3.234698985091152e-02
1.093360000000000e+11 9.142295280830288e-01 3.017268629000651e-02
1.093840000000000e+11 9.148351192241935e-01 3.330640839687309e-02
1.094320000000000e+11 9.121070248410559e-01 3.535501576376975e-02
1.094800000000000e+11 9.087666171296033e-01 5.780504265729233e-02
1.095280000000000e+11 9.073621079897980e-01 2.778952538219679e-02
1.095760000000000e+11 9.071473722738991e-01 2.961340469499417e-02
1.096240000000000e+11 9.143020835843698e-01 2.649763157666638e-02
1.096720000000000e+11 9.145518907411574e-01 2.814931526420397e-02
1.097200000000000e+11 9.156692929236862e-01 2.272809195531990e-02
1.097680000000000e+11 9.156046063637565e-01 2.935350102117511e-02
1.098160000000000e+11 9.132243564793940e-01 3.050542608953610e-02
1.098640000000000e+11 9.144984806765004e-01 2.719986990147667e-02
1.099120000000000e+11 9.162713339285926e-01 3.128077719529557e-02
1.099600000000000e+11 9.133855269323214e-01 2.592897235564455e-02
1.100080000000000e+11 9.152628870234869e-01 3.327831688742566e-02
1.100560000000000e+11 9.112160080704274e-01 2.665232949062226e-02
1.101040000000000e+11 9.098472144856313e-01 3.425055111118101e-02
1.101520000000000e+11 9.109414550738751e-01 3.040999165368794e-02
1.102000000000000e+11 9.063522621128856e-01 3.182593035062519e-02
1.102480000000000e+11 9.076058911715689e-01 3.752856681949294e-02
1.102960000000000e+11 9.117694902383261e-01 3.941063678093634e-02
1.103440000000000e+11 9.113004096085677e-01 3.604749958211591e-02
1.103920000000000e+11 9.134191064488181e-01 3.597529278942650e-02
1.104400000000000e+11 9.132940610340362e-01 3.383738647718880e-02
1.104880000000000e+11 9.128795985213635e-01 3.548562656682722e-02
1.105360000000000e+11 9.142514250024383e-01 3.566384635907573e-02
1.105840000000000e+11 9.110316036943893e-01 2.913335395103788e-02
1.106320000000000e+11 9.161965300480990e-01 3.321660087579726e-02
1.106800000000000e+11 9.147641807716732e-01 3.548837938316479e-02
1.107280000000000e+11 9.155877562242235e-01 3.420850923299415e-02
1.107760000000000e+11 9.118297311903873e-01 3.324580988368299e-02
1.108240000000000e+11 9.110733057618210e-01 3.570399193963367e-02
1.108720000000000e+11 9.100730476212453e-01 3.465554328777909e-02
1.109200000000000e+11 9.096478826075642e-01 3.291739148893574e-02
1.109680000000000e+11 9.085711141330312e-01 3.591403388084984e-02
1.110160000000000e+11 9.108816511482473e-01 3.516209681506817e-02
1.110640000000000e+11 9.103520211867899e-01 3.338402246188445e-02
1.111120000000000e+11 9.106143512791373e-01 3.527543884222255e-02
1.111600000000000e+11 9.120342054651248e-01 3.524665038808607e-02
1.112080000000000e+11 9.138143223521871e-01 3.586436257187871e-02
1.112560000000000e+11 9.162262454869339e-01 3.445776061713467e-02
1.113040000000000e+11 9.155117898482352e-01 3.455737890748403e-02
1.113520000000000e+11 9.154378299023181e-01 3.168709296602625e-02
1.114000000000000e+11 9.140406262041562e-01 3.095320621747573e-02
1.114480000000000e+11 9.134825795772125e-01 3.350858959954641e-02
1.114960000000000e+11 9.128634821913313e-01 3.191883079142246e-02
1.115440000000000e+11 9.121327157553840e-01 3.254389923851971e-02
1.115920000000000e+11 9.107675484702396e-01 3.203494897597568e-02
1.116400000000000e+11 9.093163670186757e-01 3.498777149343568e-02
1.116880000000000e+11 9.102277983173543e-01 3.403928202519102e-02
1.117360000000000e+11 9.104314827003566e-01 3.400413379006045e-02
1.117840000000000e+11 9.111397486984657e-01 3.264242126659211e-02
1.118320000000000e+11 9.116110603379588e-01 3.460956863631245e-02
1.118800000000000e+11 9.121999561511380e-01 3.136596204761110e-02
1.119280000000000e+11 9.130590443908234e-01 3.427860407020537e-02
1.119760000000000e+11 9.127447381467763e-01 3.036558832534985e-02
1.120240000000000e+11 9.147890749507734e-01 3.293581644095204e-02
1.120720000000000e+11 9.127536130526599e-01 2.922694523098072e-02
1.121200000000000e+11 9.139346081640286e-01 2.999476434090543e-02
1.121680000000000e+11 9.123499290949277e-01 3.012040833818549e-02
1.122160000000000e+11 9.118529674539942e-01 2.999392490625442e-02
1.122640000000000e+11 9.103200093144156e-01 3.068703172885644e-02
1.123120000000000e+11 9.144772720429738e-01 3.274002458536637e-02
1.123600000000000e+11 9.097875147555375e-01 3.171672370747665e-02
1.124080000000000e+11 9.107408152450087e-01 3.077565330333102e-02
1.124560000000000e+11 9.079042596011322e-01 3.472493735627761e-02
1.125040000000000e+11 9.124059835359145e-01 3.211084422866087e-02
1.125520000000000e+11 9.130908907319002e-01 3.322834038191300e-02
1.126000000000000e+11 9.121853586658948e-01 3.498715562441169e-02
1.126480000000000e+11 9.144685893497654e-01 3.415867750969400e-02
1.126960000000000e+11 9.162781063793798e-01 3.623366140097511e-02
1.127440000000000e+11 9.183096376108190e-01 3.476178877233778e-02
1.127920000000000e+11 9.181761210650786e-01 3.175542814275555e-02
1.128400000000000e+11 9.171696508754738e-01 2.860248184477347e-02
1.128880000000000e+11 9.156554203511568e-01 3.078928223719224e-02
1.129360000000000e+11 9.149920214360899e-01 2.691533921281278e-02
1.129840000000000e+11 9.143020433985830e-01 3.029938587772993e-02
1.130320000000000e+11 9.131152226049527e-01 2.959677153113680e-02
1.130800000000000e+11 9.126600949753511e-01 3.340481830330606e-02
1.131280000000000e+11 9.117989506129709e-01 3.012157385259159e-02
1.131760000000000e+11 9.098178740647028e-01 3.149577851224192e-02
1.132240000000000e+11 9.100936373050711e-01 2.934609747818150e-02
1.132720000000000e+11 9.100059407636771e-01 2.955395665106498e-02
1.133200000000000e+11 9.088195163619891e-01 2.913448865508873e-02
1.133680000000000e+11 9.125130966754871e-01 3.543188107965215e-02
1.134160000000000e+11 9.127190145997018e-01 3.163464694048401e-02
1.134640000000000e+11 9.139228467841879e-01 3.069774622674348e-02
1.135120000000000e+11 9.132890531515078e-01 2.731234132431333e-02
1.135600000000000e+11 9.124217412374579e-01 2.686952772800007e-02
1.136080000000000e+11 9.131802804213985e-01 2.618947877557537e-02
1.136560000000000e+11 9.116376039668007e-01 2.380081307779909e-02
1.137040000000000e+11 9.126103496263019e-01 2.303844706051542e-02
1.137520000000000e+11 9.105110923256058e-01 2.437108023124854e-02
1.138000000000000e+11 9.118228062351078e-01 2.477806889933613e-02
1.138480000000000e+11 9.092447864351946e-01 2.410224512977607e-02
1.138960000000000e+11 9.085075405441773e-01 2.419434939300707e-02
1.139440000000000e+11 9.085164442775399e-01 2.464421292211317e-02
1.139920000000000e+11 9.083805575571995e-01 2.533908392044304e-02
1.140400000000000e+11 9.089660803721207e-01 2.538588683173161e-02
1.140880000000000e+11 9.102868510325274e-01 2.645123870670290e-02
1.141360000000000e+11 9.100945886058304e-01 2.806797195473191e-02
1.141840000000000e+11 9.113260023634528e-01 2.564926569147326e-02
1.142320000000000e+11 9.120192427970779e-01 2.367595959569282e-02
1.142800000000000e+11 9.123937949404803e-01 2.361531103991896e-02
1.143280000000000e+11 9.123760983445754e-01 2.341938221786994e-02
1.143760000000000e+11 9.110990743634048e-01 2.079148204957606e-02
1.144240000000000e+11 9.113456766078750e-01 2.311316144708768e-02
1.144720000000000e+11 9.099363155071952e-01 2.016195901399587e-02
1.145200000000000e+11 9.090566000294825e-01 2.296204379161655e-02
1.145680000000000e+11 9.084822098914342e-01 2.263786337701005e-02
1.146160000000000e+11 9.077525176612735e-01 2.330229224102089e-02
1.146640000000000e+11 9.077420985931296e-01 2.360485556508725e-02
1.147120000000000e+11 9.078869212238712e-01 2.586136423634169e-02
1.147600000000000e+11 9.094778559746258e-01 2.554076986700045e-02
1.148080000000000e+11 9.108987924196883e-01 2.675837995531142e-02
1.148560000000000e+11 9.125257796207161e-01 2.708340285355977e-02
1.149040000000000e+11 9.134922131176063e-01 2.343033571353613e-02
1.149520000000000e+11 9.180187781398730e-01 2.382418106305379e-02
1.150000000000000e+11 9.136608908821230e-01 2.144552319916451e-02
