! Generated by Phase I extraction
# Hz S RI R 50
1.100000000000000e+11 -1.045028843989722e+00 -4.856141465464035e-02
1.100408163265300e+11 -1.046470611748250e+00 -4.968993578448971e-02
1.100816326530600e+11 -1.047606044819860e+00 -4.827294466341897e-02
1.101224489795900e+11 -1.048010473283192e+00 -4.716448549149193e-02
1.101632653061200e+11 -1.048151870284540e+00 -4.462722270607305e-02
1.102040816326500e+11 -1.049388874263954e+00 -4.191653920613297e-02
1.102448979591800e+11 -1.050150715767167e+00 -3.956163053079322e-02
1.102857142857100e+11 -1.050986601040415e+00 -3.715298912186627e-02
1.103265306122400e+11 -1.050965720777100e+00 -3.587123512006980e-02
1.103673469387800e+11 -1.051071905366455e+00 -3.417113763927705e-02
1.104081632653100e+11 -1.051200207831158e+00 -3.176313905164418e-02
1.104489795918400e+11 -1.051090353996050e+00 -3.066716839219829e-02
1.104897959183700e+11 -1.050914009294532e+00 -3.052766664775182e-02
1.105306122449000e+11 -1.051179113773152e+00 -2.879471429241050e-02
1.105714285714300e+11 -1.051309491692430e+00 -2.731824915165439e-02
1.106122448979600e+11 -1.051302600301960e+00 -2.701059806407208e-02
1.106530612244900e+11 -1.051865543635356e+00 -2.733300260042082e-02
1.106938775510200e+11 -1.052312492461218e+00 -2.725046570442306e-02
1.107346938775500e+11 -1.052351935774338e+00 -2.647866300821777e-02
1.107755102040800e+11 -1.052025208393901e+00 -2.677876032635520e-02
1.108163265306100e+11 -1.051423977629980e+00 -2.687135195456029e-02
1.108571428571400e+11 -1.051519364953650e+00 -2.660304403462327e-02
1.108979591836700e+11 -1.051077399512489e+00 -2.700615964107464e-02
1.109387755102000e+11 -1.050587037567265e+00 -2.690190871832285e-02
1.109795918367300e+11 -1.049655040399415e+00 -2.777536795654740e-02
1.110204081632700e+11 -1.048977685760175e+00 -2.755947397182435e-02
1.110612244898000e+11 -1.048486950597595e+00 -2.735346269263390e-02
1.111020408163300e+11 -1.048066168500895e+00 -2.807352894105063e-02
1.111428571428600e+11 -1.047604789339348e+00 -2.777000164720706e-02
1.111836734693900e+11 -1.047362048197530e+00 -2.684681274255287e-02
1.112244897959200e+11 -1.047420928715671e+00 -2.558928987469991e-02
1.112653061224500e+11 -1.047386573138490e+00 -2.424890222653381e-02
1.113061224489800e+11 -1.047196372795355e+00 -2.318022350058423e-02
1.113469387755100e+11 -1.047377653899296e+00 -2.137188879596831e-02
1.113877551020400e+11 -1.047631421818675e+00 -2.009399074904303e-02
1.114285714285700e+11 -1.048055343264254e+00 -1.740653718348964e-02
1.114693877551000e+11 -1.047716677702993e+00 -1.598870401305390e-02
1.115102040816300e+11 -1.047661233709841e+00 -1.544545542381807e-02
1.115510204081600e+11 -1.047650202348792e+00 -1.479154462167302e-02
1.115918367346900e+11 -1.048132926306291e+00 -1.358311812496882e-02
1.116326530612200e+11 -1.047377871772670e+00 -1.381260627989256e-02
1.116734693877600e+11 -1.047703998157640e+00 -1.370657309229156e-02
1.117142857142900e+11 -1.048336214297318e+00 -1.331697548648512e-02
1.117551020408200e+11 -1.048580984748480e+00 -1.290950341950232e-02
1.117959183673500e+11 -1.047819615150094e+00 -1.460965762723060e-02
1.118367346938800e+11 -1.047730992135342e+00 -1.517150150043590e-02
1.118775510204100e+11 -1.047650982731574e+00 -1.565991432273116e-02
1.119183673469400e+11 -1.047781343318072e+00 -1.579804264344296e-02
1.119591836734700e+11 -1.047914987250586e+00 -1.625624233723873e-02
1.120000000000000e+11 -1.046821754792493e+00 -1.512720757958126e-02
1.120408163265300e+11 -1.046805804437927e+00 -1.564375055595547e-02
1.120816326530600e+11 -1.047056611365640e+00 -1.442851621155585e-02
1.121224489795900e+11 -1.046509779933535e+00 -1.398395150104990e-02
1.121632653061200e+11 -1.045957680223964e+00 -1.394971369895846e-02
1.122040816326500e+11 -1.045697745331002e+00 -1.372959402959450e-02
1.122448979591800e+11 -1.045254392905583e+00 -1.358551605614287e-02
1.122857142857100e+11 -1.044558529972148e+00 -1.412626981254073e-02
1.123265306122400e+11 -1.043918440183963e+00 -1.377161878817532e-02
1.123673469387800e+11 -1.043419758228130e+00 -1.280330180629470e-02
1.124081632653100e+11 -1.043344873732893e+00 -1.248258001292637e-02
1.124489795918400e+11 -1.042940227684542e+00 -1.270877165573955e-02
1.124897959183700e+11 -1.042823326568804e+00 -1.336741679397217e-02
1.125306122449000e+11 -1.042748122460327e+00 -1.344009584673000e-02
1.125714285714300e+11 -1.042767025227735e+00 -1.300493222745518e-02
1.126122448979600e+11 -1.042885352768245e+00 -1.271583331421369e-02
1.126530612244900e+11 -1.042899192255266e+00 -1.297272010416445e-02
1.126938775510200e+11 -1.043318328043399e+00 -1.271074530938908e-02
1.127346938775500e+11 -1.043559977923654e+00 -1.136714681268382e-02
1.127755102040800e+11 -1.044198712257078e+00 -1.037484727088197e-02
1.128163265306100e+11 -1.044092324026875e+00 -1.098662412564720e-02
1.128571428571400e+11 -1.043734176946770e+00 -1.236861183022585e-02
1.128979591836700e+11 -1.042568901130023e+00 -1.402175076685109e-02
1.129387755102000e+11 -1.042355200321499e+00 -1.388055814601237e-02
1.129795918367300e+11 -1.042108142381066e+00 -1.323153092237903e-02
1.130204081632700e+11 -1.041879036356367e+00 -1.334193657115228e-02
1.130612244898000e+11 -1.041473971840190e+00 -1.420737879006188e-02
1.131020408163300e+11 -1.041379495843316e+00 -1.450673080437485e-02
1.131428571428600e+11 -1.040357139982824e+00 -1.543166618414094e-02
1.131836734693900e+11 -1.040661599003657e+00 -1.466237722757669e-02
1.132244897959200e+11 -1.040875643070555e+00 -1.368651320954497e-02
1.132653061224500e+11 -1.041248283869916e+00 -1.312116515199410e-02
1.133061224489800e+11 -1.040857225816843e+00 -1.322198543996163e-02
1.133469387755100e+11 -1.041680193075832e+00 -1.216143445900869e-02
1.133877551020400e+11 -1.042605570786318e+00 -1.072857041481712e-02
1.134285714285700e+11 -1.042883251683735e+00 -9.317782384864151e-03
1.134693877551000e+11 -1.042277521889275e+00 -9.513103557611513e-03
1.135102040816300e+11 -1.041828585878687e+00 -1.024008690461451e-02
1.135510204081600e+11 -1.041411209840915e+00 -1.011840018963263e-02
1.135918367346900e+11 -1.041481848486624e+00 -9.736973903318766e-03
1.136326530612200e+11 -1.040932428339943e+00 -1.079993001083109e-02
1.136734693877600e+11 -1.040761079820837e+00 -1.157831967057852e-02
1.137142857142900e+11 -1.040635942967226e+00 -1.144539238573430e-02
1.137551020408200e+11 -1.040232815473906e+00 -1.056511829597600e-02
1.137959183673500e+11 -1.040512547451586e+00 -1.081684888593597e-02
1.138367346938800e+11 -1.039991797374393e+00 -1.216706821424104e-02
1.138775510204100e+11 -1.039624840867774e+00 -1.210868257867932e-02
1.139183673469400e+11 -1.039905340167170e+00 -1.183444194565705e-02
1.139591836734700e+11 -1.039910461286475e+00 -1.104337060193201e-02
1.140000000000000e+11 -1.040864093569168e+00 -1.133077239787883e-02
1.140408163265300e+11 -1.041159067059949e+00 -1.072689476468048e-02
1.140816326530600e+11 -1.040355733139711e+00 -9.337702232088548e-03
1.141224489795900e+11 -1.040214770307007e+00 -8.795417385538814e-03
1.141632653061200e+11 -1.040404988079821e+00 -6.925983356519979e-03
1.142040816326500e+11 -1.039986549093578e+00 -6.995761271077196e-03
1.142448979591800e+11 -1.040328121770466e+00 -5.811526986609771e-03
1.142857142857100e+11 -1.039252373034331e+00 -5.956712041541511e-03
1.143265306122400e+11 -1.038821551241444e+00 -5.447476968553975e-03
1.143673469387800e+11 -1.039761758610394e+00 -4.005766724539409e-03
1.144081632653100e+11 -1.040441035145070e+00 -2.285129942346470e-03
1.144489795918400e+11 -1.041100452878020e+00 -1.689857501716740e-03
1.144897959183700e+11 -1.040954962190433e+00 -1.836584529484786e-03
1.145306122449000e+11 -1.041588561822001e+00 -1.906419130754166e-03
1.145714285714300e+11 -1.042586852518996e+00 -2.723035057875507e-04
1.146122448979600e+11 -1.042813568717570e+00 1.454233700973113e-03
1.146530612244900e+11 -1.042955867691517e+00 2.383559691423509e-03
1.146938775510200e+11 -1.042756658892293e+00 2.599535683095370e-03
1.147346938775500e+11 -1.042394139506241e+00 2.921692247335594e-03
1.147755102040800e+11 -1.042346223769482e+00 3.134303456647686e-03
1.148163265306100e+11 -1.042806522347703e+00 3.803566698471326e-03
1.148571428571400e+11 -1.042758197966923e+00 4.071998231888927e-03
1.148979591836700e+11 -1.042091636828761e+00 2.956453484742506e-03
1.149387755102000e+11 -1.040361380920926e+00 5.989278068352395e-04
1.149795918367300e+11 -1.040913254634122e+00 7.069387919711488e-04
1.150204081632700e+11 -1.041603737226811e+00 1.930201097436970e-03
1.150612244898000e+11 -1.041230048955664e+00 1.930631825595912e-03
1.151020408163300e+11 -1.040683028174147e+00 2.102302388362651e-03
1.151428571428600e+11 -1.039201887050419e+00 1.889228463448061e-03
1.151836734693900e+11 -1.038096302697956e+00 1.925453132500171e-03
1.152244897959200e+11 -1.038623143917717e+00 3.040807137543413e-03
1.152653061224500e+11 -1.038441790099293e+00 4.388840326270655e-03
1.153061224489800e+11 -1.039059109624548e+00 5.256553273233541e-03
1.153469387755100e+11 -1.039414819893221e+00 6.656010432512392e-03
1.153877551020400e+11 -1.039098992604056e+00 7.336831879956113e-03
1.154285714285700e+11 -1.039203440686221e+00 8.497148524456483e-03
1.154693877551000e+11 -1.039023143123206e+00 8.579221542805160e-03
1.155102040816300e+11 -1.039597261057449e+00 8.036084186380082e-03
1.155510204081600e+11 -1.039689704571148e+00 7.938186635105324e-03
1.155918367346900e+11 -1.039345805898677e+00 7.493418068993788e-03
1.156326530612200e+11 -1.039775525319287e+00 6.699755076842342e-03
1.156734693877600e+11 -1.040127078752576e+00 6.263071529627008e-03
1.157142857142900e+11 -1.040313516045755e+00 5.719244599623202e-03
1.157551020408200e+11 -1.040356515369036e+00 5.065830599020321e-03
1.157959183673500e+11 -1.040078401999042e+00 4.411272707077285e-03
1.158367346938800e+11 -1.040257521874757e+00 4.721918742646696e-03
1.158775510204100e+11 -1.040368521779559e+00 5.127667542952985e-03
1.159183673469400e+11 -1.040403538535544e+00 5.797152812741013e-03
1.159591836734700e+11 -1.040549482561663e+00 6.538500496445661e-03
1.160000000000000e+11 -1.040366958297615e+00 6.376145705812878e-03
1.160408163265300e+11 -1.040561448540321e+00 7.049623805241576e-03
1.160816326530600e+11 -1.040712956192184e+00 7.841891143349204e-03
1.161224489795900e+11 -1.040137535838787e+00 7.592171727250548e-03
1.161632653061200e+11 -1.040449293073962e+00 7.906206107202088e-03
1.162040816326500e+11 -1.040169251777354e+00 7.980778104188284e-03
1.162448979591800e+11 -1.040131908634719e+00 7.747422594268829e-03
1.162857142857100e+11 -1.040223142109634e+00 7.542451669529429e-03
1.163265306122400e+11 -1.039883131865885e+00 6.932602433996651e-03
1.163673469387800e+11 -1.038864933624273e+00 6.281454247328747e-03
1.164081632653100e+11 -1.039511587109645e+00 4.915567014647687e-03
1.164489795918400e+11 -1.039447240585535e+00 4.173335051284089e-03
1.164897959183700e+11 -1.039346021634061e+00 3.341412145692712e-03
1.165306122449000e+11 -1.039282679712727e+00 2.441311493942660e-03
1.165714285714300e+11 -1.039289448002013e+00 1.323269093763478e-03
1.166122448979600e+11 -1.039249379167709e+00 -7.083632200506191e-06
1.166530612244900e+11 -1.039557659624449e+00 -3.994353906874695e-04
1.166938775510200e+11 -1.039816752119028e+00 -1.155606110758796e-03
1.167346938775500e+11 -1.040019823503862e+00 -1.571840460149905e-03
1.167755102040800e+11 -1.039563128918939e+00 -2.946425987732591e-03
1.168163265306100e+11 -1.039190658140434e+00 -3.273606233545826e-03
1.168571428571400e+11 -1.039067669062636e+00 -3.936344663902428e-03
1.168979591836700e+11 -1.039220355373344e+00 -3.699105929115075e-03
1.169387755102000e+11 -1.038801874436927e+00 -3.931897123878780e-03
1.169795918367300e+11 -1.038071091610952e+00 -4.608405383874978e-03
1.170204081632700e+11 -1.037775996106501e+00 -4.274419765373002e-03
1.170612244898000e+11 -1.038930691773720e+00 -2.977666948602285e-03
1.171020408163300e+11 -1.037878691329072e+00 -2.443536535352400e-03
1.171428571428600e+11 -1.037792114939568e+00 -1.958816847797581e-03
1.171836734693900e+11 -1.037783710427826e+00 -1.875298660186570e-03
1.172244897959200e+11 -1.037956194738324e+00 -1.307685257886363e-03
1.172653061224500e+11 -1.038381108816606e+00 -6.861470430378730e-04
1.173061224489800e+11 -1.038757042457967e+00 -2.517475611155915e-04
1.173469387755100e+11 -1.039494965627264e+00 3.671995106454925e-04
1.173877551020400e+11 -1.039911901611842e+00 2.363410302245496e-04
1.174285714285700e+11 -1.039370464161308e+00 -4.930322415249062e-04
1.174693877551000e+11 -1.039462134596212e+00 -8.295445532981622e-04
1.175102040816300e+11 -1.039232637967941e+00 -1.435401211886811e-03
1.175510204081600e+11 -1.039632698523628e+00 -1.401635750344323e-03
1.175918367346900e+11 -1.040332879789564e+00 -1.815044100900325e-03
1.176326530612200e+11 -1.040229139711538e+00 -2.467479435691567e-03
1.176734693877600e+11 -1.040054807320731e+00 -2.122373979448538e-03
1.177142857142900e+11 -1.039494048738455e+00 -1.348957779934051e-03
1.177551020408200e+11 -1.038022821088939e+00 -2.768203234144933e-03
1.177959183673500e+11 -1.038101958670589e+00 -3.707790881401601e-03
1.178367346938800e+11 -1.037839048338594e+00 -4.381465504172731e-03
1.178775510204100e+11 -1.038799064675808e+00 -3.753826302800343e-03
1.179183673469400e+11 -1.039185595356905e+00 -3.065168945660704e-03
1.179591836734700e+11 -1.039086843476235e+00 -3.380342887250919e-03
1.180000000000000e+11 -1.039497352942046e+00 -3.229137704910936e-03
1.180408163265300e+11 -1.041336083797457e+00 -7.887458825852064e-03
1.180816326530600e+11 -1.041119282503020e+00 -8.230715312636546e-03
1.181224489795900e+11 -1.041281093126673e+00 -7.917491478873859e-03
1.181632653061200e+11 -1.040766227006599e+00 -8.442630285233925e-03
1.182040816326500e+11 -1.041443088760948e+00 -8.368316916923973e-03
1.182448979591800e+11 -1.041323171124968e+00 -7.887423742862736e-03
1.182857142857100e+11 -1.041087757586191e+00 -7.913774022868338e-03
1.183265306122400e+11 -1.040736362422984e+00 -8.488495075535151e-03
1.183673469387800e+11 -1.040350063584641e+00 -8.939738862330343e-03
1.184081632653100e+11 -1.040121856071201e+00 -8.967025021636486e-03
1.184489795918400e+11 -1.040207285631151e+00 -8.585903383426970e-03
1.184897959183700e+11 -1.040261255154282e+00 -8.642540753613695e-03
1.185306122449000e+11 -1.040058323956120e+00 -9.065214788044200e-03
1.185714285714300e+11 -1.040187288132971e+00 -8.596199485945906e-03
1.186122448979600e+11 -1.040526045454031e+00 -7.945390100690742e-03
1.186530612244900e+11 -1.040678037514172e+00 -7.824402969727801e-03
1.186938775510200e+11 -1.040919916154657e+00 -8.191456345069393e-03
1.187346938775500e+11 -1.040646842877509e+00 -8.704974373689677e-03
1.187755102040800e+11 -1.040548612275460e+00 -8.757744581263195e-03
1.188163265306100e+11 -1.040428200551084e+00 -8.375253529589675e-03
1.188571428571400e+11 -1.040776137200597e+00 -8.084665963051631e-03
1.188979591836700e+11 -1.040760445642459e+00 -7.730132347561021e-03
1.189387755102000e+11 -1.040424239649617e+00 -7.516239751593072e-03
1.189795918367300e+11 -1.040157415993812e+00 -7.851015372456051e-03
1.190204081632700e+11 -1.040111122784965e+00 -7.226873079694724e-03
1.190612244898000e+11 -1.040260621082502e+00 -6.464570330226729e-03
1.191020408163300e+11 -1.039917930086492e+00 -6.302853469080755e-03
1.191428571428600e+11 -1.039840546153969e+00 -6.595792341199894e-03
1.191836734693900e+11 -1.039859232295791e+00 -5.907196043560278e-03
1.192244897959200e+11 -1.040476894874502e+00 -5.294948989718132e-03
1.192653061224500e+11 -1.040472781484426e+00 -6.006713322852883e-03
1.193061224489800e+11 -1.039750379100200e+00 -6.710071171750130e-03
1.193469387755100e+11 -1.039686734371541e+00 -6.942912258460622e-03
1.193877551020400e+11 -1.039690371363167e+00 -7.952170248036719e-03
1.194285714285700e+11 -1.040296474152870e+00 -8.242398672845062e-03
1.194693877551000e+11 -1.040622978112125e+00 -8.228519162950821e-03
1.195102040816300e+11 -1.040142788374432e+00 -9.212957759917293e-03
1.195510204081600e+11 -1.040492634890590e+00 -9.629202994511468e-03
1.195918367346900e+11 -1.040234637140121e+00 -1.007230390628528e-02
1.196326530612200e+11 -1.039815388903905e+00 -1.017325786671940e-02
1.196734693877600e+11 -1.039717857381628e+00 -1.030564505118234e-02
1.197142857142900e+11 -1.039441164622906e+00 -1.030510739341917e-02
1.197551020408200e+11 -1.038744459705264e+00 -1.092753553966996e-02
1.197959183673500e+11 -1.038240927885338e+00 -1.138869691662990e-02
1.198367346938800e+11 -1.037982178187712e+00 -1.107681564841849e-02
1.198775510204100e+11 -1.037863721502497e+00 -1.023640051185280e-02
1.199183673469400e+11 -1.037565619634911e+00 -1.062402099718589e-02
1.199591836734700e+11 -1.037515585603575e+00 -1.033512052969314e-02
1.200000000000000e+11 -1.037400148596106e+00 -1.021486962727429e-02
1.200408163265300e+11 -1.037468289489203e+00 -1.064849448283025e-02
1.200816326530600e+11 -1.037133220188285e+00 -1.059679197621201e-02
1.201224489795900e+11 -1.036949460891236e+00 -1.049085273276509e-02
1.201632653061200e+11 -1.037015380611711e+00 -9.820414295293799e-03
1.202040816326500e+11 -1.036786573728316e+00 -9.805344952926894e-03
1.202448979591800e+11 -1.036176692025114e+00 -1.022443148853495e-02
1.202857142857100e+11 -1.036220807350303e+00 -9.531462015144584e-03
1.203265306122400e+11 -1.037344916087600e+00 -8.726733097435211e-03
1.203673469387800e+11 -1.037413045335864e+00 -5.999655573667318e-03
1.204081632653100e+11 -1.035657471145346e+00 -6.536914208243406e-03
1.204489795918400e+11 -1.034761482572449e+00 -8.493347294985467e-03
1.204897959183700e+11 -1.035407488812850e+00 -9.802437558723004e-03
1.205306122449000e+11 -1.037429766472976e+00 -9.091434916104701e-03
1.205714285714300e+11 -1.038166004295360e+00 -7.780470334555391e-03
1.206122448979600e+11 -1.037843449244236e+00 -8.723703703074515e-03
1.206530612244900e+11 -1.037383154051275e+00 -1.009807294760896e-02
1.206938775510200e+11 -1.037346885754099e+00 -1.165912063457547e-02
1.207346938775500e+11 -1.038178610869538e+00 -1.218511233913461e-02
1.207755102040800e+11 -1.038471793760442e+00 -1.240263833177019e-02
1.208163265306100e+11 -1.037934269922812e+00 -1.454640441078374e-02
1.208571428571400e+11 -1.037799613221178e+00 -1.605294055990247e-02
1.208979591836700e+11 -1.038104980528737e+00 -1.615979310681348e-02
1.209387755102000e+11 -1.038273280769810e+00 -1.572490004249169e-02
1.209795918367300e+11 -1.037992404156447e+00 -1.607578918965870e-02
1.210204081632700e+11 -1.038166923827277e+00 -1.544313051351611e-02
1.210612244898000e+11 -1.038030456842495e+00 -1.428319001381194e-02
1.211020408163300e+11 -1.037667562363528e+00 -1.405659097511840e-02
1.211428571428600e+11 -1.037279070729147e+00 -1.389517876002982e-02
1.211836734693900e+11 -1.036698541978193e+00 -1.325699353315959e-02
1.212244897959200e+11 -1.036549212600024e+00 -1.330894225390718e-02
1.212653061224500e+11 -1.035107577184387e+00 -1.366812534987676e-02
1.213061224489800e+11 -1.035474175720187e+00 -1.397269125894285e-02
1.213469387755100e+11 -1.035002421143122e+00 -1.427566786704346e-02
1.213877551020400e+11 -1.035946502946888e+00 -1.449441235398008e-02
1.214285714285700e+11 -1.036592972441295e+00 -1.512670206611934e-02
1.214693877551000e+11 -1.035379958655582e+00 -1.505094021133665e-02
1.215102040816300e+11 -1.033994074089430e+00 -1.471708851431696e-02
1.215510204081600e+11 -1.035542170266093e+00 -1.465509279603977e-02
1.215918367346900e+11 -1.036009024590723e+00 -1.507055175121173e-02
1.216326530612200e+11 -1.036481005134438e+00 -1.382889744834930e-02
1.216734693877600e+11 -1.036139268108410e+00 -1.319464915455151e-02
1.217142857142900e+11 -1.036322701335356e+00 -1.241725072231615e-02
1.217551020408200e+11 -1.035905600395111e+00 -1.157340697507668e-02
1.217959183673500e+11 -1.034948816898169e+00 -1.076124082175558e-02
1.218367346938800e+11 -1.035130732833839e+00 -1.065899000142122e-02
1.218775510204100e+11 -1.035340955271268e+00 -1.026636361539401e-02
1.219183673469400e+11 -1.034873888206917e+00 -9.948125441986415e-03
1.219591836734700e+11 -1.034769831985230e+00 -9.033697312577306e-03
1.220000000000000e+11 -1.035116203470810e+00 -9.027241119870690e-03
1.220408163265300e+11 -1.035707571507387e+00 -9.087284861896132e-03
1.220816326530600e+11 -1.035474036956517e+00 -9.858532177549003e-03
1.221224489795900e+11 -1.034533189661125e+00 -1.011576249085335e-02
1.221632653061200e+11 -1.033390948123477e+00 -1.042171127746886e-02
1.222040816326500e+11 -1.033683744550996e+00 -9.942789869560072e-03
1.222448979591800e+11 -1.033610711850812e+00 -1.000321740219521e-02
1.222857142857100e+11 -1.033562846309760e+00 -1.010611492564377e-02
1.223265306122400e+11 -1.033586223124855e+00 -9.603096403049341e-03
1.223673469387800e+11 -1.034631502902305e+00 -8.132855994690946e-03
1.224081632653100e+11 -1.034538319941673e+00 -6.398637737788984e-03
1.224489795918400e+11 -1.034226574569087e+00 -5.955716908704021e-03
1.224897959183700e+11 -1.034963139165728e+00 -5.005310042995017e-03
1.225306122449000e+11 -1.033660997184134e+00 -5.212594093324574e-03
1.225714285714300e+11 -1.033767389162535e+00 -5.264145179115080e-03
1.226122448979600e+11 -1.034000072712637e+00 -5.099959587039860e-03
1.226530612244900e+11 -1.034105736904042e+00 -5.316487757764870e-03
1.226938775510200e+11 -1.033977537688769e+00 -6.120019783907861e-03
1.227346938775500e+11 -1.034149663708407e+00 -6.798105790549501e-03
1.227755102040800e+11 -1.033123228038463e+00 -7.422354916659295e-03
1.228163265306100e+11 -1.033266581260131e+00 -7.562372853259124e-03
1.228571428571400e+11 -1.033851660973693e+00 -7.140564641751447e-03
1.228979591836700e+11 -1.033893609182728e+00 -7.415469352556118e-03
1.229387755102000e+11 -1.034726790099002e+00 -6.420259741694194e-03
1.229795918367300e+11 -1.031673980928727e+00 -4.945925160301552e-03
1.230204081632700e+11 -1.030169838857253e+00 -6.956585687246612e-03
1.230612244898000e+11 -1.031776793022636e+00 -7.232843916186230e-03
1.231020408163300e+11 -1.032330105629381e+00 -5.486511295776844e-03
1.231428571428600e+11 -1.032033062955212e+00 -4.724696323684752e-03
1.231836734693900e+11 -1.032153807253079e+00 -3.760268933128408e-03
1.232244897959200e+11 -1.032419583190920e+00 -2.618412245781820e-03
1.232653061224500e+11 -1.032944142858072e+00 -1.004078212178812e-03
1.233061224489800e+11 -1.032188166372547e+00 -1.292975800123191e-03
1.233469387755100e+11 -1.031964563590222e+00 -7.579986042953367e-04
1.233877551020400e+11 -1.032024923094206e+00 -8.832167506740486e-04
1.234285714285700e+11 -1.032154421395598e+00 -1.245987270854743e-03
1.234693877551000e+11 -1.032395750466939e+00 -1.097961981268117e-03
1.235102040816300e+11 -1.031982826239459e+00 -1.607634399087972e-03
1.235510204081600e+11 -1.032413771901194e+00 -1.137533108321311e-03
1.235918367346900e+11 -1.032029680594218e+00 -1.911642588586608e-03
1.236326530612200e+11 -1.032529724541488e+00 -1.407897118984728e-03
1.236734693877600e+11 -1.032298662474616e+00 -1.790405460464597e-03
1.237142857142900e+11 -1.032437869237924e+00 -2.199832672016696e-03
1.237551020408200e+11 -1.032451456066281e+00 -1.685188687214931e-03
1.237959183673500e+11 -1.032543168509918e+00 -9.106973152177447e-04
1.238367346938800e+11 -1.033043782133541e+00 5.261497684952999e-04
1.238775510204100e+11 -1.032873219958760e+00 1.946943903529382e-03
1.239183673469400e+11 -1.032147894167905e+00 8.972658995750251e-04
1.239591836734700e+11 -1.031799872078473e+00 -3.952639135663560e-05
1.240000000000000e+11 -1.031709948449534e+00 9.355601048806540e-05
1.240408163265300e+11 -1.031782759804922e+00 -2.197356308352619e-04
1.240816326530600e+11 -1.032035685107426e+00 2.175090115812781e-04
1.241224489795900e+11 -1.031775182959097e+00 5.731953747422445e-04
1.241632653061200e+11 -1.031383500051968e+00 4.499165059629903e-04
1.242040816326500e+11 -1.031371816981372e+00 6.995170102520565e-04
1.242448979591800e+11 -1.030564429870042e+00 -2.036834028215620e-04
1.242857142857100e+11 -1.029586400016145e+00 -8.358436843458582e-05
1.243265306122400e+11 -1.029657427748896e+00 1.818515790070066e-05
1.243673469387800e+11 -1.029834132188398e+00 8.826571857971350e-04
1.244081632653100e+11 -1.029396343511403e+00 1.762091261919932e-03
1.244489795918400e+11 -1.029096939719750e+00 1.811136528032441e-03
1.244897959183700e+11 -1.029310962929726e+00 3.058557998248713e-03
1.245306122449000e+11 -1.029264579162400e+00 3.956497946113735e-03
1.245714285714300e+11 -1.029571808460314e+00 4.429502528696428e-03
1.246122448979600e+11 -1.029329444876831e+00 4.326898085185291e-03
1.246530612244900e+11 -1.028818276508814e+00 3.908533838919630e-03
1.246938775510200e+11 -1.029318113675789e+00 4.323618434922438e-03
1.247346938775500e+11 -1.029935190290819e+00 3.928291090190037e-03
1.247755102040800e+11 -1.029917586900114e+00 3.428224726285935e-03
1.248163265306100e+11 -1.029335564753027e+00 2.900846935487358e-03
1.248571428571400e+11 -1.029683844422576e+00 3.134169642425395e-03
1.248979591836700e+11 -1.030496929239867e+00 3.167836727240431e-03
1.249387755102000e+11 -1.030142756804169e+00 1.314482803693230e-03
1.249795918367300e+11 -1.028181543998089e+00 -7.466856727295790e-04
1.250204081632700e+11 -1.027096733221581e+00 -9.076001368139523e-04
1.250612244898000e+11 -1.027495678817818e+00 -1.541455936118262e-04
1.251020408163300e+11 -1.027259529226084e+00 -1.994185675857782e-04
1.251428571428600e+11 -1.027282508248201e+00 -4.866514744285492e-04
1.251836734693900e+11 -1.027400760341951e+00 1.851779429476383e-04
1.252244897959200e+11 -1.027872774648071e+00 8.063194563294462e-04
1.252653061224500e+11 -1.028446186340177e+00 2.520614858330409e-03
1.253061224489800e+11 -1.028387986942400e+00 3.537329016650919e-03
1.253469387755100e+11 -1.027934593566483e+00 3.950939505415579e-03
1.253877551020400e+11 -1.028247923439540e+00 4.767977997690484e-03
1.254285714285700e+11 -1.028547459795965e+00 5.847824268173233e-03
1.254693877551000e+11 -1.027935345103793e+00 5.166654499799899e-03
1.255102040816300e+11 -1.027451691676750e+00 4.032977190837167e-03
1.255510204081600e+11 -1.027427560529578e+00 3.200813720448091e-03
1.255918367346900e+11 -1.027718152520824e+00 3.466256751383020e-03
1.256326530612200e+11 -1.027991737451146e+00 3.883530103084781e-03
1.256734693877600e+11 -1.028038960099167e+00 4.020360316921517e-03
1.257142857142900e+11 -1.027821878732050e+00 3.655305333213048e-03
1.257551020408200e+11 -1.027300063383731e+00 3.018660296191782e-03
1.257959183673500e+11 -1.026760710116070e+00 2.152124973538406e-03
1.258367346938800e+11 -1.026986069098788e+00 2.281840031601199e-03
1.258775510204100e+11 -1.027692858720771e+00 3.520727701966994e-03
1.259183673469400e+11 -1.027443207851765e+00 3.232455674607903e-03
1.259591836734700e+11 -1.026992051000598e+00 2.933202030436289e-03
1.260000000000000e+11 -1.027786809047369e+00 3.063787429161055e-03
1.260408163265300e+11 -1.027903205916622e+00 3.112047712500505e-03
1.260816326530600e+11 -1.027776317664902e+00 3.236987804433097e-03
1.261224489795900e+11 -1.028115579589789e+00 3.364948231944316e-03
1.261632653061200e+11 -1.027603037061619e+00 2.707508261470591e-03
1.262040816326500e+11 -1.027173780942846e+00 1.993851641529759e-03
1.262448979591800e+11 -1.026842763515538e+00 2.082312374501081e-03
1.262857142857100e+11 -1.026533881763127e+00 2.006915156038546e-03
1.263265306122400e+11 -1.026642329714099e+00 2.220905417295161e-03
1.263673469387800e+11 -1.026349098973631e+00 2.283844458181084e-03
1.264081632653100e+11 -1.025735999895676e+00 1.931500999608284e-03
1.264489795918400e+11 -1.025271466281322e+00 1.966610013369517e-03
1.264897959183700e+11 -1.025122788814346e+00 2.544649189424222e-03
1.265306122449000e+11 -1.025611676989552e+00 3.365285881509784e-03
1.265714285714300e+11 -1.025841224643054e+00 4.215999514059538e-03
1.266122448979600e+11 -1.025980338927009e+00 4.614869776509275e-03
1.266530612244900e+11 -1.026459949750978e+00 5.843357314581446e-03
1.266938775510200e+11 -1.026339385755674e+00 5.508175912781557e-03
1.267346938775500e+11 -1.026639080244144e+00 6.254123852422365e-03
1.267755102040800e+11 -1.026848791562841e+00 5.862421364013485e-03
1.268163265306100e+11 -1.026978200632288e+00 5.639283266609241e-03
1.268571428571400e+11 -1.027064077928437e+00 5.399753926496006e-03
1.268979591836700e+11 -1.027433542539099e+00 5.252462637617239e-03
1.269387755102000e+11 -1.027429051487107e+00 5.207870682785970e-03
1.269795918367300e+11 -1.027600153217445e+00 4.543622050579107e-03
1.270204081632700e+11 -1.027197024595154e+00 3.754873310263383e-03
1.270612244898000e+11 -1.026724944354723e+00 3.011509386205963e-03
1.271020408163300e+11 -1.026327208536275e+00 2.515118753148953e-03
1.271428571428600e+11 -1.026544270309855e+00 2.389281585005521e-03
1.271836734693900e+11 -1.026650261641508e+00 2.461722359562801e-03
1.272244897959200e+11 -1.026612349020227e+00 2.182333181949765e-03
1.272653061224500e+11 -1.026190244021065e+00 1.892068457682975e-03
1.273061224489800e+11 -1.026283360380294e+00 2.043824917262457e-03
1.273469387755100e+11 -1.026699677025619e+00 2.289601566498988e-03
1.273877551020400e+11 -1.027340218190663e+00 2.360477528811404e-03
1.274285714285700e+11 -1.027099980420745e+00 2.035194376000037e-03
1.274693877551000e+11 -1.026937796565036e+00 1.862508159839819e-03
1.275102040816300e+11 -1.026367081470056e+00 1.819567440664417e-03
1.275510204081600e+11 -1.027170720714749e+00 1.933247211936490e-03
1.275918367346900e+11 -1.027528208724920e+00 1.902405551591570e-03
1.276326530612200e+11 -1.027621672068866e+00 2.607702812234748e-03
1.276734693877600e+11 -1.027503318206537e+00 2.126245883186148e-03
1.277142857142900e+11 -1.027161431562144e+00 2.318034192075872e-03
1.277551020408200e+11 -1.027113462572284e+00 2.633498344413650e-03
1.277959183673500e+11 -1.027190875847125e+00 3.212101981152305e-03
1.278367346938800e+11 -1.026981589007814e+00 3.109789588443268e-03
1.278775510204100e+11 -1.026888026287919e+00 3.153298934135322e-03
1.279183673469400e+11 -1.026748850183213e+00 3.152886371306234e-03
1.279591836734700e+11 -1.027116833495511e+00 3.450413021371865e-03
1.280000000000000e+11 -1.026807043585408e+00 2.994273304657865e-03
1.280408163265300e+11 -1.026477886729474e+00 2.445638206631867e-03
1.280816326530600e+11 -1.026292788226168e+00 1.891761094660890e-03
1.281224489795900e+11 -1.026621817610919e+00 1.887459844742376e-03
1.281632653061200e+11 -1.026309661454087e+00 9.492458046134575e-04
1.282040816326500e+11 -1.026336139123093e+00 5.944036329652520e-04
1.282448979591800e+11 -1.026773772328934e+00 4.722166000613445e-04
1.282857142857100e+11 -1.026486788708775e+00 3.913141800948188e-04
1.283265306122400e+11 -1.027038227389087e+00 6.935691153132909e-04
1.283673469387800e+11 -1.026430151158315e+00 7.416139770421568e-04
1.284081632653100e+11 -1.026574673706881e+00 1.446760603829310e-03
1.284489795918400e+11 -1.026358824212579e+00 1.773862713898017e-03
1.284897959183700e+11 -1.026161723456493e+00 2.382176341859340e-03
1.285306122449000e+11 -1.025809795050704e+00 2.555890880501531e-03
1.285714285714300e+11 -1.025925439895285e+00 2.996656103346786e-03
1.286122448979600e+11 -1.025338347455495e+00 3.146583971728225e-03
1.286530612244900e+11 -1.025059063754216e+00 3.309479506163567e-03
1.286938775510200e+11 -1.025243314482400e+00 3.006364364987783e-03
1.287346938775500e+11 -1.025886347563952e+00 3.037613101853831e-03
1.287755102040800e+11 -1.026703087249769e+00 3.115378351102161e-03
1.288163265306100e+11 -1.027181205298080e+00 3.096417035534876e-03
1.288571428571400e+11 -1.027513993296579e+00 2.609404121420314e-03
1.288979591836700e+11 -1.027135622128932e+00 2.157612000084634e-03
1.289387755102000e+11 -1.026661437447983e+00 9.748002829283216e-04
1.289795918367300e+11 -1.025995740993842e+00 -3.706160754186170e-04
1.290204081632700e+11 -1.026629782274452e+00 -3.323658330867163e-04
1.290612244898000e+11 -1.027319550761390e+00 -1.405642645747281e-03
1.291020408163300e+11 -1.027211235649553e+00 -2.584724585139038e-03
1.291428571428600e+11 -1.027001916661893e+00 -3.692246426822844e-03
1.291836734693900e+11 -1.027461254551502e+00 -4.134221950456798e-03
1.292244897959200e+11 -1.026573300010359e+00 -4.812642328054534e-03
1.292653061224500e+11 -1.026437738987830e+00 -5.416319130346427e-03
1.293061224489800e+11 -1.028059922764619e+00 -5.339295998648001e-03
1.293469387755100e+11 -1.027283012271649e+00 -5.407102466673076e-03
1.293877551020400e+11 -1.025556878907831e+00 -5.667548522587986e-03
1.294285714285700e+11 -1.024806236127489e+00 -6.469198354208230e-03
1.294693877551000e+11 -1.025398264304544e+00 -6.415501087574741e-03
1.295102040816300e+11 -1.025084614886095e+00 -6.668921499070383e-03
1.295510204081600e+11 -1.025800025135978e+00 -5.676058222734294e-03
1.295918367346900e+11 -1.024424488318045e+00 -5.584353473193028e-03
1.296326530612200e+11 -1.024411783664811e+00 -5.655661608550220e-03
1.296734693877600e+11 -1.024501214704794e+00 -4.438832436165076e-03
1.297142857142900e+11 -1.024256818980888e+00 -3.900922221200784e-03
1.297551020408200e+11 -1.023734617045716e+00 -3.316305976835488e-03
1.297959183673500e+11 -1.023584972869834e+00 -2.834343637489588e-03
1.298367346938800e+11 -1.022794494783951e+00 -2.316220782822400e-03
1.298775510204100e+11 -1.023299650241159e+00 -1.835799372583882e-03
1.299183673469400e+11 -1.023953231134030e+00 -8.793127835760057e-04
1.299591836734700e+11 -1.023766283440532e+00 2.289021443556412e-04
1.300000000000000e+11 -1.023354072130671e+00 4.303562238261429e-04
1.300408163265300e+11 -1.023224240117434e+00 7.378017485514588e-04
1.300816326530600e+11 -1.023338356719010e+00 1.216420894737426e-03
1.301224489795900e+11 -1.022453112295965e+00 7.426458135239602e-04
1.301632653061200e+11 -1.022685595142008e+00 5.486992076264819e-04
1.302040816326500e+11 -1.023335294562886e+00 -6.960587269847053e-04
1.302448979591800e+11 -1.023064982217284e+00 -2.312106400236692e-03
1.302857142857100e+11 -1.023081351020166e+00 -2.708184904355145e-03
1.303265306122400e+11 -1.022550526008486e+00 -2.745321398519961e-03
1.303673469387800e+11 -1.022227619682500e+00 -3.991480186230864e-03
1.304081632653100e+11 -1.023105187249548e+00 -4.218034073041989e-03
1.304489795918400e+11 -1.023185811185823e+00 -4.540069225152645e-03
1.304897959183700e+11 -1.022573253761577e+00 -4.847373673748644e-03
1.305306122449000e+11 -1.021932945064370e+00 -5.466915333901296e-03
1.305714285714300e+11 -1.021493822097093e+00 -6.132961226987129e-03
1.306122448979600e+11 -1.021178262854744e+00 -6.137410355979735e-03
1.306530612244900e+11 -1.021086803357572e+00 -6.562519338358908e-03
1.306938775510200e+11 -1.020604197765544e+00 -6.561280048207065e-03
1.307346938775500e+11 -1.020255995774574e+00 -6.008947465508525e-03
1.307755102040800e+11 -1.020101244200297e+00 -5.224395264207504e-03
1.308163265306100e+11 -1.020056126011356e+00 -4.967443038472599e-03
1.308571428571400e+11 -1.019827925453023e+00 -5.698686571420401e-03
1.308979591836700e+11 -1.019739944478484e+00 -5.666579538262101e-03
1.309387755102000e+11 -1.019649272323339e+00 -5.527183836204385e-03
1.309795918367300e+11 -1.019182137413333e+00 -6.334282729745348e-03
1.310204081632700e+11 -1.018357627731939e+00 -5.581745749410639e-03
1.310612244898000e+11 -1.019155544436175e+00 -4.806977902513497e-03
1.311020408163300e+11 -1.019243414715176e+00 -3.495776100883026e-03
1.311428571428600e+11 -1.018593446092397e+00 -3.677528318944356e-03
1.311836734693900e+11 -1.018324004669950e+00 -3.808592988467167e-03
1.312244897959200e+11 -1.017859614873268e+00 -4.496960937053034e-03
1.312653061224500e+11 -1.017592435004099e+00 -4.653911190813040e-03
1.313061224489800e+11 -1.016528167865338e+00 -4.399663871370051e-03
1.313469387755100e+11 -1.016423562753912e+00 -4.424445228717221e-03
1.313877551020400e+11 -1.016486524862719e+00 -4.287226377592491e-03
1.314285714285700e+11 -1.016349382825465e+00 -4.986715019974337e-03
1.314693877551000e+11 -1.015996370970107e+00 -4.727071997096400e-03
1.315102040816300e+11 -1.015453107599058e+00 -4.089046797446113e-03
1.315510204081600e+11 -1.015832082895431e+00 -4.264245502826086e-03
1.315918367346900e+11 -1.015653213446340e+00 -4.081936628427732e-03
1.316326530612200e+11 -1.015920175341321e+00 -3.784060169930066e-03
1.316734693877600e+11 -1.016177762733598e+00 -3.339351104552883e-03
1.317142857142900e+11 -1.015671704274572e+00 -3.593594852029465e-03
1.317551020408200e+11 -1.015449034703086e+00 -3.297974181459060e-03
1.317959183673500e+11 -1.015512293164299e+00 -3.003559204449969e-03
1.318367346938800e+11 -1.014994962162334e+00 -3.698158302204580e-03
1.318775510204100e+11 -1.015174680416266e+00 -3.312888685969347e-03
1.319183673469400e+11 -1.013123710657206e+00 -5.367244413359624e-03
1.319591836734700e+11 -1.013742772796665e+00 -3.756077555663055e-03
1.320000000000000e+11 -1.014112806171446e+00 -3.152831942039942e-03
1.320408163265300e+11 -1.013137907022497e+00 -4.951340448224858e-03
1.320816326530600e+11 -1.013500959149717e+00 -4.058226803429528e-03
1.321224489795900e+11 -1.013849603852499e+00 -4.314155519852306e-03
1.321632653061200e+11 -1.013863300632694e+00 -3.901943723129049e-03
1.322040816326500e+11 -1.014638177653761e+00 -2.605022698579013e-03
1.322448979591800e+11 -1.013915588206945e+00 -3.400827697112866e-03
1.322857142857100e+11 -1.014359970328310e+00 -2.934267992338725e-03
1.323265306122400e+11 -1.014668405078298e+00 -3.293596934117542e-03
1.323673469387800e+11 -1.013358387578326e+00 -4.079776219673927e-03
1.324081632653100e+11 -1.014392777584723e+00 -4.864525443088835e-03
1.324489795918400e+11 -1.014035776631338e+00 -4.708697496369416e-03
1.324897959183700e+11 -1.014209061115502e+00 -3.357968133353430e-03
1.325306122449000e+11 -1.013625653474839e+00 -4.539626118679600e-03
1.325714285714300e+11 -1.013726826638083e+00 -4.434837997202199e-03
1.326122448979600e+11 -1.013618962131497e+00 -5.381236815324989e-03
1.326530612244900e+11 -1.011477070628618e+00 -5.431258848737245e-03
1.326938775510200e+11 -1.011643880096512e+00 -5.282988488908158e-03
1.327346938775500e+11 -1.009353201106219e+00 -8.099720711648528e-03
1.327755102040800e+11 -1.010337354620406e+00 -6.789865626546224e-03
1.328163265306100e+11 -1.009768119988051e+00 -7.873438506372545e-03
1.328571428571400e+11 -1.008879683893134e+00 -6.394732924796835e-03
1.328979591836700e+11 -1.009074446295515e+00 -4.613568274709883e-03
1.329387755102000e+11 -1.008736078830994e+00 -3.726290730521251e-03
1.329795918367300e+11 -1.008896505277930e+00 -3.674884784250163e-03
1.330204081632700e+11 -1.008635671095325e+00 -1.930949812621739e-03
1.330612244898000e+11 -1.009213301508516e+00 -1.010518541544804e-03
1.331020408163300e+11 -1.009190263882816e+00 -5.090729954445844e-05
1.331428571428600e+11 -1.009411362742225e+00 1.709618776241750e-03
1.331836734693900e+11 -1.009110494518360e+00 2.847070252091347e-03
1.332244897959200e+11 -1.009294009020502e+00 3.494953768204293e-03
1.332653061224500e+11 -1.009581029501895e+00 4.745744896257387e-03
1.333061224489800e+11 -1.009876998452887e+00 4.752782921808151e-03
1.333469387755100e+11 -1.009799076257468e+00 4.540680465752223e-03
1.333877551020400e+11 -1.010291755183009e+00 4.916105718305203e-03
1.334285714285700e+11 -1.009809905740630e+00 3.929968785986741e-03
1.334693877551000e+11 -1.009084828816935e+00 3.449426085158958e-03
1.335102040816300e+11 -1.008950624113477e+00 3.239850142031785e-03
1.335510204081600e+11 -1.008485191469586e+00 2.945174916517542e-03
1.335918367346900e+11 -1.008868566205991e+00 1.959207235078205e-03
1.336326530612200e+11 -1.008895588665730e+00 2.594829853199949e-03
1.336734693877600e+11 -1.008451668458662e+00 2.650667972520677e-03
1.337142857142900e+11 -1.008563051830583e+00 2.343034557455233e-03
1.337551020408200e+11 -1.008672369040286e+00 2.143321313285949e-03
1.337959183673500e+11 -1.009162946159870e+00 1.967108539282419e-03
1.338367346938800e+11 -1.008791380452243e+00 2.422081585559900e-03
1.338775510204100e+11 -1.008731695805916e+00 2.853903914149174e-03
1.339183673469400e+11 -1.008650141569641e+00 3.764185703052690e-03
1.339591836734700e+11 -1.008919485950323e+00 2.866149763438129e-03
1.340000000000000e+11 -1.008356477930989e+00 2.375649380337688e-03
1.340408163265300e+11 -1.007852238217271e+00 2.085518144524638e-03
1.340816326530600e+11 -1.007254167514817e+00 2.639902481562968e-03
1.341224489795900e+11 -1.006819065643098e+00 2.145337309795504e-03
1.341632653061200e+11 -1.006891155689103e+00 2.066059513334922e-03
1.342040816326500e+11 -1.006836019090432e+00 2.098249035542887e-03
1.342448979591800e+11 -1.006243814102795e+00 2.436000129587829e-03
1.342857142857100e+11 -1.005415787966920e+00 4.009740781936532e-03
1.343265306122400e+11 -1.005082910876955e+00 4.079643130639662e-03
1.343673469387800e+11 -1.005160030715179e+00 3.900375097155615e-03
1.344081632653100e+11 -1.004009095924683e+00 4.912309841827909e-03
1.344489795918400e+11 -1.004519080249561e+00 6.922292875525389e-03
1.344897959183700e+11 -1.004911479973333e+00 9.228022734078948e-03
1.345306122449000e+11 -1.005025922999090e+00 1.078075884621259e-02
1.345714285714300e+11 -1.004971200119090e+00 1.114271817482211e-02
1.346122448979600e+11 -1.005593486422183e+00 1.166849385487955e-02
1.346530612244900e+11 -1.005904132596559e+00 1.190318274199345e-02
1.346938775510200e+11 -1.005738392451387e+00 1.176254807801005e-02
1.347346938775500e+11 -1.005755942629908e+00 1.166003822521415e-02
1.347755102040800e+11 -1.006770623362827e+00 1.164094742086312e-02
1.348163265306100e+11 -1.006633149444242e+00 1.149136477789288e-02
1.348571428571400e+11 -1.006365003310673e+00 1.116406896211943e-02
1.348979591836700e+11 -1.005671205583215e+00 1.089713252507680e-02
1.349387755102000e+11 -1.005455890179354e+00 1.022057691552060e-02
1.349795918367300e+11 -1.005754161482214e+00 8.811042645989579e-03
1.350204081632700e+11 -1.005031517780558e+00 8.375712280102083e-03
1.350612244898000e+11 -1.004198933114926e+00 8.939372087069734e-03
1.351020408163300e+11 -1.003499051139779e+00 9.065975364281722e-03
1.351428571428600e+11 -1.003382965044359e+00 8.976967027795286e-03
1.351836734693900e+11 -1.002856969376393e+00 9.500303571152318e-03
1.352244897959200e+11 -1.003319214310792e+00 1.063256963349062e-02
1.352653061224500e+11 -1.003359101557471e+00 1.097697389876873e-02
1.353061224489800e+11 -1.002882477378864e+00 1.069042280795671e-02
1.353469387755100e+11 -1.003488715851489e+00 1.221199906094578e-02
1.353877551020400e+11 -1.004252582637936e+00 1.286594063998685e-02
1.354285714285700e+11 -1.004446017519677e+00 1.317778859628629e-02
1.354693877551000e+11 -1.004759657963029e+00 1.298191896641514e-02
1.355102040816300e+11 -1.004761505442273e+00 1.255724093519863e-02
1.355510204081600e+11 -1.005477108861439e+00 1.371134576504736e-02
1.355918367346900e+11 -1.006313863070712e+00 1.330093205149938e-02
1.356326530612200e+11 -1.007387187643945e+00 1.320482623755625e-02
1.356734693877600e+11 -1.007362954428475e+00 1.288726143934270e-02
1.357142857142900e+11 -1.007300215845912e+00 1.322009088497503e-02
1.357551020408200e+11 -1.006932990499189e+00 1.359196382787547e-02
1.357959183673500e+11 -1.007011690180066e+00 1.347914794623898e-02
1.358367346938800e+11 -1.006329033687513e+00 1.253461758369950e-02
1.358775510204100e+11 -1.005962438160928e+00 1.166383757303893e-02
1.359183673469400e+11 -1.005394062467997e+00 1.197636607639221e-02
1.359591836734700e+11 -1.005327004812866e+00 1.144802153032727e-02
1.360000000000000e+11 -1.005927443092489e+00 1.108044868872259e-02
1.360408163265300e+11 -1.005592679462935e+00 1.012639227987578e-02
1.360816326530600e+11 -1.005729489969415e+00 9.270828206399961e-03
1.361224489795900e+11 -1.005992809672474e+00 1.045630791660240e-02
1.361632653061200e+11 -1.004997516466033e+00 9.609129304030101e-03
1.362040816326500e+11 -1.005277087277232e+00 8.754014679021664e-03
1.362448979591800e+11 -1.005404282146609e+00 8.917465362475008e-03
1.362857142857100e+11 -1.005664331193283e+00 8.331456086650816e-03
1.363265306122400e+11 -1.005858751288032e+00 7.647829438279762e-03
1.363673469387800e+11 -1.005167752322094e+00 7.573951097501086e-03
1.364081632653100e+11 -1.004811181730422e+00 7.875308450062868e-03
1.364489795918400e+11 -1.004185068026270e+00 8.215967665694967e-03
1.364897959183700e+11 -1.003646505731640e+00 7.665935557534019e-03
1.365306122449000e+11 -1.002969547509028e+00 7.881108882429886e-03
1.365714285714300e+11 -1.002011255667047e+00 8.301786056381842e-03
1.366122448979600e+11 -1.001497921131822e+00 7.878688602784257e-03
1.366530612244900e+11 -1.001014431173713e+00 7.768268223783614e-03
1.366938775510200e+11 -1.000760542467818e+00 7.339346854358583e-03
1.367346938775500e+11 -1.001152224358987e+00 7.671007544634815e-03
1.367755102040800e+11 -1.001005201060487e+00 8.169900304434324e-03
1.368163265306100e+11 -1.001702731618374e+00 7.188653154875800e-03
1.368571428571400e+11 -1.002190716440933e+00 6.820412683756165e-03
1.368979591836700e+11 -1.002391062302349e+00 6.727759500949187e-03
1.369387755102000e+11 -1.001961373707122e+00 6.101333455918925e-03
1.369795918367300e+11 -1.002305917176293e+00 5.380962627871555e-03
1.370204081632700e+11 -1.003046869424183e+00 5.390348344495689e-03
1.370612244898000e+11 -1.003222740390208e+00 4.090281134020860e-03
1.371020408163300e+11 -1.003451011062243e+00 3.904062216247439e-03
1.371428571428600e+11 -1.003597373636307e+00 3.649039974957170e-03
1.371836734693900e+11 -1.003379900842416e+00 3.389141862648683e-03
1.372244897959200e+11 -1.003288211526972e+00 2.340308695126197e-03
1.372653061224500e+11 -1.003278616574409e+00 1.965169792504424e-03
1.373061224489800e+11 -1.003082338204134e+00 2.517023097500319e-03
1.373469387755100e+11 -1.002933285044230e+00 3.171016260207308e-03
1.373877551020400e+11 -1.002729752270207e+00 2.636466812710771e-03
1.374285714285700e+11 -1.002273895347157e+00 1.929630715639332e-03
1.374693877551000e+11 -1.001633063776437e+00 1.723198985621786e-03
1.375102040816300e+11 -1.001602148384993e+00 2.303578165785278e-03
1.375510204081600e+11 -1.001949064913819e+00 1.716559285359688e-03
1.375918367346900e+11 -1.002131406630251e+00 8.404404394826040e-04
1.376326530612200e+11 -1.002006849046681e+00 8.606607226508533e-04
1.376734693877600e+11 -1.001733880254090e+00 1.855733580961368e-03
1.377142857142900e+11 -1.002160464165589e+00 8.033374362941356e-04
1.377551020408200e+11 -1.002023307652189e+00 -2.982201411694684e-04
1.377959183673500e+11 -1.002402184290942e+00 -4.360804361641342e-04
1.378367346938800e+11 -1.002954506348353e+00 -7.350841872094172e-04
1.378775510204100e+11 -1.003493860783104e+00 -1.223756116893634e-03
1.379183673469400e+11 -1.003097076556898e+00 -2.399138162392533e-03
1.379591836734700e+11 -1.003066412423561e+00 -2.973442676708858e-03
1.380000000000000e+11 -1.002763752195117e+00 -3.189020920649382e-03
1.380408163265300e+11 -1.002654071870093e+00 -4.563217342052108e-03
1.380816326530600e+11 -1.002273636135901e+00 -4.602587442233564e-03
1.381224489795900e+11 -1.001265580192565e+00 -5.202078948129909e-03
1.381632653061200e+11 -1.001059466509406e+00 -5.998283387211336e-03
1.382040816326500e+11 -1.000818230437637e+00 -6.045263618119719e-03
1.382448979591800e+11 -1.000718203028154e+00 -6.527157380087996e-03
1.382857142857100e+11 -9.998192630334028e-01 -6.740719460646935e-03
1.383265306122400e+11 -1.000018572332958e+00 -6.395886431985276e-03
1.383673469387800e+11 -9.996229098344551e-01 -6.575747310045533e-03
1.384081632653100e+11 -9.999251613784098e-01 -7.110163668473972e-03
1.384489795918400e+11 -1.000188403756546e+00 -7.285753721846377e-03
1.384897959183700e+11 -1.000597579931431e+00 -7.564083010759175e-03
1.385306122449000e+11 -1.000676325199601e+00 -7.699821218355259e-03
1.385714285714300e+11 -1.000065970315206e+00 -6.806764811359939e-03
1.386122448979600e+11 -1.000503817533779e+00 -7.630317376561853e-03
1.386530612244900e+11 -1.000624084571497e+00 -7.820034137757344e-03
1.386938775510200e+11 -1.000383108011135e+00 -7.562752982411697e-03
1.387346938775500e+11 -1.000007275675401e+00 -8.423934965229691e-03
1.387755102040800e+11 -9.999875375410117e-01 -9.162984723300266e-03
1.388163265306100e+11 -9.992384881420777e-01 -9.072878698997529e-03
1.388571428571400e+11 -9.989168611812252e-01 -9.416117155154337e-03
1.388979591836700e+11 -9.981525482123734e-01 -9.467820871416389e-03
1.389387755102000e+11 -9.982769058359729e-01 -1.036300255690799e-02
1.389795918367300e+11 -9.989949507309157e-01 -9.654811962556246e-03
1.390204081632700e+11 -9.990134318792736e-01 -1.002038097652497e-02
1.390612244898000e+11 -9.992778312891811e-01 -9.618063205387538e-03
1.391020408163300e+11 -9.991859206403557e-01 -8.017894343849868e-03
1.391428571428600e+11 -9.993550344332762e-01 -7.692224480476201e-03
1.391836734693900e+11 -1.000114094040816e+00 -8.507277414139220e-03
1.392244897959200e+11 -1.000436034842175e+00 -1.029869757816852e-02
1.392653061224500e+11 -1.000706021545172e+00 -1.066297989356499e-02
1.393061224489800e+11 -1.000934058813136e+00 -1.032934897297121e-02
1.393469387755100e+11 -1.001581088672873e+00 -1.108162553025963e-02
1.393877551020400e+11 -1.001694304727090e+00 -1.160617787486916e-02
1.394285714285700e+11 -1.001521749190025e+00 -1.273415653767509e-02
1.394693877551000e+11 -1.000548560245851e+00 -1.384739792850643e-02
1.395102040816300e+11 -9.996858626619518e-01 -1.430172246874934e-02
1.395510204081600e+11 -9.991316793294345e-01 -1.438648669064111e-02
1.395918367346900e+11 -9.980193568184442e-01 -1.505790444122180e-02
1.396326530612200e+11 -9.976307296398664e-01 -1.578027074202901e-02
1.396734693877600e+11 -9.972617244455789e-01 -1.678028191484328e-02
1.397142857142900e+11 -9.962393552688736e-01 -1.518622700194662e-02
1.397551020408200e+11 -9.954141680455992e-01 -1.450036683235165e-02
1.397959183673500e+11 -9.964372127712433e-01 -1.537912855515397e-02
1.398367346938800e+11 -9.942220519776025e-01 -1.472427295921735e-02
1.398775510204100e+11 -9.951819853285135e-01 -1.694861930562945e-02
1.399183673469400e+11 -9.950094599387480e-01 -1.496381610516259e-02
1.399591836734700e+11 -9.953908545847149e-01 -1.405400704712033e-02
1.400000000000000e+11 -9.961292204535820e-01 -1.378877136136364e-02
1.400408163265300e+11 -9.966994468271722e-01 -1.351352210146626e-02
1.400816326530600e+11 -9.967343815693345e-01 -1.334351829456167e-02
1.401224489795900e+11 -9.963702512972635e-01 -1.214869938182160e-02
1.401632653061200e+11 -9.961750875892663e-01 -1.229548141432921e-02
1.402040816326500e+11 -9.964251223004116e-01 -1.228462051404704e-02
1.402448979591800e+11 -9.966332119332572e-01 -1.324200854286579e-02
1.402857142857100e+11 -9.962161431115126e-01 -1.245282308162938e-02
1.403265306122400e+11 -9.954991426688712e-01 -1.224147432047555e-02
1.403673469387800e+11 -9.956543341961515e-01 -1.270364052789633e-02
1.404081632653100e+11 -9.957639840365061e-01 -1.206430855826028e-02
1.404489795918400e+11 -9.950963796871614e-01 -1.108783844788436e-02
1.404897959183700e+11 -9.947708342104242e-01 -1.233039096779696e-02
1.405306122449000e+11 -9.949813382051416e-01 -1.137895601775068e-02
1.405714285714300e+11 -9.945882183946289e-01 -1.053653920242964e-02
1.406122448979600e+11 -9.947878149838703e-01 -1.033263453542021e-02
1.406530612244900e+11 -9.944249892030511e-01 -1.090739257793144e-02
1.406938775510200e+11 -9.952210469737628e-01 -1.059215718220383e-02
1.407346938775500e+11 -9.956412450075662e-01 -9.331584247166892e-03
1.407755102040800e+11 -9.959252161511524e-01 -1.044549881398855e-02
1.408163265306100e+11 -9.960097897798702e-01 -1.013071344472528e-02
1.408571428571400e+11 -9.953312403529514e-01 -1.025897025146875e-02
1.408979591836700e+11 -9.947911127196244e-01 -9.316615117007753e-03
1.409387755102000e+11 -9.947306196833318e-01 -9.398503925098615e-03
1.409795918367300e+11 -9.943326913239178e-01 -1.020388917627027e-02
1.410204081632700e+11 -9.937919961083428e-01 -1.113826587919413e-02
1.410612244898000e+11 -9.919800930961730e-01 -1.079086060377055e-02
1.411020408163300e+11 -9.915777865614688e-01 -1.136267235075456e-02
1.411428571428600e+11 -9.919806579898001e-01 -1.206197192483357e-02
1.411836734693900e+11 -9.922109088612954e-01 -1.247999438029662e-02
1.412244897959200e+11 -9.918952075964467e-01 -1.278575566499668e-02
1.412653061224500e+11 -9.912355995079399e-01 -1.142537160088578e-02
1.413061224489800e+11 -9.910665837501147e-01 -1.280252161066553e-02
1.413469387755100e+11 -9.913069519244101e-01 -1.229049365844685e-02
1.413877551020400e+11 -9.901150298004835e-01 -1.306589164794428e-02
1.414285714285700e+11 -9.903111440714218e-01 -1.312155820475682e-02
1.414693877551000e+11 -9.900788542742067e-01 -1.288324047111790e-02
1.415102040816300e+11 -9.906625242903864e-01 -1.246762322209785e-02
1.415510204081600e+11 -9.898256658842405e-01 -1.233706110273582e-02
1.415918367346900e+11 -9.893070495422445e-01 -1.412807798683383e-02
1.416326530612200e+11 -9.890956373674832e-01 -1.308681350166664e-02
1.416734693877600e+11 -9.892482380365335e-01 -1.304480040176141e-02
1.417142857142900e+11 -9.888324112899626e-01 -1.410751545466151e-02
1.417551020408200e+11 -9.878695593221413e-01 -1.422085129916203e-02
1.417959183673500e+11 -9.878889323675272e-01 -1.524160324850393e-02
1.418367346938800e+11 -9.871852929933451e-01 -1.476843534751954e-02
1.418775510204100e+11 -9.870125148604401e-01 -1.429521086192079e-02
1.419183673469400e+11 -9.857128066496174e-01 -1.523419451431416e-02
1.419591836734700e+11 -9.852592112144087e-01 -1.564283993688807e-02
1.420000000000000e+11 -9.847265042457967e-01 -1.589673234990871e-02
1.420408163265300e+11 -9.851365891807263e-01 -1.595515994093048e-02
1.420816326530600e+11 -9.849726112088609e-01 -1.602003893027838e-02
1.421224489795900e+11 -9.849442433554839e-01 -1.484854139579321e-02
1.421632653061200e+11 -9.846585180909875e-01 -1.293349427270194e-02
1.422040816326500e+11 -9.839965866637175e-01 -1.213152046863189e-02
1.422448979591800e+11 -9.837284186384218e-01 -1.321120350868921e-02
1.422857142857100e+11 -9.843933351306067e-01 -1.251450324405094e-02
1.423265306122400e+11 -9.845908132116826e-01 -1.226333460617552e-02
1.423673469387800e+11 -9.845745641356896e-01 -1.120847689245144e-02
1.424081632653100e+11 -9.842025166254207e-01 -1.111923085856786e-02
1.424489795918400e+11 -9.839591652466712e-01 -1.149543017563224e-02
1.424897959183700e+11 -9.839200894084751e-01 -1.122157144627806e-02
1.425306122449000e+11 -9.842665036408933e-01 -1.195052720991087e-02
1.425714285714300e+11 -9.842928106474037e-01 -1.144182006470182e-02
1.426122448979600e+11 -9.843858104420488e-01 -1.064924654737827e-02
1.426530612244900e+11 -9.847550538926428e-01 -1.013199868035978e-02
1.426938775510200e+11 -9.852311950555881e-01 -9.704804864243929e-03
1.427346938775500e+11 -9.853921477530776e-01 -9.854463599154600e-03
1.427755102040800e+11 -9.853525811260245e-01 -9.769795263178987e-03
1.428163265306100e+11 -9.850426344738643e-01 -9.736679033292513e-03
1.428571428571400e+11 -9.860078562417840e-01 -8.501040377575641e-03
1.428979591836700e+11 -9.873539543909237e-01 -8.646714534401495e-03
1.429387755102000e+11 -9.880938973502401e-01 -8.574160704091447e-03
1.429795918367300e+11 -9.882074092820134e-01 -8.345254262675563e-03
1.430204081632700e+11 -9.883135909762512e-01 -8.374406753328701e-03
1.430612244898000e+11 -9.885379565092197e-01 -9.094508738236690e-03
1.431020408163300e+11 -9.885149487811825e-01 -8.766427013412169e-03
1.431428571428600e+11 -9.878408236221220e-01 -8.483801784384406e-03
1.431836734693900e+11 -9.872766279839708e-01 -8.580863362534798e-03
1.432244897959200e+11 -9.869232554335495e-01 -9.762985765488766e-03
1.432653061224500e+11 -9.864388151067400e-01 -1.057179487212867e-02
1.433061224489800e+11 -9.856828703325227e-01 -1.106294730640255e-02
1.433469387755100e+11 -9.848351317024476e-01 -1.090612395067387e-02
1.433877551020400e+11 -9.848628525510398e-01 -1.135409997320173e-02
1.434285714285700e+11 -9.839645477146080e-01 -1.099175788861885e-02
1.434693877551000e+11 -9.840008529618740e-01 -1.213086861244278e-02
1.435102040816300e+11 -9.853114333935505e-01 -8.930209099008879e-03
1.435510204081600e+11 -9.845604068700228e-01 -9.573407698872114e-03
1.435918367346900e+11 -9.845736008405659e-01 -9.773289851089351e-03
1.436326530612200e+11 -9.853683350999521e-01 -9.622226579154498e-03
1.436734693877600e+11 -9.861710064636124e-01 -8.031031905474608e-03
1.437142857142900e+11 -9.862390153712060e-01 -7.277462972061628e-03
1.437551020408200e+11 -9.865235096162387e-01 -8.061776987629913e-03
1.437959183673500e+11 -9.870316726320781e-01 -8.623684255665861e-03
1.438367346938800e+11 -9.865186883073267e-01 -8.574753869414016e-03
1.438775510204100e+11 -9.866227746171149e-01 -7.832082791044526e-03
1.439183673469400e+11 -9.863723830162169e-01 -7.728025968320958e-03
1.439591836734700e+11 -9.861294125785091e-01 -7.953092437839371e-03
1.440000000000000e+11 -9.854404322298920e-01 -7.873705756535397e-03
1.440408163265300e+11 -9.855925019707470e-01 -8.198558447873552e-03
1.440816326530600e+11 -9.847335426305722e-01 -7.718134044004884e-03
1.441224489795900e+11 -9.843257768493461e-01 -7.610036032385260e-03
1.441632653061200e+11 -9.831963002602592e-01 -7.404992877686112e-03
1.442040816326500e+11 -9.842298763112023e-01 -7.000010071962780e-03
1.442448979591800e+11 -9.842242285599152e-01 -7.029168418901163e-03
1.442857142857100e+11 -9.844749133425100e-01 -7.893706065974117e-03
1.443265306122400e+11 -9.845914348374131e-01 -6.696354105538084e-03
1.443673469387800e+11 -9.848074401625272e-01 -5.198490360773309e-03
1.444081632653100e+11 -9.852955738805146e-01 -5.287713571479937e-03
1.444489795918400e+11 -9.856334679284718e-01 -5.686088982541184e-03
1.444897959183700e+11 -9.861187736132430e-01 -6.530015481766656e-03
1.445306122449000e+11 -9.866692322351710e-01 -6.987635312772840e-03
1.445714285714300e+11 -9.868964226361280e-01 -6.479157956201613e-03
1.446122448979600e+11 -9.870263240023128e-01 -6.662077098495486e-03
1.446530612244900e+11 -9.868087982426523e-01 -6.237093534490824e-03
1.446938775510200e+11 -9.860723915174261e-01 -4.276148154642029e-03
1.447346938775500e+11 -9.861372556561516e-01 -4.723016596268964e-03
1.447755102040800e+11 -9.859621950890221e-01 -4.785791371057573e-03
1.448163265306100e+11 -9.852585738813033e-01 -5.341419522278965e-03
1.448571428571400e+11 -9.841517546512347e-01 -5.007076124969993e-03
1.448979591836700e+11 -9.834968876143514e-01 -4.012065617160612e-03
1.449387755102000e+11 -9.829287442218906e-01 -4.471761187164178e-03
1.449795918367300e+11 -9.827996568648932e-01 -5.114770163453485e-03
1.450204081632700e+11 -9.828625777169928e-01 -5.023207693027680e-03
1.450612244898000e+11 -9.832299519204302e-01 -4.726850902071102e-03
1.451020408163300e+11 -9.837544775711913e-01 -5.357745517056989e-03
1.451428571428600e+11 -9.837930783500699e-01 -6.052798708724922e-03
1.451836734693900e+11 -9.847670476040107e-01 -7.022302204791379e-03
1.452244897959200e+11 -9.848968795774192e-01 -6.370202508098874e-03
1.452653061224500e+11 -9.850263487052355e-01 -6.084089172765796e-03
1.453061224489800e+11 -9.854077370790243e-01 -7.000834157839622e-03
1.453469387755100e+11 -9.855138596885070e-01 -8.152245162558924e-03
1.453877551020400e+11 -9.860733088474364e-01 -7.815696200085423e-03
1.454285714285700e+11 -9.860143799838736e-01 -8.450854714962713e-03
1.454693877551000e+11 -9.851269377080897e-01 -8.437032397431028e-03
1.455102040816300e+11 -9.853028089060288e-01 -8.132847841565377e-03
1.455510204081600e+11 -9.850480120857416e-01 -7.840639203196276e-03
1.455918367346900e+11 -9.846151513020678e-01 -7.438695194323269e-03
1.456326530612200e+11 -9.837115548673833e-01 -8.805638676920028e-03
1.456734693877600e+11 -9.827413920358035e-01 -8.801711057781431e-03
1.457142857142900e+11 -9.814970469392192e-01 -6.904241872020351e-03
1.457551020408200e+11 -9.813977657419972e-01 -6.734373506713982e-03
1.457959183673500e+11 -9.814945059359642e-01 -7.483054233801962e-03
1.458367346938800e+11 -9.813758625861435e-01 -7.464943954173872e-03
1.458775510204100e+11 -9.811676428115254e-01 -7.938911173057310e-03
1.459183673469400e+11 -9.820080599966770e-01 -6.893264345378368e-03
1.459591836734700e+11 -9.822324435846016e-01 -5.742789690073020e-03
1.460000000000000e+11 -9.828053070192180e-01 -5.520801733141485e-03
1.460408163265300e+11 -9.831505153397690e-01 -5.540797405244226e-03
1.460816326530600e+11 -9.827628174210566e-01 -6.351881490570897e-03
1.461224489795900e+11 -9.827657319551187e-01 -5.241048821408316e-03
1.461632653061200e+11 -9.836836328414845e-01 -4.575841965093096e-03
1.462040816326500e+11 -9.843216115419035e-01 -4.793260956321498e-03
1.462448979591800e+11 -9.852798493148240e-01 -6.179016146482838e-03
1.462857142857100e+11 -9.861395779807034e-01 -5.803779941806462e-03
1.463265306122400e+11 -9.855008820068896e-01 -3.989726542187937e-03
1.463673469387800e+11 -9.841581815190866e-01 -3.664901477863737e-03
1.464081632653100e+11 -9.837129866320408e-01 -5.939760598385422e-03
1.464489795918400e+11 -9.832651907339414e-01 -6.072897585407406e-03
1.464897959183700e+11 -9.837575543597922e-01 -6.046917029689872e-03
1.465306122449000e+11 -9.827823343268814e-01 -3.373133280183544e-03
1.465714285714300e+11 -9.830753980093909e-01 -3.441671100317801e-03
1.466122448979600e+11 -9.828490353838127e-01 -3.734623000909641e-03
1.466530612244900e+11 -9.825396120862423e-01 -4.099631433980187e-03
1.466938775510200e+11 -9.830104451452172e-01 -3.533345192115248e-03
1.467346938775500e+11 -9.824706390604899e-01 -3.651446422034285e-03
1.467755102040800e+11 -9.823106988613584e-01 -5.341392960388673e-03
1.468163265306100e+11 -9.821907795251477e-01 -5.068510671069821e-03
1.468571428571400e+11 -9.822304709141852e-01 -4.982252881292023e-03
1.468979591836700e+11 -9.832034184902063e-01 -6.728141758510457e-03
1.469387755102000e+11 -9.832893100653677e-01 -7.806619329347527e-03
1.469795918367300e+11 -9.842645570513466e-01 -7.342738012669003e-03
1.470204081632700e+11 -9.837035535992926e-01 -7.238454570406773e-03
1.470612244898000e+11 -9.836696631616586e-01 -9.298023775742306e-03
1.471020408163300e+11 -9.838884760232067e-01 -1.026279840920599e-02
1.471428571428600e+11 -9.832815057626775e-01 -1.008652633864643e-02
1.471836734693900e+11 -9.825246929669051e-01 -1.054901753276911e-02
1.472244897959200e+11 -9.824192574005272e-01 -1.088932953069349e-02
1.472653061224500e+11 -9.816182719558304e-01 -1.172566976005575e-02
1.473061224489800e+11 -9.806353289280932e-01 -1.036231816806415e-02
1.473469387755100e+11 -9.806868767787935e-01 -1.099553263939206e-02
1.473877551020400e+11 -9.803014793173844e-01 -1.138586794007872e-02
1.474285714285700e+11 -9.801958131635137e-01 -1.026830944240460e-02
1.474693877551000e+11 -9.803311646340910e-01 -8.996169112425807e-03
1.475102040816300e+11 -9.806780991972577e-01 -9.898910628026440e-03
1.475510204081600e+11 -9.800169903584816e-01 -1.140076889054864e-02
1.475918367346900e+11 -9.804135174195791e-01 -1.192556985281987e-02
1.476326530612200e+11 -9.808557996377071e-01 -1.215087098194318e-02
1.476734693877600e+11 -9.805519179306000e-01 -1.259391710134082e-02
1.477142857142900e+11 -9.808246594395184e-01 -1.423635262330876e-02
1.477551020408200e+11 -9.811810013735104e-01 -1.869763314326770e-02
1.477959183673500e+11 -9.813962746140038e-01 -1.868824457622388e-02
1.478367346938800e+11 -9.810105324237218e-01 -1.734680556785723e-02
1.478775510204100e+11 -9.808684142250921e-01 -1.807222070688650e-02
1.479183673469400e+11 -9.809879267055407e-01 -1.976299444172644e-02
1.479591836734700e+11 -9.808237770858713e-01 -2.113921990150620e-02
1.480000000000000e+11 -9.804134594197554e-01 -2.070668056805100e-02
1.480408163265300e+11 -9.797428605965949e-01 -2.006583599412038e-02
1.480816326530600e+11 -9.789853480738961e-01 -1.953537707466149e-02
1.481224489795900e+11 -9.782421646865442e-01 -1.873736358571473e-02
1.481632653061200e+11 -9.781576510468084e-01 -1.914833299323167e-02
1.482040816326500e+11 -9.781706340799744e-01 -1.785931377100434e-02
1.482448979591800e+11 -9.785116724877820e-01 -1.714589066350380e-02
1.482857142857100e+11 -9.787252584595749e-01 -1.748604997624999e-02
1.483265306122400e+11 -9.785105356309768e-01 -1.635764457496693e-02
1.483673469387800e+11 -9.789609209537268e-01 -1.586568678978761e-02
1.484081632653100e+11 -9.792896342210436e-01 -1.828131823521771e-02
1.484489795918400e+11 -9.794981996347462e-01 -1.898751976033416e-02
1.484897959183700e+11 -9.793120916854757e-01 -1.980205559543529e-02
1.485306122449000e+11 -9.791535043510968e-01 -2.118553761672694e-02
1.485714285714300e+11 -9.795988290928000e-01 -2.339855745944008e-02
1.486122448979600e+11 -9.790397479393390e-01 -2.516006137505588e-02
1.486530612244900e+11 -9.792049730440151e-01 -2.775727974101923e-02
1.486938775510200e+11 -9.787603445938845e-01 -2.922203618311037e-02
1.487346938775500e+11 -9.777543705308476e-01 -2.986266789585276e-02
1.487755102040800e+11 -9.769773902788590e-01 -3.159382040962865e-02
1.488163265306100e+11 -9.763754466983221e-01 -3.423821986756050e-02
1.488571428571400e+11 -9.755652018879423e-01 -3.525587052858327e-02
1.488979591836700e+11 -9.752769603857834e-01 -3.543791042274247e-02
1.489387755102000e+11 -9.744945442985358e-01 -3.609355372382323e-02
1.489795918367300e+11 -9.737462869778633e-01 -3.663434077985487e-02
1.490204081632700e+11 -9.740568167879357e-01 -3.719873401499695e-02
1.490612244898000e+11 -9.734378257812780e-01 -3.756779479348804e-02
1.491020408163300e+11 -9.730409662804981e-01 -3.682480766927321e-02
1.491428571428600e+11 -9.735556144328172e-01 -3.755506754795945e-02
1.491836734693900e+11 -9.736623165411832e-01 -3.677040200228838e-02
1.492244897959200e+11 -9.742476348505638e-01 -3.556707232904172e-02
1.492653061224500e+11 -9.742163433450939e-01 -3.578514768305545e-02
1.493061224489800e+11 -9.735810812322258e-01 -3.594229397893418e-02
1.493469387755100e+11 -9.736204565833643e-01 -3.529534125411735e-02
1.493877551020400e+11 -9.736989803023528e-01 -3.561603795272445e-02
1.494285714285700e+11 -9.736000445984786e-01 -3.566206481610925e-02
1.494693877551000e+11 -9.728926423622961e-01 -3.398009082230762e-02
1.495102040816300e+11 -9.725980408194906e-01 -3.377777346051684e-02
1.495510204081600e+11 -9.718447986827286e-01 -3.300286400791156e-02
1.495918367346900e+11 -9.724743925704979e-01 -3.303992387268792e-02
1.496326530612200e+11 -9.724137372376186e-01 -3.178824143096627e-02
1.496734693877600e+11 -9.717451014347522e-01 -3.191319000026719e-02
1.497142857142900e+11 -9.706103687929845e-01 -3.107610157404862e-02
1.497551020408200e+11 -9.710312106065926e-01 -2.948058200751559e-02
1.497959183673500e+11 -9.707562251538365e-01 -2.886536142188235e-02
1.498367346938800e+11 -9.709825051087617e-01 -2.853074283764423e-02
1.498775510204100e+11 -9.713481335288604e-01 -2.860401495390631e-02
1.499183673469400e+11 -9.719220675722030e-01 -2.712193351641650e-02
1.499591836734700e+11 -9.721816702534022e-01 -2.782281096565348e-02
1.500000000000000e+11 -9.729327520633727e-01 -2.928843380622358e-02
1.500408163265300e+11 -9.726752189200882e-01 -2.925138530436426e-02
1.500816326530600e+11 -9.722415200100986e-01 -2.909217444427966e-02
1.501224489795900e+11 -9.730000080411045e-01 -2.884856141950857e-02
1.501632653061200e+11 -9.739670986905928e-01 -3.006473927440712e-02
1.502040816326500e+11 -9.736017305626027e-01 -3.149207817070367e-02
1.502448979591800e+11 -9.734374774508143e-01 -3.279462424864936e-02
1.502857142857100e+11 -9.729966600014590e-01 -3.438073063361620e-02
1.503265306122400e+11 -9.733211137215929e-01 -3.592849652496410e-02
1.503673469387800e+11 -9.724952696633096e-01 -3.615538429366728e-02
1.504081632653100e+11 -9.726013718577179e-01 -3.815317492464756e-02
1.504489795918400e+11 -9.718049851991913e-01 -3.928329704544471e-02
1.504897959183700e+11 -9.712815359965179e-01 -4.045653820481145e-02
1.505306122449000e+11 -9.710548832251624e-01 -3.892352168943407e-02
1.505714285714300e+11 -9.708602240574215e-01 -3.876506042306443e-02
1.506122448979600e+11 -9.702246950217772e-01 -3.856472987798659e-02
1.506530612244900e+11 -9.707515145214866e-01 -3.937729807613645e-02
1.506938775510200e+11 -9.713556592952851e-01 -3.689572728331423e-02
1.507346938775500e+11 -9.705419899052867e-01 -3.330635300236964e-02
1.507755102040800e+11 -9.711068015117928e-01 -3.349596621587301e-02
1.508163265306100e+11 -9.705225288564517e-01 -3.519205091760077e-02
1.508571428571400e+11 -9.697392426953101e-01 -3.315298240284747e-02
1.508979591836700e+11 -9.700972020873853e-01 -3.021073743298443e-02
1.509387755102000e+11 -9.709939283746875e-01 -2.720182078695841e-02
1.509795918367300e+11 -9.707238500879253e-01 -2.865489003398106e-02
1.510204081632700e+11 -9.700737765831630e-01 -3.046514206996220e-02
1.510612244898000e+11 -9.700285047148832e-01 -2.895138405764799e-02
1.511020408163300e+11 -9.701981836273909e-01 -2.608869832938523e-02
1.511428571428600e+11 -9.705223594285060e-01 -2.467413790993526e-02
1.511836734693900e+11 -9.702846739063978e-01 -2.533324390596429e-02
1.512244897959200e+11 -9.693631348353092e-01 -2.508330489866946e-02
1.512653061224500e+11 -9.700333407949864e-01 -2.560615502052474e-02
1.513061224489800e+11 -9.691274867057903e-01 -2.230548915626297e-02
1.513469387755100e+11 -9.693367715466733e-01 -2.150850668532569e-02
1.513877551020400e+11 -9.690804486921314e-01 -2.041027944147538e-02
1.514285714285700e+11 -9.691281296771697e-01 -1.976352880621756e-02
1.514693877551000e+11 -9.693578480956048e-01 -1.951333415732267e-02
1.515102040816300e+11 -9.694671552114075e-01 -1.845662877459309e-02
1.515510204081600e+11 -9.692040331881850e-01 -1.493267765161795e-02
1.515918367346900e+11 -9.690171281982419e-01 -1.210678342088474e-02
1.516326530612200e+11 -9.685475117416383e-01 -1.151866127458079e-02
1.516734693877600e+11 -9.693340770668251e-01 -1.331070344845121e-02
1.517142857142900e+11 -9.699898224667935e-01 -1.272609613379473e-02
1.517551020408200e+11 -9.701000874335913e-01 -1.261719221072861e-02
1.517959183673500e+11 -9.698941767689965e-01 -1.143460474809141e-02
1.518367346938800e+11 -9.696987662610763e-01 -1.128836018791498e-02
1.518775510204100e+11 -9.697889492029402e-01 -1.193560502833946e-02
1.519183673469400e+11 -9.690715675142964e-01 -1.249515634901678e-02
1.519591836734700e+11 -9.690288381149068e-01 -1.284285249139662e-02
1.520000000000000e+11 -9.688774370130527e-01 -1.053831314012341e-02
1.520408163265300e+11 -9.687135149604478e-01 -1.078301012321573e-02
1.520816326530600e+11 -9.670991638496118e-01 -9.232505383465386e-03
1.521224489795900e+11 -9.675810992311660e-01 -8.448394913704724e-03
1.521632653061200e+11 -9.674032199416031e-01 -6.731870727630232e-03
1.522040816326500e+11 -9.662429866166625e-01 -7.518773544395306e-03
1.522448979591800e+11 -9.663145502871137e-01 -5.984364546656473e-03
1.522857142857100e+11 -9.656127592544433e-01 -3.199591161530192e-03
1.523265306122400e+11 -9.659075226392695e-01 -2.373362010572004e-03
1.523673469387800e+11 -9.657973959850530e-01 -1.788643535540244e-03
1.524081632653100e+11 -9.660094914240500e-01 -1.702539617153091e-03
1.524489795918400e+11 -9.658106368818219e-01 -2.206010712764677e-03
1.524897959183700e+11 -9.653245741362536e-01 -9.675258296303294e-04
1.525306122449000e+11 -9.644429128912584e-01 7.829887541280805e-04
1.525714285714300e+11 -9.648118119460553e-01 1.971186803658654e-03
1.526122448979600e+11 -9.648383626132803e-01 1.485967848108948e-03
1.526530612244900e+11 -9.649386453070121e-01 -1.230613498033128e-03
1.526938775510200e+11 -9.652179929692732e-01 -1.132974967233620e-03
1.527346938775500e+11 -9.644810945251771e-01 1.131698967487877e-03
1.527755102040800e+11 -9.644089781731727e-01 2.987427430128413e-03
1.528163265306100e+11 -9.640416853317277e-01 3.202579529041333e-03
1.528571428571400e+11 -9.640454957094691e-01 2.023958317534116e-03
1.528979591836700e+11 -9.635932959804878e-01 3.926136244279901e-03
1.529387755102000e+11 -9.623056613062477e-01 7.093946989196241e-03
1.529795918367300e+11 -9.615184606670962e-01 1.100963532703183e-02
1.530204081632700e+11 -9.614880737673797e-01 1.147729135374585e-02
1.530612244898000e+11 -9.613302713475671e-01 1.127729172203946e-02
1.531020408163300e+11 -9.609155257325340e-01 1.347871255668860e-02
1.531428571428600e+11 -9.607495684275257e-01 1.686694297933998e-02
1.531836734693900e+11 -9.599677145669092e-01 1.823984699851629e-02
1.532244897959200e+11 -9.605470155101776e-01 2.033518266700299e-02
1.532653061224500e+11 -9.609030824318147e-01 2.223310527047416e-02
1.533061224489800e+11 -9.606971580928576e-01 2.215573578664235e-02
1.533469387755100e+11 -9.607416741650910e-01 2.397845665778068e-02
1.533877551020400e+11 -9.610132123731631e-01 2.538831884481032e-02
1.534285714285700e+11 -9.615474024408180e-01 2.675654155860938e-02
1.534693877551000e+11 -9.618661158475824e-01 2.709147916792281e-02
1.535102040816300e+11 -9.609751223984281e-01 2.787967022657202e-02
1.535510204081600e+11 -9.612683300148951e-01 2.884843197329850e-02
1.535918367346900e+11 -9.613239469551659e-01 3.061234262359492e-02
1.536326530612200e+11 -9.616294731586796e-01 3.150267435323760e-02
1.536734693877600e+11 -9.609331065154043e-01 2.974551433370800e-02
1.537142857142900e+11 -9.611533938595147e-01 3.010377539290397e-02
1.537551020408200e+11 -9.605839452569674e-01 3.066091485271983e-02
1.537959183673500e+11 -9.600816837310131e-01 3.024722191336772e-02
1.538367346938800e+11 -9.596376702727230e-01 2.873508707775013e-02
1.538775510204100e+11 -9.596276077345979e-01 2.870549208224097e-02
1.539183673469400e+11 -9.596122550755140e-01 2.798209925783642e-02
1.539591836734700e+11 -9.591374159594338e-01 2.866287262938883e-02
1.540000000000000e+11 -9.586402482437588e-01 2.760033041187919e-02
1.540408163265300e+11 -9.581886198499915e-01 2.558850012535720e-02
1.540816326530600e+11 -9.584943152930879e-01 2.663398701928586e-02
1.541224489795900e+11 -9.589007917882041e-01 2.657484575380319e-02
1.541632653061200e+11 -9.577250705748395e-01 2.717306365407324e-02
1.542040816326500e+11 -9.580883496489329e-01 2.741914759815340e-02
1.542448979591800e+11 -9.576762023312968e-01 2.649002743453026e-02
1.542857142857100e+11 -9.577674822221032e-01 2.821805760169777e-02
1.543265306122400e+11 -9.569702404000016e-01 2.966979973453988e-02
1.543673469387800e+11 -9.566436734092048e-01 3.054485235516180e-02
1.544081632653100e+11 -9.558021485317694e-01 3.341789099486295e-02
1.544489795918400e+11 -9.556586412262204e-01 3.622380899804535e-02
1.544897959183700e+11 -9.549109191425975e-01 3.827521171842185e-02
1.545306122449000e+11 -9.542924821288540e-01 3.864605569702781e-02
1.545714285714300e+11 -9.543588283085991e-01 4.146870241398084e-02
1.546122448979600e+11 -9.541678613382936e-01 4.279202396754798e-02
1.546530612244900e+11 -9.540505608534586e-01 4.360194562362919e-02
1.546938775510200e+11 -9.536343807958924e-01 4.438060919313029e-02
1.547346938775500e+11 -9.542490454176017e-01 4.517406669829246e-02
1.547755102040800e+11 -9.540535408591073e-01 4.680293491212867e-02
1.548163265306100e+11 -9.535071563022189e-01 4.835354082758260e-02
1.548571428571400e+11 -9.533701432706718e-01 4.901330892893841e-02
1.548979591836700e+11 -9.536336594417530e-01 4.820637663026179e-02
1.549387755102000e+11 -9.544732060310093e-01 4.585265643058062e-02
1.549795918367300e+11 -9.548925377889291e-01 4.472515194871070e-02
1.550204081632700e+11 -9.546580822830213e-01 4.542629922007194e-02
1.550612244898000e+11 -9.543630824995921e-01 4.570331574321050e-02
1.551020408163300e+11 -9.547597737295015e-01 4.471117383723705e-02
1.551428571428600e+11 -9.547470089955178e-01 4.318415238882507e-02
1.551836734693900e+11 -9.550107280452257e-01 4.304597810343350e-02
1.552244897959200e+11 -9.540923414548382e-01 4.054059094304594e-02
1.552653061224500e+11 -9.543806094907135e-01 3.771546644558138e-02
1.553061224489800e+11 -9.540904914689381e-01 3.912153037499998e-02
1.553469387755100e+11 -9.535349171968781e-01 3.846964831303136e-02
1.553877551020400e+11 -9.535483794580807e-01 3.614345644853702e-02
1.554285714285700e+11 -9.538950140615811e-01 3.431132786208101e-02
1.554693877551000e+11 -9.539250318451044e-01 3.367377465650043e-02
1.555102040816300e+11 -9.530153272755949e-01 3.484740219856315e-02
1.555510204081600e+11 -9.534064423704333e-01 3.593385505668606e-02
1.555918367346900e+11 -9.531688584764817e-01 3.479138327492910e-02
1.556326530612200e+11 -9.540382948690279e-01 3.394539493761019e-02
1.556734693877600e+11 -9.535275170759314e-01 3.463421986467150e-02
1.557142857142900e+11 -9.532699629026150e-01 3.511088396637899e-02
1.557551020408200e+11 -9.532757680651902e-01 3.553577207736103e-02
1.557959183673500e+11 -9.535023890727142e-01 3.629614689489032e-02
1.558367346938800e+11 -9.535786982506993e-01 3.574447026661146e-02
1.558775510204100e+11 -9.531790625207857e-01 3.551168571483389e-02
1.559183673469400e+11 -9.530031586760037e-01 3.686854880007605e-02
1.559591836734700e+11 -9.523906011352548e-01 3.903031552525496e-02
1.560000000000000e+11 -9.524510755141348e-01 3.800645402828554e-02
1.560408163265300e+11 -9.527810207274071e-01 3.850755506194675e-02
1.560816326530600e+11 -9.507298694720848e-01 3.574738744205898e-02
1.561224489795900e+11 -9.498147715014266e-01 3.799086165913477e-02
1.561632653061200e+11 -9.495936633232969e-01 3.701987301449248e-02
1.562040816326500e+11 -9.511585918353903e-01 3.368038633600273e-02
1.562448979591800e+11 -9.528433952710719e-01 3.337933070035172e-02
1.562857142857100e+11 -9.533924444993336e-01 3.392733671158019e-02
1.563265306122400e+11 -9.518638987493716e-01 3.397149296212312e-02
1.563673469387800e+11 -9.515807193196882e-01 3.043385737922214e-02
1.564081632653100e+11 -9.514944266663626e-01 2.786976174379882e-02
1.564489795918400e+11 -9.510442410621457e-01 2.537782590640968e-02
1.564897959183700e+11 -9.514815229149672e-01 2.413538326613137e-02
1.565306122449000e+11 -9.508787068644019e-01 2.198781348163854e-02
1.565714285714300e+11 -9.511586721374845e-01 2.020675710942249e-02
1.566122448979600e+11 -9.509694139869180e-01 1.724321105972875e-02
1.566530612244900e+11 -9.509871598678653e-01 1.525848477539395e-02
1.566938775510200e+11 -9.515394953773777e-01 1.309091716938590e-02
1.567346938775500e+11 -9.508715048619154e-01 1.169451353137574e-02
1.567755102040800e+11 -9.504783011725735e-01 1.154823350418822e-02
1.568163265306100e+11 -9.505922935426996e-01 1.173833241595436e-02
1.568571428571400e+11 -9.507406146747387e-01 9.913218360471406e-03
1.568979591836700e+11 -9.510648360222665e-01 7.557712080561292e-03
1.569387755102000e+11 -9.509790675823885e-01 8.039191874900292e-03
1.569795918367300e+11 -9.507012796302415e-01 1.054329241856379e-02
1.570204081632700e+11 -9.499697841972209e-01 1.209745579198494e-02
1.570612244898000e+11 -9.502905990578535e-01 1.126403563652393e-02
1.571020408163300e+11 -9.505699879376707e-01 8.166223273578768e-03
1.571428571428600e+11 -9.508867880746552e-01 4.457239368330567e-03
1.571836734693900e+11 -9.499312256992942e-01 5.577811421033613e-03
1.572244897959200e+11 -9.495513178512969e-01 5.736965077628994e-03
1.572653061224500e+11 -9.497201541544281e-01 5.085697824480183e-03
1.573061224489800e+11 -9.499012986174055e-01 1.551368662477794e-03
1.573469387755100e+11 -9.500037365651856e-01 -1.103247842608380e-03
1.573877551020400e+11 -9.502196925506200e-01 -8.371991666154926e-04
1.574285714285700e+11 -9.498764024797044e-01 -1.556283687076559e-03
1.574693877551000e+11 -9.490326834392179e-01 -2.593396457083520e-03
1.575102040816300e+11 -9.490864189432117e-01 -6.521497802497046e-03
1.575510204081600e+11 -9.493221578289183e-01 -7.367870912720783e-03
1.575918367346900e+11 -9.497334319413331e-01 -8.099713803879312e-03
1.576326530612200e+11 -9.493481465236386e-01 -8.611535133894444e-03
1.576734693877600e+11 -9.490525491211359e-01 -1.221606192644333e-02
1.577142857142900e+11 -9.484763617110237e-01 -1.267176025123387e-02
1.577551020408200e+11 -9.486355789640859e-01 -1.065242976767999e-02
1.577959183673500e+11 -9.483999750136896e-01 -1.004592778798083e-02
1.578367346938800e+11 -9.484704050863308e-01 -1.223038516504727e-02
1.578775510204100e+11 -9.485653567470981e-01 -1.459654506712471e-02
1.579183673469400e+11 -9.478901850468500e-01 -1.485179695182879e-02
1.579591836734700e+11 -9.483422566044905e-01 -1.572249582864859e-02
1.580000000000000e+11 -9.485244290794828e-01 -1.852773610851653e-02
1.580408163265300e+11 -9.481626122330798e-01 -1.930036138496825e-02
1.580816326530600e+11 -9.488559507764660e-01 -2.120319821357992e-02
1.581224489795900e+11 -9.485097433585323e-01 -2.183303072500837e-02
1.581632653061200e+11 -9.473976282909343e-01 -2.477111090421276e-02
1.582040816326500e+11 -9.469153961630673e-01 -2.240740600719173e-02
1.582448979591800e+11 -9.482932262157361e-01 -2.138246160237337e-02
1.582857142857100e+11 -9.489579914771233e-01 -2.342667358213385e-02
1.583265306122400e+11 -9.484301867032403e-01 -2.526927855614913e-02
1.583673469387800e+11 -9.469777876701452e-01 -2.408935965132184e-02
1.584081632653100e+11 -9.468071588230780e-01 -2.429243106874662e-02
1.584489795918400e+11 -9.470895546926162e-01 -2.531031981676625e-02
1.584897959183700e+11 -9.462036024000239e-01 -2.709832806425715e-02
1.585306122449000e+11 -9.457781451101525e-01 -2.705122703398032e-02
1.585714285714300e+11 -9.457926606767273e-01 -2.479838960619151e-02
1.586122448979600e+11 -9.459219234199916e-01 -2.414730994143886e-02
1.586530612244900e+11 -9.458304278481237e-01 -2.680471751947210e-02
1.586938775510200e+11 -9.462008107895160e-01 -2.886341015976894e-02
1.587346938775500e+11 -9.461023121952257e-01 -2.683281307115176e-02
1.587755102040800e+11 -9.464392230484644e-01 -2.818193334308526e-02
1.588163265306100e+11 -9.466749952353386e-01 -3.071202836884526e-02
1.588571428571400e+11 -9.469805171711022e-01 -3.164397903343762e-02
1.588979591836700e+11 -9.475489105251237e-01 -3.239905655425107e-02
1.589387755102000e+11 -9.472146399655788e-01 -3.180390490277403e-02
1.589795918367300e+11 -9.473475666653636e-01 -3.296026449963807e-02
1.590204081632700e+11 -9.475771958389517e-01 -3.441385249093100e-02
1.590612244898000e+11 -9.480032261635700e-01 -3.626814087810830e-02
1.591020408163300e+11 -9.473116041246932e-01 -3.590098395266041e-02
1.591428571428600e+11 -9.475273281036433e-01 -3.445951891705197e-02
1.591836734693900e+11 -9.472321709935304e-01 -3.370689192030579e-02
1.592244897959200e+11 -9.468291107669802e-01 -3.433783870074635e-02
1.592653061224500e+11 -9.461959953045942e-01 -3.563931705402772e-02
1.593061224489800e+11 -9.461291210305097e-01 -3.306797555637807e-02
1.593469387755100e+11 -9.476682217576363e-01 -2.972955796639292e-02
1.593877551020400e+11 -9.469828989126884e-01 -2.489705282471058e-02
1.594285714285700e+11 -9.465709813094706e-01 -2.283745981081845e-02
1.594693877551000e+11 -9.456564508317521e-01 -2.330297798573146e-02
1.595102040816300e+11 -9.456923610660440e-01 -2.240345462902710e-02
1.595510204081600e+11 -9.450785522713047e-01 -2.017962031571174e-02
1.595918367346900e+11 -9.445163533324369e-01 -1.859237434716506e-02
1.596326530612200e+11 -9.442120842078863e-01 -1.635873635404330e-02
1.596734693877600e+11 -9.442868811882235e-01 -1.585695954193940e-02
1.597142857142900e+11 -9.439796940307772e-01 -1.729282739746910e-02
1.597551020408200e+11 -9.437584799867078e-01 -1.856402282876330e-02
1.597959183673500e+11 -9.433546032351424e-01 -1.784274692050295e-02
1.598367346938800e+11 -9.439047815026749e-01 -1.722035586541269e-02
1.598775510204100e+11 -9.438837424521374e-01 -1.920530578188430e-02
1.599183673469400e+11 -9.440571622036581e-01 -2.029055043117393e-02
1.599591836734700e+11 -9.435084535008541e-01 -2.032954195970938e-02
1.600000000000000e+11 -9.432111062490015e-01 -2.178483816157824e-02
1.600408163265300e+11 -9.426099909449343e-01 -2.264745080896328e-02
1.600816326530600e+11 -9.431158851220882e-01 -2.389369736587720e-02
1.601224489795900e+11 -9.425981239625242e-01 -2.253282080666590e-02
1.601632653061200e+11 -9.420354507265453e-01 -2.220374288046860e-02
1.602040816326500e+11 -9.416859462295554e-01 -2.301092644844882e-02
1.602448979591800e+11 -9.418435178258168e-01 -2.425348777953873e-02
1.602857142857100e+11 -9.417789327526227e-01 -2.274750418412773e-02
1.603265306122400e+11 -9.416429238716866e-01 -2.138741362280345e-02
1.603673469387800e+11 -9.413041703729069e-01 -2.106086725423467e-02
1.604081632653100e+11 -9.409157018368872e-01 -2.073310698889960e-02
1.604489795918400e+11 -9.406433780616542e-01 -2.009562254207452e-02
1.604897959183700e+11 -9.402633017855828e-01 -2.136256388762817e-02
1.605306122449000e+11 -9.399725266863683e-01 -2.148592289398254e-02
1.605714285714300e+11 -9.404098612126974e-01 -1.872858310769286e-02
1.606122448979600e+11 -9.398212243580021e-01 -1.668025351575829e-02
1.606530612244900e+11 -9.396759104103509e-01 -1.640020722417868e-02
1.606938775510200e+11 -9.395749755768880e-01 -1.415379150281969e-02
1.607346938775500e+11 -9.393051980495932e-01 -1.062385022873110e-02
1.607755102040800e+11 -9.388113424004955e-01 -7.657452881027818e-03
1.608163265306100e+11 -9.389360460003751e-01 -6.146289088061199e-03
1.608571428571400e+11 -9.378795956860606e-01 -2.207642194359315e-03
1.608979591836700e+11 -9.363847524181481e-01 2.505556685277893e-03
1.609387755102000e+11 -9.345803656537937e-01 8.658687926245951e-03
1.609795918367300e+11 -9.335496657951904e-01 1.374494235470201e-02
1.610204081632700e+11 -9.327230705607434e-01 1.793753224230560e-02
1.610612244898000e+11 -9.327586402014104e-01 2.271597240667661e-02
1.611020408163300e+11 -9.323573171799128e-01 2.779703605883298e-02
1.611428571428600e+11 -9.315856085614098e-01 3.111233906885525e-02
1.611836734693900e+11 -9.314944002425801e-01 3.294697157249350e-02
1.612244897959200e+11 -9.316140967320367e-01 3.501222203869117e-02
1.612653061224500e+11 -9.313702548482250e-01 3.586115925423657e-02
1.613061224489800e+11 -9.312051845668983e-01 3.622611705415633e-02
1.613469387755100e+11 -9.309763027117659e-01 3.676112185376693e-02
1.613877551020400e+11 -9.311689340330385e-01 3.678333106007591e-02
1.614285714285700e+11 -9.319396671081194e-01 3.684315558261522e-02
1.614693877551000e+11 -9.325042249096281e-01 3.580857659472362e-02
1.615102040816300e+11 -9.327213442012736e-01 3.504682624298095e-02
1.615510204081600e+11 -9.329373510088729e-01 3.381548295620840e-02
1.615918367346900e+11 -9.334304378638398e-01 3.308812941134177e-02
1.616326530612200e+11 -9.325893332029090e-01 3.266538976183527e-02
1.616734693877600e+11 -9.313594481151686e-01 3.355037409367562e-02
1.617142857142900e+11 -9.310614901891292e-01 3.443417732375093e-02
1.617551020408200e+11 -9.302649870414827e-01 3.340325443472264e-02
1.617959183673500e+11 -9.299731436549044e-01 3.371704797183762e-02
1.618367346938800e+11 -9.288858318912301e-01 3.513285458368248e-02
1.618775510204100e+11 -9.274953300783267e-01 3.565325275592746e-02
1.619183673469400e+11 -9.265622450698658e-01 3.648925281053250e-02
1.619591836734700e+11 -9.264916997736193e-01 3.979059778248822e-02
1.620000000000000e+11 -9.265880212114155e-01 4.274389875458247e-02
1.620408163265300e+11 -9.261390686166823e-01 4.450957270649428e-02
1.620816326530600e+11 -9.251767160963328e-01 4.671603205750426e-02
1.621224489795900e+11 -9.244883808358593e-01 4.938822608444347e-02
1.621632653061200e+11 -9.245683526655636e-01 5.185020810778897e-02
1.622040816326500e+11 -9.243973099057859e-01 5.383082175646368e-02
1.622448979591800e+11 -9.250139362634441e-01 5.646591865510055e-02
1.622857142857100e+11 -9.244595570704233e-01 6.071256724580699e-02
1.623265306122400e+11 -9.240581061050366e-01 6.522572891457996e-02
1.623673469387800e+11 -9.233613764669159e-01 6.865902432557466e-02
1.624081632653100e+11 -9.230738842039031e-01 7.323374698265188e-02
1.624489795918400e+11 -9.226920566089604e-01 7.666086629345002e-02
1.624897959183700e+11 -9.216263359175556e-01 8.053535880679814e-02
1.625306122449000e+11 -9.200187021108432e-01 8.465520180007838e-02
1.625714285714300e+11 -9.189445643953057e-01 8.753056913919416e-02
1.626122448979600e+11 -9.177505154569878e-01 9.098159451240730e-02
1.626530612244900e+11 -9.169574888041667e-01 9.581818423639338e-02
1.626938775510200e+11 -9.160384567898612e-01 9.808464707578413e-02
1.627346938775500e+11 -9.148399626218187e-01 9.884945701859880e-02
1.627755102040800e+11 -9.138903095332351e-01 1.005691201777981e-01
1.628163265306100e+11 -9.139517660284410e-01 1.028178740915962e-01
1.628571428571400e+11 -9.134230071807324e-01 1.051224208671537e-01
1.628979591836700e+11 -9.132500603007998e-01 1.055642083217846e-01
1.629387755102000e+11 -9.134747557855981e-01 1.057718818103093e-01
1.629795918367300e+11 -9.139002373190571e-01 1.069666179245953e-01
1.630204081632700e+11 -9.130695120488939e-01 1.089590954249401e-01
1.630612244898000e+11 -9.131570757433520e-01 1.092175583201437e-01
1.631020408163300e+11 -9.124723299551849e-01 1.086016161188904e-01
1.631428571428600e+11 -9.121941075878918e-01 1.089739245369264e-01
1.631836734693900e+11 -9.118921819449112e-01 1.098524540496211e-01
1.632244897959200e+11 -9.120567232055838e-01 1.100796373555105e-01
1.632653061224500e+11 -9.124489146192577e-01 1.104143091790240e-01
1.633061224489800e+11 -9.112095009544443e-01 1.104284629311418e-01
1.633469387755100e+11 -9.104445453314350e-01 1.140897826832801e-01
1.633877551020400e+11 -9.101261123399362e-01 1.150403359874262e-01
1.634285714285700e+11 -9.098983341291973e-01 1.147629778100381e-01
1.634693877551000e+11 -9.092926455834740e-01 1.164590128768996e-01
1.635102040816300e+11 -9.089464374485134e-01 1.163658696270696e-01
1.635510204081600e+11 -9.079257131105531e-01 1.171504972013524e-01
1.635918367346900e+11 -9.069640646172304e-01 1.185426284338096e-01
1.636326530612200e+11 -9.062095665721366e-01 1.191635027419144e-01
1.636734693877600e+11 -9.062461170771469e-01 1.198864049352852e-01
1.637142857142900e+11 -9.064254065555936e-01 1.186515973350838e-01
1.637551020408200e+11 -9.060164181229187e-01 1.200457073142683e-01
1.637959183673500e+11 -9.045521657986259e-01 1.212870842941466e-01
1.638367346938800e+11 -9.040788037755429e-01 1.219947346375468e-01
1.638775510204100e+11 -9.052844288511011e-01 1.234216801761252e-01
1.639183673469400e+11 -9.040818574713166e-01 1.207795536500268e-01
1.639591836734700e+11 -9.033970332535304e-01 1.211321535869029e-01
1.640000000000000e+11 -9.029546271548611e-01 1.223348911899637e-01
1.640408163265300e+11 -9.028609834372971e-01 1.246402656178186e-01
1.640816326530600e+11 -9.024953330823087e-01 1.258759501093110e-01
1.641224489795900e+11 -9.024242345970102e-01 1.282443164037954e-01
1.641632653061200e+11 -9.012974648388365e-01 1.305443912165292e-01
1.642040816326500e+11 -9.000481232343005e-01 1.326983052864529e-01
1.642448979591800e+11 -8.983819887441679e-01 1.350219496663211e-01
1.642857142857100e+11 -8.972560453962316e-01 1.355700575874165e-01
1.643265306122400e+11 -8.956766783063760e-01 1.358907373966584e-01
1.643673469387800e+11 -8.947718238680337e-01 1.384511115399118e-01
1.644081632653100e+11 -8.936100786986400e-01 1.405670605460159e-01
1.644489795918400e+11 -8.921610354060715e-01 1.407152208788244e-01
1.644897959183700e+11 -8.916006940690372e-01 1.432097338568719e-01
1.645306122449000e+11 -8.889134703175963e-01 1.471873889506722e-01
1.645714285714300e+11 -8.880354342649451e-01 1.481736998488523e-01
1.646122448979600e+11 -8.874388499137972e-01 1.484729619411815e-01
1.646530612244900e+11 -8.877465755577004e-01 1.474699187003452e-01
1.646938775510200e+11 -8.875785691352709e-01 1.473735803874900e-01
1.647346938775500e+11 -8.861600690408126e-01 1.492403035380914e-01
1.647755102040800e+11 -8.839256939699088e-01 1.507776122930755e-01
1.648163265306100e+11 -8.855036113608606e-01 1.503983196212011e-01
1.648571428571400e+11 -8.843257658650922e-01 1.491591350436337e-01
1.648979591836700e+11 -8.859074215877208e-01 1.480038493554860e-01
1.649387755102000e+11 -8.842057953273139e-01 1.491910692951083e-01
1.649795918367300e+11 -8.826924582376178e-01 1.494150687093225e-01
1.650204081632700e+11 -8.815074220028525e-01 1.462831331019695e-01
1.650612244898000e+11 -8.823115863420149e-01 1.432274378946998e-01
1.651020408163300e+11 -8.826348823104478e-01 1.418180761844185e-01
1.651428571428600e+11 -8.824552151682180e-01 1.412348114981024e-01
1.651836734693900e+11 -8.812932724831091e-01 1.385898826741547e-01
1.652244897959200e+11 -8.812074373661292e-01 1.348845863538115e-01
1.652653061224500e+11 -8.813827716967453e-01 1.335276053685467e-01
1.653061224489800e+11 -8.818732361959661e-01 1.296936998799333e-01
1.653469387755100e+11 -8.829490063503939e-01 1.281505432674440e-01
1.653877551020400e+11 -8.819605863666266e-01 1.266057439219835e-01
1.654285714285700e+11 -8.831293182668570e-01 1.223916011595570e-01
1.654693877551000e+11 -8.849972918502856e-01 1.188747867974119e-01
1.655102040816300e+11 -8.873999880353372e-01 1.165487928214983e-01
1.655510204081600e+11 -8.880341577743305e-01 1.150679789497067e-01
1.655918367346900e+11 -8.890299587704806e-01 1.148954925387490e-01
1.656326530612200e+11 -8.890936616255875e-01 1.161055546155483e-01
1.656734693877600e+11 -8.898315563588634e-01 1.156197230242875e-01
1.657142857142900e+11 -8.903892161882005e-01 1.166124492285473e-01
1.657551020408200e+11 -8.898238642752613e-01 1.164948329279916e-01
1.657959183673500e+11 -8.892325772834180e-01 1.176025856304668e-01
1.658367346938800e+11 -8.886204893876575e-01 1.213227607534233e-01
1.658775510204100e+11 -8.871630911264370e-01 1.237700487414215e-01
1.659183673469400e+11 -8.872581637081673e-01 1.245342644991824e-01
1.659591836734700e+11 -8.867776658067791e-01 1.272207080187518e-01
1.660000000000000e+11 -8.847330416073861e-01 1.318116522017015e-01
1.660408163265300e+11 -8.839461086644840e-01 1.341150053714532e-01
1.660816326530600e+11 -8.832754935772987e-01 1.366226367158066e-01
1.661224489795900e+11 -8.812407186934010e-01 1.384067557374473e-01
1.661632653061200e+11 -8.803349461867915e-01 1.391887605610009e-01
1.662040816326500e+11 -8.783690900207339e-01 1.418759748726035e-01
1.662448979591800e+11 -8.776362163622586e-01 1.409231406162069e-01
1.662857142857100e+11 -8.770224173332127e-01 1.419670553629341e-01
1.663265306122400e+11 -8.761461903765064e-01 1.400600572389321e-01
1.663673469387800e+11 -8.758914467116523e-01 1.389300074718785e-01
1.664081632653100e+11 -8.751425608912022e-01 1.362440631845930e-01
1.664489795918400e+11 -8.743576633907095e-01 1.346724676264001e-01
1.664897959183700e+11 -8.748039899257334e-01 1.317142086169584e-01
1.665306122449000e+11 -8.758149971322445e-01 1.279970781592823e-01
1.665714285714300e+11 -8.755816167810327e-01 1.246453364760535e-01
1.666122448979600e+11 -8.750193962891082e-01 1.214060042494959e-01
1.666530612244900e+11 -8.758283518430409e-01 1.174733393930221e-01
1.666938775510200e+11 -8.771580377084676e-01 1.149794294288688e-01
1.667346938775500e+11 -8.775190488788074e-01 1.136503452814520e-01
1.667755102040800e+11 -8.775306993066713e-01 1.107345213111938e-01
1.668163265306100e+11 -8.774526763736485e-01 1.074653560153953e-01
1.668571428571400e+11 -8.789224621924445e-01 1.058540597103015e-01
1.668979591836700e+11 -8.805575471804942e-01 1.034393697605115e-01
1.669387755102000e+11 -8.813943489400907e-01 1.028275608616986e-01
1.669795918367300e+11 -8.825876901721543e-01 1.011155461631379e-01
1.670204081632700e+11 -8.842360293801088e-01 9.666271332338587e-02
1.670612244898000e+11 -8.848267124240898e-01 9.532319049503009e-02
1.671020408163300e+11 -8.857088910422456e-01 9.462913430869005e-02
1.671428571428600e+11 -8.866776939360538e-01 9.453393944487806e-02
1.671836734693900e+11 -8.885083158310143e-01 9.150100866095613e-02
1.672244897959200e+11 -8.901678503878696e-01 8.915177944072854e-02
1.672653061224500e+11 -8.914009634185053e-01 8.930034141001926e-02
1.673061224489800e+11 -8.908406007468964e-01 9.238721132424361e-02
1.673469387755100e+11 -8.916576802164082e-01 9.139409345716518e-02
1.673877551020400e+11 -8.929832032029960e-01 9.072450705255183e-02
1.674285714285700e+11 -8.933968489816076e-01 9.004833540473295e-02
1.674693877551000e+11 -8.932188699614446e-01 8.955136057168535e-02
1.675102040816300e+11 -8.940318419120060e-01 9.075371299354409e-02
1.675510204081600e+11 -8.939779423774888e-01 9.165843877632118e-02
1.675918367346900e+11 -8.940503682012131e-01 9.194003367792598e-02
1.676326530612200e+11 -8.945303598531409e-01 9.165581686666675e-02
1.676734693877600e+11 -8.952462804188297e-01 9.135222441015428e-02
1.677142857142900e+11 -8.959714313083696e-01 9.162288491505574e-02
1.677551020408200e+11 -8.960297258059474e-01 9.369962275413163e-02
1.677959183673500e+11 -8.963915947483343e-01 9.508044813862511e-02
1.678367346938800e+11 -8.973887246066427e-01 9.484445833101439e-02
1.678775510204100e+11 -8.981543732744879e-01 9.184036904022107e-02
1.679183673469400e+11 -8.992028692155044e-01 8.991562718706531e-02
1.679591836734700e+11 -9.001099725823435e-01 8.997819252891594e-02
1.680000000000000e+11 -9.013286508569751e-01 9.070077334316025e-02
1.680408163265300e+11 -9.032218571288806e-01 9.140622693922484e-02
1.680816326530600e+11 -9.035252363156722e-01 9.309895685724548e-02
1.681224489795900e+11 -9.042223546205617e-01 9.311926828830379e-02
1.681632653061200e+11 -9.038256773818281e-01 9.071060817748439e-02
1.682040816326500e+11 -9.047709275268888e-01 8.770801117956821e-02
1.682448979591800e+11 -9.050937201188587e-01 8.960277187443905e-02
1.682857142857100e+11 -9.043294882431243e-01 9.317002794200614e-02
1.683265306122400e+11 -9.042007997745236e-01 9.510586567695922e-02
1.683673469387800e+11 -9.046928982972434e-01 9.438955377309945e-02
1.684081632653100e+11 -9.050063221611985e-01 9.420224478308353e-02
1.684489795918400e+11 -9.047629443910581e-01 9.628679010033150e-02
1.684897959183700e+11 -9.042392962307891e-01 9.585496850341683e-02
1.685306122449000e+11 -9.038118554853121e-01 9.624415391386787e-02
1.685714285714300e+11 -9.035451338573340e-01 9.550290844244907e-02
1.686122448979600e+11 -9.034123250830297e-01 9.585684379740229e-02
1.686530612244900e+11 -9.033999541989504e-01 9.591992992064745e-02
1.686938775510200e+11 -9.042998692928136e-01 9.176531146921937e-02
1.687346938775500e+11 -9.051212904957612e-01 8.809240388777143e-02
1.687755102040800e+11 -9.050179349541680e-01 8.818118952225325e-02
1.688163265306100e+11 -9.052271567605825e-01 8.743259907558441e-02
1.688571428571400e+11 -9.065697725180853e-01 8.389540623704855e-02
1.688979591836700e+11 -9.074416098739314e-01 8.046603043466234e-02
1.689387755102000e+11 -9.081348331932878e-01 7.602420350151745e-02
1.689795918367300e+11 -9.092269424853185e-01 7.363663466236882e-02
1.690204081632700e+11 -9.095998929039850e-01 7.414659147793165e-02
1.690612244898000e+11 -9.104936617298056e-01 7.181537935355239e-02
1.691020408163300e+11 -9.099862716087073e-01 7.156516875643769e-02
1.691428571428600e+11 -9.105704528372001e-01 7.049230848451858e-02
1.691836734693900e+11 -9.110450781641311e-01 6.995094796802841e-02
1.692244897959200e+11 -9.117493007186118e-01 6.860670329067008e-02
1.692653061224500e+11 -9.117577592229387e-01 6.699373321103937e-02
1.693061224489800e+11 -9.118003216950060e-01 6.852241083413479e-02
1.693469387755100e+11 -9.112612065526935e-01 7.079078153808926e-02
1.693877551020400e+11 -9.106696384062625e-01 7.145930260171644e-02
1.694285714285700e+11 -9.107584324443915e-01 7.232298184300717e-02
1.694693877551000e+11 -9.109264312360806e-01 7.328856063152461e-02
1.695102040816300e+11 -9.109773210089900e-01 7.556023199274452e-02
1.695510204081600e+11 -9.102083071219602e-01 7.741668620520811e-02
1.695918367346900e+11 -9.095836633191285e-01 7.993247906070086e-02
1.696326530612200e+11 -9.091874218285761e-01 8.303950164738530e-02
1.696734693877600e+11 -9.087824924928599e-01 8.427651615247012e-02
1.697142857142900e+11 -9.086205884673304e-01 8.585220116018587e-02
1.697551020408200e+11 -9.081375502748904e-01 8.735063098635888e-02
1.697959183673500e+11 -9.069340035440537e-01 9.034762743510745e-02
1.698367346938800e+11 -9.066887693712049e-01 9.233599556081262e-02
1.698775510204100e+11 -9.060079458508348e-01 9.428252310607445e-02
1.699183673469400e+11 -9.062605190671335e-01 9.519634301598527e-02
1.699591836734700e+11 -9.050011287523599e-01 9.868769941037703e-02
1.700000000000000e+11 -9.045189028137732e-01 1.015674072643988e-01
