! Generated by Phase I extraction
# Hz S RI R 50
1.100000000000000e+11 1.030688661479353e+00 2.692657713226682e-02
1.100408163265300e+11 1.031905315083526e+00 2.829188632606905e-02
1.100816326530600e+11 1.032477586860069e+00 2.816952301395666e-02
1.101224489795900e+11 1.032329193971727e+00 2.935314238280089e-02
1.101632653061200e+11 1.032357895693612e+00 2.905419026196745e-02
1.102040816326500e+11 1.033296700599886e+00 2.956868410892588e-02
1.102448979591800e+11 1.033980566240519e+00 3.145966110276577e-02
1.102857142857100e+11 1.034668055066057e+00 3.355701737983027e-02
1.103265306122400e+11 1.034598093296247e+00 3.568865487360279e-02
1.103673469387800e+11 1.034972168129240e+00 3.738240852445437e-02
1.104081632653100e+11 1.035008793096271e+00 3.872846926757393e-02
1.104489795918400e+11 1.035132854441167e+00 4.062450513986361e-02
1.104897959183700e+11 1.035014690139988e+00 4.272186452707764e-02
1.105306122449000e+11 1.035211152616724e+00 4.288865521698951e-02
1.105714285714300e+11 1.035413428862731e+00 4.305600773247977e-02
1.106122448979600e+11 1.034841612151619e+00 4.384110782293948e-02
1.106530612244900e+11 1.035055110257952e+00 4.532510120449261e-02
1.106938775510200e+11 1.035073997354676e+00 4.561109250993229e-02
1.107346938775500e+11 1.034960729580217e+00 4.485083959983972e-02
1.107755102040800e+11 1.034495230186287e+00 4.425273430740709e-02
1.108163265306100e+11 1.033934808402754e+00 4.346949751052114e-02
1.108571428571400e+11 1.033955818589724e+00 4.244836510345320e-02
1.108979591836700e+11 1.033639595187362e+00 4.155806375395049e-02
1.109387755102000e+11 1.033485223414780e+00 4.015894309605654e-02
1.109795918367300e+11 1.033106258500536e+00 4.005204886819219e-02
1.110204081632700e+11 1.033170933170106e+00 3.948666426265519e-02
1.110612244898000e+11 1.033000196117614e+00 3.954830400326241e-02
1.111020408163300e+11 1.033081408524176e+00 3.939248836835959e-02
1.111428571428600e+11 1.033094563506352e+00 3.865452742611124e-02
1.111836734693900e+11 1.033073727901606e+00 3.855124071834951e-02
1.112244897959200e+11 1.033406347154249e+00 3.833502888880153e-02
1.112653061224500e+11 1.033444290023526e+00 3.862565620299931e-02
1.113061224489800e+11 1.032963710571181e+00 3.932222339160762e-02
1.113469387755100e+11 1.033070890137782e+00 3.985658429275790e-02
1.113877551020400e+11 1.033150228298364e+00 4.131136392972275e-02
1.114285714285700e+11 1.033446699921086e+00 4.171493182013718e-02
1.114693877551000e+11 1.033090369824856e+00 4.287554229775888e-02
1.115102040816300e+11 1.032846778757580e+00 4.408613806615495e-02
1.115510204081600e+11 1.032582186777941e+00 4.528005939411532e-02
1.115918367346900e+11 1.032914609200895e+00 4.568603541843330e-02
1.116326530612200e+11 1.032278839209469e+00 4.629695132884560e-02
1.116734693877600e+11 1.032692005375254e+00 4.694429761090779e-02
1.117142857142900e+11 1.032820556164630e+00 4.768305992587270e-02
1.117551020408200e+11 1.033029449465596e+00 4.637637686964299e-02
1.117959183673500e+11 1.032039989396890e+00 4.694397668459632e-02
1.118367346938800e+11 1.031661462103580e+00 4.630268870193927e-02
1.118775510204100e+11 1.031493680408707e+00 4.537287637388349e-02
1.119183673469400e+11 1.031297087938950e+00 4.485344387821734e-02
1.119591836734700e+11 1.031000752457256e+00 4.429981010209853e-02
1.120000000000000e+11 1.030058034850638e+00 4.701079457344432e-02
1.120408163265300e+11 1.029840682931411e+00 4.757326516956215e-02
1.120816326530600e+11 1.029879451305926e+00 4.716031944140506e-02
1.121224489795900e+11 1.029431339205653e+00 4.724969933691821e-02
1.121632653061200e+11 1.029186301527647e+00 4.737596894045338e-02
1.122040816326500e+11 1.029281303682782e+00 4.750016477434918e-02
1.122448979591800e+11 1.029214961628119e+00 4.785915288085024e-02
1.122857142857100e+11 1.029057495435414e+00 4.845763593421797e-02
1.123265306122400e+11 1.028797329846967e+00 4.876427577508011e-02
1.123673469387800e+11 1.028638661397683e+00 4.841841709433591e-02
1.124081632653100e+11 1.028695124637032e+00 4.854229098781200e-02
1.124489795918400e+11 1.028507183573082e+00 4.953087500472576e-02
1.124897959183700e+11 1.028304510567240e+00 5.086967493784827e-02
1.125306122449000e+11 1.028022305050531e+00 5.140185720179476e-02
1.125714285714300e+11 1.027944345217989e+00 5.151622978054279e-02
1.126122448979600e+11 1.027828237264957e+00 5.213566018189452e-02
1.126530612244900e+11 1.027768924067992e+00 5.323903044599196e-02
1.126938775510200e+11 1.027769265292358e+00 5.413440812263230e-02
1.127346938775500e+11 1.028177828610164e+00 5.405583878322949e-02
1.127755102040800e+11 1.028850442973707e+00 5.384823479627556e-02
1.128163265306100e+11 1.028820102320898e+00 5.426001621642516e-02
1.128571428571400e+11 1.028794487106435e+00 5.464471097344586e-02
1.128979591836700e+11 1.028055679866346e+00 5.505465921768116e-02
1.129387755102000e+11 1.027869142629661e+00 5.592962011502080e-02
1.129795918367300e+11 1.027999045735504e+00 5.518856077750463e-02
1.130204081632700e+11 1.028014215974399e+00 5.497418877573830e-02
1.130612244898000e+11 1.027525388578555e+00 5.512326028301527e-02
1.131020408163300e+11 1.027178302088383e+00 5.501416918863523e-02
1.131428571428600e+11 1.025954483242369e+00 5.464895956869436e-02
1.131836734693900e+11 1.025835480620607e+00 5.457433196142753e-02
1.132244897959200e+11 1.025977298332799e+00 5.429006661820292e-02
1.132653061224500e+11 1.026057554293176e+00 5.434539480214534e-02
1.133061224489800e+11 1.025670887232333e+00 5.508429344014588e-02
1.133469387755100e+11 1.026069697554642e+00 5.655301347616291e-02
1.133877551020400e+11 1.027084674174706e+00 5.846666278464523e-02
1.134285714285700e+11 1.027649985104359e+00 5.889279745109921e-02
1.134693877551000e+11 1.027338911092885e+00 5.908353290518029e-02
1.135102040816300e+11 1.027085752609239e+00 5.917929834943809e-02
1.135510204081600e+11 1.026938133567004e+00 5.898056437335223e-02
1.135918367346900e+11 1.027287197868326e+00 5.863329120249543e-02
1.136326530612200e+11 1.026878152229038e+00 5.892003380337434e-02
1.136734693877600e+11 1.026455212970363e+00 5.951615576995924e-02
1.137142857142900e+11 1.026166581666513e+00 5.948887835769952e-02
1.137551020408200e+11 1.025612857061927e+00 5.834563759633486e-02
1.137959183673500e+11 1.025086759356902e+00 5.854131081587021e-02
1.138367346938800e+11 1.024069524916872e+00 5.901261231100843e-02
1.138775510204100e+11 1.023380654861242e+00 5.860674499237448e-02
1.139183673469400e+11 1.023331253011130e+00 5.887244762989800e-02
1.139591836734700e+11 1.023609205965640e+00 5.851160879711587e-02
1.140000000000000e+11 1.024389111935573e+00 5.932102725273825e-02
1.140408163265300e+11 1.024482957848445e+00 6.006103384370693e-02
1.140816326530600e+11 1.024625001292766e+00 5.924194608391268e-02
1.141224489795900e+11 1.024834026627704e+00 6.013234277148581e-02
1.141632653061200e+11 1.025559052386548e+00 5.985109707494491e-02
1.142040816326500e+11 1.025895529404301e+00 6.015346944332709e-02
1.142448979591800e+11 1.026740431687563e+00 6.063759941626462e-02
1.142857142857100e+11 1.026142712928426e+00 6.121727047312792e-02
1.143265306122400e+11 1.025730310330410e+00 6.198571330594587e-02
1.143673469387800e+11 1.026672054349088e+00 6.247409102449695e-02
1.144081632653100e+11 1.027219582047015e+00 6.311696475101201e-02
1.144489795918400e+11 1.027211246129223e+00 6.434742912218773e-02
1.144897959183700e+11 1.026570988992724e+00 6.514797303205448e-02
1.145306122449000e+11 1.026502767311218e+00 6.600272859166939e-02
1.145714285714300e+11 1.026835624700579e+00 6.702573019805762e-02
1.146122448979600e+11 1.026801933153397e+00 6.653202976876370e-02
1.146530612244900e+11 1.027002455585218e+00 6.719854052825125e-02
1.146938775510200e+11 1.026754191927342e+00 6.741838018970740e-02
1.147346938775500e+11 1.026633162199388e+00 6.687794142996974e-02
1.147755102040800e+11 1.027037548594693e+00 6.605021843890123e-02
1.148163265306100e+11 1.027880731652436e+00 6.570628748802822e-02
1.148571428571400e+11 1.028347322786931e+00 6.557881824578130e-02
1.148979591836700e+11 1.027576564343617e+00 6.454992978746722e-02
1.149387755102000e+11 1.026117425020742e+00 6.348438763477504e-02
1.149795918367300e+11 1.026786301137506e+00 6.235869235578177e-02
1.150204081632700e+11 1.027603894226168e+00 6.162183045955087e-02
1.150612244898000e+11 1.027219593488019e+00 6.125811481503961e-02
1.151020408163300e+11 1.026646838453020e+00 6.103326697734382e-02
1.151428571428600e+11 1.025388437175837e+00 6.107088982867084e-02
1.151836734693900e+11 1.024498154808998e+00 6.178202032416108e-02
1.152244897959200e+11 1.024879557954303e+00 6.295502659046077e-02
1.152653061224500e+11 1.024928213874308e+00 6.396851741669703e-02
1.153061224489800e+11 1.025618999707168e+00 6.543808418614522e-02
1.153469387755100e+11 1.026067312490168e+00 6.573064250388848e-02
1.153877551020400e+11 1.025904283118593e+00 6.589009649863568e-02
1.154285714285700e+11 1.026242970898693e+00 6.536528830159279e-02
1.154693877551000e+11 1.026463546353902e+00 6.512098099037346e-02
1.155102040816300e+11 1.027018057473621e+00 6.551051042402055e-02
1.155510204081600e+11 1.027159025613017e+00 6.454785842371816e-02
1.155918367346900e+11 1.026485318035417e+00 6.310391697184217e-02
1.156326530612200e+11 1.026653234467678e+00 6.256066221750654e-02
1.156734693877600e+11 1.026822839189944e+00 6.162185738794246e-02
1.157142857142900e+11 1.026660517086251e+00 6.018131019196412e-02
1.157551020408200e+11 1.026214814967197e+00 5.931637271256227e-02
1.157959183673500e+11 1.025638839617324e+00 5.910196709051609e-02
1.158367346938800e+11 1.025473975724638e+00 5.845861628333142e-02
1.158775510204100e+11 1.025457357106249e+00 5.837706086329566e-02
1.159183673469400e+11 1.025349707111544e+00 5.846103324905996e-02
1.159591836734700e+11 1.025619826537588e+00 5.909168008693776e-02
1.160000000000000e+11 1.025535068456887e+00 5.987456409226413e-02
1.160408163265300e+11 1.026029515649495e+00 6.027765161974914e-02
1.160816326530600e+11 1.026356328328169e+00 6.089303369555360e-02
1.161224489795900e+11 1.026264368940044e+00 6.153254948751611e-02
1.161632653061200e+11 1.026589435371516e+00 6.189755312359448e-02
1.162040816326500e+11 1.026541811558539e+00 6.193585115284685e-02
1.162448979591800e+11 1.026509386946892e+00 6.233478619020095e-02
1.162857142857100e+11 1.026191949983940e+00 6.254964853366345e-02
1.163265306122400e+11 1.025398081603391e+00 6.289733590639043e-02
1.163673469387800e+11 1.024429450996883e+00 6.242781656743058e-02
1.164081632653100e+11 1.024379169729710e+00 6.320588693174316e-02
1.164489795918400e+11 1.023887514574475e+00 6.262517220341021e-02
1.164897959183700e+11 1.023555402774154e+00 6.277183947728127e-02
1.165306122449000e+11 1.023165717766984e+00 6.298982451886610e-02
1.165714285714300e+11 1.023236348292408e+00 6.323381273376595e-02
1.166122448979600e+11 1.023156847137516e+00 6.332219176544229e-02
1.166530612244900e+11 1.023389859686855e+00 6.262878198606933e-02
1.166938775510200e+11 1.023751575517465e+00 6.191151437868887e-02
1.167346938775500e+11 1.024293561792059e+00 6.138302604469342e-02
1.167755102040800e+11 1.024185160819141e+00 6.081006671984721e-02
1.168163265306100e+11 1.024044969863626e+00 5.995816519033850e-02
1.168571428571400e+11 1.024360166843482e+00 5.953161322936960e-02
1.168979591836700e+11 1.024866406893622e+00 5.875433334905812e-02
1.169387755102000e+11 1.024791562990949e+00 5.796788089126733e-02
1.169795918367300e+11 1.024239886025881e+00 5.829683234743332e-02
1.170204081632700e+11 1.024069776510415e+00 5.832602758947656e-02
1.170612244898000e+11 1.024838800205437e+00 5.826111927273214e-02
1.171020408163300e+11 1.023927354506380e+00 5.817435384215222e-02
1.171428571428600e+11 1.023689572329228e+00 5.952805702862515e-02
1.171836734693900e+11 1.023655062198434e+00 6.070506143315856e-02
1.172244897959200e+11 1.023723332204011e+00 6.123731442549900e-02
1.172653061224500e+11 1.024034500962796e+00 6.185299549051597e-02
1.173061224489800e+11 1.024526363599383e+00 6.255030690181795e-02
1.173469387755100e+11 1.025426639691259e+00 6.257810234185790e-02
1.173877551020400e+11 1.026002322829815e+00 6.306508547965993e-02
1.174285714285700e+11 1.025612798817956e+00 6.271024002096827e-02
1.174693877551000e+11 1.025906479916844e+00 6.252752205013896e-02
1.175102040816300e+11 1.025675118618720e+00 6.184440039555047e-02
1.175510204081600e+11 1.026122724961582e+00 6.158454538764839e-02
1.175918367346900e+11 1.026517028580697e+00 6.062680851294641e-02
1.176326530612200e+11 1.026298335482828e+00 6.036704762465423e-02
1.176734693877600e+11 1.026078734030399e+00 5.937532230945293e-02
1.177142857142900e+11 1.025622449427788e+00 5.771521964595184e-02
1.177551020408200e+11 1.024318792296708e+00 5.818602872337870e-02
1.177959183673500e+11 1.024372695776162e+00 5.909022759125478e-02
1.178367346938800e+11 1.024025580246532e+00 5.942996643330876e-02
1.178775510204100e+11 1.024761231525446e+00 5.967300576612371e-02
1.179183673469400e+11 1.025218955803061e+00 5.944850059621930e-02
1.179591836734700e+11 1.025141911964167e+00 5.925741646039830e-02
1.180000000000000e+11 1.025584891420169e+00 5.937161356626680e-02
1.180408163265300e+11 1.026452186639538e+00 5.506094711454210e-02
1.180816326530600e+11 1.026639093363345e+00 5.514089093520797e-02
1.181224489795900e+11 1.026795166525082e+00 5.482429475339505e-02
1.181632653061200e+11 1.026322651218491e+00 5.496865020999406e-02
1.182040816326500e+11 1.027079687932827e+00 5.523637435075671e-02
1.182448979591800e+11 1.027145162752902e+00 5.492929872625971e-02
1.182857142857100e+11 1.026879370879894e+00 5.475281824261188e-02
1.183265306122400e+11 1.026485489893169e+00 5.491066504523825e-02
1.183673469387800e+11 1.025959309583655e+00 5.531060530131386e-02
1.184081632653100e+11 1.025545694558179e+00 5.587625679286014e-02
1.184489795918400e+11 1.025511958315937e+00 5.611750900659662e-02
1.184897959183700e+11 1.025555856816441e+00 5.629893670397455e-02
1.185306122449000e+11 1.025579949664464e+00 5.592665905029297e-02
1.185714285714300e+11 1.025938991376540e+00 5.587293774856147e-02
1.186122448979600e+11 1.026312613520511e+00 5.558331153084718e-02
1.186530612244900e+11 1.026559900061023e+00 5.530338822859474e-02
1.186938775510200e+11 1.026970089246246e+00 5.484679482361123e-02
1.187346938775500e+11 1.026953149110647e+00 5.419775830140094e-02
1.187755102040800e+11 1.027111664860630e+00 5.371912355028382e-02
1.188163265306100e+11 1.027116447446103e+00 5.242469360357284e-02
1.188571428571400e+11 1.027445329749299e+00 5.238867812046493e-02
1.188979591836700e+11 1.027267692305570e+00 5.163221365078325e-02
1.189387755102000e+11 1.026889383224960e+00 5.115223425057036e-02
1.189795918367300e+11 1.026539438181121e+00 5.150594546678650e-02
1.190204081632700e+11 1.026222987690674e+00 5.174124854943935e-02
1.190612244898000e+11 1.026161129578413e+00 5.215428583398695e-02
1.191020408163300e+11 1.025790858984113e+00 5.260703551403666e-02
1.191428571428600e+11 1.025542514720522e+00 5.335624179562002e-02
1.191836734693900e+11 1.025765565604334e+00 5.295377296767823e-02
1.192244897959200e+11 1.026486628764293e+00 5.253189297350565e-02
1.192653061224500e+11 1.026449331431690e+00 5.322136220337275e-02
1.193061224489800e+11 1.025963528058126e+00 5.314463419940623e-02
1.193469387755100e+11 1.025958792352003e+00 5.315253632611311e-02
1.193877551020400e+11 1.025987388832933e+00 5.285902211247452e-02
1.194285714285700e+11 1.026401757283322e+00 5.214129627804105e-02
1.194693877551000e+11 1.026656183896948e+00 5.224922277739780e-02
1.195102040816300e+11 1.026198450268421e+00 5.182690819233141e-02
1.195510204081600e+11 1.026238827612652e+00 5.110858590930286e-02
1.195918367346900e+11 1.026042770795137e+00 5.008215503680029e-02
1.196326530612200e+11 1.025397724941196e+00 4.915474768805267e-02
1.196734693877600e+11 1.025154433113027e+00 4.956637428711597e-02
1.197142857142900e+11 1.024881008977667e+00 4.951900267445709e-02
1.197551020408200e+11 1.023986434688418e+00 4.980205249698998e-02
1.197959183673500e+11 1.023858287366247e+00 5.000907892036111e-02
1.198367346938800e+11 1.023580191269873e+00 5.019991033102589e-02
1.198775510204100e+11 1.023807389190090e+00 5.005895543195808e-02
1.199183673469400e+11 1.023862625328112e+00 5.032181874989631e-02
1.199591836734700e+11 1.024190905264934e+00 4.981378821583003e-02
1.200000000000000e+11 1.024439117069340e+00 4.998537610088483e-02
1.200408163265300e+11 1.024551152222330e+00 5.037018004976598e-02
1.200816326530600e+11 1.024391409962794e+00 5.015362050200085e-02
1.201224489795900e+11 1.024422830290027e+00 4.979759720974346e-02
1.201632653061200e+11 1.024368763196134e+00 4.931612638283977e-02
1.202040816326500e+11 1.024240836674343e+00 4.940383854556321e-02
1.202448979591800e+11 1.023136663102153e+00 5.010494904117890e-02
1.202857142857100e+11 1.022948745592891e+00 5.047962852797767e-02
1.203265306122400e+11 1.023415142389015e+00 5.161782995695371e-02
1.203673469387800e+11 1.023658524589224e+00 5.040539740713561e-02
1.204081632653100e+11 1.022313127253710e+00 5.073322531197213e-02
1.204489795918400e+11 1.021355664192983e+00 5.266632328272584e-02
1.204897959183700e+11 1.021618432164195e+00 5.484255755364709e-02
1.205306122449000e+11 1.022988435375862e+00 5.598567778340338e-02
1.205714285714300e+11 1.024037691598578e+00 5.479550786053664e-02
1.206122448979600e+11 1.024235763205379e+00 5.415093843525041e-02
1.206530612244900e+11 1.024110462785026e+00 5.342175158138958e-02
1.206938775510200e+11 1.024143556604978e+00 5.302508687343013e-02
1.207346938775500e+11 1.024729528730632e+00 5.200734174411126e-02
1.207755102040800e+11 1.025065336819458e+00 4.991899224328240e-02
1.208163265306100e+11 1.024636002372700e+00 4.856757989330398e-02
1.208571428571400e+11 1.023971466254323e+00 4.773537133425567e-02
1.208979591836700e+11 1.023766697101293e+00 4.638016580928673e-02
1.209387755102000e+11 1.023375057847677e+00 4.545339010254443e-02
1.209795918367300e+11 1.022646195802601e+00 4.527065092159119e-02
1.210204081632700e+11 1.022411838043827e+00 4.550612823842792e-02
1.210612244898000e+11 1.022283076028396e+00 4.509453081584178e-02
1.211020408163300e+11 1.022150544162665e+00 4.594099551519599e-02
1.211428571428600e+11 1.022171003059202e+00 4.671713631592132e-02
1.211836734693900e+11 1.022019744552371e+00 4.708686706561733e-02
1.212244897959200e+11 1.022176166345032e+00 4.834194470940427e-02
1.212653061224500e+11 1.021773489967114e+00 4.861412923931888e-02
1.213061224489800e+11 1.022435451278986e+00 4.936498086497652e-02
1.213469387755100e+11 1.022669398358101e+00 4.927004452764830e-02
1.213877551020400e+11 1.023596370249710e+00 4.980191928083025e-02
1.214285714285700e+11 1.024132328026785e+00 4.995420389545625e-02
1.214693877551000e+11 1.023770896037607e+00 4.815976062313983e-02
1.215102040816300e+11 1.022512781593284e+00 4.628447759985527e-02
1.215510204081600e+11 1.022540090465330e+00 4.754644918431659e-02
1.215918367346900e+11 1.022394324411618e+00 4.780900325373075e-02
1.216326530612200e+11 1.022383416151786e+00 4.732869026758461e-02
1.216734693877600e+11 1.021497683088218e+00 4.734965160804795e-02
1.217142857142900e+11 1.020951161567374e+00 4.833758271217305e-02
1.217551020408200e+11 1.020544559876862e+00 4.900155527466017e-02
1.217959183673500e+11 1.020169019957242e+00 4.945432830840746e-02
1.218367346938800e+11 1.020377226942013e+00 5.082383463142786e-02
1.218775510204100e+11 1.020608297809301e+00 5.166087309864149e-02
1.219183673469400e+11 1.021115154102796e+00 5.163796664950616e-02
1.219591836734700e+11 1.021780924317109e+00 5.109281189466056e-02
1.220000000000000e+11 1.022564069141982e+00 5.100215512760133e-02
1.220408163265300e+11 1.023652021747870e+00 5.097187654839688e-02
1.220816326530600e+11 1.023408044022580e+00 5.113947326123162e-02
1.221224489795900e+11 1.022812081757378e+00 5.042403446995458e-02
1.221632653061200e+11 1.022076679881370e+00 4.969308743238795e-02
1.222040816326500e+11 1.022129436903018e+00 4.955306017700285e-02
1.222448979591800e+11 1.021644540334800e+00 4.994084636606202e-02
1.222857142857100e+11 1.020865353868672e+00 5.033059927946639e-02
1.223265306122400e+11 1.020095108375019e+00 5.137502722431323e-02
1.223673469387800e+11 1.020418917727978e+00 5.246160071664653e-02
1.224081632653100e+11 1.020294353264521e+00 5.301595657815276e-02
1.224489795918400e+11 1.020004798881461e+00 5.422321987353862e-02
1.224897959183700e+11 1.020387121629626e+00 5.543189747869660e-02
1.225306122449000e+11 1.019825883962499e+00 5.564396066936496e-02
1.225714285714300e+11 1.020414250738548e+00 5.657410335448768e-02
1.226122448979600e+11 1.021281409842481e+00 5.634976594515430e-02
1.226530612244900e+11 1.021921664034050e+00 5.588919210067548e-02
1.226938775510200e+11 1.022507659199755e+00 5.532564715881803e-02
1.227346938775500e+11 1.023034937681599e+00 5.488770026464909e-02
1.227755102040800e+11 1.022622623524018e+00 5.359849915318248e-02
1.228163265306100e+11 1.022628070561649e+00 5.193374512880172e-02
1.228571428571400e+11 1.022778089676775e+00 5.083609862952475e-02
1.228979591836700e+11 1.022234832621411e+00 5.003430842238023e-02
1.229387755102000e+11 1.022108710498523e+00 5.046064932457380e-02
1.229795918367300e+11 1.020338584039813e+00 4.913305025223223e-02
1.230204081632700e+11 1.019736015228394e+00 5.016646147427276e-02
1.230612244898000e+11 1.020270156105211e+00 5.195664198947252e-02
1.231020408163300e+11 1.020395862377566e+00 5.283695943528598e-02
1.231428571428600e+11 1.020284446065496e+00 5.385439826384968e-02
1.231836734693900e+11 1.020650458492568e+00 5.548292671304818e-02
1.232244897959200e+11 1.021272454362554e+00 5.645896017364131e-02
1.232653061224500e+11 1.022442595053228e+00 5.671816054894979e-02
1.233061224489800e+11 1.022350620664722e+00 5.752006369525711e-02
1.233469387755100e+11 1.022912704635565e+00 5.795478576339660e-02
1.233877551020400e+11 1.023271510433650e+00 5.771252075768451e-02
1.234285714285700e+11 1.023942325647315e+00 5.763419152649957e-02
1.234693877551000e+11 1.024224103753694e+00 5.682315160491568e-02
1.235102040816300e+11 1.023911872348599e+00 5.630168309841978e-02
1.235510204081600e+11 1.024083881547517e+00 5.526480658308969e-02
1.235918367346900e+11 1.023386332356628e+00 5.502705014302900e-02
1.236326530612200e+11 1.023238032003443e+00 5.423182783264564e-02
1.236734693877600e+11 1.022696030388644e+00 5.406335965771993e-02
1.237142857142900e+11 1.022231945134185e+00 5.454671864620676e-02
1.237551020408200e+11 1.021833587607056e+00 5.468382497907574e-02
1.237959183673500e+11 1.021659280098676e+00 5.444467233121787e-02
1.238367346938800e+11 1.022167175832682e+00 5.457393393753603e-02
1.238775510204100e+11 1.022445352938042e+00 5.422618793088831e-02
1.239183673469400e+11 1.022592280324601e+00 5.528411147318314e-02
1.239591836734700e+11 1.022868733880438e+00 5.581589084248630e-02
1.240000000000000e+11 1.023224530766544e+00 5.458324911829192e-02
1.240408163265300e+11 1.023759984523074e+00 5.400316979874164e-02
1.240816326530600e+11 1.024618850326897e+00 5.278014729968116e-02
1.241224489795900e+11 1.024907003385310e+00 5.165717047744305e-02
1.241632653061200e+11 1.024705182931688e+00 5.109725521291868e-02
1.242040816326500e+11 1.024617232671976e+00 5.036348496290466e-02
1.242448979591800e+11 1.023733012065892e+00 5.008337312111177e-02
1.242857142857100e+11 1.022928031277522e+00 4.909718321902985e-02
1.243265306122400e+11 1.022629070141402e+00 4.998022912897213e-02
1.243673469387800e+11 1.022302982999657e+00 5.056916005987515e-02
1.244081632653100e+11 1.021816145132753e+00 5.104311666708536e-02
1.244489795918400e+11 1.021261551970682e+00 5.223219953216401e-02
1.244897959183700e+11 1.021327005669844e+00 5.278698849402786e-02
1.245306122449000e+11 1.021494731112893e+00 5.336972558076776e-02
1.245714285714300e+11 1.021842083664135e+00 5.430296083229987e-02
1.246122448979600e+11 1.021732671599677e+00 5.522681281965425e-02
1.246530612244900e+11 1.021831773218235e+00 5.564080702954486e-02
1.246938775510200e+11 1.022695111200935e+00 5.556937619523981e-02
1.247346938775500e+11 1.023478824002898e+00 5.546949751593764e-02
1.247755102040800e+11 1.023730490840049e+00 5.512196241527091e-02
1.248163265306100e+11 1.023429463251538e+00 5.395297550265024e-02
1.248571428571400e+11 1.023886607328618e+00 5.234146609824714e-02
1.248979591836700e+11 1.024441630657414e+00 5.174714005049420e-02
1.249387755102000e+11 1.023973341221763e+00 5.206624845866140e-02
1.249795918367300e+11 1.022437928492139e+00 5.160525223738249e-02
1.250204081632700e+11 1.021573256173412e+00 5.028640139321691e-02
1.250612244898000e+11 1.021507246919179e+00 4.926097470937849e-02
1.251020408163300e+11 1.021006191807420e+00 4.919294607315262e-02
1.251428571428600e+11 1.020483819751666e+00 4.976046550040421e-02
1.251836734693900e+11 1.020477859038847e+00 4.993742316695357e-02
1.252244897959200e+11 1.020600964003050e+00 5.081686656978141e-02
1.252653061224500e+11 1.020973291375622e+00 5.095705094363015e-02
1.253061224489800e+11 1.021198925630288e+00 5.242067578097999e-02
1.253469387755100e+11 1.021074192769776e+00 5.328172441728634e-02
1.253877551020400e+11 1.021571965279975e+00 5.291529405807508e-02
1.254285714285700e+11 1.022422083437417e+00 5.280466720015352e-02
1.254693877551000e+11 1.022264209306482e+00 5.310819032316343e-02
1.255102040816300e+11 1.022071202973271e+00 5.375715438422585e-02
1.255510204081600e+11 1.022176279151047e+00 5.456548487415773e-02
1.255918367346900e+11 1.022530476048761e+00 5.380475429655764e-02
1.256326530612200e+11 1.022494539233796e+00 5.261831234109660e-02
1.256734693877600e+11 1.022150895044223e+00 5.139079481087096e-02
1.257142857142900e+11 1.021535759897347e+00 5.115963560136992e-02
1.257551020408200e+11 1.020564037294021e+00 5.143962937596987e-02
1.257959183673500e+11 1.019728877094320e+00 5.185819451954110e-02
1.258367346938800e+11 1.019589082033671e+00 5.260614220418622e-02
1.258775510204100e+11 1.019938074983768e+00 5.245321801316385e-02
1.259183673469400e+11 1.019566249877378e+00 5.320633184736411e-02
1.259591836734700e+11 1.019389686665814e+00 5.352608935068093e-02
1.260000000000000e+11 1.020188754356444e+00 5.433222304312665e-02
1.260408163265300e+11 1.020691072928968e+00 5.421755796636250e-02
1.260816326530600e+11 1.021060721857281e+00 5.346983592448001e-02
1.261224489795900e+11 1.021739232879817e+00 5.299033885325197e-02
1.261632653061200e+11 1.021479341962796e+00 5.240783801808015e-02
1.262040816326500e+11 1.021373101415727e+00 5.217665632621733e-02
1.262448979591800e+11 1.021112163605768e+00 5.165935002775874e-02
1.262857142857100e+11 1.020951037265375e+00 5.141309291755319e-02
1.263265306122400e+11 1.021102098867564e+00 5.149699194940299e-02
1.263673469387800e+11 1.020702099571341e+00 5.191793877258975e-02
1.264081632653100e+11 1.019958555520622e+00 5.195721764156831e-02
1.264489795918400e+11 1.019370756170340e+00 5.228227508373935e-02
1.264897959183700e+11 1.018999105043134e+00 5.231302651044537e-02
1.265306122449000e+11 1.019325636221619e+00 5.346358144814552e-02
1.265714285714300e+11 1.019290129883497e+00 5.348119464468571e-02
1.266122448979600e+11 1.019163699244852e+00 5.430035165420840e-02
1.266530612244900e+11 1.019671274595676e+00 5.489701809806788e-02
1.266938775510200e+11 1.019509234186009e+00 5.631889689789081e-02
1.267346938775500e+11 1.019964602895219e+00 5.676420876531713e-02
1.267755102040800e+11 1.020374651755274e+00 5.719052514181263e-02
1.268163265306100e+11 1.020645984852604e+00 5.735733056553006e-02
1.268571428571400e+11 1.020869740619734e+00 5.723547215198253e-02
1.268979591836700e+11 1.021610568242101e+00 5.682072749931128e-02
1.269387755102000e+11 1.021807538828630e+00 5.640272814029545e-02
1.269795918367300e+11 1.022025912479329e+00 5.601522780163740e-02
1.270204081632700e+11 1.021495234599763e+00 5.556034854826712e-02
1.270612244898000e+11 1.020785393172043e+00 5.472006958689758e-02
1.271020408163300e+11 1.020217714879074e+00 5.387357284263890e-02
1.271428571428600e+11 1.020056922931302e+00 5.378046281476458e-02
1.271836734693900e+11 1.019961022334334e+00 5.378116075449873e-02
1.272244897959200e+11 1.019442964599870e+00 5.355635066745073e-02
1.272653061224500e+11 1.018878682711341e+00 5.416024209588709e-02
1.273061224489800e+11 1.018894998366999e+00 5.486625782125156e-02
1.273469387755100e+11 1.019460699226911e+00 5.504199035295198e-02
1.273877551020400e+11 1.020417932434746e+00 5.586249318256597e-02
1.274285714285700e+11 1.020389011035764e+00 5.598803971153888e-02
1.274693877551000e+11 1.020612371935417e+00 5.613819858342737e-02
1.275102040816300e+11 1.020394757815828e+00 5.555836122911173e-02
1.275510204081600e+11 1.021440717213802e+00 5.516635308545035e-02
1.275918367346900e+11 1.021948894062710e+00 5.495191668751654e-02
1.276326530612200e+11 1.022126010276635e+00 5.474632147860787e-02
1.276734693877600e+11 1.021838655166200e+00 5.473534555189184e-02
1.277142857142900e+11 1.021394325205793e+00 5.478586226020802e-02
1.277551020408200e+11 1.021269585215323e+00 5.473166774089913e-02
1.277959183673500e+11 1.021253305466022e+00 5.495874483711022e-02
1.278367346938800e+11 1.021054089423663e+00 5.545336581979943e-02
1.278775510204100e+11 1.020954029195388e+00 5.582851934877401e-02
1.279183673469400e+11 1.020919347242547e+00 5.535361625813426e-02
1.279591836734700e+11 1.021588539639652e+00 5.550841406783374e-02
1.280000000000000e+11 1.021439287490904e+00 5.498893144244793e-02
1.280408163265300e+11 1.021409839216171e+00 5.445213663481139e-02
1.280816326530600e+11 1.021399629291033e+00 5.410550398594086e-02
1.281224489795900e+11 1.021664403487907e+00 5.365170397999829e-02
1.281632653061200e+11 1.021508362837810e+00 5.328187166370191e-02
1.282040816326500e+11 1.021598361912505e+00 5.252983322030021e-02
1.282448979591800e+11 1.022082171061685e+00 5.241711549971990e-02
1.282857142857100e+11 1.021891322764263e+00 5.179114050697785e-02
1.283265306122400e+11 1.022229052053801e+00 5.161530248861474e-02
1.283673469387800e+11 1.021676306803552e+00 5.137227937403408e-02
1.284081632653100e+11 1.021808699674615e+00 5.091154032370362e-02
1.284489795918400e+11 1.021629803925348e+00 5.134730597049939e-02
1.284897959183700e+11 1.021507743325901e+00 5.132518097658115e-02
1.285306122449000e+11 1.021166606042755e+00 5.167841352138606e-02
1.285714285714300e+11 1.021423113162502e+00 5.271607445623887e-02
1.286122448979600e+11 1.021013793660334e+00 5.265529611004767e-02
1.286530612244900e+11 1.020962864066097e+00 5.298097087885572e-02
1.286938775510200e+11 1.021158057025045e+00 5.384009668822244e-02
1.287346938775500e+11 1.021764296308115e+00 5.452932072888652e-02
1.287755102040800e+11 1.022577991375069e+00 5.479900700488842e-02
1.288163265306100e+11 1.023037577447625e+00 5.483298486165645e-02
1.288571428571400e+11 1.023280959863396e+00 5.471264911563600e-02
1.288979591836700e+11 1.023318975220494e+00 5.361764295535313e-02
1.289387755102000e+11 1.022739736035386e+00 5.268043521860206e-02
1.289795918367300e+11 1.022010619081221e+00 5.222497812628502e-02
1.290204081632700e+11 1.022295745604544e+00 5.162729017631035e-02
1.290612244898000e+11 1.022629859131483e+00 5.155733739165504e-02
1.291020408163300e+11 1.022388447204641e+00 5.122602031477213e-02
1.291428571428600e+11 1.022100977097786e+00 5.013573573138708e-02
1.291836734693900e+11 1.022257721872900e+00 4.944150400865806e-02
1.292244897959200e+11 1.021653242855356e+00 4.833123268585218e-02
1.292653061224500e+11 1.021867518429753e+00 4.808866855151527e-02
1.293061224489800e+11 1.022958549640570e+00 4.821114655614173e-02
1.293469387755100e+11 1.022522608702426e+00 4.719684575817570e-02
1.293877551020400e+11 1.021621789830411e+00 4.582471562454837e-02
1.294285714285700e+11 1.021513947162069e+00 4.540965965462913e-02
1.294693877551000e+11 1.022397327720510e+00 4.538413912980151e-02
1.295102040816300e+11 1.022533681450091e+00 4.479036200488184e-02
1.295510204081600e+11 1.023199015664434e+00 4.445223357589558e-02
1.295918367346900e+11 1.022368886052986e+00 4.349918616030717e-02
1.296326530612200e+11 1.022732526263218e+00 4.383695974943876e-02
1.296734693877600e+11 1.023023330660691e+00 4.357545631324306e-02
1.297142857142900e+11 1.022984891710105e+00 4.341736019886503e-02
1.297551020408200e+11 1.022740738817010e+00 4.334182153067865e-02
1.297959183673500e+11 1.022532742505357e+00 4.384178874327614e-02
1.298367346938800e+11 1.021876186213347e+00 4.418640185818042e-02
1.298775510204100e+11 1.022169828737060e+00 4.559663936906493e-02
1.299183673469400e+11 1.022267126567254e+00 4.657027623348851e-02
1.299591836734700e+11 1.022335600532169e+00 4.702119576354768e-02
1.300000000000000e+11 1.022303601667638e+00 4.759669854031331e-02
1.300408163265300e+11 1.022093552098625e+00 4.807629024241519e-02
1.300816326530600e+11 1.022456778798067e+00 4.855252235952719e-02
1.301224489795900e+11 1.021964317419567e+00 4.831551427924314e-02
1.301632653061200e+11 1.022347509499043e+00 4.821998736319116e-02
1.302040816326500e+11 1.023213457000968e+00 4.874362684563988e-02
1.302448979591800e+11 1.023196155101532e+00 4.855045270502827e-02
1.302857142857100e+11 1.023473815024974e+00 4.744004939305368e-02
1.303265306122400e+11 1.023138072977209e+00 4.547275555992305e-02
1.303673469387800e+11 1.023105233878488e+00 4.400069588871985e-02
1.304081632653100e+11 1.023535281895612e+00 4.345710763042879e-02
1.304489795918400e+11 1.023421166924640e+00 4.259968602207715e-02
1.304897959183700e+11 1.022768886748920e+00 4.140282976749771e-02
1.305306122449000e+11 1.022084314430766e+00 4.005457200696787e-02
1.305714285714300e+11 1.021402947478978e+00 3.916430370513643e-02
1.306122448979600e+11 1.021062940965051e+00 3.888896684470805e-02
1.306530612244900e+11 1.020901202545382e+00 3.884889480598820e-02
1.306938775510200e+11 1.020480908876965e+00 3.888205384298714e-02
1.307346938775500e+11 1.020262216269150e+00 3.912148886505862e-02
1.307755102040800e+11 1.020341398429453e+00 3.915891319761471e-02
1.308163265306100e+11 1.020552134386941e+00 3.956796243742774e-02
1.308571428571400e+11 1.020814101029853e+00 3.993701243028157e-02
1.308979591836700e+11 1.021270205743085e+00 4.024347053059223e-02
1.309387755102000e+11 1.021720660512341e+00 4.074679052480138e-02
1.309795918367300e+11 1.021907424807228e+00 3.991265325190477e-02
1.310204081632700e+11 1.021644293697312e+00 3.891957617127954e-02
1.310612244898000e+11 1.022297270157726e+00 3.877123125828181e-02
1.311020408163300e+11 1.022392448047418e+00 3.775022296186193e-02
1.311428571428600e+11 1.021969318160959e+00 3.761968311827434e-02
1.311836734693900e+11 1.021522923098055e+00 3.664580466400618e-02
1.312244897959200e+11 1.021091571323373e+00 3.655880347782434e-02
1.312653061224500e+11 1.020848981010814e+00 3.583130336243372e-02
1.313061224489800e+11 1.019797618904597e+00 3.500361753953554e-02
1.313469387755100e+11 1.019478098624427e+00 3.540441072122604e-02
1.313877551020400e+11 1.019376502320281e+00 3.594093116372975e-02
1.314285714285700e+11 1.019008405085867e+00 3.679672640733245e-02
1.314693877551000e+11 1.018658586761325e+00 3.726366575247037e-02
1.315102040816300e+11 1.018494229837695e+00 3.693126112058387e-02
1.315510204081600e+11 1.018894838220650e+00 3.776852614808097e-02
1.315918367346900e+11 1.018978884285730e+00 3.777565242204856e-02
1.316326530612200e+11 1.019566038044108e+00 3.845540343453256e-02
1.316734693877600e+11 1.020080679831287e+00 3.850612011297651e-02
1.317142857142900e+11 1.019864263811972e+00 3.778654933067351e-02
1.317551020408200e+11 1.019910382413873e+00 3.753715017455708e-02
1.317959183673500e+11 1.019981944089720e+00 3.694509626848955e-02
1.318367346938800e+11 1.020181700712732e+00 3.713163400626018e-02
1.318775510204100e+11 1.019899658788481e+00 3.726490199155055e-02
1.319183673469400e+11 1.018886410098479e+00 3.644517025972145e-02
1.319591836734700e+11 1.018904859527184e+00 3.507142849175037e-02
1.320000000000000e+11 1.018611742557091e+00 3.461891521621454e-02
1.320408163265300e+11 1.018096504462685e+00 3.502618532438122e-02
1.320816326530600e+11 1.018177855670218e+00 3.463311352006976e-02
1.321224489795900e+11 1.018150682016149e+00 3.469591883014859e-02
1.321632653061200e+11 1.018188834260585e+00 3.509698822193102e-02
1.322040816326500e+11 1.018263770943049e+00 3.501788079884689e-02
1.322448979591800e+11 1.017923376378389e+00 3.501516514985017e-02
1.322857142857100e+11 1.018103427335707e+00 3.512466317366972e-02
1.323265306122400e+11 1.018761927743190e+00 3.651506462098756e-02
1.323673469387800e+11 1.018374728700001e+00 3.656591601973564e-02
1.324081632653100e+11 1.019319228279694e+00 3.723423745577565e-02
1.324489795918400e+11 1.019401687150868e+00 3.538697297151774e-02
1.324897959183700e+11 1.019737254023770e+00 3.414469733880405e-02
1.325306122449000e+11 1.019585975268872e+00 3.413923351938895e-02
1.325714285714300e+11 1.019682664756435e+00 3.287541102686548e-02
1.326122448979600e+11 1.019256035918295e+00 3.182657610041397e-02
1.326530612244900e+11 1.017993981839955e+00 3.016864347695908e-02
1.326938775510200e+11 1.017838310211698e+00 2.954886415908090e-02
1.327346938775500e+11 1.016643131411456e+00 2.993812048596504e-02
1.327755102040800e+11 1.016614731376851e+00 2.854960880179303e-02
1.328163265306100e+11 1.016309133014244e+00 2.978108089302904e-02
1.328571428571400e+11 1.015332930969219e+00 2.965586074616840e-02
1.328979591836700e+11 1.015152617410968e+00 2.943428621205606e-02
1.329387755102000e+11 1.014781225175975e+00 3.048821571515569e-02
1.329795918367300e+11 1.015104452628874e+00 3.298627179303249e-02
1.330204081632700e+11 1.015107991974275e+00 3.427213412456022e-02
1.330612244898000e+11 1.015619719421443e+00 3.605423978833052e-02
1.331020408163300e+11 1.015929006546352e+00 3.715511221789820e-02
1.331428571428600e+11 1.016645521759435e+00 3.827442062464172e-02
1.331836734693900e+11 1.017190376235968e+00 3.901279093924808e-02
1.332244897959200e+11 1.017713006933049e+00 3.910132231387375e-02
1.332653061224500e+11 1.018376437475363e+00 3.940036031576198e-02
1.333061224489800e+11 1.018651336847194e+00 3.948814714450845e-02
1.333469387755100e+11 1.018682568935102e+00 3.957670319867147e-02
1.333877551020400e+11 1.018837279303817e+00 3.885267081730630e-02
1.334285714285700e+11 1.018396463857725e+00 3.877568818725793e-02
1.334693877551000e+11 1.017571664949177e+00 3.826479568176794e-02
1.335102040816300e+11 1.016941797193885e+00 3.751410157134108e-02
1.335510204081600e+11 1.016183161425241e+00 3.675443680694139e-02
1.335918367346900e+11 1.016071959238502e+00 3.733881759608731e-02
1.336326530612200e+11 1.015540118300810e+00 3.696013102969313e-02
1.336734693877600e+11 1.015153282025669e+00 3.650285390168908e-02
1.337142857142900e+11 1.015154920975946e+00 3.753569576202555e-02
1.337551020408200e+11 1.015352409229169e+00 3.839804161853574e-02
1.337959183673500e+11 1.015992665476162e+00 3.897164603989358e-02
1.338367346938800e+11 1.016099302657761e+00 3.888139577862608e-02
1.338775510204100e+11 1.016545690977967e+00 3.896949773886286e-02
1.339183673469400e+11 1.017078335133448e+00 3.709077227413410e-02
1.339591836734700e+11 1.018003559527799e+00 3.696124164079551e-02
1.340000000000000e+11 1.018027791119372e+00 3.595521823748080e-02
1.340408163265300e+11 1.017832827075259e+00 3.463193398824805e-02
1.340816326530600e+11 1.017652669623780e+00 3.335111689752063e-02
1.341224489795900e+11 1.017423430489213e+00 3.285961959731925e-02
1.341632653061200e+11 1.017444270580045e+00 3.243687484119522e-02
1.342040816326500e+11 1.017315301731464e+00 3.247471260194524e-02
1.342448979591800e+11 1.016524187108625e+00 3.216057736914778e-02
1.342857142857100e+11 1.015506518306167e+00 3.208093274526020e-02
1.343265306122400e+11 1.015156413928454e+00 3.388337139933428e-02
1.343673469387800e+11 1.015021752072476e+00 3.571207657452754e-02
1.344081632653100e+11 1.013933007063834e+00 3.702770126697767e-02
1.344489795918400e+11 1.014272406103098e+00 3.755914335264722e-02
1.344897959183700e+11 1.014667329217670e+00 3.848086874413872e-02
1.345306122449000e+11 1.014986336343551e+00 3.941677304663668e-02
1.345714285714300e+11 1.015499556485894e+00 4.217944124648568e-02
1.346122448979600e+11 1.016327041262516e+00 4.305556480235415e-02
1.346530612244900e+11 1.017110458020377e+00 4.387275775919520e-02
1.346938775510200e+11 1.017519300914391e+00 4.516665393160500e-02
1.347346938775500e+11 1.018132874066602e+00 4.532916344815354e-02
1.347755102040800e+11 1.019601822417493e+00 4.469096460828462e-02
1.348163265306100e+11 1.019864573861903e+00 4.317829993098712e-02
1.348571428571400e+11 1.019905488954884e+00 4.265173136783266e-02
1.348979591836700e+11 1.019493841784710e+00 4.156818110241468e-02
1.349387755102000e+11 1.019305425779190e+00 4.109720387721286e-02
1.349795918367300e+11 1.019279513191160e+00 4.101963719460601e-02
1.350204081632700e+11 1.018596431946143e+00 4.105610598046942e-02
1.350612244898000e+11 1.017677082557946e+00 3.976656826296049e-02
1.351020408163300e+11 1.016767212305468e+00 4.052688690364649e-02
1.351428571428600e+11 1.016488139689865e+00 4.178549252199448e-02
1.351836734693900e+11 1.015827618284352e+00 4.274794365979655e-02
1.352244897959200e+11 1.016388851673192e+00 4.238435283811378e-02
1.352653061224500e+11 1.016462543329245e+00 4.377161946702596e-02
1.353061224489800e+11 1.016080742687131e+00 4.577198560584900e-02
1.353469387755100e+11 1.016846595546333e+00 4.579328516201189e-02
1.353877551020400e+11 1.017678654358476e+00 4.681348987131320e-02
1.354285714285700e+11 1.018237775648428e+00 4.726615403298523e-02
1.354693877551000e+11 1.018891837570047e+00 4.683022899810867e-02
1.355102040816300e+11 1.019096424482815e+00 4.765327711713008e-02
1.355510204081600e+11 1.020206744357141e+00 4.682522102880794e-02
1.355918367346900e+11 1.021014062689247e+00 4.639972758778579e-02
1.356326530612200e+11 1.022250060954350e+00 4.604663491581468e-02
1.356734693877600e+11 1.022141293727383e+00 4.579248300807356e-02
1.357142857142900e+11 1.022127345318142e+00 4.421856834356402e-02
1.357551020408200e+11 1.021501868630482e+00 4.300878164502760e-02
1.357959183673500e+11 1.021129008540756e+00 4.281143341166495e-02
1.358367346938800e+11 1.020060198701830e+00 4.224558073175792e-02
1.358775510204100e+11 1.019246145152266e+00 4.199931493412608e-02
1.359183673469400e+11 1.018728803580685e+00 4.127909206562586e-02
1.359591836734700e+11 1.018478601317979e+00 4.153958970117325e-02
1.360000000000000e+11 1.018817007405303e+00 4.192770854629013e-02
1.360408163265300e+11 1.018471389922105e+00 4.244151186304704e-02
1.360816326530600e+11 1.018639874996828e+00 4.232981658364577e-02
1.361224489795900e+11 1.019321460222128e+00 4.090362550267179e-02
1.361632653061200e+11 1.018873438977310e+00 4.156540063310852e-02
1.362040816326500e+11 1.019511118099329e+00 4.214230695984614e-02
1.362448979591800e+11 1.020132030314884e+00 4.076280478011869e-02
1.362857142857100e+11 1.020701298442065e+00 4.093163492085194e-02
1.363265306122400e+11 1.021441368826419e+00 4.128575063687651e-02
1.363673469387800e+11 1.021407705171802e+00 4.022169975695886e-02
1.364081632653100e+11 1.021504882808336e+00 3.888773698909642e-02
1.364489795918400e+11 1.021180782487421e+00 3.840720032528323e-02
1.364897959183700e+11 1.020465889720530e+00 3.882156154562485e-02
1.365306122449000e+11 1.019738524112476e+00 3.877690109627601e-02
1.365714285714300e+11 1.018973294008848e+00 3.793851800908340e-02
1.366122448979600e+11 1.018327156740233e+00 3.705881507287020e-02
1.366530612244900e+11 1.017774681116628e+00 3.739200266740694e-02
1.366938775510200e+11 1.017314451892375e+00 3.795590591529680e-02
1.367346938775500e+11 1.017422699444830e+00 3.889099076267965e-02
1.367755102040800e+11 1.017206411658725e+00 3.819093316594428e-02
1.368163265306100e+11 1.017578236335431e+00 3.937575867226729e-02
1.368571428571400e+11 1.018241227118876e+00 4.084668660557067e-02
1.368979591836700e+11 1.018582050635665e+00 4.007850078068832e-02
1.369387755102000e+11 1.018397207039444e+00 3.979743061568489e-02
1.369795918367300e+11 1.018936352648107e+00 3.980052301364174e-02
1.370204081632700e+11 1.019859246468045e+00 3.990231513368903e-02
1.370612244898000e+11 1.020325304972957e+00 4.066334198329823e-02
1.371020408163300e+11 1.020889840640768e+00 4.075944774825017e-02
1.371428571428600e+11 1.021060772033401e+00 3.959844814083243e-02
1.371836734693900e+11 1.021007935053594e+00 3.915553475326095e-02
1.372244897959200e+11 1.021147894556907e+00 3.911318716018028e-02
1.372653061224500e+11 1.021031947341549e+00 3.942839708200863e-02
1.373061224489800e+11 1.020853070651648e+00 3.780230522166327e-02
1.373469387755100e+11 1.020554843036737e+00 3.624595403945754e-02
1.373877551020400e+11 1.019836797382168e+00 3.637726093712272e-02
1.374285714285700e+11 1.019095542385105e+00 3.687785605101040e-02
1.374693877551000e+11 1.018618222231736e+00 3.578398049343808e-02
1.375102040816300e+11 1.018345193109180e+00 3.490278351752397e-02
1.375510204081600e+11 1.018572726565203e+00 3.604947355969035e-02
1.375918367346900e+11 1.018745462012356e+00 3.701369779071712e-02
1.376326530612200e+11 1.018463381970727e+00 3.670460476384790e-02
1.376734693877600e+11 1.018524627957629e+00 3.537016952315358e-02
1.377142857142900e+11 1.019151355292230e+00 3.622704506431386e-02
1.377551020408200e+11 1.019413250070959e+00 3.668451754564473e-02
1.377959183673500e+11 1.019768042931307e+00 3.561257763484284e-02
1.378367346938800e+11 1.020482923417495e+00 3.533411932294510e-02
1.378775510204100e+11 1.021062913602603e+00 3.609058531043596e-02
1.379183673469400e+11 1.021147501229722e+00 3.600368718790049e-02
1.379591836734700e+11 1.021106828673370e+00 3.490365043515282e-02
1.380000000000000e+11 1.020886929936596e+00 3.330051918625038e-02
1.380408163265300e+11 1.020800862667888e+00 3.338279343362990e-02
1.380816326530600e+11 1.020240052198512e+00 3.223289930039920e-02
1.381224489795900e+11 1.019477491899535e+00 3.191374346981372e-02
1.381632653061200e+11 1.019039961144123e+00 3.226718563255698e-02
1.382040816326500e+11 1.018850590726460e+00 3.212790426698117e-02
1.382448979591800e+11 1.018660428229284e+00 3.228234881094378e-02
1.382857142857100e+11 1.017840445124192e+00 3.126912983936488e-02
1.383265306122400e+11 1.017734711693691e+00 3.107143212852422e-02
1.383673469387800e+11 1.017732593318649e+00 3.238851503658079e-02
1.384081632653100e+11 1.017987014840902e+00 3.362488221421883e-02
1.384489795918400e+11 1.018268700657944e+00 3.427898975070241e-02
1.384897959183700e+11 1.018837893863113e+00 3.431468786920197e-02
1.385306122449000e+11 1.019286529804449e+00 3.418210380114328e-02
1.385714285714300e+11 1.019307662189058e+00 3.319950440033519e-02
1.386122448979600e+11 1.019916236782873e+00 3.407184619297528e-02
1.386530612244900e+11 1.020308643324025e+00 3.427004470045655e-02
1.386938775510200e+11 1.020152832552337e+00 3.297785766343161e-02
1.387346938775500e+11 1.020105081514143e+00 3.313843107229811e-02
1.387755102040800e+11 1.020282372489055e+00 3.331637532477410e-02
1.388163265306100e+11 1.019651548094136e+00 3.203907630247768e-02
1.388571428571400e+11 1.019167767150121e+00 3.189250116604841e-02
1.388979591836700e+11 1.018189933238327e+00 3.116252320487914e-02
1.389387755102000e+11 1.017967321322767e+00 3.242771985895147e-02
1.389795918367300e+11 1.018363176089480e+00 3.337365740436120e-02
1.390204081632700e+11 1.018358367726378e+00 3.414245076720550e-02
1.390612244898000e+11 1.018454155831361e+00 3.485655157121154e-02
1.391020408163300e+11 1.018215413068376e+00 3.352908285149427e-02
1.391428571428600e+11 1.018542579945259e+00 3.321358460073811e-02
1.391836734693900e+11 1.019242293168068e+00 3.369612778158802e-02
1.392244897959200e+11 1.020033261815295e+00 3.459995701643962e-02
1.392653061224500e+11 1.020547607867407e+00 3.405971487865082e-02
1.393061224489800e+11 1.021039548094712e+00 3.338955159506948e-02
1.393469387755100e+11 1.021857808799380e+00 3.359504692671503e-02
1.393877551020400e+11 1.022454703456707e+00 3.327155354541970e-02
1.394285714285700e+11 1.022579849505289e+00 3.177996046586903e-02
1.394693877551000e+11 1.021859201088910e+00 3.015174398570191e-02
1.395102040816300e+11 1.020835435705739e+00 2.734370094872316e-02
1.395510204081600e+11 1.020732580777663e+00 2.727934366261679e-02
1.395918367346900e+11 1.020340379071482e+00 2.698822695850429e-02
1.396326530612200e+11 1.019995847081075e+00 2.705312226005122e-02
1.396734693877600e+11 1.019367419836430e+00 2.793749472600199e-02
1.397142857142900e+11 1.018523345907933e+00 2.634892478494188e-02
1.397551020408200e+11 1.018213957117638e+00 2.603814585278947e-02
1.397959183673500e+11 1.018562942213394e+00 2.767145159138729e-02
1.398367346938800e+11 1.017482623600247e+00 2.631384506389168e-02
1.398775510204100e+11 1.017617171561124e+00 2.798530461178701e-02
1.399183673469400e+11 1.017350594227879e+00 2.777038271996075e-02
1.399591836734700e+11 1.018034729891367e+00 2.838195662787180e-02
1.400000000000000e+11 1.019100218347948e+00 3.020175838179166e-02
1.400408163265300e+11 1.019784852941229e+00 2.960119611359420e-02
1.400816326530600e+11 1.020092790780268e+00 2.943694211993197e-02
1.401224489795900e+11 1.020109018803002e+00 2.773243327794004e-02
1.401632653061200e+11 1.020306683451175e+00 2.778722328676813e-02
1.402040816326500e+11 1.020976701694749e+00 2.761111668475201e-02
1.402448979591800e+11 1.021523475118457e+00 2.825524122725760e-02
1.402857142857100e+11 1.021580358825169e+00 2.782746877318620e-02
1.403265306122400e+11 1.020880898279099e+00 2.711541739260348e-02
1.403673469387800e+11 1.021253118380631e+00 2.871579819118130e-02
1.404081632653100e+11 1.021062575516157e+00 2.798443197672298e-02
1.404489795918400e+11 1.020944606399906e+00 2.734935003212249e-02
1.404897959183700e+11 1.020458089597659e+00 2.784640608877832e-02
1.405306122449000e+11 1.020264944695478e+00 2.774071999037550e-02
1.405714285714300e+11 1.019883375799093e+00 2.725293107626380e-02
1.406122448979600e+11 1.019629614269366e+00 2.702716582194447e-02
1.406530612244900e+11 1.019834990636983e+00 2.838440907125355e-02
1.406938775510200e+11 1.020508431086040e+00 2.879545504699111e-02
1.407346938775500e+11 1.020837594123382e+00 2.805271199555772e-02
1.407755102040800e+11 1.021120501200971e+00 2.819912863061468e-02
1.408163265306100e+11 1.021688555460708e+00 2.813268259378689e-02
1.408571428571400e+11 1.021350042487369e+00 2.709444088709044e-02
1.408979591836700e+11 1.021330815598078e+00 2.499540834856176e-02
1.409387755102000e+11 1.021395035622501e+00 2.432841367359440e-02
1.409795918367300e+11 1.021172182950721e+00 2.457529425403493e-02
1.410204081632700e+11 1.020787022202449e+00 2.397788102315845e-02
1.410612244898000e+11 1.019863582758462e+00 2.169515914632435e-02
1.411020408163300e+11 1.019650196892852e+00 2.172617645169426e-02
1.411428571428600e+11 1.019736419412977e+00 2.234765345397756e-02
1.411836734693900e+11 1.019556417067427e+00 2.306596815979539e-02
1.412244897959200e+11 1.019264932099924e+00 2.252727632048205e-02
1.412653061224500e+11 1.018889487495977e+00 2.115967739082152e-02
1.413061224489800e+11 1.019008015010748e+00 2.202117588654329e-02
1.413469387755100e+11 1.018621782759154e+00 2.056915853885017e-02
1.413877551020400e+11 1.018156297553809e+00 2.123586640083232e-02
1.414285714285700e+11 1.018410217072091e+00 2.177111017051627e-02
1.414693877551000e+11 1.018205066244230e+00 2.218953702251263e-02
1.415102040816300e+11 1.019048542237437e+00 2.213628272273571e-02
1.415510204081600e+11 1.018639850724764e+00 2.112781352907093e-02
1.415918367346900e+11 1.018481023576524e+00 2.076889738137510e-02
1.416326530612200e+11 1.018564519364171e+00 2.025894289055325e-02
1.416734693877600e+11 1.018769577902505e+00 2.080300311898500e-02
1.417142857142900e+11 1.018750124755941e+00 2.047569060997349e-02
1.417551020408200e+11 1.018313813965107e+00 1.899884631938469e-02
1.417959183673500e+11 1.018847072646048e+00 2.054274088360030e-02
1.418367346938800e+11 1.018416306823696e+00 1.951994425272160e-02
1.418775510204100e+11 1.017985973358846e+00 1.842829035325429e-02
1.419183673469400e+11 1.017353767813263e+00 1.839631985691911e-02
1.419591836734700e+11 1.017302643848107e+00 1.775518459156339e-02
1.420000000000000e+11 1.016772908438507e+00 1.759490102582394e-02
1.420408163265300e+11 1.017194963289745e+00 1.916255901286360e-02
1.420816326530600e+11 1.017217285749943e+00 1.933440626155581e-02
1.421224489795900e+11 1.017296812073809e+00 1.910647688922034e-02
1.421632653061200e+11 1.017174139853329e+00 1.858058342074183e-02
1.422040816326500e+11 1.016862498995700e+00 1.806380454939113e-02
1.422448979591800e+11 1.016790245057877e+00 1.887324042480101e-02
1.422857142857100e+11 1.017374025911352e+00 1.940945532060904e-02
1.423265306122400e+11 1.017473817620608e+00 1.940163535719942e-02
1.423673469387800e+11 1.017618110158111e+00 1.943145642405799e-02
1.424081632653100e+11 1.017370985575958e+00 1.940969059773817e-02
1.424489795918400e+11 1.017234252689240e+00 1.981539385481699e-02
1.424897959183700e+11 1.017184886644845e+00 2.004025638023134e-02
1.425306122449000e+11 1.017332062971742e+00 2.159330728837697e-02
1.425714285714300e+11 1.017353038338014e+00 2.146945464894541e-02
1.426122448979600e+11 1.017248871598259e+00 2.056646228906933e-02
1.426530612244900e+11 1.017594960564800e+00 2.116916512983907e-02
1.426938775510200e+11 1.017954523822081e+00 2.088239568361246e-02
1.427346938775500e+11 1.018141129865023e+00 2.205742025850913e-02
1.427755102040800e+11 1.018376542350397e+00 2.313151651264002e-02
1.428163265306100e+11 1.018509804559262e+00 2.517369728263565e-02
1.428571428571400e+11 1.019513202232499e+00 2.489098723552317e-02
1.428979591836700e+11 1.020719650201742e+00 2.570544901784814e-02
1.429387755102000e+11 1.021317884738371e+00 2.541372331019151e-02
1.429795918367300e+11 1.021530625089544e+00 2.457392828828169e-02
1.430204081632700e+11 1.021946511321761e+00 2.593998723469062e-02
1.430612244898000e+11 1.022519762722585e+00 2.652413283012595e-02
1.431020408163300e+11 1.022676981988731e+00 2.441854091290675e-02
1.431428571428600e+11 1.022231129127728e+00 2.266612289230677e-02
1.431836734693900e+11 1.021739390275692e+00 2.181549910317416e-02
1.432244897959200e+11 1.021645306428922e+00 2.312462284946590e-02
1.432653061224500e+11 1.021263478258533e+00 2.438357360140607e-02
1.433061224489800e+11 1.020604464403903e+00 2.355195715005211e-02
1.433469387755100e+11 1.019787877978535e+00 2.195416381471080e-02
1.433877551020400e+11 1.019795837453599e+00 2.218114419904887e-02
1.434285714285700e+11 1.019064503823476e+00 2.211257625136483e-02
1.434693877551000e+11 1.019068029615963e+00 2.511662175325776e-02
1.435102040816300e+11 1.019977224986909e+00 2.254981987532297e-02
1.435510204081600e+11 1.019480286545360e+00 2.442133327538721e-02
1.435918367346900e+11 1.019653588873821e+00 2.588452012587136e-02
1.436326530612200e+11 1.020520785560957e+00 2.679882458278752e-02
1.436734693877600e+11 1.021306572579654e+00 2.587178008332421e-02
1.437142857142900e+11 1.021554141775375e+00 2.603493618756451e-02
1.437551020408200e+11 1.021958723199084e+00 2.574757337713623e-02
1.437959183673500e+11 1.022427202708448e+00 2.572048866566182e-02
1.438367346938800e+11 1.022086574092648e+00 2.417142402184468e-02
1.438775510204100e+11 1.022344579944254e+00 2.387736653678894e-02
1.439183673469400e+11 1.022193913703618e+00 2.334812672087447e-02
1.439591836734700e+11 1.022100422753336e+00 2.329131051133995e-02
1.440000000000000e+11 1.021454579057394e+00 2.210440656556792e-02
1.440408163265300e+11 1.021532147956193e+00 2.235344338658317e-02
1.440816326530600e+11 1.020784938039314e+00 2.188757462396431e-02
1.441224489795900e+11 1.020333024593075e+00 2.156160834618796e-02
1.441632653061200e+11 1.019060758878540e+00 2.075036127579493e-02
1.442040816326500e+11 1.019957133930271e+00 2.175703901937309e-02
1.442448979591800e+11 1.019586984593972e+00 2.225975314978729e-02
1.442857142857100e+11 1.019740756167024e+00 2.380490487387973e-02
1.443265306122400e+11 1.019712272620101e+00 2.236662521009677e-02
1.443673469387800e+11 1.019800843156565e+00 2.231640410691640e-02
1.444081632653100e+11 1.020321998372438e+00 2.414023844367013e-02
1.444489795918400e+11 1.020881609780381e+00 2.439743580834036e-02
1.444897959183700e+11 1.021365388739855e+00 2.488545892849326e-02
1.445306122449000e+11 1.021995994438168e+00 2.457732209142273e-02
1.445714285714300e+11 1.022423819428477e+00 2.397530200939674e-02
1.446122448979600e+11 1.022668532693154e+00 2.367055547506982e-02
1.446530612244900e+11 1.022708503967567e+00 2.401851201512122e-02
1.446938775510200e+11 1.022309317455098e+00 2.115933887781665e-02
1.447346938775500e+11 1.022351242663595e+00 2.230684355370032e-02
1.447755102040800e+11 1.022170819894920e+00 2.264849248988525e-02
1.448163265306100e+11 1.021418285934972e+00 2.261338822901904e-02
1.448571428571400e+11 1.020516296231313e+00 2.230048207542251e-02
1.448979591836700e+11 1.019905885436324e+00 2.207842090366398e-02
1.449387755102000e+11 1.019155264634293e+00 2.238130453622528e-02
1.449795918367300e+11 1.018876536420974e+00 2.305411077089515e-02
1.450204081632700e+11 1.018635476475977e+00 2.341550547208891e-02
1.450612244898000e+11 1.018753283403037e+00 2.409483428372328e-02
1.451020408163300e+11 1.018896193335157e+00 2.487613071605673e-02
1.451428571428600e+11 1.018877237919423e+00 2.537135295486660e-02
1.451836734693900e+11 1.020211065273444e+00 2.738320524065973e-02
1.452244897959200e+11 1.020657237581296e+00 2.620658866559675e-02
1.452653061224500e+11 1.021001602022378e+00 2.679547329694340e-02
1.453061224489800e+11 1.021517838282578e+00 2.735582306496810e-02
1.453469387755100e+11 1.021814368211954e+00 2.840395135954854e-02
1.453877551020400e+11 1.022585449736816e+00 2.805692631758872e-02
1.454285714285700e+11 1.022907656216421e+00 2.827454637871451e-02
1.454693877551000e+11 1.022348977905196e+00 2.634474652842499e-02
1.455102040816300e+11 1.022688460077682e+00 2.601622121254133e-02
1.455510204081600e+11 1.022476067525071e+00 2.614135178539610e-02
1.455918367346900e+11 1.021970057314171e+00 2.591918296401394e-02
1.456326530612200e+11 1.021334322468449e+00 2.660282372519620e-02
1.456734693877600e+11 1.020330974279533e+00 2.593875378833579e-02
1.457142857142900e+11 1.019209764770922e+00 2.372859835964034e-02
1.457551020408200e+11 1.018853917605347e+00 2.528913715293955e-02
1.457959183673500e+11 1.018927924129250e+00 2.825472007932857e-02
1.458367346938800e+11 1.018985145756967e+00 2.931706851383413e-02
1.458775510204100e+11 1.018869905571253e+00 3.005262265384323e-02
1.459183673469400e+11 1.019426546138708e+00 3.000040136769036e-02
1.459591836734700e+11 1.019675372282250e+00 2.945074262942245e-02
1.460000000000000e+11 1.020417801496038e+00 3.146152433303159e-02
1.460408163265300e+11 1.021334688673423e+00 3.191547805109630e-02
1.460816326530600e+11 1.021018692450449e+00 3.221543423988064e-02
1.461224489795900e+11 1.021412347430812e+00 3.099474939360385e-02
1.461632653061200e+11 1.021937324245705e+00 3.253208459048612e-02
1.462040816326500e+11 1.022974895828472e+00 3.402773043793623e-02
1.462448979591800e+11 1.023945801798557e+00 3.559830187263828e-02
1.462857142857100e+11 1.024722041880151e+00 3.530823678492387e-02
1.463265306122400e+11 1.024290881959932e+00 3.370018794967961e-02
1.463673469387800e+11 1.023413943765701e+00 3.265103093081545e-02
1.464081632653100e+11 1.022957885590685e+00 3.531884395747809e-02
1.464489795918400e+11 1.022357237380887e+00 3.504759414245361e-02
1.464897959183700e+11 1.022213250680191e+00 3.544883884385129e-02
1.465306122449000e+11 1.021511786231435e+00 3.286935633257413e-02
1.465714285714300e+11 1.021678304543277e+00 3.497969149493889e-02
1.466122448979600e+11 1.021443018821499e+00 3.512219641376050e-02
1.466530612244900e+11 1.021229530347647e+00 3.414624943083086e-02
1.466938775510200e+11 1.021780720733567e+00 3.546876495275856e-02
1.467346938775500e+11 1.021987762495632e+00 3.730391627547263e-02
1.467755102040800e+11 1.022123731878453e+00 3.934975855683649e-02
1.468163265306100e+11 1.022646896329438e+00 3.927856208906810e-02
1.468571428571400e+11 1.022976074476907e+00 3.950767194733750e-02
1.468979591836700e+11 1.024209451879686e+00 4.062682728818292e-02
1.469387755102000e+11 1.024718547325909e+00 3.969177633474403e-02
1.469795918367300e+11 1.026132615748750e+00 3.758609930209918e-02
1.470204081632700e+11 1.026017246298775e+00 3.562995495336896e-02
1.470612244898000e+11 1.026039223097756e+00 3.874909150705945e-02
1.471020408163300e+11 1.026289655593763e+00 3.846385460566616e-02
1.471428571428600e+11 1.026047517053725e+00 3.676917322271273e-02
1.471836734693900e+11 1.025585081068274e+00 3.444615993326774e-02
1.472244897959200e+11 1.025381584384786e+00 3.461973418433766e-02
1.472653061224500e+11 1.024808711482207e+00 3.500157727917655e-02
1.473061224489800e+11 1.023965398206127e+00 3.460891242767623e-02
1.473469387755100e+11 1.024040220069741e+00 3.475416222290507e-02
1.473877551020400e+11 1.023917669059402e+00 3.674229170233551e-02
1.474285714285700e+11 1.024001341486149e+00 3.734746749438572e-02
1.474693877551000e+11 1.024294580329411e+00 3.744033789947412e-02
1.475102040816300e+11 1.025147925681407e+00 3.796146902252214e-02
1.475510204081600e+11 1.025420656242372e+00 3.640728074256645e-02
1.475918367346900e+11 1.026256995937849e+00 3.581229233093713e-02
1.476326530612200e+11 1.026726139955455e+00 3.617919341500235e-02
1.476734693877600e+11 1.027415950212161e+00 3.586163119895538e-02
1.477142857142900e+11 1.028255372834308e+00 3.541637656915745e-02
1.477551020408200e+11 1.028989680122582e+00 3.627991623485110e-02
1.477959183673500e+11 1.029519607823606e+00 3.362090013375707e-02
1.478367346938800e+11 1.029814334711211e+00 2.974773946466603e-02
1.478775510204100e+11 1.029864469948304e+00 2.856276747899756e-02
1.479183673469400e+11 1.029778336393733e+00 2.822861188006315e-02
1.479591836734700e+11 1.029641593001833e+00 2.969667620181340e-02
1.480000000000000e+11 1.029030214982100e+00 2.791263145206546e-02
1.480408163265300e+11 1.028264234956400e+00 2.598058207539699e-02
1.480816326530600e+11 1.027378994448500e+00 2.656117184040435e-02
1.481224489795900e+11 1.026611398538034e+00 2.664674561026741e-02
1.481632653061200e+11 1.026423548158166e+00 2.735665431555974e-02
1.482040816326500e+11 1.026395607769757e+00 2.704956031669283e-02
1.482448979591800e+11 1.026766389467134e+00 2.904361878225581e-02
1.482857142857100e+11 1.027302913796257e+00 3.009114923586495e-02
1.483265306122400e+11 1.027261985706188e+00 3.190476028738235e-02
1.483673469387800e+11 1.028118515375118e+00 3.247729033527464e-02
1.484081632653100e+11 1.028608896309119e+00 3.109070854346135e-02
1.484489795918400e+11 1.029489056418705e+00 2.920536132441812e-02
1.484897959183700e+11 1.029706577389703e+00 2.736128194492552e-02
1.485306122449000e+11 1.030288606962871e+00 2.974927229062337e-02
1.485714285714300e+11 1.030544995421355e+00 2.834878093533494e-02
1.486122448979600e+11 1.030904950659900e+00 2.635522693293484e-02
1.486530612244900e+11 1.031075207939215e+00 2.347563542413576e-02
1.486938775510200e+11 1.030990288257006e+00 2.198242700024925e-02
1.487346938775500e+11 1.029865304014893e+00 1.838961093490020e-02
1.487755102040800e+11 1.029320588325410e+00 1.744474868346740e-02
1.488163265306100e+11 1.028959199752129e+00 1.631465607483485e-02
1.488571428571400e+11 1.028176895739424e+00 1.550951962531324e-02
1.488979591836700e+11 1.027328734292467e+00 1.359777464125244e-02
1.489387755102000e+11 1.026866002763047e+00 1.311445987092262e-02
1.489795918367300e+11 1.025581653211317e+00 1.028735411224514e-02
1.490204081632700e+11 1.026140608428816e+00 1.202778952067856e-02
1.490612244898000e+11 1.025409187070765e+00 1.347549923349012e-02
1.491020408163300e+11 1.025607924147042e+00 1.254014395198942e-02
1.491428571428600e+11 1.026034517817561e+00 1.094888143151865e-02
1.491836734693900e+11 1.026945929862396e+00 9.801665340537143e-03
1.492244897959200e+11 1.027761348324926e+00 9.616137653940563e-03
1.492653061224500e+11 1.028329405038108e+00 1.212940091588719e-02
1.493061224489800e+11 1.028100251408247e+00 1.065672364291555e-02
1.493469387755100e+11 1.028488045520465e+00 9.725950976720910e-03
1.493877551020400e+11 1.029058246490964e+00 9.123397617842297e-03
1.494285714285700e+11 1.029443354305827e+00 8.767535792055232e-03
1.494693877551000e+11 1.029032337796205e+00 7.166928507150399e-03
1.495102040816300e+11 1.029106484303370e+00 6.807993594695223e-03
1.495510204081600e+11 1.028216588896420e+00 4.482457086883559e-03
1.495918367346900e+11 1.028711410314610e+00 7.082968797330016e-03
1.496326530612200e+11 1.028699097412830e+00 8.687938720342304e-03
1.496734693877600e+11 1.028127510708957e+00 9.144554722306367e-03
1.497142857142900e+11 1.026948078241299e+00 7.531373216000615e-03
1.497551020408200e+11 1.027039436106912e+00 8.198790889276832e-03
1.497959183673500e+11 1.026583534940911e+00 8.571998015001286e-03
1.498367346938800e+11 1.026743127378262e+00 1.072939933840742e-02
1.498775510204100e+11 1.027044154641293e+00 1.148396738462869e-02
1.499183673469400e+11 1.027466362248031e+00 1.178828041272802e-02
1.499591836734700e+11 1.027925545964778e+00 1.346561599595053e-02
1.500000000000000e+11 1.028863222185620e+00 1.586180709888038e-02
1.500408163265300e+11 1.028787374740084e+00 1.523057147737171e-02
1.500816326530600e+11 1.028875529590780e+00 1.228320788758014e-02
1.501224489795900e+11 1.029734727096682e+00 1.104403641835688e-02
1.501632653061200e+11 1.030900628469401e+00 1.141815752658480e-02
1.502040816326500e+11 1.030745736015670e+00 8.575314174918412e-03
1.502448979591800e+11 1.030969142515558e+00 7.846238370096377e-03
1.502857142857100e+11 1.030864275739626e+00 6.120013729558724e-03
1.503265306122400e+11 1.031472495069070e+00 5.743493052881493e-03
1.503673469387800e+11 1.030473598077406e+00 3.133765433208349e-03
1.504081632653100e+11 1.030966573504861e+00 2.393182415907646e-03
1.504489795918400e+11 1.029839789543974e+00 -1.310453220208303e-03
1.504897959183700e+11 1.029598682138655e+00 -1.470581390180781e-03
1.505306122449000e+11 1.029286716856078e+00 -1.747912159844193e-03
1.505714285714300e+11 1.029148095694519e+00 -1.844880513819287e-03
1.506122448979600e+11 1.028603120745324e+00 -3.902522526110241e-03
1.506530612244900e+11 1.029179898203847e+00 -1.588028151188983e-03
1.506938775510200e+11 1.029827481251550e+00 -1.427999225415506e-03
1.507346938775500e+11 1.029368319322461e+00 -2.851527725082424e-03
1.507755102040800e+11 1.030119608456854e+00 -7.986830349158797e-04
1.508163265306100e+11 1.030132235643064e+00 -1.020195114763834e-03
1.508571428571400e+11 1.030025256347959e+00 -6.350393891774262e-04
1.508979591836700e+11 1.030710166761738e+00 3.636614516822037e-05
1.509387755102000e+11 1.031982966274662e+00 8.713282298297299e-04
1.509795918367300e+11 1.032122610826745e+00 7.918028264489142e-04
1.510204081632700e+11 1.031865678894769e+00 2.048665466233124e-03
1.510612244898000e+11 1.032164987977291e+00 7.875834304531005e-04
1.511020408163300e+11 1.032214326806784e+00 -2.908210353187806e-05
1.511428571428600e+11 1.032743133223201e+00 -4.380756492404246e-04
1.511836734693900e+11 1.032425767564019e+00 -4.314924531140216e-04
1.512244897959200e+11 1.031676624664693e+00 -4.495271906927390e-04
1.512653061224500e+11 1.032127080066964e+00 1.377890409089054e-03
1.513061224489800e+11 1.030990685941726e+00 -5.687614239217793e-05
1.513469387755100e+11 1.031140240054768e+00 -3.509125578317025e-05
1.513877551020400e+11 1.031068793647384e+00 1.667363997511406e-03
1.514285714285700e+11 1.031113251337659e+00 4.521212352025546e-03
1.514693877551000e+11 1.031115916412200e+00 6.081659547666422e-03
1.515102040816300e+11 1.031500253889812e+00 8.321747740483013e-03
1.515510204081600e+11 1.031504270561300e+00 7.564030917078891e-03
1.515918367346900e+11 1.031876133887110e+00 6.689995771553637e-03
1.516326530612200e+11 1.031813629430501e+00 7.406344101155979e-03
1.516734693877600e+11 1.032833284274375e+00 9.915385243679466e-03
1.517142857142900e+11 1.033716817237300e+00 1.083705614865851e-02
1.517551020408200e+11 1.033830563936936e+00 1.008076863511622e-02
1.517959183673500e+11 1.033949549654179e+00 8.545516214952274e-03
1.518367346938800e+11 1.033972582171887e+00 7.357343689021656e-03
1.518775510204100e+11 1.033836418418887e+00 8.225292069121658e-03
1.519183673469400e+11 1.033228392931115e+00 8.026469581822619e-03
1.519591836734700e+11 1.033025662657770e+00 8.465231016006347e-03
1.520000000000000e+11 1.033080924530764e+00 6.160365677857083e-03
1.520408163265300e+11 1.032554296560544e+00 5.622255213807970e-03
1.520816326530600e+11 1.031259452088041e+00 6.243880212796613e-03
1.521224489795900e+11 1.031510287165782e+00 7.177866980561358e-03
1.521632653061200e+11 1.031279380402395e+00 5.778300096319532e-03
1.522040816326500e+11 1.030464347013562e+00 8.143750710775102e-03
1.522448979591800e+11 1.030587674376172e+00 8.453095692052680e-03
1.522857142857100e+11 1.030220204138499e+00 8.504912593821868e-03
1.523265306122400e+11 1.030726885555358e+00 1.081942036017396e-02
1.523673469387800e+11 1.031060130623070e+00 1.241085535747883e-02
1.524081632653100e+11 1.031684054187306e+00 1.151965966481602e-02
1.524489795918400e+11 1.031710809367224e+00 1.428660401942140e-02
1.524897959183700e+11 1.031680127342678e+00 1.213397876043924e-02
1.525306122449000e+11 1.031242312575943e+00 1.055280604519051e-02
1.525714285714300e+11 1.031900711927425e+00 1.139636180621108e-02
1.526122448979600e+11 1.032050800165165e+00 1.203474482383933e-02
1.526530612244900e+11 1.032126203462905e+00 1.375998704781258e-02
1.526938775510200e+11 1.032553184876638e+00 1.263586691358758e-02
1.527346938775500e+11 1.031988978267371e+00 1.084792199669403e-02
1.527755102040800e+11 1.031732618061524e+00 1.092665403521663e-02
1.528163265306100e+11 1.031354607028654e+00 1.232907981792840e-02
1.528571428571400e+11 1.031443967918377e+00 1.537909913132193e-02
1.528979591836700e+11 1.031286829485825e+00 1.579022257972715e-02
1.529387755102000e+11 1.030180806357078e+00 1.540860788262007e-02
1.529795918367300e+11 1.029757664179106e+00 1.611940565195304e-02
1.530204081632700e+11 1.029545486037100e+00 1.885185058659982e-02
1.530612244898000e+11 1.029650378428734e+00 2.392053020303005e-02
1.531020408163300e+11 1.029628441730291e+00 2.399685688622459e-02
1.531428571428600e+11 1.029849455904062e+00 2.403450675130908e-02
1.531836734693900e+11 1.029210127427800e+00 2.740416841844876e-02
1.532244897959200e+11 1.030174253234488e+00 2.997706547965547e-02
1.532653061224500e+11 1.030765830120712e+00 3.309336451360566e-02
1.533061224489800e+11 1.030390559465158e+00 3.428870770545787e-02
1.533469387755100e+11 1.030745160400718e+00 3.519204849589003e-02
1.533877551020400e+11 1.031252071115933e+00 3.731538887723566e-02
1.534285714285700e+11 1.032037541390729e+00 3.994282464310050e-02
1.534693877551000e+11 1.032008156339259e+00 3.976774058205928e-02
1.535102040816300e+11 1.031223396907671e+00 3.934833128454234e-02
1.535510204081600e+11 1.031384533225383e+00 4.015704853322622e-02
1.535918367346900e+11 1.031639203316541e+00 4.110637599150872e-02
1.536326530612200e+11 1.031958243973961e+00 4.419610461153541e-02
1.536734693877600e+11 1.030891782371731e+00 4.467496098609548e-02
1.537142857142900e+11 1.031041705122496e+00 4.366045642363302e-02
1.537551020408200e+11 1.030617032601176e+00 4.351802854729665e-02
1.537959183673500e+11 1.030524763252958e+00 4.367808536265511e-02
1.538367346938800e+11 1.030323732403188e+00 4.454145201069559e-02
1.538775510204100e+11 1.030775913731775e+00 4.466798843135714e-02
1.539183673469400e+11 1.030847342250961e+00 4.460340271951874e-02
1.539591836734700e+11 1.031152317781510e+00 4.380798932099200e-02
1.540000000000000e+11 1.031021305137825e+00 4.416036130440480e-02
1.540408163265300e+11 1.031135339055956e+00 4.592758058679762e-02
1.540816326530600e+11 1.032032530129266e+00 4.415452304355065e-02
1.541224489795900e+11 1.032559938898727e+00 4.465191958012744e-02
1.541632653061200e+11 1.032010280248082e+00 4.187264639335760e-02
1.542040816326500e+11 1.032564916851561e+00 4.279386881152478e-02
1.542448979591800e+11 1.032241444310152e+00 4.577004278612715e-02
1.542857142857100e+11 1.032522973403379e+00 4.712923339841350e-02
1.543265306122400e+11 1.032012430389010e+00 4.725492824487672e-02
1.543673469387800e+11 1.031511489271171e+00 4.816276047298072e-02
1.544081632653100e+11 1.031283270119106e+00 5.009461639075465e-02
1.544489795918400e+11 1.031401449188046e+00 5.394872183440720e-02
1.544897959183700e+11 1.030905680047299e+00 5.511683542390650e-02
1.545306122449000e+11 1.030184787526134e+00 5.717307226501447e-02
1.545714285714300e+11 1.030545155028779e+00 5.898034189836928e-02
1.546122448979600e+11 1.030601010709345e+00 6.287735560277220e-02
1.546530612244900e+11 1.030739431812512e+00 6.564721873925156e-02
1.546938775510200e+11 1.030747761631954e+00 6.799960284191345e-02
1.547346938775500e+11 1.031636692866555e+00 7.246147997157792e-02
1.547755102040800e+11 1.032082970287787e+00 7.316351910474195e-02
1.548163265306100e+11 1.032014708227152e+00 7.241355925953834e-02
1.548571428571400e+11 1.032752736970567e+00 7.196937316948031e-02
1.548979591836700e+11 1.033315621895300e+00 7.442647928048285e-02
1.549387755102000e+11 1.034342635897704e+00 7.742887052852530e-02
1.549795918367300e+11 1.034522962900558e+00 7.789065794551596e-02
1.550204081632700e+11 1.034826700532757e+00 7.702138611995765e-02
1.550612244898000e+11 1.035203912004426e+00 7.733156025308953e-02
1.551020408163300e+11 1.035661591168526e+00 7.490366470512792e-02
1.551428571428600e+11 1.035384049974167e+00 7.516401230190016e-02
1.551836734693900e+11 1.035908524907868e+00 7.287018132662845e-02
1.552244897959200e+11 1.035409219187603e+00 7.187353261675102e-02
1.552653061224500e+11 1.035617335938501e+00 7.594993412742666e-02
1.553061224489800e+11 1.036071812770922e+00 7.255002317596862e-02
1.553469387755100e+11 1.036051634036375e+00 7.217871677171817e-02
1.553877551020400e+11 1.036089558340775e+00 7.257861815308564e-02
1.554285714285700e+11 1.036654218818569e+00 7.219924126543290e-02
1.554693877551000e+11 1.037446646085686e+00 7.187353229054914e-02
1.555102040816300e+11 1.037622501275570e+00 6.938805144284239e-02
1.555510204081600e+11 1.038186563754183e+00 6.912830623055524e-02
1.555918367346900e+11 1.038156138492507e+00 7.060652058398302e-02
1.556326530612200e+11 1.038683464166745e+00 7.090334470420206e-02
1.556734693877600e+11 1.039075743751350e+00 7.081246127014759e-02
1.557142857142900e+11 1.038897379494362e+00 7.117472424701110e-02
1.557551020408200e+11 1.038857620606418e+00 7.087963004630306e-02
1.557959183673500e+11 1.039191629468746e+00 7.306780241276332e-02
1.558367346938800e+11 1.039167120130873e+00 7.378751712234037e-02
1.558775510204100e+11 1.038952257768431e+00 7.580806493453959e-02
1.559183673469400e+11 1.038668693759000e+00 7.418461331982196e-02
1.559591836734700e+11 1.038388179529788e+00 7.269276516082142e-02
1.560000000000000e+11 1.038709595124529e+00 7.554185139334053e-02
1.560408163265300e+11 1.039348541139522e+00 7.901054160968198e-02
1.560816326530600e+11 1.038628342833551e+00 7.856819387836779e-02
1.561224489795900e+11 1.037783779182047e+00 7.362272755427746e-02
1.561632653061200e+11 1.038017166093393e+00 7.468171735493473e-02
1.562040816326500e+11 1.038948575006954e+00 7.910955934211140e-02
1.562448979591800e+11 1.040082092201187e+00 7.979332345216815e-02
1.562857142857100e+11 1.041014994085775e+00 7.767208226961148e-02
1.563265306122400e+11 1.041265506232256e+00 7.285053618704890e-02
1.563673469387800e+11 1.041532853142918e+00 7.310444531750528e-02
1.564081632653100e+11 1.042909985673590e+00 7.405666262100645e-02
1.564489795918400e+11 1.042869344734236e+00 7.245724081457657e-02
1.564897959183700e+11 1.043445142676107e+00 7.198410173326313e-02
1.565306122449000e+11 1.043452168826479e+00 6.827800676342030e-02
1.565714285714300e+11 1.044220062023903e+00 6.391225652338670e-02
1.566122448979600e+11 1.044742546463225e+00 6.202266030481605e-02
1.566530612244900e+11 1.045163832045015e+00 5.917055253577686e-02
1.566938775510200e+11 1.045156084255774e+00 5.875551916016087e-02
1.567346938775500e+11 1.044945063053079e+00 5.812082592253629e-02
1.567755102040800e+11 1.044775175219786e+00 5.560647709768056e-02
1.568163265306100e+11 1.044814902462469e+00 5.363015664075495e-02
1.568571428571400e+11 1.044628633357676e+00 5.523902890693275e-02
1.568979591836700e+11 1.044582638495158e+00 5.805472349517426e-02
1.569387755102000e+11 1.044631979237040e+00 5.661547795323273e-02
1.569795918367300e+11 1.044625295857365e+00 5.279848421454642e-02
1.570204081632700e+11 1.044680065675288e+00 4.953412987140901e-02
1.570612244898000e+11 1.045338701384527e+00 4.973574097596503e-02
1.571020408163300e+11 1.045929278717171e+00 5.396685872815091e-02
1.571428571428600e+11 1.047059922912665e+00 5.540669098455272e-02
1.571836734693900e+11 1.047142852988907e+00 5.228480558610094e-02
1.572244897959200e+11 1.047668628383163e+00 4.923682007205463e-02
1.572653061224500e+11 1.048060201617079e+00 4.692090072927874e-02
1.573061224489800e+11 1.048737604515981e+00 4.801950265335545e-02
1.573469387755100e+11 1.049376255058456e+00 4.796842731418322e-02
1.573877551020400e+11 1.049388780427037e+00 4.375137008058023e-02
1.574285714285700e+11 1.049560097141652e+00 4.131025784880027e-02
1.574693877551000e+11 1.049056036562162e+00 3.913796766607637e-02
1.575102040816300e+11 1.048756048149787e+00 3.964926731315310e-02
1.575510204081600e+11 1.048957453417994e+00 3.861536313825689e-02
1.575918367346900e+11 1.048697025116848e+00 3.728651623367737e-02
1.576326530612200e+11 1.047807046613011e+00 3.406410056018808e-02
1.576734693877600e+11 1.047580157213989e+00 3.655214755882241e-02
1.577142857142900e+11 1.047053653105209e+00 3.620573107669578e-02
1.577551020408200e+11 1.047623187290786e+00 3.386040400463073e-02
1.577959183673500e+11 1.047238756299939e+00 3.284865347319469e-02
1.578367346938800e+11 1.047677469879769e+00 3.169389339932884e-02
1.578775510204100e+11 1.048066031968056e+00 3.150809063548973e-02
1.579183673469400e+11 1.048570861477645e+00 3.072358386063969e-02
1.579591836734700e+11 1.049606859148997e+00 3.170287560491563e-02
1.580000000000000e+11 1.050325515149856e+00 3.050288619573095e-02
1.580408163265300e+11 1.050855987808188e+00 2.637617421030701e-02
1.580816326530600e+11 1.052079484857314e+00 2.417562502715845e-02
1.581224489795900e+11 1.052100653148607e+00 1.963996435244102e-02
1.581632653061200e+11 1.051765616436067e+00 2.122542753181812e-02
1.582040816326500e+11 1.051465650823805e+00 1.896431600340514e-02
1.582448979591800e+11 1.052171452725916e+00 1.558764016179786e-02
1.582857142857100e+11 1.051932798853130e+00 1.519640635853534e-02
1.583265306122400e+11 1.051055315152646e+00 1.335461507620875e-02
1.583673469387800e+11 1.049697190542534e+00 1.256189015486113e-02
1.584081632653100e+11 1.049761213800170e+00 1.282016207100125e-02
1.584489795918400e+11 1.049623344946980e+00 1.377075677981418e-02
1.584897959183700e+11 1.048576147778283e+00 1.324046376319516e-02
1.585306122449000e+11 1.048374672014076e+00 1.297837248624394e-02
1.585714285714300e+11 1.048448635399313e+00 1.326114344219629e-02
1.586122448979600e+11 1.049180359921359e+00 1.268425793908080e-02
1.586530612244900e+11 1.049721658234804e+00 1.291006745945304e-02
1.586938775510200e+11 1.050792173143778e+00 1.404764266691570e-02
1.587346938775500e+11 1.051846988271422e+00 9.523065425074834e-03
1.587755102040800e+11 1.052290628505699e+00 6.727504698631841e-03
1.588163265306100e+11 1.053213713688987e+00 7.038748204789044e-03
1.588571428571400e+11 1.053822726356567e+00 4.654578771434634e-03
1.588979591836700e+11 1.054619521180060e+00 2.097502779194162e-03
1.589387755102000e+11 1.054641757330126e+00 -1.636042478171385e-03
1.589795918367300e+11 1.055187100792913e+00 -4.752928773919428e-03
1.590204081632700e+11 1.055078898158042e+00 -6.743935132800576e-03
1.590612244898000e+11 1.054968255080189e+00 -8.675192266423104e-03
1.591020408163300e+11 1.053501564734207e+00 -1.042104640486949e-02
1.591428571428600e+11 1.053292108150220e+00 -1.184538012044503e-02
1.591836734693900e+11 1.052910638110293e+00 -1.401618389991861e-02
1.592244897959200e+11 1.051971040658974e+00 -1.361051260428228e-02
1.592653061224500e+11 1.050527342102268e+00 -1.272555053474003e-02
1.593061224489800e+11 1.050430860528487e+00 -1.163124916316340e-02
1.593469387755100e+11 1.051767032734087e+00 -8.963974045310233e-03
1.593877551020400e+11 1.051655373568586e+00 -1.002493697599657e-02
1.594285714285700e+11 1.051458500215249e+00 -9.275006399831066e-03
1.594693877551000e+11 1.050998337371402e+00 -7.074442837781267e-03
1.595102040816300e+11 1.051358450229505e+00 -3.978668289842334e-03
1.595510204081600e+11 1.051328864845456e+00 -4.577352407866164e-03
1.595918367346900e+11 1.051464544583713e+00 -4.785117192320340e-03
1.596326530612200e+11 1.051783229734762e+00 -4.596815650097201e-03
1.596734693877600e+11 1.051979512002455e+00 -2.842399068229660e-03
1.597142857142900e+11 1.051874617026768e+00 -4.356508631273949e-03
1.597551020408200e+11 1.051932619669227e+00 -4.531793995035772e-03
1.597959183673500e+11 1.051740406226173e+00 -6.269881212104014e-03
1.598367346938800e+11 1.052434959024037e+00 -5.135661753232379e-03
1.598775510204100e+11 1.051982261063924e+00 -6.574204052936905e-03
1.599183673469400e+11 1.051674809435262e+00 -9.765153868383836e-03
1.599591836734700e+11 1.050814661685537e+00 -1.308280515733613e-02
1.600000000000000e+11 1.050309618144098e+00 -1.412076472381259e-02
1.600408163265300e+11 1.049047999412824e+00 -1.698081585858733e-02
1.600816326530600e+11 1.049151013325679e+00 -1.592331464414497e-02
1.601224489795900e+11 1.048340685309743e+00 -1.827689945049311e-02
1.601632653061200e+11 1.047713560724252e+00 -1.851449493362209e-02
1.602040816326500e+11 1.047503902177607e+00 -2.008979580488194e-02
1.602448979591800e+11 1.047605188555943e+00 -2.134625427904416e-02
1.602857142857100e+11 1.047701278514157e+00 -2.138417677668188e-02
1.603265306122400e+11 1.047959786425839e+00 -2.105381692661559e-02
1.603673469387800e+11 1.047933744454770e+00 -2.239859139174917e-02
1.604081632653100e+11 1.048242662289207e+00 -2.380805569707113e-02
1.604489795918400e+11 1.048524047161349e+00 -2.327882632434460e-02
1.604897959183700e+11 1.048283640021048e+00 -2.486534488725933e-02
1.605306122449000e+11 1.048319785363677e+00 -2.466871978256786e-02
1.605714285714300e+11 1.048530830831178e+00 -2.787267330327821e-02
1.606122448979600e+11 1.047551487525843e+00 -2.775141718824436e-02
1.606530612244900e+11 1.047283572387943e+00 -2.558744488553788e-02
1.606938775510200e+11 1.046888229449057e+00 -2.619791948513073e-02
1.607346938775500e+11 1.046427045024936e+00 -2.512616699425798e-02
1.607755102040800e+11 1.045515037820814e+00 -2.295073530951863e-02
1.608163265306100e+11 1.045507930020220e+00 -1.784070902852236e-02
1.608571428571400e+11 1.044346293464807e+00 -1.357389421412938e-02
1.608979591836700e+11 1.042981354151255e+00 -9.968076250325799e-03
1.609387755102000e+11 1.041588934792704e+00 -7.955575463382559e-03
1.609795918367300e+11 1.041115657996498e+00 -8.858215756692611e-04
1.610204081632700e+11 1.040891633933331e+00 4.584481920823387e-03
1.610612244898000e+11 1.041731756051447e+00 1.328824162018448e-02
1.611020408163300e+11 1.042150821206882e+00 1.674462871811935e-02
1.611428571428600e+11 1.042283046019146e+00 2.090545968794976e-02
1.611836734693900e+11 1.042972822618341e+00 2.479393809120899e-02
1.612244897959200e+11 1.043813109520117e+00 2.903612379122420e-02
1.612653061224500e+11 1.044325223456427e+00 3.028774046344501e-02
1.613061224489800e+11 1.044582509259148e+00 3.118884811063844e-02
1.613469387755100e+11 1.044885361790084e+00 3.107717499567476e-02
1.613877551020400e+11 1.045303653402649e+00 2.996668815051522e-02
1.614285714285700e+11 1.046105489806695e+00 3.011991885864435e-02
1.614693877551000e+11 1.046332862624203e+00 3.080012283214640e-02
1.615102040816300e+11 1.046370126271063e+00 2.906649678163681e-02
1.615510204081600e+11 1.046095902483610e+00 2.813715084188883e-02
1.615918367346900e+11 1.046198378007160e+00 2.733927470084276e-02
1.616326530612200e+11 1.045081493405206e+00 2.530411837863808e-02
1.616734693877600e+11 1.043764820844920e+00 2.260515277384698e-02
1.617142857142900e+11 1.043372564490366e+00 2.189528845182724e-02
1.617551020408200e+11 1.042301502716334e+00 2.381260982616972e-02
1.617959183673500e+11 1.041987422359121e+00 2.590280641575003e-02
1.618367346938800e+11 1.041204449036724e+00 2.593936586953167e-02
1.618775510204100e+11 1.040281703602191e+00 2.664815162356120e-02
1.619183673469400e+11 1.039870735901918e+00 2.952093793763203e-02
1.619591836734700e+11 1.040735103480140e+00 3.122527068386171e-02
1.620000000000000e+11 1.041592012483537e+00 3.528170523723139e-02
1.620408163265300e+11 1.042135821412337e+00 3.773094971780145e-02
1.620816326530600e+11 1.042157087249605e+00 3.880301654117388e-02
1.621224489795900e+11 1.042391065598109e+00 3.983529200361868e-02
1.621632653061200e+11 1.042980870586657e+00 4.274791620688175e-02
1.622040816326500e+11 1.042582807438714e+00 4.527961641184557e-02
1.622448979591800e+11 1.042898040330236e+00 4.904346817614617e-02
1.622857142857100e+11 1.042482060610058e+00 5.441436077467654e-02
1.623265306122400e+11 1.041805924069727e+00 5.646590040804791e-02
1.623673469387800e+11 1.040681784433086e+00 5.808911965303731e-02
1.624081632653100e+11 1.040096574446868e+00 5.998409871745824e-02
1.624489795918400e+11 1.038929363091547e+00 6.672504105015992e-02
1.624897959183700e+11 1.037624703353782e+00 7.265116034356578e-02
1.625306122449000e+11 1.035955446208624e+00 7.715037640401001e-02
1.625714285714300e+11 1.034665094078797e+00 8.043247739722054e-02
1.626122448979600e+11 1.034067039970129e+00 8.345784983304853e-02
1.626530612244900e+11 1.034017037975219e+00 9.118371710591620e-02
1.626938775510200e+11 1.033648791978849e+00 9.686490600354168e-02
1.627346938775500e+11 1.032981979586827e+00 9.935059874569187e-02
1.627755102040800e+11 1.033170779868827e+00 1.009590426686434e-01
1.628163265306100e+11 1.033811619643259e+00 1.053409009542897e-01
1.628571428571400e+11 1.034521922491402e+00 1.081004785087410e-01
1.628979591836700e+11 1.034889508441078e+00 1.100926665920925e-01
1.629387755102000e+11 1.035638813327324e+00 1.123264181979931e-01
1.629795918367300e+11 1.036383539600566e+00 1.166077744434700e-01
1.630204081632700e+11 1.036743066592376e+00 1.143749645587959e-01
1.630612244898000e+11 1.037167525994914e+00 1.144157887804260e-01
1.631020408163300e+11 1.036840100690160e+00 1.145255278653492e-01
1.631428571428600e+11 1.036471382049269e+00 1.161106997210127e-01
1.631836734693900e+11 1.036393423558029e+00 1.174277156726039e-01
1.632244897959200e+11 1.036049045001000e+00 1.176333599021351e-01
1.632653061224500e+11 1.035910300396620e+00 1.188912001586033e-01
1.633061224489800e+11 1.035014192018366e+00 1.184365026283153e-01
1.633469387755100e+11 1.035373071627153e+00 1.196699977812957e-01
1.633877551020400e+11 1.035078532892859e+00 1.203525531179094e-01
1.634285714285700e+11 1.034794482125899e+00 1.214298150201625e-01
1.634693877551000e+11 1.034910682232730e+00 1.224441587784895e-01
1.635102040816300e+11 1.035164342042433e+00 1.244252293188751e-01
1.635510204081600e+11 1.035138576248465e+00 1.244356638736698e-01
1.635918367346900e+11 1.034919210644448e+00 1.251316704158944e-01
1.636326530612200e+11 1.034819043432288e+00 1.269262749903867e-01
1.636734693877600e+11 1.035954673268675e+00 1.298497188123069e-01
1.637142857142900e+11 1.036635084464407e+00 1.313576099561177e-01
1.637551020408200e+11 1.037201261365798e+00 1.278364731732335e-01
1.637959183673500e+11 1.037631453117329e+00 1.278655175556037e-01
1.638367346938800e+11 1.037956880475468e+00 1.309977853889212e-01
1.638775510204100e+11 1.038911900342314e+00 1.329516179657611e-01
1.639183673469400e+11 1.038156909713541e+00 1.323149583308514e-01
1.639591836734700e+11 1.037347933495882e+00 1.293082326337147e-01
1.640000000000000e+11 1.036983978691971e+00 1.288383585754272e-01
1.640408163265300e+11 1.036550069173312e+00 1.308823505821010e-01
1.640816326530600e+11 1.035596754819004e+00 1.335027647534832e-01
1.641224489795900e+11 1.034351956071379e+00 1.338443152046119e-01
1.641632653061200e+11 1.033592670901730e+00 1.357734468494896e-01
1.642040816326500e+11 1.032694060796596e+00 1.400140002909387e-01
1.642448979591800e+11 1.031955021909171e+00 1.438191811599042e-01
1.642857142857100e+11 1.030798321406110e+00 1.483657599692383e-01
1.643265306122400e+11 1.030016151753639e+00 1.489000685881844e-01
1.643673469387800e+11 1.030323044140165e+00 1.528725757205408e-01
1.644081632653100e+11 1.030834089364466e+00 1.588390350332031e-01
1.644489795918400e+11 1.030238544334815e+00 1.614948305165984e-01
1.644897959183700e+11 1.030821084894835e+00 1.621655672047496e-01
1.645306122449000e+11 1.031032267728637e+00 1.618853381363485e-01
1.645714285714300e+11 1.030916885130489e+00 1.661525054824900e-01
1.646122448979600e+11 1.030799296910955e+00 1.705484935061106e-01
1.646530612244900e+11 1.031069973298370e+00 1.727653243716257e-01
1.646938775510200e+11 1.031260011769204e+00 1.758602014834993e-01
1.647346938775500e+11 1.031364716102447e+00 1.757264998665443e-01
1.647755102040800e+11 1.031495587281434e+00 1.758960283318397e-01
1.648163265306100e+11 1.032135357482479e+00 1.780140649355952e-01
1.648571428571400e+11 1.032313735331689e+00 1.762225450109042e-01
1.648979591836700e+11 1.032355075002550e+00 1.795359624496314e-01
1.649387755102000e+11 1.032666807728726e+00 1.802134960932533e-01
1.649795918367300e+11 1.032983687915881e+00 1.787931236104909e-01
1.650204081632700e+11 1.033028357550793e+00 1.779237293997508e-01
1.650612244898000e+11 1.033205456016047e+00 1.771971555288165e-01
1.651020408163300e+11 1.034627361007521e+00 1.757236181896380e-01
1.651428571428600e+11 1.036294990604505e+00 1.740632800337504e-01
1.651836734693900e+11 1.036633624888286e+00 1.728354500265637e-01
1.652244897959200e+11 1.038018802931471e+00 1.737347795531992e-01
1.652653061224500e+11 1.040023438978214e+00 1.702187779362384e-01
1.653061224489800e+11 1.041796969634232e+00 1.666489222537125e-01
1.653469387755100e+11 1.043657096031241e+00 1.629858995025185e-01
1.653877551020400e+11 1.045278008150933e+00 1.583615626702612e-01
1.654285714285700e+11 1.047372518533876e+00 1.557231102977014e-01
1.654693877551000e+11 1.048710412810108e+00 1.527654954456895e-01
1.655102040816300e+11 1.049817179349656e+00 1.508260399461250e-01
1.655510204081600e+11 1.050208431011028e+00 1.478372443810279e-01
1.655918367346900e+11 1.050478446521469e+00 1.460752051172224e-01
1.656326530612200e+11 1.050304307936838e+00 1.412345397634419e-01
1.656734693877600e+11 1.050165282284892e+00 1.397872165432087e-01
1.657142857142900e+11 1.049271776437301e+00 1.408404880540353e-01
1.657551020408200e+11 1.047806426166036e+00 1.406150116062996e-01
1.657959183673500e+11 1.046894325488499e+00 1.427488814417582e-01
1.658367346938800e+11 1.046336173875587e+00 1.443595315737017e-01
1.658775510204100e+11 1.045704894194614e+00 1.459352111050260e-01
1.659183673469400e+11 1.045408032581645e+00 1.493402027754236e-01
1.659591836734700e+11 1.045198893322330e+00 1.551994754249860e-01
1.660000000000000e+11 1.045140741225044e+00 1.598353784012829e-01
1.660408163265300e+11 1.045180706667284e+00 1.646516594844911e-01
1.660816326530600e+11 1.045982127067584e+00 1.678060777800658e-01
1.661224489795900e+11 1.047237241715065e+00 1.678310533174472e-01
1.661632653061200e+11 1.048397987975279e+00 1.690731509555008e-01
1.662040816326500e+11 1.049045995681907e+00 1.677345080362740e-01
1.662448979591800e+11 1.049683128085274e+00 1.703705787326343e-01
1.662857142857100e+11 1.050724915353021e+00 1.713424851185431e-01
1.663265306122400e+11 1.051804322803837e+00 1.691435058083157e-01
1.663673469387800e+11 1.052816347797720e+00 1.694387591708929e-01
1.664081632653100e+11 1.052750275156935e+00 1.663449603008820e-01
1.664489795918400e+11 1.052483951079634e+00 1.628390834424785e-01
1.664897959183700e+11 1.053558150617984e+00 1.607115816417335e-01
1.665306122449000e+11 1.054911910333436e+00 1.594668860077391e-01
1.665714285714300e+11 1.055892719633214e+00 1.552959268228275e-01
1.666122448979600e+11 1.056098577799251e+00 1.533820304851897e-01
1.666530612244900e+11 1.056631172078725e+00 1.528970917493910e-01
1.666938775510200e+11 1.057822013734245e+00 1.520458405064651e-01
1.667346938775500e+11 1.058642176626528e+00 1.499263518742108e-01
1.667755102040800e+11 1.059470873669311e+00 1.479866534876516e-01
1.668163265306100e+11 1.060981677951618e+00 1.455632240236757e-01
1.668571428571400e+11 1.062886247793434e+00 1.439669183381900e-01
1.668979591836700e+11 1.064626788391093e+00 1.416516385856736e-01
1.669387755102000e+11 1.065455494617785e+00 1.365852561175235e-01
1.669795918367300e+11 1.066702204291264e+00 1.329622455075717e-01
1.670204081632700e+11 1.067907537382892e+00 1.318079175431981e-01
1.670612244898000e+11 1.068281119954941e+00 1.268293290422997e-01
1.671020408163300e+11 1.068569178372100e+00 1.251277191738999e-01
1.671428571428600e+11 1.068937739134447e+00 1.196105743074508e-01
1.671836734693900e+11 1.069136834644274e+00 1.197242143771828e-01
1.672244897959200e+11 1.068847674939611e+00 1.178151100800916e-01
1.672653061224500e+11 1.068651065566337e+00 1.151511525429994e-01
1.673061224489800e+11 1.068152840199954e+00 1.112173056204071e-01
1.673469387755100e+11 1.067533583620172e+00 1.096797745537382e-01
1.673877551020400e+11 1.067281234436664e+00 1.109970039049874e-01
1.674285714285700e+11 1.066580201693453e+00 1.115048462088526e-01
1.674693877551000e+11 1.066328357503377e+00 1.085724045081004e-01
1.675102040816300e+11 1.066757577260509e+00 1.071151899099605e-01
1.675510204081600e+11 1.066466937310739e+00 1.042941519610426e-01
1.675918367346900e+11 1.066700911850691e+00 1.048722963236640e-01
1.676326530612200e+11 1.066891655647939e+00 1.070145007940011e-01
1.676734693877600e+11 1.067192500634539e+00 1.071735930739273e-01
1.677142857142900e+11 1.068172743006010e+00 1.052893776101949e-01
1.677551020408200e+11 1.069043561935640e+00 1.032605059506101e-01
1.677959183673500e+11 1.069884989247855e+00 1.014013941629517e-01
1.678367346938800e+11 1.070642103999855e+00 1.009352670272415e-01
1.678775510204100e+11 1.071130657241751e+00 1.005461185026458e-01
1.679183673469400e+11 1.071540137861320e+00 9.778407998010361e-02
1.679591836734700e+11 1.072254489245005e+00 9.421207399889082e-02
1.680000000000000e+11 1.073365864803602e+00 9.276858589848105e-02
1.680408163265300e+11 1.073539028981934e+00 9.003885517272599e-02
1.680816326530600e+11 1.073261608402612e+00 8.614394542606003e-02
1.681224489795900e+11 1.072494147216116e+00 8.218117517390244e-02
1.681632653061200e+11 1.070952179817706e+00 8.131292107416684e-02
1.682040816326500e+11 1.070570406641866e+00 8.268816669481872e-02
1.682448979591800e+11 1.069984558832016e+00 8.338802799539648e-02
1.682857142857100e+11 1.068871665292471e+00 8.360968583260663e-02
1.683265306122400e+11 1.067921444487164e+00 8.439875237245102e-02
1.683673469387800e+11 1.067465347103506e+00 8.527925576504228e-02
1.684081632653100e+11 1.067239514604472e+00 8.687927631321929e-02
1.684489795918400e+11 1.067362954453724e+00 8.737283234000891e-02
1.684897959183700e+11 1.067193069499219e+00 9.004826702886051e-02
1.685306122449000e+11 1.067155709943094e+00 9.028127982856866e-02
1.685714285714300e+11 1.067438633284319e+00 8.960616674948581e-02
1.686122448979600e+11 1.068245981487844e+00 8.818273808466404e-02
1.686530612244900e+11 1.068696156954489e+00 8.661534038934307e-02
1.686938775510200e+11 1.069220790740189e+00 8.645467415566473e-02
1.687346938775500e+11 1.069340969900787e+00 8.386995910710439e-02
1.687755102040800e+11 1.069333348971736e+00 7.908544635510611e-02
1.688163265306100e+11 1.069658800932519e+00 7.459751500889600e-02
1.688571428571400e+11 1.070159937163519e+00 7.220754758347719e-02
1.688979591836700e+11 1.069615497811658e+00 6.811623330895113e-02
1.689387755102000e+11 1.069192090581339e+00 6.321301745158753e-02
1.689795918367300e+11 1.069433503590885e+00 6.075009895437038e-02
1.690204081632700e+11 1.069464003938738e+00 5.650599920758354e-02
1.690612244898000e+11 1.069162921599682e+00 5.370541803816465e-02
1.691020408163300e+11 1.068171498461427e+00 5.097182679778604e-02
1.691428571428600e+11 1.067651602457365e+00 4.916550684831717e-02
1.691836734693900e+11 1.067561108285209e+00 4.618990587557474e-02
1.692244897959200e+11 1.067389976901568e+00 4.407927188738434e-02
1.692653061224500e+11 1.066431581094450e+00 4.123199500523397e-02
1.693061224489800e+11 1.066005430674464e+00 4.313326903497570e-02
1.693469387755100e+11 1.065504598080775e+00 4.194717688918188e-02
1.693877551020400e+11 1.064470202579660e+00 4.151025595096593e-02
1.694285714285700e+11 1.064121235609957e+00 4.103872115609939e-02
1.694693877551000e+11 1.063918071736355e+00 4.106239826026650e-02
1.695102040816300e+11 1.063763939262262e+00 4.309337711944392e-02
1.695510204081600e+11 1.062987220164348e+00 4.344957352827709e-02
1.695918367346900e+11 1.062363486777895e+00 4.533325291500893e-02
1.696326530612200e+11 1.061724723257232e+00 4.587498783136603e-02
1.696734693877600e+11 1.060826121828607e+00 4.534988698615459e-02
1.697142857142900e+11 1.060313246269480e+00 4.587903733571937e-02
1.697551020408200e+11 1.059307684011556e+00 4.609505730869062e-02
1.697959183673500e+11 1.058209256445441e+00 4.665008274224677e-02
1.698367346938800e+11 1.057554753939395e+00 5.055590551414906e-02
1.698775510204100e+11 1.056534908380800e+00 5.404724545366599e-02
1.699183673469400e+11 1.055982801720974e+00 5.685026478131161e-02
1.699591836734700e+11 1.055233868450020e+00 5.831162558605939e-02
1.700000000000000e+11 1.055045077259691e+00 6.109682723104154e-02
