! Generated by Phase I extraction
# Hz S RI R 50
1.100000000000000e+11 9.996037968831601e-01 3.571281419232220e-02
1.100408163265300e+11 1.004580576693794e+00 5.541495953510840e-02
1.100816326530600e+11 1.002412636810404e+00 6.173649464773155e-02
1.101224489795900e+11 1.005082910766910e+00 6.891013317979053e-02
1.101632653061200e+11 1.003665492410960e+00 8.364394790592870e-02
1.102040816326500e+11 1.001580411732345e+00 8.657023116665802e-02
1.102448979591800e+11 1.001223114823700e+00 8.801157689342388e-02
1.102857142857100e+11 1.000940841969062e+00 8.854581055137606e-02
1.103265306122400e+11 1.000515990733847e+00 8.921095236364557e-02
1.103673469387800e+11 9.999826403516427e-01 9.023402562286267e-02
1.104081632653100e+11 1.000278672491543e+00 9.102480199655606e-02
1.104489795918400e+11 9.999787460941961e-01 9.134040139485079e-02
1.104897959183700e+11 9.996738191382776e-01 9.173947544559810e-02
1.105306122449000e+11 9.997733835864342e-01 9.119913782080429e-02
1.105714285714300e+11 9.994309985077448e-01 9.219466141367723e-02
1.106122448979600e+11 1.000810478556552e+00 9.252197781474195e-02
1.106530612244900e+11 1.000490062445298e+00 9.015191986109931e-02
1.106938775510200e+11 9.999316026465617e-01 9.061912304200383e-02
1.107346938775500e+11 9.998791674954196e-01 9.059038141757651e-02
1.107755102040800e+11 9.998975949959833e-01 9.069002285096751e-02
1.108163265306100e+11 1.000459803408926e+00 9.035505323177190e-02
1.108571428571400e+11 1.000530638268541e+00 8.987290684673056e-02
1.108979591836700e+11 1.000550579862212e+00 9.018818533532269e-02
1.109387755102000e+11 1.000565924468758e+00 8.993450882395858e-02
1.109795918367300e+11 1.000629633755744e+00 9.010964336971908e-02
1.110204081632700e+11 1.000264752562417e+00 9.062495042255966e-02
1.110612244898000e+11 1.000365146709591e+00 9.083111252089639e-02
1.111020408163300e+11 1.000735056834099e+00 9.112594484524716e-02
1.111428571428600e+11 1.000967708078190e+00 9.105995977603690e-02
1.111836734693900e+11 1.001063251150894e+00 9.089581262858851e-02
1.112244897959200e+11 1.000848072506031e+00 9.133709725094585e-02
1.112653061224500e+11 1.000707430310460e+00 9.162623870563541e-02
1.113061224489800e+11 1.000759323181027e+00 9.171543599890150e-02
1.113469387755100e+11 1.000923447759472e+00 9.116331080378731e-02
1.113877551020400e+11 1.000991551985983e+00 9.044803082660664e-02
1.114285714285700e+11 1.000892523259224e+00 9.033482976310342e-02
1.114693877551000e+11 1.000710061939642e+00 9.024712162911576e-02
1.115102040816300e+11 1.000676218767310e+00 9.025905908593550e-02
1.115510204081600e+11 1.000532142121148e+00 9.029548739342198e-02
1.115918367346900e+11 1.000533646041083e+00 9.013627446947112e-02
1.116326530612200e+11 1.000309138549252e+00 9.032087481601110e-02
1.116734693877600e+11 1.000335783146539e+00 9.007164029394457e-02
1.117142857142900e+11 1.000378672405350e+00 8.975147705764946e-02
1.117551020408200e+11 1.000476212219391e+00 9.012435927962982e-02
1.117959183673500e+11 1.000317401151236e+00 9.044512988561743e-02
1.118367346938800e+11 1.000224362497321e+00 9.050997760427895e-02
1.118775510204100e+11 1.000269289715141e+00 9.031349126293212e-02
1.119183673469400e+11 1.000275376561545e+00 9.020842645216018e-02
1.119591836734700e+11 1.000269375249733e+00 9.084496900373987e-02
1.120000000000000e+11 9.975074537339098e-01 9.331324066064535e-02
1.120408163265300e+11 9.959664116218150e-01 9.534817307809358e-02
1.120816326530600e+11 9.958626402590260e-01 9.594147325820795e-02
1.121224489795900e+11 9.953897863194898e-01 9.618534965927618e-02
1.121632653061200e+11 9.941138070404968e-01 9.741927817445929e-02
1.122040816326500e+11 9.929309599708169e-01 9.879359339582393e-02
1.122448979591800e+11 9.916137922945845e-01 1.000642914392379e-01
1.122857142857100e+11 9.907436449754936e-01 1.004953277432785e-01
1.123265306122400e+11 9.901040968087089e-01 1.012089588344109e-01
1.123673469387800e+11 9.899707609982816e-01 1.014006059383902e-01
1.124081632653100e+11 9.893569302801627e-01 1.021792581001017e-01
1.124489795918400e+11 9.885544399710181e-01 1.032720467882418e-01
1.124897959183700e+11 9.880982829479502e-01 1.035187829720780e-01
1.125306122449000e+11 9.878252106750528e-01 1.036815323274832e-01
1.125714285714300e+11 9.874620900076695e-01 1.038552270750931e-01
1.126122448979600e+11 9.867252680455593e-01 1.042083809913273e-01
1.126530612244900e+11 9.859344834921526e-01 1.046915742175863e-01
1.126938775510200e+11 9.852379038075898e-01 1.050147939417988e-01
1.127346938775500e+11 9.844669844060574e-01 1.055335447748069e-01
1.127755102040800e+11 9.837603916145937e-01 1.058871968562143e-01
1.128163265306100e+11 9.822147536894484e-01 1.065223424296715e-01
1.128571428571400e+11 9.809698760620261e-01 1.073096796750527e-01
1.128979591836700e+11 9.803273155757400e-01 1.073656768721548e-01
1.129387755102000e+11 9.803664353284246e-01 1.072312455077234e-01
1.129795918367300e+11 9.802277620572447e-01 1.069539443887524e-01
1.130204081632700e+11 9.798807509124182e-01 1.081385959851414e-01
1.130612244898000e+11 9.795442770889042e-01 1.091054536842397e-01
1.131020408163300e+11 9.792491766516188e-01 1.106689980523231e-01
1.131428571428600e+11 9.798908852855459e-01 1.110210349018476e-01
1.131836734693900e+11 9.802640638400649e-01 1.107538953097994e-01
1.132244897959200e+11 9.806188584218666e-01 1.100574491190882e-01
1.132653061224500e+11 9.799162188055380e-01 1.107749734287237e-01
1.133061224489800e+11 9.784264891036970e-01 1.115072402973772e-01
1.133469387755100e+11 9.776071887695125e-01 1.115618772519635e-01
1.133877551020400e+11 9.773681734377904e-01 1.108381548354843e-01
1.134285714285700e+11 9.772506706837440e-01 1.110679910464701e-01
1.134693877551000e+11 9.768986307308466e-01 1.113738482301440e-01
1.135102040816300e+11 9.762266267046277e-01 1.123220731954729e-01
1.135510204081600e+11 9.757510481777079e-01 1.126685614080052e-01
1.135918367346900e+11 9.753226617908159e-01 1.130941185034858e-01
1.136326530612200e+11 9.755998165590347e-01 1.126941651190598e-01
1.136734693877600e+11 9.752085097174246e-01 1.121596784668753e-01
1.137142857142900e+11 9.746831614282042e-01 1.119169957576470e-01
1.137551020408200e+11 9.752020424826546e-01 1.133252539133406e-01
1.137959183673500e+11 9.757745280926563e-01 1.126551415688622e-01
1.138367346938800e+11 9.762397782929310e-01 1.118451401498398e-01
1.138775510204100e+11 9.763902394132201e-01 1.115823909183465e-01
1.139183673469400e+11 9.752196859193292e-01 1.114148394989050e-01
1.139591836734700e+11 9.745031567006960e-01 1.111686406134060e-01
1.140000000000000e+11 9.735885310223440e-01 1.116308196093243e-01
1.140408163265300e+11 9.725555207076203e-01 1.120372053478136e-01
1.140816326530600e+11 9.721387116797939e-01 1.118948430153490e-01
1.141224489795900e+11 9.722907947390553e-01 1.116322199132215e-01
1.141632653061200e+11 9.719709737529275e-01 1.122689604488848e-01
1.142040816326500e+11 9.716414890309538e-01 1.125776249897232e-01
1.142448979591800e+11 9.703539802664118e-01 1.137358310382867e-01
1.142857142857100e+11 9.704493440043477e-01 1.135383529740454e-01
1.143265306122400e+11 9.717242244307364e-01 1.133553639188424e-01
1.143673469387800e+11 9.714513021100004e-01 1.136859071213538e-01
1.144081632653100e+11 9.715685260183354e-01 1.137405027977723e-01
1.144489795918400e+11 9.720553673732806e-01 1.135812098370753e-01
1.144897959183700e+11 9.720025679332686e-01 1.134993149509130e-01
1.145306122449000e+11 9.722639201690694e-01 1.136394588574337e-01
1.145714285714300e+11 9.719728797139097e-01 1.130534299266047e-01
1.146122448979600e+11 9.722697748588308e-01 1.130476715574429e-01
1.146530612244900e+11 9.717391053442956e-01 1.123058023453959e-01
1.146938775510200e+11 9.708643639685429e-01 1.117498528857183e-01
1.147346938775500e+11 9.704672779102914e-01 1.120987545249433e-01
1.147755102040800e+11 9.697144925483296e-01 1.124887994624518e-01
1.148163265306100e+11 9.690919574136573e-01 1.129715461550555e-01
1.148571428571400e+11 9.688151659181340e-01 1.129966134314636e-01
1.148979591836700e+11 9.695062500081654e-01 1.128478983896955e-01
1.149387755102000e+11 9.699636722043511e-01 1.123115960979985e-01
1.149795918367300e+11 9.703632455059121e-01 1.123753170427902e-01
1.150204081632700e+11 9.705187762013363e-01 1.117218275889458e-01
1.150612244898000e+11 9.707304522098402e-01 1.114501442409336e-01
1.151020408163300e+11 9.706667727800466e-01 1.110901591830332e-01
1.151428571428600e+11 9.710669981350871e-01 1.098439080274577e-01
1.151836734693900e+11 9.717743397623999e-01 1.093256576319504e-01
1.152244897959200e+11 9.719183559703334e-01 1.083859406156938e-01
1.152653061224500e+11 9.720597638870436e-01 1.073125082045396e-01
1.153061224489800e+11 9.717357224330708e-01 1.067133094603576e-01
1.153469387755100e+11 9.711161276933727e-01 1.061254203370529e-01
1.153877551020400e+11 9.710074501432971e-01 1.054804787345791e-01
1.154285714285700e+11 9.707455382714343e-01 1.055927590807339e-01
1.154693877551000e+11 9.706973833636435e-01 1.057482713484870e-01
1.155102040816300e+11 9.708959931393287e-01 1.056123660625816e-01
1.155510204081600e+11 9.710516931763176e-01 1.054436441046732e-01
1.155918367346900e+11 9.719167749666651e-01 1.058935520925400e-01
1.156326530612200e+11 9.723565244188194e-01 1.060149683606920e-01
1.156734693877600e+11 9.722961046158956e-01 1.061061808507819e-01
1.157142857142900e+11 9.730539162144453e-01 1.065534250177112e-01
1.157551020408200e+11 9.738308760786046e-01 1.065599623722899e-01
1.157959183673500e+11 9.742155657370843e-01 1.063085849629931e-01
1.158367346938800e+11 9.742414410425805e-01 1.061091787867694e-01
1.158775510204100e+11 9.740306270676045e-01 1.058247328951788e-01
1.159183673469400e+11 9.738863428932510e-01 1.057868732953714e-01
1.159591836734700e+11 9.734476497332097e-01 1.059939076707018e-01
1.160000000000000e+11 9.727565415819405e-01 1.058197475535204e-01
1.160408163265300e+11 9.720130625419321e-01 1.058115212622084e-01
1.160816326530600e+11 9.712239492905034e-01 1.061504918040882e-01
1.161224489795900e+11 9.704600081418345e-01 1.061306474625972e-01
1.161632653061200e+11 9.699039855385758e-01 1.066006414772843e-01
1.162040816326500e+11 9.697841016161985e-01 1.067641515248982e-01
1.162448979591800e+11 9.697619836929365e-01 1.067195149418306e-01
1.162857142857100e+11 9.699185187342515e-01 1.070055743152156e-01
1.163265306122400e+11 9.704138273907130e-01 1.065178856045751e-01
1.163673469387800e+11 9.706237215755829e-01 1.064652133323221e-01
1.164081632653100e+11 9.704960684482745e-01 1.066591455923603e-01
1.164489795918400e+11 9.708264263051646e-01 1.067874299737380e-01
1.164897959183700e+11 9.709344032267251e-01 1.068587112840899e-01
1.165306122449000e+11 9.712715892202586e-01 1.063766958731766e-01
1.165714285714300e+11 9.709154504582717e-01 1.062506865254422e-01
1.166122448979600e+11 9.702645084947465e-01 1.066665960915752e-01
1.166530612244900e+11 9.699633501803875e-01 1.070451257472630e-01
1.166938775510200e+11 9.695898286082472e-01 1.068360959044603e-01
1.167346938775500e+11 9.691810253607414e-01 1.069055895525130e-01
1.167755102040800e+11 9.690670786176795e-01 1.071083197528003e-01
1.168163265306100e+11 9.688675255836023e-01 1.075275470490635e-01
1.168571428571400e+11 9.685731358714664e-01 1.080532516727727e-01
1.168979591836700e+11 9.681895982624728e-01 1.091252459036273e-01
1.169387755102000e+11 9.685290214035193e-01 1.093377361317792e-01
1.169795918367300e+11 9.686184571520131e-01 1.096029851857358e-01
1.170204081632700e+11 9.688215903864588e-01 1.101743939089747e-01
1.170612244898000e+11 9.689178128350012e-01 1.103329539504744e-01
1.171020408163300e+11 9.692402542168329e-01 1.103131103234699e-01
1.171428571428600e+11 9.691797977202989e-01 1.099485885322784e-01
1.171836734693900e+11 9.695294634544116e-01 1.097743936515205e-01
1.172244897959200e+11 9.692456451073884e-01 1.100674961476589e-01
1.172653061224500e+11 9.691522156206530e-01 1.099904437333779e-01
1.173061224489800e+11 9.684028182177049e-01 1.101830247394024e-01
1.173469387755100e+11 9.677671193267806e-01 1.110176441268465e-01
1.173877551020400e+11 9.672704569841972e-01 1.112234393999558e-01
1.174285714285700e+11 9.672848283678585e-01 1.116800774407108e-01
1.174693877551000e+11 9.669437793718371e-01 1.118729508931298e-01
1.175102040816300e+11 9.666243575965947e-01 1.123989349544450e-01
1.175510204081600e+11 9.662470153142796e-01 1.129649325125508e-01
1.175918367346900e+11 9.667000335526713e-01 1.132796167473993e-01
1.176326530612200e+11 9.668540607465442e-01 1.133357725139069e-01
1.176734693877600e+11 9.667197370977706e-01 1.139400602753388e-01
1.177142857142900e+11 9.666996787284110e-01 1.143231749410508e-01
1.177551020408200e+11 9.670682851826859e-01 1.143702049451587e-01
1.177959183673500e+11 9.671029036140307e-01 1.142121463498652e-01
1.178367346938800e+11 9.673525922351149e-01 1.131964341764737e-01
1.178775510204100e+11 9.665729509154872e-01 1.132502537621312e-01
1.179183673469400e+11 9.657981306766928e-01 1.134271631431728e-01
1.179591836734700e+11 9.656598522463413e-01 1.133204614604612e-01
1.180000000000000e+11 9.651079327326085e-01 1.131796147915982e-01
1.180408163265300e+11 9.683180437175869e-01 1.092506448080363e-01
1.180816326530600e+11 9.681965125362634e-01 1.096152022940987e-01
1.181224489795900e+11 9.681923472693030e-01 1.097952762869603e-01
1.181632653061200e+11 9.678019333629724e-01 1.096840632446905e-01
1.182040816326500e+11 9.675050659094342e-01 1.104410057631224e-01
1.182448979591800e+11 9.671954845821031e-01 1.106485995615245e-01
1.182857142857100e+11 9.674475404832129e-01 1.113400498929365e-01
1.183265306122400e+11 9.674109163774568e-01 1.116084157385826e-01
1.183673469387800e+11 9.678948265535254e-01 1.120052862407973e-01
1.184081632653100e+11 9.683197203167451e-01 1.113975520248579e-01
1.184489795918400e+11 9.688449325432638e-01 1.120421807236695e-01
1.184897959183700e+11 9.688499241254251e-01 1.122640642171443e-01
1.185306122449000e+11 9.690516152503792e-01 1.130257933101294e-01
1.185714285714300e+11 9.685536737507247e-01 1.136447360235756e-01
1.186122448979600e+11 9.687958052072088e-01 1.137249212693999e-01
1.186530612244900e+11 9.684205728916763e-01 1.139346255943857e-01
1.186938775510200e+11 9.682097383193164e-01 1.144987693439389e-01
1.187346938775500e+11 9.678930286720853e-01 1.148795660927436e-01
1.187755102040800e+11 9.678227396016088e-01 1.153347121867285e-01
1.188163265306100e+11 9.675156937237958e-01 1.162568286918409e-01
1.188571428571400e+11 9.676811554193225e-01 1.163954930060825e-01
1.188979591836700e+11 9.679632305936617e-01 1.165657916845521e-01
1.189387755102000e+11 9.682721769932100e-01 1.167536789288731e-01
1.189795918367300e+11 9.686550905481043e-01 1.167098374029853e-01
1.190204081632700e+11 9.688368057805307e-01 1.171534095549797e-01
1.190612244898000e+11 9.689004785230988e-01 1.170366029993843e-01
1.191020408163300e+11 9.690452245997915e-01 1.170494904841502e-01
1.191428571428600e+11 9.691524067960243e-01 1.165520313799961e-01
1.191836734693900e+11 9.692151716876896e-01 1.165067878499881e-01
1.192244897959200e+11 9.685936044287964e-01 1.169795162683763e-01
1.192653061224500e+11 9.682478862127809e-01 1.170420918013790e-01
1.193061224489800e+11 9.681078368807580e-01 1.169328232986357e-01
1.193469387755100e+11 9.680853208493397e-01 1.168056681899003e-01
1.193877551020400e+11 9.679137350510806e-01 1.167647253821166e-01
1.194285714285700e+11 9.674209847375994e-01 1.174044078496298e-01
1.194693877551000e+11 9.672196199111844e-01 1.181000767281844e-01
1.195102040816300e+11 9.672456331949831e-01 1.185455516875867e-01
1.195510204081600e+11 9.674097465938135e-01 1.186275942236757e-01
1.195918367346900e+11 9.678035181769100e-01 1.182886227943833e-01
1.196326530612200e+11 9.680230064251061e-01 1.183726540799595e-01
1.196734693877600e+11 9.678543233324328e-01 1.187629404057691e-01
1.197142857142900e+11 9.679178603493286e-01 1.189136618781488e-01
1.197551020408200e+11 9.686180211495220e-01 1.184819108533679e-01
1.197959183673500e+11 9.688425340640564e-01 1.176467226825229e-01
1.198367346938800e+11 9.687482433365547e-01 1.176715697545583e-01
1.198775510204100e+11 9.685101896818998e-01 1.179544884866555e-01
1.199183673469400e+11 9.680383912655003e-01 1.176215080822531e-01
1.199591836734700e+11 9.675467665651525e-01 1.181911191653380e-01
1.200000000000000e+11 9.671656993893958e-01 1.182288200927125e-01
1.200408163265300e+11 9.668538513563325e-01 1.179791040160414e-01
1.200816326530600e+11 9.663520422676792e-01 1.181007303802107e-01
1.201224489795900e+11 9.659096975912721e-01 1.187192697711395e-01
1.201632653061200e+11 9.660628856410299e-01 1.193020939309785e-01
1.202040816326500e+11 9.661455930887454e-01 1.199990410756883e-01
1.202448979591800e+11 9.664638878704345e-01 1.196002656175477e-01
1.202857142857100e+11 9.665011674087146e-01 1.203010270278562e-01
1.203265306122400e+11 9.668386950065844e-01 1.202121283925665e-01
1.203673469387800e+11 9.673240736271417e-01 1.200956893940528e-01
1.204081632653100e+11 9.676462617963374e-01 1.199070664656742e-01
1.204489795918400e+11 9.680153781886055e-01 1.198370916541531e-01
1.204897959183700e+11 9.682010432516228e-01 1.194155939994854e-01
1.205306122449000e+11 9.675881587620010e-01 1.189773970247049e-01
1.205714285714300e+11 9.670404261773389e-01 1.187093980349470e-01
1.206122448979600e+11 9.663150850585839e-01 1.195462385371469e-01
1.206530612244900e+11 9.654851516436352e-01 1.196507785377485e-01
1.206938775510200e+11 9.650415892996549e-01 1.197931302981581e-01
1.207346938775500e+11 9.648474439928282e-01 1.204998662566773e-01
1.207755102040800e+11 9.646116554604744e-01 1.215803249357495e-01
1.208163265306100e+11 9.642840811938522e-01 1.226109708774664e-01
1.208571428571400e+11 9.644736780707341e-01 1.224989613178663e-01
1.208979591836700e+11 9.645726077611648e-01 1.229781128996022e-01
1.209387755102000e+11 9.648713139775679e-01 1.231926888967489e-01
1.209795918367300e+11 9.650224943331256e-01 1.229942345177270e-01
1.210204081632700e+11 9.651856458089386e-01 1.230447160293007e-01
1.210612244898000e+11 9.651557812178261e-01 1.230766130249383e-01
1.211020408163300e+11 9.647413215911237e-01 1.227867917184172e-01
1.211428571428600e+11 9.647502195906568e-01 1.223360756085996e-01
1.211836734693900e+11 9.646009260914598e-01 1.224037942754565e-01
1.212244897959200e+11 9.643015755773362e-01 1.222088173063143e-01
1.212653061224500e+11 9.639747269242432e-01 1.218923676413426e-01
1.213061224489800e+11 9.634254839602842e-01 1.218705234083768e-01
1.213469387755100e+11 9.633137195740969e-01 1.217276493573326e-01
1.213877551020400e+11 9.629527107821362e-01 1.220877549137435e-01
1.214285714285700e+11 9.626513749777880e-01 1.220083523763628e-01
1.214693877551000e+11 9.621720994244596e-01 1.230726239893166e-01
1.215102040816300e+11 9.625288458321414e-01 1.240590540641161e-01
1.215510204081600e+11 9.641427322591610e-01 1.233419244067859e-01
1.215918367346900e+11 9.639239941576507e-01 1.228902505498363e-01
1.216326530612200e+11 9.638235356727745e-01 1.234389804316949e-01
1.216734693877600e+11 9.645466549943148e-01 1.234258656109845e-01
1.217142857142900e+11 9.647896594860638e-01 1.227109110888561e-01
1.217551020408200e+11 9.646039187476159e-01 1.226912259773606e-01
1.217959183673500e+11 9.641691557693863e-01 1.231558210919653e-01
1.218367346938800e+11 9.635815094871875e-01 1.234208039755181e-01
1.218775510204100e+11 9.639517723642621e-01 1.232582895386926e-01
1.219183673469400e+11 9.635379386268138e-01 1.228297113320195e-01
1.219591836734700e+11 9.631522046363041e-01 1.226381414479744e-01
1.220000000000000e+11 9.624356825040585e-01 1.230975584075062e-01
1.220408163265300e+11 9.612697470157686e-01 1.235969565427218e-01
1.220816326530600e+11 9.609514952469288e-01 1.239854067814146e-01
1.221224489795900e+11 9.608660113855036e-01 1.241761626193929e-01
1.221632653061200e+11 9.607882526774034e-01 1.243678313774876e-01
1.222040816326500e+11 9.607555026687010e-01 1.250580814235018e-01
1.222448979591800e+11 9.610906490900355e-01 1.250432774667103e-01
1.222857142857100e+11 9.611722909984916e-01 1.258170087037352e-01
1.223265306122400e+11 9.613457485069796e-01 1.258389977778188e-01
1.223673469387800e+11 9.619500557464810e-01 1.259386918969116e-01
1.224081632653100e+11 9.619768429875369e-01 1.255475488482773e-01
1.224489795918400e+11 9.623025284662871e-01 1.251132585311087e-01
1.224897959183700e+11 9.623898996706651e-01 1.248189009925929e-01
1.225306122449000e+11 9.618000642098102e-01 1.248386842327934e-01
1.225714285714300e+11 9.612145298646875e-01 1.241888739727549e-01
1.226122448979600e+11 9.605510195994205e-01 1.241832155873680e-01
1.226530612244900e+11 9.596752642778368e-01 1.243768448377120e-01
1.226938775510200e+11 9.592074997110166e-01 1.245004528061128e-01
1.227346938775500e+11 9.590112486785461e-01 1.245135906884767e-01
1.227755102040800e+11 9.588140256264400e-01 1.249378531181314e-01
1.228163265306100e+11 9.587207055813544e-01 1.254224487297173e-01
1.228571428571400e+11 9.589477116095867e-01 1.260130571836734e-01
1.228979591836700e+11 9.596629110650161e-01 1.255612040322701e-01
1.229387755102000e+11 9.597990752585557e-01 1.251395472794028e-01
1.229795918367300e+11 9.596893137824429e-01 1.249417279452788e-01
1.230204081632700e+11 9.593395046559284e-01 1.250552531433213e-01
1.230612244898000e+11 9.601060625337281e-01 1.246612951379837e-01
1.231020408163300e+11 9.603776472825996e-01 1.241879768450567e-01
1.231428571428600e+11 9.598186174841896e-01 1.235711863037545e-01
1.231836734693900e+11 9.599720996078024e-01 1.229900810451610e-01
1.232244897959200e+11 9.595220487676622e-01 1.228582357334750e-01
1.232653061224500e+11 9.585358282893791e-01 1.231210131375473e-01
1.233061224489800e+11 9.583930664298871e-01 1.230410925772882e-01
1.233469387755100e+11 9.578416809663164e-01 1.229320853651246e-01
1.233877551020400e+11 9.583313930398873e-01 1.225696351018789e-01
1.234285714285700e+11 9.577016871297528e-01 1.225057341174743e-01
1.234693877551000e+11 9.573255374770882e-01 1.234709677134690e-01
1.235102040816300e+11 9.571940753085380e-01 1.237212737910884e-01
1.235510204081600e+11 9.573367772795006e-01 1.241018942054559e-01
1.235918367346900e+11 9.583139783201726e-01 1.237118506584534e-01
1.236326530612200e+11 9.585674058679875e-01 1.235086059768371e-01
1.236734693877600e+11 9.584700462209695e-01 1.236700830110848e-01
1.237142857142900e+11 9.587550589624549e-01 1.236101986745996e-01
1.237551020408200e+11 9.589589794702335e-01 1.232949511605320e-01
1.237959183673500e+11 9.584629203318552e-01 1.235943403391933e-01
1.238367346938800e+11 9.582329886713600e-01 1.231659683583013e-01
1.238775510204100e+11 9.581084476833991e-01 1.232667987461554e-01
1.239183673469400e+11 9.576715464312519e-01 1.228766749208791e-01
1.239591836734700e+11 9.572697178123957e-01 1.228194932225574e-01
1.240000000000000e+11 9.565656084648250e-01 1.226492984255070e-01
1.240408163265300e+11 9.557509784406406e-01 1.233788687888634e-01
1.240816326530600e+11 9.548174580611901e-01 1.235911265206213e-01
1.241224489795900e+11 9.545365039794600e-01 1.239463513520046e-01
1.241632653061200e+11 9.547350712442201e-01 1.236341107142707e-01
1.242040816326500e+11 9.549643698078436e-01 1.238804720900949e-01
1.242448979591800e+11 9.549473890620804e-01 1.241850628779027e-01
1.242857142857100e+11 9.550296950882483e-01 1.244785594565604e-01
1.243265306122400e+11 9.552521580379444e-01 1.242481532408746e-01
1.243673469387800e+11 9.556054758377981e-01 1.235862281582183e-01
1.244081632653100e+11 9.560211409104985e-01 1.232136171810999e-01
1.244489795918400e+11 9.562135480195034e-01 1.229830853368916e-01
1.244897959183700e+11 9.560425584021180e-01 1.224945660128160e-01
1.245306122449000e+11 9.554317290096226e-01 1.225096523655057e-01
1.245714285714300e+11 9.552304887642802e-01 1.221397078448755e-01
1.246122448979600e+11 9.555144887959588e-01 1.213884473471068e-01
1.246530612244900e+11 9.549112371765048e-01 1.210559076288176e-01
1.246938775510200e+11 9.540914924888014e-01 1.216019178492343e-01
1.247346938775500e+11 9.534143538303267e-01 1.219757053962456e-01
1.247755102040800e+11 9.528545125398161e-01 1.223823225308410e-01
1.248163265306100e+11 9.532260230356941e-01 1.222442233554240e-01
1.248571428571400e+11 9.529837812990695e-01 1.225838101885531e-01
1.248979591836700e+11 9.529365685281310e-01 1.232014618736439e-01
1.249387755102000e+11 9.525763957473444e-01 1.236111349617340e-01
1.249795918367300e+11 9.529251906997379e-01 1.237420762051386e-01
1.250204081632700e+11 9.531630828203050e-01 1.236063279991254e-01
1.250612244898000e+11 9.538217430590533e-01 1.238226287092467e-01
1.251020408163300e+11 9.541184741977997e-01 1.238938668101377e-01
1.251428571428600e+11 9.538160793297659e-01 1.240618900323732e-01
1.251836734693900e+11 9.538600658579121e-01 1.235832550367393e-01
1.252244897959200e+11 9.540079809362179e-01 1.237335475487720e-01
1.252653061224500e+11 9.541909595110600e-01 1.235374703428525e-01
1.253061224489800e+11 9.539696368457226e-01 1.235337438609723e-01
1.253469387755100e+11 9.535406170373998e-01 1.234543121953570e-01
1.253877551020400e+11 9.530568177446682e-01 1.235503073899972e-01
1.254285714285700e+11 9.521081210069864e-01 1.234466434545784e-01
1.254693877551000e+11 9.512469399326718e-01 1.238867789102015e-01
1.255102040816300e+11 9.508321104064748e-01 1.237741032349255e-01
1.255510204081600e+11 9.506624112642132e-01 1.241744592453820e-01
1.255918367346900e+11 9.509102118060930e-01 1.240580108511966e-01
1.256326530612200e+11 9.509612206856229e-01 1.245208697670250e-01
1.256734693877600e+11 9.508495679918023e-01 1.249720817101579e-01
1.257142857142900e+11 9.512964891568896e-01 1.251032941242564e-01
1.257551020408200e+11 9.519742998662166e-01 1.249656831716224e-01
1.257959183673500e+11 9.524564278696149e-01 1.246426783455956e-01
1.258367346938800e+11 9.529574911809833e-01 1.245844180098401e-01
1.258775510204100e+11 9.527778012550402e-01 1.243340891865084e-01
1.259183673469400e+11 9.520664700783421e-01 1.239982860995571e-01
1.259591836734700e+11 9.525941698896564e-01 1.240408774872737e-01
1.260000000000000e+11 9.522807057865823e-01 1.243320170314745e-01
1.260408163265300e+11 9.520606209811934e-01 1.239083737687601e-01
1.260816326530600e+11 9.513519894993410e-01 1.238705070707289e-01
1.261224489795900e+11 9.507534480194269e-01 1.241940334500883e-01
1.261632653061200e+11 9.501437428641885e-01 1.241536702898225e-01
1.262040816326500e+11 9.500669783096279e-01 1.243571785020452e-01
1.262448979591800e+11 9.500791097562625e-01 1.247459863218911e-01
1.262857142857100e+11 9.498988345272023e-01 1.249106652167886e-01
1.263265306122400e+11 9.499843476219583e-01 1.250998641825724e-01
1.263673469387800e+11 9.506723215621182e-01 1.248124972736535e-01
1.264081632653100e+11 9.507950442512904e-01 1.249348473370662e-01
1.264489795918400e+11 9.513029143303589e-01 1.243824426121220e-01
1.264897959183700e+11 9.516852080001988e-01 1.241935812534011e-01
1.265306122449000e+11 9.517131812297198e-01 1.242143937871522e-01
1.265714285714300e+11 9.519130848622619e-01 1.233017440492745e-01
1.266122448979600e+11 9.520233488425059e-01 1.233111534435556e-01
1.266530612244900e+11 9.517933259478696e-01 1.233724298344298e-01
1.266938775510200e+11 9.518416610153871e-01 1.224179386648934e-01
1.267346938775500e+11 9.509785151147029e-01 1.227909828211724e-01
1.267755102040800e+11 9.508545850694983e-01 1.225360971572792e-01
1.268163265306100e+11 9.502199745118890e-01 1.223977021825423e-01
1.268571428571400e+11 9.495374698138965e-01 1.229777466159514e-01
1.268979591836700e+11 9.491200824539766e-01 1.235208725811048e-01
1.269387755102000e+11 9.490006837101954e-01 1.233038084396990e-01
1.269795918367300e+11 9.486891065703741e-01 1.238227805264592e-01
1.270204081632700e+11 9.495231152734402e-01 1.238162083002680e-01
1.270612244898000e+11 9.500503278160801e-01 1.238118749471651e-01
1.271020408163300e+11 9.503782676154526e-01 1.240069909866106e-01
1.271428571428600e+11 9.507394339124200e-01 1.241702182843673e-01
1.271836734693900e+11 9.509215085096185e-01 1.240567744882461e-01
1.272244897959200e+11 9.513336378265844e-01 1.236012228998376e-01
1.272653061224500e+11 9.514445403752742e-01 1.236956075026050e-01
1.273061224489800e+11 9.513773655555141e-01 1.236938696459634e-01
1.273469387755100e+11 9.506417937215319e-01 1.234859739030355e-01
1.273877551020400e+11 9.497842571411794e-01 1.232897063751562e-01
1.274285714285700e+11 9.497637880455833e-01 1.231879686428581e-01
1.274693877551000e+11 9.494486930872347e-01 1.230944968062607e-01
1.275102040816300e+11 9.490140754122020e-01 1.232439903997083e-01
1.275510204081600e+11 9.482073196705311e-01 1.235705199955554e-01
1.275918367346900e+11 9.477558809470055e-01 1.241806787707167e-01
1.276326530612200e+11 9.477312826223602e-01 1.249633977631691e-01
1.276734693877600e+11 9.476692188060837e-01 1.251491410129506e-01
1.277142857142900e+11 9.484531172463653e-01 1.253214433165498e-01
1.277551020408200e+11 9.490143739309962e-01 1.251344552021678e-01
1.277959183673500e+11 9.488403675589240e-01 1.255110471131380e-01
1.278367346938800e+11 9.494499904906862e-01 1.250404929726226e-01
1.278775510204100e+11 9.496256121880237e-01 1.247713281831823e-01
1.279183673469400e+11 9.498714424467571e-01 1.246655377676386e-01
1.279591836734700e+11 9.494341960762286e-01 1.245247288517598e-01
1.280000000000000e+11 9.495558905841355e-01 1.243106100479062e-01
1.280408163265300e+11 9.492619458836999e-01 1.244675165847820e-01
1.280816326530600e+11 9.490494389163726e-01 1.248793311456508e-01
1.281224489795900e+11 9.487801893445610e-01 1.250975289012852e-01
1.281632653061200e+11 9.482356615220418e-01 1.250983207414481e-01
1.282040816326500e+11 9.479710690383069e-01 1.251690246851380e-01
1.282448979591800e+11 9.476027799623568e-01 1.251999048505308e-01
1.282857142857100e+11 9.476109602811428e-01 1.255427173265512e-01
1.283265306122400e+11 9.475419129048162e-01 1.263925593846891e-01
1.283673469387800e+11 9.474823403902402e-01 1.263347213518321e-01
1.284081632653100e+11 9.479321185800805e-01 1.264089754239755e-01
1.284489795918400e+11 9.478337539184901e-01 1.263961465520020e-01
1.284897959183700e+11 9.477562682422932e-01 1.263618075182668e-01
1.285306122449000e+11 9.479369686812795e-01 1.260365782985224e-01
1.285714285714300e+11 9.481019780458132e-01 1.260908094230877e-01
1.286122448979600e+11 9.484275011478973e-01 1.260327838459873e-01
1.286530612244900e+11 9.480833235009442e-01 1.258228641171968e-01
1.286938775510200e+11 9.477000530003052e-01 1.252812231071775e-01
1.287346938775500e+11 9.472625588775222e-01 1.257030771895865e-01
1.287755102040800e+11 9.474408559195651e-01 1.254027073227977e-01
1.288163265306100e+11 9.470577293249860e-01 1.254093164279334e-01
1.288571428571400e+11 9.469051137015106e-01 1.252668626198400e-01
1.288979591836700e+11 9.463295846532783e-01 1.254685234101053e-01
1.289387755102000e+11 9.461514628428099e-01 1.259231119350948e-01
1.289795918367300e+11 9.461408653504738e-01 1.258358053906609e-01
1.290204081632700e+11 9.461911285144533e-01 1.261157604623035e-01
1.290612244898000e+11 9.464130539628727e-01 1.270573012624491e-01
1.291020408163300e+11 9.463605550547654e-01 1.267545262438630e-01
1.291428571428600e+11 9.460721350135822e-01 1.271257381865278e-01
1.291836734693900e+11 9.458937127869959e-01 1.272554749719779e-01
1.292244897959200e+11 9.458925260073602e-01 1.279210302629019e-01
1.292653061224500e+11 9.457589377489483e-01 1.283382896249929e-01
1.293061224489800e+11 9.457237912562625e-01 1.283729658249453e-01
1.293469387755100e+11 9.454374354306260e-01 1.285508900896523e-01
1.293877551020400e+11 9.454503800114605e-01 1.286897613839917e-01
1.294285714285700e+11 9.448996262516282e-01 1.288880366501921e-01
1.294693877551000e+11 9.445940051049497e-01 1.289433774436626e-01
1.295102040816300e+11 9.444086856512218e-01 1.293048961797789e-01
1.295510204081600e+11 9.445517809154599e-01 1.296010523038368e-01
1.295918367346900e+11 9.446550661030202e-01 1.299947789272774e-01
1.296326530612200e+11 9.439818783618921e-01 1.302862040775408e-01
1.296734693877600e+11 9.435623278815909e-01 1.301264437528962e-01
1.297142857142900e+11 9.432302522342061e-01 1.302698824438065e-01
1.297551020408200e+11 9.430467038962409e-01 1.308892081314679e-01
1.297959183673500e+11 9.435523494855375e-01 1.309713639913550e-01
1.298367346938800e+11 9.436940652970595e-01 1.314536955429837e-01
1.298775510204100e+11 9.436369888118872e-01 1.312104956846585e-01
1.299183673469400e+11 9.438796307800348e-01 1.309273552602508e-01
1.299591836734700e+11 9.437112404808383e-01 1.312582684932868e-01
1.300000000000000e+11 9.436974682455306e-01 1.311357097441143e-01
1.300408163265300e+11 9.441016124497630e-01 1.314663061050022e-01
1.300816326530600e+11 9.436136870947075e-01 1.307928748792200e-01
1.301224489795900e+11 9.435257555414962e-01 1.307501119050151e-01
1.301632653061200e+11 9.432517741303345e-01 1.308184669051581e-01
1.302040816326500e+11 9.428817242500964e-01 1.307698247987914e-01
1.302448979591800e+11 9.423452822500342e-01 1.306124023281950e-01
1.302857142857100e+11 9.418474064295808e-01 1.312737407717105e-01
1.303265306122400e+11 9.421432167743015e-01 1.317865418259366e-01
1.303673469387800e+11 9.412169657431925e-01 1.320954601984818e-01
1.304081632653100e+11 9.407675060790807e-01 1.322012092836102e-01
1.304489795918400e+11 9.407003375570349e-01 1.321539450613339e-01
1.304897959183700e+11 9.411067612523677e-01 1.326050670930035e-01
1.305306122449000e+11 9.414240800568616e-01 1.335035121414199e-01
1.305714285714300e+11 9.414676038897718e-01 1.337941893140549e-01
1.306122448979600e+11 9.412740715697658e-01 1.333330024066926e-01
1.306530612244900e+11 9.407516614585205e-01 1.334790326101771e-01
1.306938775510200e+11 9.411444722553737e-01 1.336273865053283e-01
1.307346938775500e+11 9.414826918214623e-01 1.339279367705196e-01
1.307755102040800e+11 9.411447236072940e-01 1.339534925221831e-01
1.308163265306100e+11 9.409148656539632e-01 1.334034921572264e-01
1.308571428571400e+11 9.406587568863861e-01 1.333415966690827e-01
1.308979591836700e+11 9.399608225225558e-01 1.336295197463802e-01
1.309387755102000e+11 9.393970846682688e-01 1.336426619379924e-01
1.309795918367300e+11 9.384915593927957e-01 1.344175989893870e-01
1.310204081632700e+11 9.380855970959746e-01 1.348092152510076e-01
1.310612244898000e+11 9.379444456922061e-01 1.354954757450647e-01
1.311020408163300e+11 9.379282249440343e-01 1.362769793829212e-01
1.311428571428600e+11 9.380613538504670e-01 1.356159763587690e-01
1.311836734693900e+11 9.379637207429272e-01 1.360835751801536e-01
1.312244897959200e+11 9.379922204873039e-01 1.367109674139803e-01
1.312653061224500e+11 9.378526051005797e-01 1.372844675190313e-01
1.313061224489800e+11 9.384982946439053e-01 1.381857366335356e-01
1.313469387755100e+11 9.384562169945102e-01 1.378366630305262e-01
1.313877551020400e+11 9.382998957033322e-01 1.375669456819598e-01
1.314285714285700e+11 9.385077390694608e-01 1.377505896327919e-01
1.314693877551000e+11 9.386313486860356e-01 1.382277578389139e-01
1.315102040816300e+11 9.387289542142488e-01 1.386556306012893e-01
1.315510204081600e+11 9.387491809605065e-01 1.385627891568840e-01
1.315918367346900e+11 9.386213697639730e-01 1.387686710559070e-01
1.316326530612200e+11 9.384314248353304e-01 1.379085543322940e-01
1.316734693877600e+11 9.380062310594709e-01 1.385125662370231e-01
1.317142857142900e+11 9.376091552795466e-01 1.388496637597538e-01
1.317551020408200e+11 9.372492259405321e-01 1.395459402256423e-01
1.317959183673500e+11 9.368892589776228e-01 1.398579605813585e-01
1.318367346938800e+11 9.369448379106935e-01 1.401392018363987e-01
1.318775510204100e+11 9.373139434789626e-01 1.398648588671315e-01
1.319183673469400e+11 9.372946652626358e-01 1.403656269635566e-01
1.319591836734700e+11 9.371855548216502e-01 1.406115731890396e-01
1.320000000000000e+11 9.377097131375212e-01 1.411405325129024e-01
1.320408163265300e+11 9.380397315926836e-01 1.413810994712586e-01
1.320816326530600e+11 9.381515148274961e-01 1.412567751484183e-01
1.321224489795900e+11 9.380557223876285e-01 1.412982032341760e-01
1.321632653061200e+11 9.377821626644356e-01 1.406594706730058e-01
1.322040816326500e+11 9.383380112499358e-01 1.408558822884736e-01
1.322448979591800e+11 9.382122859913499e-01 1.414167798436692e-01
1.322857142857100e+11 9.382226361877226e-01 1.416347621907265e-01
1.323265306122400e+11 9.379598754979752e-01 1.409753803097719e-01
1.323673469387800e+11 9.378791612376770e-01 1.406688673662732e-01
1.324081632653100e+11 9.369647936301529e-01 1.408297390467656e-01
1.324489795918400e+11 9.359952654145771e-01 1.416146626133907e-01
1.324897959183700e+11 9.359220369751847e-01 1.412633125676148e-01
1.325306122449000e+11 9.354858076072223e-01 1.417379494230905e-01
1.325714285714300e+11 9.350757766779139e-01 1.422172402561477e-01
1.326122448979600e+11 9.353050011287505e-01 1.428683622038124e-01
1.326530612244900e+11 9.350833732623141e-01 1.429215881241574e-01
1.326938775510200e+11 9.350319866157785e-01 1.430830936483631e-01
1.327346938775500e+11 9.353258080721065e-01 1.438981911413750e-01
1.327755102040800e+11 9.358445401565059e-01 1.440177649747974e-01
1.328163265306100e+11 9.360372089578427e-01 1.436291593365661e-01
1.328571428571400e+11 9.366678071995036e-01 1.426319192495290e-01
1.328979591836700e+11 9.369533357957696e-01 1.426009063707777e-01
1.329387755102000e+11 9.372230745146002e-01 1.424354024421530e-01
1.329795918367300e+11 9.369099266953034e-01 1.417729070056994e-01
1.330204081632700e+11 9.367741755064010e-01 1.413061314517585e-01
1.330612244898000e+11 9.366668895813688e-01 1.405850568705299e-01
1.331020408163300e+11 9.367939788259739e-01 1.408358487036990e-01
1.331428571428600e+11 9.360490755999245e-01 1.404658648903868e-01
1.331836734693900e+11 9.352188606398073e-01 1.403536448262226e-01
1.332244897959200e+11 9.351888296709184e-01 1.406433683490486e-01
1.332653061224500e+11 9.349366181692285e-01 1.400340669131648e-01
1.333061224489800e+11 9.346716387163063e-01 1.394283075242047e-01
1.333469387755100e+11 9.346069165871654e-01 1.389708459808222e-01
1.333877551020400e+11 9.343892106500072e-01 1.389113891006227e-01
1.334285714285700e+11 9.345405075925024e-01 1.400408272782812e-01
1.334693877551000e+11 9.352429862890788e-01 1.401529738127994e-01
1.335102040816300e+11 9.351241928597677e-01 1.393341326046370e-01
1.335510204081600e+11 9.354616546260300e-01 1.386125056086013e-01
1.335918367346900e+11 9.356918791032528e-01 1.383380553982403e-01
1.336326530612200e+11 9.362908261189459e-01 1.387836466660223e-01
1.336734693877600e+11 9.364747175490091e-01 1.392133617572388e-01
1.337142857142900e+11 9.366151070306716e-01 1.382551599444317e-01
1.337551020408200e+11 9.360021996930458e-01 1.383818474569498e-01
1.337959183673500e+11 9.360128895645293e-01 1.386378694536300e-01
1.338367346938800e+11 9.359779791969012e-01 1.385405251714022e-01
1.338775510204100e+11 9.354168340831673e-01 1.376252047956656e-01
1.339183673469400e+11 9.344994299919578e-01 1.369157258234578e-01
1.339591836734700e+11 9.335384480515505e-01 1.369091451524798e-01
1.340000000000000e+11 9.329828032671936e-01 1.381492846673139e-01
1.340408163265300e+11 9.323396725465671e-01 1.386847609153981e-01
1.340816326530600e+11 9.321482049528247e-01 1.386245986101304e-01
1.341224489795900e+11 9.320282382420718e-01 1.385215247771607e-01
1.341632653061200e+11 9.320357228634809e-01 1.384735143550711e-01
1.342040816326500e+11 9.321462214151446e-01 1.378009667862560e-01
1.342448979591800e+11 9.324313397784486e-01 1.375700429846803e-01
1.342857142857100e+11 9.330578334445974e-01 1.376967441077300e-01
1.343265306122400e+11 9.333725685201101e-01 1.374762837244681e-01
1.343673469387800e+11 9.335129565626165e-01 1.366222953517547e-01
1.344081632653100e+11 9.338041712398633e-01 1.359243831982751e-01
1.344489795918400e+11 9.337373913581910e-01 1.346428795223236e-01
1.344897959183700e+11 9.338407157714806e-01 1.345998508457013e-01
1.345306122449000e+11 9.335940486881985e-01 1.341860757880677e-01
1.345714285714300e+11 9.330468608796327e-01 1.334125497920910e-01
1.346122448979600e+11 9.329411195752872e-01 1.328360686532510e-01
1.346530612244900e+11 9.321781283847866e-01 1.327939760781186e-01
1.346938775510200e+11 9.313356078189173e-01 1.329875622574913e-01
1.347346938775500e+11 9.305335128672469e-01 1.331880995466549e-01
1.347755102040800e+11 9.297552419213656e-01 1.332243731696040e-01
1.348163265306100e+11 9.291086454254683e-01 1.337814539568514e-01
1.348571428571400e+11 9.289238428570235e-01 1.337599979880318e-01
1.348979591836700e+11 9.283938819311988e-01 1.337744427798231e-01
1.349387755102000e+11 9.285976670632602e-01 1.346238770517195e-01
1.349795918367300e+11 9.288191129935380e-01 1.349799592587117e-01
1.350204081632700e+11 9.291159192756251e-01 1.347287612652523e-01
1.350612244898000e+11 9.292855467519145e-01 1.342133808390002e-01
1.351020408163300e+11 9.296236539467414e-01 1.335554802178915e-01
1.351428571428600e+11 9.301135135684853e-01 1.340943018620107e-01
1.351836734693900e+11 9.301547577175511e-01 1.339154524397168e-01
1.352244897959200e+11 9.303805073817876e-01 1.334181192776083e-01
1.352653061224500e+11 9.301826956601058e-01 1.324042451205362e-01
1.353061224489800e+11 9.301680413808937e-01 1.316444380181071e-01
1.353469387755100e+11 9.298672073408999e-01 1.319112030023564e-01
1.353877551020400e+11 9.292098497400270e-01 1.322337290086952e-01
1.354285714285700e+11 9.283804117803864e-01 1.320026190330397e-01
1.354693877551000e+11 9.275890136095913e-01 1.318000005857055e-01
1.355102040816300e+11 9.268513470951488e-01 1.317532624145930e-01
1.355510204081600e+11 9.262992143434072e-01 1.325140304501337e-01
1.355918367346900e+11 9.260619041976430e-01 1.332090072484602e-01
1.356326530612200e+11 9.254239707190315e-01 1.333565766127921e-01
1.356734693877600e+11 9.255464385407294e-01 1.337356928944964e-01
1.357142857142900e+11 9.253533107673600e-01 1.340233875498539e-01
1.357551020408200e+11 9.263696090373700e-01 1.352676824984463e-01
1.357959183673500e+11 9.271725155878269e-01 1.357735810177083e-01
1.358367346938800e+11 9.276948618487171e-01 1.357157950942439e-01
1.358775510204100e+11 9.276791055080248e-01 1.351456428716965e-01
1.359183673469400e+11 9.278610253736360e-01 1.347326828126169e-01
1.359591836734700e+11 9.279610856681432e-01 1.353053571289617e-01
1.360000000000000e+11 9.283731756763122e-01 1.359418358857120e-01
1.360408163265300e+11 9.285748459426185e-01 1.359451703614394e-01
1.360816326530600e+11 9.277470634292149e-01 1.361636677385626e-01
1.361224489795900e+11 9.268631570290047e-01 1.359263209500993e-01
1.361632653061200e+11 9.264499933499241e-01 1.357614818552035e-01
1.362040816326500e+11 9.254242354548585e-01 1.365112559487181e-01
1.362448979591800e+11 9.246452057032621e-01 1.377044838408362e-01
1.362857142857100e+11 9.240935617064960e-01 1.383242161298279e-01
1.363265306122400e+11 9.231433135262499e-01 1.386603322499959e-01
1.363673469387800e+11 9.225873334409966e-01 1.387078398432158e-01
1.364081632653100e+11 9.228283010665799e-01 1.388986247414496e-01
1.364489795918400e+11 9.230652090507518e-01 1.395723224099459e-01
1.364897959183700e+11 9.237880185447552e-01 1.400597060958002e-01
1.365306122449000e+11 9.245527216676291e-01 1.397568731316931e-01
1.365714285714300e+11 9.250580919689381e-01 1.397855180066239e-01
1.366122448979600e+11 9.253796522273288e-01 1.395758493871327e-01
1.366530612244900e+11 9.258214410248056e-01 1.398145419317142e-01
1.366938775510200e+11 9.267534744857616e-01 1.395120089698267e-01
1.367346938775500e+11 9.272276046357979e-01 1.389559656416029e-01
1.367755102040800e+11 9.276263486552120e-01 1.393771967560575e-01
1.368163265306100e+11 9.271673168728477e-01 1.385884393845186e-01
1.368571428571400e+11 9.266983051990909e-01 1.383669438011082e-01
1.368979591836700e+11 9.264242066269310e-01 1.387335681232198e-01
1.369387755102000e+11 9.260573719738446e-01 1.388493898105796e-01
1.369795918367300e+11 9.254551948202890e-01 1.388629579274721e-01
1.370204081632700e+11 9.247604995205356e-01 1.392504235221441e-01
1.370612244898000e+11 9.241962646972322e-01 1.395962619828383e-01
1.371020408163300e+11 9.235076284278011e-01 1.397883577959886e-01
1.371428571428600e+11 9.235506841613855e-01 1.408749463303809e-01
1.371836734693900e+11 9.231241727490223e-01 1.412906814435002e-01
1.372244897959200e+11 9.233930499406237e-01 1.413200204731187e-01
1.372653061224500e+11 9.233477453151707e-01 1.417485244791186e-01
1.373061224489800e+11 9.236918300671264e-01 1.420571227768820e-01
1.373469387755100e+11 9.239855864835570e-01 1.429675539344048e-01
1.373877551020400e+11 9.245226810107969e-01 1.428366542450890e-01
1.374285714285700e+11 9.252518411487903e-01 1.432068443282785e-01
1.374693877551000e+11 9.255334041027282e-01 1.429380427315587e-01
1.375102040816300e+11 9.256789360395837e-01 1.429884387547101e-01
1.375510204081600e+11 9.260159881310150e-01 1.435195481871025e-01
1.375918367346900e+11 9.261375382348677e-01 1.433898540534776e-01
1.376326530612200e+11 9.260955541925000e-01 1.433875002456403e-01
1.376734693877600e+11 9.257470680810865e-01 1.433881255431472e-01
1.377142857142900e+11 9.249778546625353e-01 1.431440083926180e-01
1.377551020408200e+11 9.244080720700431e-01 1.427788687811248e-01
1.377959183673500e+11 9.237999519565304e-01 1.435444518722516e-01
1.378367346938800e+11 9.231342430767276e-01 1.440572941665429e-01
1.378775510204100e+11 9.228176206750894e-01 1.447356785189885e-01
1.379183673469400e+11 9.224424938332878e-01 1.456455517146167e-01
1.379591836734700e+11 9.221397910534949e-01 1.465831355256912e-01
1.380000000000000e+11 9.216846811701060e-01 1.471070842991707e-01
1.380408163265300e+11 9.218410794541132e-01 1.477216952751002e-01
1.380816326530600e+11 9.221554207205171e-01 1.485454962149165e-01
1.381224489795900e+11 9.230922786625552e-01 1.491931061220937e-01
1.381632653061200e+11 9.232277924560324e-01 1.495410731163966e-01
1.382040816326500e+11 9.234735885253892e-01 1.496169192844499e-01
1.382448979591800e+11 9.239416865583435e-01 1.497308333137655e-01
1.382857142857100e+11 9.245603472784022e-01 1.496279193198135e-01
1.383265306122400e+11 9.247663396693765e-01 1.496918131255206e-01
1.383673469387800e+11 9.249290107791126e-01 1.492509083337882e-01
1.384081632653100e+11 9.250095842146754e-01 1.487864324059411e-01
1.384489795918400e+11 9.249288297203629e-01 1.483853766876859e-01
1.384897959183700e+11 9.242274605547091e-01 1.485798988285593e-01
1.385306122449000e+11 9.242623275794652e-01 1.489975565690008e-01
1.385714285714300e+11 9.236109459164695e-01 1.486840350494123e-01
1.386122448979600e+11 9.232714842409526e-01 1.489519720374972e-01
1.386530612244900e+11 9.225574114526112e-01 1.484275728012522e-01
1.386938775510200e+11 9.223578171768219e-01 1.495865409592888e-01
1.387346938775500e+11 9.223551225894560e-01 1.491581240046374e-01
1.387755102040800e+11 9.221686683708974e-01 1.490775535075391e-01
1.388163265306100e+11 9.222712228719883e-01 1.503242190565869e-01
1.388571428571400e+11 9.228108253907513e-01 1.508922865401632e-01
1.388979591836700e+11 9.237305703428961e-01 1.518519078389089e-01
1.389387755102000e+11 9.244534477164357e-01 1.518110206512307e-01
1.389795918367300e+11 9.248660281998746e-01 1.517003588261626e-01
1.390204081632700e+11 9.250148901090322e-01 1.506239702422195e-01
1.390612244898000e+11 9.253513325513362e-01 1.501050974006692e-01
1.391020408163300e+11 9.258763693808478e-01 1.503738459821991e-01
1.391428571428600e+11 9.254121026574637e-01 1.506677946526270e-01
1.391836734693900e+11 9.254071009381364e-01 1.504381883909467e-01
1.392244897959200e+11 9.251720120746016e-01 1.506038731374651e-01
1.392653061224500e+11 9.249730037869575e-01 1.503668991030526e-01
1.393061224489800e+11 9.238672613769953e-01 1.497622642580892e-01
1.393469387755100e+11 9.228360604087681e-01 1.497007642832525e-01
1.393877551020400e+11 9.216053831540119e-01 1.496836056041129e-01
1.394285714285700e+11 9.206752616132022e-01 1.509111041399392e-01
1.394693877551000e+11 9.205569808783152e-01 1.525708583173809e-01
1.395102040816300e+11 9.206126124654017e-01 1.536583954164870e-01
1.395510204081600e+11 9.200910373486941e-01 1.522031828698010e-01
1.395918367346900e+11 9.199624601531315e-01 1.524390017878162e-01
1.396326530612200e+11 9.202060313078001e-01 1.527742695684423e-01
1.396734693877600e+11 9.206023549673200e-01 1.530826919272881e-01
1.397142857142900e+11 9.205677143002441e-01 1.524061881091529e-01
1.397551020408200e+11 9.207688735754204e-01 1.524398636395670e-01
1.397959183673500e+11 9.209440947808272e-01 1.521362151706971e-01
1.398367346938800e+11 9.209142601709468e-01 1.524327881052501e-01
1.398775510204100e+11 9.216389560015918e-01 1.526850230657606e-01
1.399183673469400e+11 9.214500367705361e-01 1.516218850753548e-01
1.399591836734700e+11 9.215761014929698e-01 1.517238875319664e-01
1.400000000000000e+11 9.213283952825887e-01 1.522474666551572e-01
1.400408163265300e+11 9.210264083807311e-01 1.524431349265119e-01
1.400816326530600e+11 9.208097514003839e-01 1.522691880984438e-01
1.401224489795900e+11 9.205590320738288e-01 1.515747568296872e-01
1.401632653061200e+11 9.202936591839769e-01 1.524136148804897e-01
1.402040816326500e+11 9.199253845034024e-01 1.535186433291984e-01
1.402448979591800e+11 9.195123408349064e-01 1.529340895036767e-01
1.402857142857100e+11 9.193418614065509e-01 1.532665190495585e-01
1.403265306122400e+11 9.199502737818765e-01 1.538745070694003e-01
1.403673469387800e+11 9.200221085150684e-01 1.538781584093977e-01
1.404081632653100e+11 9.202584000832810e-01 1.537160880682229e-01
1.404489795918400e+11 9.203365451085929e-01 1.530471382917001e-01
1.404897959183700e+11 9.207094510302438e-01 1.528969240461068e-01
1.405306122449000e+11 9.211259000956101e-01 1.535772595537129e-01
1.405714285714300e+11 9.211337093374605e-01 1.539561560538725e-01
1.406122448979600e+11 9.216482064942297e-01 1.538985121029307e-01
1.406530612244900e+11 9.212978395316481e-01 1.524188345596201e-01
1.406938775510200e+11 9.209359508809082e-01 1.516669104662847e-01
1.407346938775500e+11 9.204766121472808e-01 1.510029328399902e-01
1.407755102040800e+11 9.200088774314887e-01 1.515432712970493e-01
1.408163265306100e+11 9.195265578130497e-01 1.522288647400262e-01
1.408571428571400e+11 9.193503942311148e-01 1.518632951317107e-01
1.408979591836700e+11 9.188946725555189e-01 1.517663557697208e-01
1.409387755102000e+11 9.182706560705708e-01 1.508911055327538e-01
1.409795918367300e+11 9.180006503617058e-01 1.508311982469130e-01
1.410204081632700e+11 9.181210286640638e-01 1.519021883838502e-01
1.410612244898000e+11 9.181137658547198e-01 1.530087695227517e-01
1.411020408163300e+11 9.180881399146517e-01 1.520234835942283e-01
1.411428571428600e+11 9.185390702212581e-01 1.514147746861902e-01
1.411836734693900e+11 9.186900613294479e-01 1.507140487354453e-01
1.412244897959200e+11 9.189775720784203e-01 1.510329575258849e-01
1.412653061224500e+11 9.188800515597774e-01 1.510728494927252e-01
1.413061224489800e+11 9.185589019650754e-01 1.515561337686706e-01
1.413469387755100e+11 9.185034323523597e-01 1.521287946364787e-01
1.413877551020400e+11 9.184198844304537e-01 1.522013532019327e-01
1.414285714285700e+11 9.183438040704870e-01 1.523618934571514e-01
1.414693877551000e+11 9.187838637530121e-01 1.518345275212729e-01
1.415102040816300e+11 9.186508157394725e-01 1.514233799690844e-01
1.415510204081600e+11 9.184788736636790e-01 1.521584970632428e-01
1.415918367346900e+11 9.183188148395464e-01 1.525997210286040e-01
1.416326530612200e+11 9.184315557086027e-01 1.523178650639418e-01
1.416734693877600e+11 9.181687629161888e-01 1.520836224680651e-01
1.417142857142900e+11 9.178813011988002e-01 1.531231932422020e-01
1.417551020408200e+11 9.178581018675769e-01 1.530916049550984e-01
1.417959183673500e+11 9.179172402648356e-01 1.528579667681347e-01
1.418367346938800e+11 9.182729580893192e-01 1.521504895312881e-01
1.418775510204100e+11 9.186257726313464e-01 1.524027011891857e-01
1.419183673469400e+11 9.185963645311684e-01 1.530985647993699e-01
1.419591836734700e+11 9.184008094264356e-01 1.542178183773285e-01
1.420000000000000e+11 9.192904668863487e-01 1.541891343846467e-01
1.420408163265300e+11 9.197556396322104e-01 1.531172342648771e-01
1.420816326530600e+11 9.197002657135677e-01 1.530888698624304e-01
1.421224489795900e+11 9.196101046029526e-01 1.532527233700459e-01
1.421632653061200e+11 9.196287210302698e-01 1.530070897242596e-01
1.422040816326500e+11 9.193773293474362e-01 1.526348120836290e-01
1.422448979591800e+11 9.190581369204222e-01 1.525377524159757e-01
1.422857142857100e+11 9.188084088482851e-01 1.524972820094440e-01
1.423265306122400e+11 9.181595277575719e-01 1.526941671055663e-01
1.423673469387800e+11 9.180174942862205e-01 1.532545158412338e-01
1.424081632653100e+11 9.179333495828801e-01 1.530713134078880e-01
1.424489795918400e+11 9.176474760756295e-01 1.518559448105837e-01
1.424897959183700e+11 9.174869332234770e-01 1.515466943661823e-01
1.425306122449000e+11 9.176411841733534e-01 1.517118951925526e-01
1.425714285714300e+11 9.179143530281357e-01 1.528687427839431e-01
1.426122448979600e+11 9.178636111554107e-01 1.534965953713084e-01
1.426530612244900e+11 9.176080964341068e-01 1.527376663239532e-01
1.426938775510200e+11 9.173347125645926e-01 1.517961088568787e-01
1.427346938775500e+11 9.178071704905990e-01 1.513134810952412e-01
1.427755102040800e+11 9.177355052806803e-01 1.519660235466569e-01
1.428163265306100e+11 9.172870695447241e-01 1.520863734611164e-01
1.428571428571400e+11 9.168196429921396e-01 1.518978066347620e-01
1.428979591836700e+11 9.165706605536394e-01 1.511226862343015e-01
1.429387755102000e+11 9.160703461328229e-01 1.503438854404560e-01
1.429795918367300e+11 9.154177168309831e-01 1.511219391317091e-01
1.430204081632700e+11 9.147281175563480e-01 1.512592444141801e-01
1.430612244898000e+11 9.139315793857828e-01 1.512614439241652e-01
1.431020408163300e+11 9.133561366192587e-01 1.512803580559235e-01
1.431428571428600e+11 9.130317223553260e-01 1.514902304231001e-01
1.431836734693900e+11 9.127562842310236e-01 1.516945019908407e-01
1.432244897959200e+11 9.129892792743085e-01 1.510694162139805e-01
1.432653061224500e+11 9.137775131464472e-01 1.503776899614300e-01
1.433061224489800e+11 9.141383548551419e-01 1.502264384036073e-01
1.433469387755100e+11 9.144406911814905e-01 1.510044116849414e-01
1.433877551020400e+11 9.144761615240826e-01 1.514272524366570e-01
1.434285714285700e+11 9.150531027501291e-01 1.507938072389739e-01
1.434693877551000e+11 9.155790969712503e-01 1.501211767666806e-01
1.435102040816300e+11 9.156350276503534e-01 1.494226236941057e-01
1.435510204081600e+11 9.153882712751206e-01 1.492419486099631e-01
1.435918367346900e+11 9.145164199504567e-01 1.497281654066822e-01
1.436326530612200e+11 9.143551359973777e-01 1.508635857780148e-01
1.436734693877600e+11 9.145394164815382e-01 1.512139587340028e-01
1.437142857142900e+11 9.141845084271127e-01 1.504163178732495e-01
1.437551020408200e+11 9.135929787650721e-01 1.503600874659332e-01
1.437959183673500e+11 9.128211581035799e-01 1.500817599072213e-01
1.438367346938800e+11 9.122856050079540e-01 1.500535492692477e-01
1.438775510204100e+11 9.119150641010526e-01 1.512036887483616e-01
1.439183673469400e+11 9.114309830372800e-01 1.520853934212821e-01
1.439591836734700e+11 9.116737306031377e-01 1.525420903631905e-01
1.440000000000000e+11 9.119753239704785e-01 1.526863149174749e-01
1.440408163265300e+11 9.126176634564915e-01 1.526413537697102e-01
1.440816326530600e+11 9.132048700294738e-01 1.525242416832497e-01
1.441224489795900e+11 9.133881123056867e-01 1.528207960408792e-01
1.441632653061200e+11 9.142792829831329e-01 1.533716661138786e-01
1.442040816326500e+11 9.143930361318582e-01 1.532743293729699e-01
1.442448979591800e+11 9.144501227587306e-01 1.527662040563710e-01
1.442857142857100e+11 9.143983091717215e-01 1.532462810567691e-01
1.443265306122400e+11 9.146171555510825e-01 1.534057156996548e-01
1.443673469387800e+11 9.143750605601836e-01 1.532595619385727e-01
1.444081632653100e+11 9.138832615121616e-01 1.511624242042058e-01
1.444489795918400e+11 9.132020098184725e-01 1.516490686895188e-01
1.444897959183700e+11 9.124095225556025e-01 1.526425522058049e-01
1.445306122449000e+11 9.116046283118887e-01 1.528838681987591e-01
1.445714285714300e+11 9.109526676785076e-01 1.526168678365659e-01
1.446122448979600e+11 9.104289731387785e-01 1.525060753840632e-01
1.446530612244900e+11 9.095167411148757e-01 1.535851077917163e-01
1.446938775510200e+11 9.095943043051441e-01 1.538709437337741e-01
1.447346938775500e+11 9.096573942216610e-01 1.535091728134377e-01
1.447755102040800e+11 9.100094228091359e-01 1.530909828090638e-01
1.448163265306100e+11 9.106255377509552e-01 1.534136055273457e-01
1.448571428571400e+11 9.112507286685663e-01 1.539790833046888e-01
1.448979591836700e+11 9.121874457468837e-01 1.534230778972886e-01
1.449387755102000e+11 9.129445071574370e-01 1.527999151146792e-01
1.449795918367300e+11 9.138955001592365e-01 1.528880838584404e-01
1.450204081632700e+11 9.142405288162834e-01 1.538273236262833e-01
1.450612244898000e+11 9.148941256070467e-01 1.535908608674368e-01
1.451020408163300e+11 9.146124267335398e-01 1.526151892474940e-01
1.451428571428600e+11 9.144377666002602e-01 1.522502783146664e-01
1.451836734693900e+11 9.139043396094603e-01 1.514968573245901e-01
1.452244897959200e+11 9.131145642639028e-01 1.521108109578539e-01
1.452653061224500e+11 9.126005521057049e-01 1.522337375144114e-01
1.453061224489800e+11 9.110913782338588e-01 1.525070246156519e-01
1.453469387755100e+11 9.099878035239488e-01 1.517145429411718e-01
1.453877551020400e+11 9.095865134787446e-01 1.515679526358684e-01
1.454285714285700e+11 9.094523030146242e-01 1.524521272681241e-01
1.454693877551000e+11 9.096299593968536e-01 1.532057789891296e-01
1.455102040816300e+11 9.093287301829768e-01 1.538266277276726e-01
1.455510204081600e+11 9.095062089417213e-01 1.543486344857451e-01
1.455918367346900e+11 9.102198994101074e-01 1.544733289313196e-01
1.456326530612200e+11 9.108903104669486e-01 1.541607604562622e-01
1.456734693877600e+11 9.118366360612041e-01 1.541948450409522e-01
1.457142857142900e+11 9.127577472715449e-01 1.545163175013363e-01
1.457551020408200e+11 9.133615289619821e-01 1.538777829637464e-01
1.457959183673500e+11 9.135690535163642e-01 1.521274793624409e-01
1.458367346938800e+11 9.137981775940240e-01 1.512113628563405e-01
1.458775510204100e+11 9.140747813631326e-01 1.515808197753847e-01
1.459183673469400e+11 9.141707046424286e-01 1.526534798067754e-01
1.459591836734700e+11 9.140734510088993e-01 1.523645119599707e-01
1.460000000000000e+11 9.135080051242512e-01 1.507752642694058e-01
1.460408163265300e+11 9.125113908154356e-01 1.491547089910250e-01
1.460816326530600e+11 9.121648053679524e-01 1.494984042759542e-01
1.461224489795900e+11 9.117251857946420e-01 1.512178334134300e-01
1.461632653061200e+11 9.109403745045174e-01 1.503297519399109e-01
1.462040816326500e+11 9.099133484163143e-01 1.494840167703368e-01
1.462448979591800e+11 9.095901770233001e-01 1.489253162573368e-01
1.462857142857100e+11 9.097332734963853e-01 1.504487204144712e-01
1.463265306122400e+11 9.098319336705213e-01 1.519025145772393e-01
1.463673469387800e+11 9.102191251213229e-01 1.513030645173551e-01
1.464081632653100e+11 9.106853400441562e-01 1.495710325467939e-01
1.464489795918400e+11 9.115723795889035e-01 1.504892381688122e-01
1.464897959183700e+11 9.123112212673922e-01 1.507991393479257e-01
1.465306122449000e+11 9.129704366607105e-01 1.507850788783384e-01
1.465714285714300e+11 9.133760303155916e-01 1.500355334886052e-01
1.466122448979600e+11 9.137038355094497e-01 1.494905425398607e-01
1.466530612244900e+11 9.144370293679505e-01 1.484525602711743e-01
1.466938775510200e+11 9.142595993417786e-01 1.476405728871111e-01
1.467346938775500e+11 9.138686755385675e-01 1.465370277824426e-01
1.467755102040800e+11 9.135055371542045e-01 1.467851045340535e-01
1.468163265306100e+11 9.127919540243905e-01 1.464165942226833e-01
1.468571428571400e+11 9.125017317865429e-01 1.445715484914476e-01
1.468979591836700e+11 9.113775740772190e-01 1.450192092529438e-01
1.469387755102000e+11 9.110990463868094e-01 1.457713076084935e-01
1.469795918367300e+11 9.102624916638001e-01 1.473935805090817e-01
1.470204081632700e+11 9.100840071504374e-01 1.472516071857874e-01
1.470612244898000e+11 9.102132838667019e-01 1.454422092223273e-01
1.471020408163300e+11 9.100593220393626e-01 1.455858637480528e-01
1.471428571428600e+11 9.106730802386946e-01 1.473874270396144e-01
1.471836734693900e+11 9.105471891374454e-01 1.484640029140608e-01
1.472244897959200e+11 9.110017492069611e-01 1.477555595134620e-01
1.472653061224500e+11 9.120904247001612e-01 1.473060209172918e-01
1.473061224489800e+11 9.127690004993694e-01 1.468551343941624e-01
1.473469387755100e+11 9.127143547713504e-01 1.468326992567833e-01
1.473877551020400e+11 9.126026489305586e-01 1.469191343110661e-01
1.474285714285700e+11 9.137715204452319e-01 1.457162957053402e-01
1.474693877551000e+11 9.138924996176578e-01 1.446944402549746e-01
1.475102040816300e+11 9.133214208045276e-01 1.444915591743894e-01
1.475510204081600e+11 9.133484547020325e-01 1.454048916144193e-01
1.475918367346900e+11 9.133196201277569e-01 1.455059474734302e-01
1.476326530612200e+11 9.123638553907872e-01 1.440804618238591e-01
1.476734693877600e+11 9.120090533304698e-01 1.444252660370239e-01
1.477142857142900e+11 9.114863039764511e-01 1.453680073295017e-01
1.477551020408200e+11 9.107165441465835e-01 1.466473140855487e-01
1.477959183673500e+11 9.104452551803628e-01 1.471584795487872e-01
1.478367346938800e+11 9.102301481549160e-01 1.478832451222331e-01
1.478775510204100e+11 9.105035570276802e-01 1.472961841101462e-01
1.479183673469400e+11 9.104439323403755e-01 1.475829324459053e-01
1.479591836734700e+11 9.104951268682510e-01 1.471725429852684e-01
1.480000000000000e+11 9.103835493020453e-01 1.484786288683566e-01
1.480408163265300e+11 9.108977637006016e-01 1.499341726140814e-01
1.480816326530600e+11 9.115471906505020e-01 1.502232594668010e-01
1.481224489795900e+11 9.126052671075437e-01 1.484685360552776e-01
1.481632653061200e+11 9.125173633234538e-01 1.481622033383986e-01
1.482040816326500e+11 9.126308503440729e-01 1.476972712889315e-01
1.482448979591800e+11 9.123684270119091e-01 1.474072839817525e-01
1.482857142857100e+11 9.123069786632212e-01 1.466308918274941e-01
1.483265306122400e+11 9.121962425832352e-01 1.446044609645159e-01
1.483673469387800e+11 9.115834705716070e-01 1.446105677242817e-01
1.484081632653100e+11 9.109160541655862e-01 1.467827899642601e-01
1.484489795918400e+11 9.105209033058130e-01 1.469633960712302e-01
1.484897959183700e+11 9.100275585026391e-01 1.466358189487753e-01
1.485306122449000e+11 9.097661656208956e-01 1.442375807631096e-01
1.485714285714300e+11 9.100042927216496e-01 1.448010772250044e-01
1.486122448979600e+11 9.099551812908493e-01 1.461314192680237e-01
1.486530612244900e+11 9.094158591087421e-01 1.487374968684059e-01
1.486938775510200e+11 9.099238367882027e-01 1.473058753597663e-01
1.487346938775500e+11 9.104978147795877e-01 1.487385972937384e-01
1.487755102040800e+11 9.106205812790954e-01 1.503057129916030e-01
1.488163265306100e+11 9.105053870459111e-01 1.511932996510103e-01
1.488571428571400e+11 9.114423871858049e-01 1.493973014924088e-01
1.488979591836700e+11 9.117256867375597e-01 1.489986992308507e-01
1.489387755102000e+11 9.118600032115917e-01 1.495097188795666e-01
1.489795918367300e+11 9.120198929595335e-01 1.528451553633651e-01
1.490204081632700e+11 9.122751413482976e-01 1.530519080601389e-01
1.490612244898000e+11 9.130283880824822e-01 1.517444266753967e-01
1.491020408163300e+11 9.131229226906651e-01 1.513460669783396e-01
1.491428571428600e+11 9.124793246485221e-01 1.530778458792992e-01
1.491836734693900e+11 9.119897161997584e-01 1.542851213891602e-01
1.492244897959200e+11 9.112681173854769e-01 1.542421907113433e-01
1.492653061224500e+11 9.107268968810582e-01 1.528537070839019e-01
1.493061224489800e+11 9.102840800669999e-01 1.535076318297387e-01
1.493469387755100e+11 9.093978540554610e-01 1.547118957653359e-01
1.493877551020400e+11 9.086649378609519e-01 1.559553969870240e-01
1.494285714285700e+11 9.084512483118778e-01 1.562150648576661e-01
1.494693877551000e+11 9.083393576719019e-01 1.572777855066357e-01
1.495102040816300e+11 9.084891092816630e-01 1.568877691104260e-01
1.495510204081600e+11 9.084926863621076e-01 1.568382919951669e-01
1.495918367346900e+11 9.084345977914361e-01 1.561437740954619e-01
1.496326530612200e+11 9.081888789116965e-01 1.576227009556309e-01
1.496734693877600e+11 9.087482634019146e-01 1.576960764646987e-01
1.497142857142900e+11 9.096141745037083e-01 1.571762401993755e-01
1.497551020408200e+11 9.098039220161320e-01 1.559593954562248e-01
1.497959183673500e+11 9.097675052940029e-01 1.568900046068850e-01
1.498367346938800e+11 9.097999478175802e-01 1.579693835715199e-01
1.498775510204100e+11 9.098082703232093e-01 1.579878456332129e-01
1.499183673469400e+11 9.100250574496533e-01 1.566691956867685e-01
1.499591836734700e+11 9.098434953810549e-01 1.570225523880811e-01
1.500000000000000e+11 9.097557616274270e-01 1.571771834529494e-01
1.500408163265300e+11 9.097293867173869e-01 1.578576937180164e-01
1.500816326530600e+11 9.095365030511738e-01 1.568800184634981e-01
1.501224489795900e+11 9.095034837441893e-01 1.570543939501049e-01
1.501632653061200e+11 9.087433228731338e-01 1.562032691421665e-01
1.502040816326500e+11 9.088769667705260e-01 1.584601230372533e-01
1.502448979591800e+11 9.086105780774508e-01 1.607811422960002e-01
1.502857142857100e+11 9.090244347770937e-01 1.611890028177994e-01
1.503265306122400e+11 9.088141800805671e-01 1.606173422220823e-01
1.503673469387800e+11 9.096450983960604e-01 1.595865509943041e-01
1.504081632653100e+11 9.096068379009074e-01 1.599264128128856e-01
1.504489795918400e+11 9.096168315178865e-01 1.635061249133880e-01
1.504897959183700e+11 9.096553078556818e-01 1.634448537320147e-01
1.505306122449000e+11 9.099953803726285e-01 1.641374705370880e-01
1.505714285714300e+11 9.108149800422747e-01 1.642128212179571e-01
1.506122448979600e+11 9.113544758352782e-01 1.647161961329305e-01
1.506530612244900e+11 9.109360269403530e-01 1.645848653150938e-01
1.506938775510200e+11 9.105934481348955e-01 1.641798706520454e-01
1.507346938775500e+11 9.102442174531481e-01 1.641752964804868e-01
1.507755102040800e+11 9.103017754328367e-01 1.635698748938290e-01
1.508163265306100e+11 9.106641381724323e-01 1.636857143811703e-01
1.508571428571400e+11 9.105711991914165e-01 1.640989406756569e-01
1.508979591836700e+11 9.095149740481814e-01 1.644859841739942e-01
1.509387755102000e+11 9.087121317364801e-01 1.644533881289215e-01
1.509795918367300e+11 9.090051553553496e-01 1.639702978403209e-01
1.510204081632700e+11 9.089110516388720e-01 1.637188449198642e-01
1.510612244898000e+11 9.084375826282849e-01 1.629877239701786e-01
1.511020408163300e+11 9.084591848418195e-01 1.625779322640182e-01
1.511428571428600e+11 9.081507871562938e-01 1.631623847686127e-01
1.511836734693900e+11 9.084474666936063e-01 1.636615608714573e-01
1.512244897959200e+11 9.091284950740159e-01 1.640093929784539e-01
1.512653061224500e+11 9.088370423333925e-01 1.643427017977342e-01
1.513061224489800e+11 9.087925023413592e-01 1.644264264014988e-01
1.513469387755100e+11 9.091804655398239e-01 1.626851609524333e-01
1.513877551020400e+11 9.099186364498130e-01 1.613070965217093e-01
1.514285714285700e+11 9.101431570630891e-01 1.607438246234715e-01
1.514693877551000e+11 9.101413178026345e-01 1.607255386563454e-01
1.515102040816300e+11 9.101668453024838e-01 1.612279862593802e-01
1.515510204081600e+11 9.105336798650179e-01 1.610477238369977e-01
1.515918367346900e+11 9.106293511380200e-01 1.597108846011232e-01
1.516326530612200e+11 9.104516635454272e-01 1.582803487768512e-01
1.516734693877600e+11 9.098340323460354e-01 1.586662930469060e-01
1.517142857142900e+11 9.094831361007041e-01 1.581384370487663e-01
1.517551020408200e+11 9.092308457127468e-01 1.584265868767611e-01
1.517959183673500e+11 9.088460253540412e-01 1.583013067354576e-01
1.518367346938800e+11 9.086592026137352e-01 1.586596296662652e-01
1.518775510204100e+11 9.084858660524062e-01 1.587358671250409e-01
1.519183673469400e+11 9.085534417684873e-01 1.585460333900275e-01
1.519591836734700e+11 9.086145965021342e-01 1.582221603504715e-01
1.520000000000000e+11 9.084610241274296e-01 1.579267333478047e-01
1.520408163265300e+11 9.084344866766456e-01 1.575541581487103e-01
1.520816326530600e+11 9.093265321711180e-01 1.568511486169869e-01
1.521224489795900e+11 9.093434078579459e-01 1.561451181539591e-01
1.521632653061200e+11 9.096150367735383e-01 1.563757999111423e-01
1.522040816326500e+11 9.095292622097133e-01 1.559458625674459e-01
1.522448979591800e+11 9.099103068962673e-01 1.546738576184546e-01
1.522857142857100e+11 9.099468593601558e-01 1.536796396673451e-01
1.523265306122400e+11 9.098517292416451e-01 1.528853864746537e-01
1.523673469387800e+11 9.095637093184997e-01 1.529657573718778e-01
1.524081632653100e+11 9.094568080949126e-01 1.513347507096411e-01
1.524489795918400e+11 9.094424689503953e-01 1.509769667676729e-01
1.524897959183700e+11 9.090282345842704e-01 1.516588644987649e-01
1.525306122449000e+11 9.088922817660603e-01 1.517270321227205e-01
1.525714285714300e+11 9.082786525326654e-01 1.516614160149316e-01
1.526122448979600e+11 9.078520345627090e-01 1.508956182284027e-01
1.526530612244900e+11 9.077438353907775e-01 1.509793259491889e-01
1.526938775510200e+11 9.069995589481763e-01 1.516749792290451e-01
1.527346938775500e+11 9.069160082257455e-01 1.518202575081414e-01
1.527755102040800e+11 9.068171304966142e-01 1.516656269169434e-01
1.528163265306100e+11 9.068246451944463e-01 1.512987715842059e-01
1.528571428571400e+11 9.072265645963163e-01 1.509428484904110e-01
1.528979591836700e+11 9.069888518200270e-01 1.501979218892913e-01
1.529387755102000e+11 9.074191722890724e-01 1.497899117652459e-01
1.529795918367300e+11 9.073166101302381e-01 1.485502577827289e-01
1.530204081632700e+11 9.065275191813142e-01 1.472621225562834e-01
1.530612244898000e+11 9.061975410321915e-01 1.462367745500963e-01
1.531020408163300e+11 9.061922703171651e-01 1.461336564539874e-01
1.531428571428600e+11 9.061047732430860e-01 1.452545867612821e-01
1.531836734693900e+11 9.063357551022843e-01 1.438001185272541e-01
1.532244897959200e+11 9.059105920345538e-01 1.422952699962224e-01
1.532653061224500e+11 9.052170295016626e-01 1.416320487301742e-01
1.533061224489800e+11 9.051628846182467e-01 1.423202989908862e-01
1.533469387755100e+11 9.051357347187999e-01 1.416872687187543e-01
1.533877551020400e+11 9.046177217367639e-01 1.399395193757656e-01
1.534285714285700e+11 9.044025117699122e-01 1.385053985034903e-01
1.534693877551000e+11 9.044739438671759e-01 1.383120451524381e-01
1.535102040816300e+11 9.056596119559682e-01 1.394588547348283e-01
1.535510204081600e+11 9.057161981381948e-01 1.390400869144182e-01
1.535918367346900e+11 9.057620659905371e-01 1.373849928935642e-01
1.536326530612200e+11 9.057695780455987e-01 1.360931469805406e-01
1.536734693877600e+11 9.063972935843218e-01 1.364698566196167e-01
1.537142857142900e+11 9.066132666465344e-01 1.359890496539234e-01
1.537551020408200e+11 9.072118436117113e-01 1.360102394791731e-01
1.537959183673500e+11 9.087123809487329e-01 1.352396248385369e-01
1.538367346938800e+11 9.092649301824506e-01 1.347223699425235e-01
1.538775510204100e+11 9.088878514995509e-01 1.338431211371526e-01
1.539183673469400e+11 9.092777864582676e-01 1.341036206885997e-01
1.539591836734700e+11 9.091765224734187e-01 1.334693799633501e-01
1.540000000000000e+11 9.087684687454162e-01 1.348405134660716e-01
1.540408163265300e+11 9.086684661215078e-01 1.339402406609984e-01
1.540816326530600e+11 9.085778070717015e-01 1.324679592140929e-01
1.541224489795900e+11 9.078936519525417e-01 1.333387628177620e-01
1.541632653061200e+11 9.081124572658600e-01 1.343440555361894e-01
1.542040816326500e+11 9.073191254923826e-01 1.350847640617543e-01
1.542448979591800e+11 9.075452195293043e-01 1.338765692754227e-01
1.542857142857100e+11 9.076196594439981e-01 1.332078418472533e-01
1.543265306122400e+11 9.074521762043521e-01 1.329157410269223e-01
1.543673469387800e+11 9.078885419706977e-01 1.327337466740359e-01
1.544081632653100e+11 9.076015198782019e-01 1.313696339511992e-01
1.544489795918400e+11 9.078788938760158e-01 1.284470162273915e-01
1.544897959183700e+11 9.078200982885292e-01 1.274098978904031e-01
1.545306122449000e+11 9.078576154816336e-01 1.269076510593122e-01
1.545714285714300e+11 9.076860413375387e-01 1.259240071629603e-01
1.546122448979600e+11 9.076934307364053e-01 1.227924017318400e-01
1.546530612244900e+11 9.074149409205265e-01 1.203231857329666e-01
1.546938775510200e+11 9.075740731160150e-01 1.190264198886813e-01
1.547346938775500e+11 9.071100324488910e-01 1.188658584714261e-01
1.547755102040800e+11 9.073208890263457e-01 1.181572609474065e-01
1.548163265306100e+11 9.074591209255993e-01 1.173718586982470e-01
1.548571428571400e+11 9.079739836104473e-01 1.173180916747818e-01
1.548979591836700e+11 9.085443907199483e-01 1.176352447086374e-01
1.549387755102000e+11 9.081167808036702e-01 1.175525552542192e-01
1.549795918367300e+11 9.089344609210948e-01 1.177324845226767e-01
1.550204081632700e+11 9.174627170491286e-01 1.006913690934485e-01
1.550612244898000e+11 9.193587788493560e-01 1.014255291360527e-01
1.551020408163300e+11 9.204976545555201e-01 1.001137220434644e-01
1.551428571428600e+11 9.217575510327539e-01 9.523249241973666e-02
1.551836734693900e+11 9.217083466894026e-01 9.604086929739536e-02
1.552244897959200e+11 9.224537074672891e-01 9.613311816496868e-02
1.552653061224500e+11 9.231393019095626e-01 9.443986796783307e-02
1.553061224489800e+11 9.239538727472520e-01 9.551130347105991e-02
1.553469387755100e+11 9.239635809369289e-01 9.570558709615459e-02
1.553877551020400e+11 9.238114324247659e-01 9.600426348906514e-02
1.554285714285700e+11 9.236229245999302e-01 9.666225832455258e-02
1.554693877551000e+11 9.241388249529531e-01 9.714942408699483e-02
1.555102040816300e+11 9.244118550920184e-01 9.814192062335418e-02
1.555510204081600e+11 9.238462235345888e-01 9.745074091786426e-02
1.555918367346900e+11 9.234063840922946e-01 9.621682394714635e-02
1.556326530612200e+11 9.228285551222822e-01 9.617738202328339e-02
1.556734693877600e+11 9.230559183878662e-01 9.700789049188963e-02
1.557142857142900e+11 9.230588186547171e-01 9.849897860275786e-02
1.557551020408200e+11 9.234154185718948e-01 9.792848255206185e-02
1.557959183673500e+11 9.234174812783749e-01 9.695560476782876e-02
1.558367346938800e+11 9.237019251058055e-01 9.458516605705364e-02
1.558775510204100e+11 9.234104566102528e-01 9.352723286072068e-02
1.559183673469400e+11 9.240293192814454e-01 9.430991302633110e-02
1.559591836734700e+11 9.246426379485326e-01 9.469712680092483e-02
1.560000000000000e+11 9.257532846720004e-01 9.434753871586081e-02
1.560408163265300e+11 9.252408225462767e-01 9.213630927879651e-02
1.560816326530600e+11 9.263490725704560e-01 9.147402453566750e-02
1.561224489795900e+11 9.271494554552868e-01 9.162117620907283e-02
1.561632653061200e+11 9.277673916584750e-01 9.077489170363356e-02
1.562040816326500e+11 9.283977745412629e-01 9.093081401772436e-02
1.562448979591800e+11 9.289018875710485e-01 8.981441319551571e-02
1.562857142857100e+11 9.287753908587937e-01 9.052342389529394e-02
1.563265306122400e+11 9.289102367185238e-01 9.309739336814048e-02
1.563673469387800e+11 9.296733184037269e-01 9.449538321888319e-02
1.564081632653100e+11 9.300435514463015e-01 9.426132645704839e-02
1.564489795918400e+11 9.304599047950521e-01 9.480170614875663e-02
1.564897959183700e+11 9.299840059733840e-01 9.576955148209024e-02
1.565306122449000e+11 9.307155145243994e-01 9.821502405678111e-02
1.565714285714300e+11 9.315895253235049e-01 1.007070311297746e-01
1.566122448979600e+11 9.327010045149238e-01 1.014446176853421e-01
1.566530612244900e+11 9.328790168998999e-01 1.021360722303245e-01
1.566938775510200e+11 9.330709343561526e-01 1.042638922708073e-01
1.567346938775500e+11 9.333881681199568e-01 1.056402925228237e-01
1.567755102040800e+11 9.340383366794648e-01 1.062277863794746e-01
1.568163265306100e+11 9.344450621993136e-01 1.068605347034249e-01
1.568571428571400e+11 9.351757294774254e-01 1.072790037107950e-01
1.568979591836700e+11 9.350920321780961e-01 1.078201228285968e-01
1.569387755102000e+11 9.349198462705458e-01 1.076443842362332e-01
1.569795918367300e+11 9.349975749968893e-01 1.058143295688111e-01
1.570204081632700e+11 9.354572303836823e-01 1.064876136623212e-01
1.570612244898000e+11 9.352850228852925e-01 1.073209231030536e-01
1.571020408163300e+11 9.345335167503451e-01 1.073756521611413e-01
1.571428571428600e+11 9.342265349622806e-01 1.076767829098340e-01
1.571836734693900e+11 9.344730757471098e-01 1.082321644043264e-01
1.572244897959200e+11 9.347566106276322e-01 1.085576728424113e-01
1.572653061224500e+11 9.346918588673586e-01 1.090316036863384e-01
1.573061224489800e+11 9.346493739672985e-01 1.103974654231230e-01
1.573469387755100e+11 9.344099276453462e-01 1.127613422281676e-01
1.573877551020400e+11 9.352400716148406e-01 1.145148271715132e-01
1.574285714285700e+11 9.359947104399227e-01 1.145306593703646e-01
1.574693877551000e+11 9.363704657200762e-01 1.154078020710514e-01
1.575102040816300e+11 9.368182786516184e-01 1.160103933926090e-01
1.575510204081600e+11 9.378437277666828e-01 1.172174769331653e-01
1.575918367346900e+11 9.382514295705979e-01 1.173498989262884e-01
1.576326530612200e+11 9.395832950509092e-01 1.193026199896445e-01
1.576734693877600e+11 9.400228112776786e-01 1.178450275843992e-01
1.577142857142900e+11 9.404282230208736e-01 1.177038167914713e-01
1.577551020408200e+11 9.410574788542443e-01 1.183689787254229e-01
1.577959183673500e+11 9.415776740072752e-01 1.192258038743148e-01
1.578367346938800e+11 9.421283986603082e-01 1.207153894499592e-01
1.578775510204100e+11 9.419846552499093e-01 1.204697686081613e-01
1.579183673469400e+11 9.414178893106320e-01 1.207567041944180e-01
1.579591836734700e+11 9.407860835427745e-01 1.200730472589297e-01
1.580000000000000e+11 9.406604978604418e-01 1.210244973875924e-01
1.580408163265300e+11 9.409366021681684e-01 1.233258443080287e-01
1.580816326530600e+11 9.406710662892664e-01 1.244816713829164e-01
1.581224489795900e+11 9.405318471886713e-01 1.266119025553531e-01
1.581632653061200e+11 9.411955225859223e-01 1.270966391532647e-01
1.582040816326500e+11 9.410404452544434e-01 1.288394801236611e-01
1.582448979591800e+11 9.407283613172416e-01 1.314200029844027e-01
1.582857142857100e+11 9.413785626713157e-01 1.292693333328116e-01
1.583265306122400e+11 9.425820806166859e-01 1.288401227004829e-01
1.583673469387800e+11 9.419480079175557e-01 1.287420776362050e-01
1.584081632653100e+11 9.421470342358456e-01 1.307631273540847e-01
1.584489795918400e+11 9.425220744098000e-01 1.320234185182061e-01
1.584897959183700e+11 9.431335447981188e-01 1.331392036837989e-01
1.585306122449000e+11 9.436629827627373e-01 1.317152460926165e-01
1.585714285714300e+11 9.437499558572274e-01 1.301580800774402e-01
1.586122448979600e+11 9.439472766322095e-01 1.313220093582487e-01
1.586530612244900e+11 9.436312691696926e-01 1.321408679161408e-01
1.586938775510200e+11 9.431329355780737e-01 1.329243651979721e-01
1.587346938775500e+11 9.429655882453710e-01 1.333344311988286e-01
1.587755102040800e+11 9.428342786170822e-01 1.346736580653701e-01
1.588163265306100e+11 9.418972349003807e-01 1.371151160920933e-01
1.588571428571400e+11 9.415996383016139e-01 1.373757879925312e-01
1.588979591836700e+11 9.418248746369716e-01 1.367660279352320e-01
1.589387755102000e+11 9.418638500083052e-01 1.381280644726166e-01
1.589795918367300e+11 9.415269672416031e-01 1.410291456067934e-01
1.590204081632700e+11 9.407864074140438e-01 1.425920782379416e-01
1.590612244898000e+11 9.399222628321917e-01 1.437193313396396e-01
1.591020408163300e+11 9.405730925230066e-01 1.441517571135301e-01
1.591428571428600e+11 9.410786362860393e-01 1.442799896766306e-01
1.591836734693900e+11 9.415189022337860e-01 1.437999558165899e-01
1.592244897959200e+11 9.414466456311261e-01 1.430681075729174e-01
1.592653061224500e+11 9.409448728987059e-01 1.437585399748600e-01
1.593061224489800e+11 9.401427109235619e-01 1.441990300560459e-01
1.593469387755100e+11 9.395795770679941e-01 1.433156295008524e-01
1.593877551020400e+11 9.398431685766030e-01 1.430302698645840e-01
1.594285714285700e+11 9.396630865559550e-01 1.417435831723076e-01
1.594693877551000e+11 9.393845002912149e-01 1.397386639044612e-01
1.595102040816300e+11 9.388636567542785e-01 1.392152411899690e-01
1.595510204081600e+11 9.380610020656960e-01 1.397534836504890e-01
1.595918367346900e+11 9.369480311071161e-01 1.402393894299296e-01
1.596326530612200e+11 9.365040142107990e-01 1.388267095740474e-01
1.596734693877600e+11 9.366255567978988e-01 1.368021748914809e-01
1.597142857142900e+11 9.368231607477050e-01 1.376828796959252e-01
1.597551020408200e+11 9.360905942203315e-01 1.387619492354132e-01
1.597959183673500e+11 9.358830302216101e-01 1.394382164567990e-01
1.598367346938800e+11 9.359682554018813e-01 1.375121925886317e-01
1.598775510204100e+11 9.364806021263545e-01 1.378436785677068e-01
1.599183673469400e+11 9.371348078733792e-01 1.400436256958419e-01
1.599591836734700e+11 9.378352585602773e-01 1.419194293404004e-01
1.600000000000000e+11 9.450196031978310e-01 1.373441077278183e-01
1.600408163265300e+11 9.464803133295734e-01 1.309207366959045e-01
1.600816326530600e+11 9.470294497839414e-01 1.290099529408154e-01
1.601224489795900e+11 9.473760506260892e-01 1.307495614391462e-01
1.601632653061200e+11 9.469416777832986e-01 1.306128869194147e-01
1.602040816326500e+11 9.468603979080984e-01 1.320319220815720e-01
1.602448979591800e+11 9.465270735142904e-01 1.335303749746994e-01
1.602857142857100e+11 9.461776434043284e-01 1.331824646803613e-01
1.603265306122400e+11 9.454628724208844e-01 1.331287830480202e-01
1.603673469387800e+11 9.443368166145876e-01 1.341411833389991e-01
1.604081632653100e+11 9.433181441947277e-01 1.357301949092509e-01
1.604489795918400e+11 9.420170182673774e-01 1.367775120984414e-01
1.604897959183700e+11 9.415765963275057e-01 1.351637822037729e-01
1.605306122449000e+11 9.401992057027503e-01 1.348481091322267e-01
1.605714285714300e+11 9.382626766555063e-01 1.353756198474827e-01
1.606122448979600e+11 9.370913559752896e-01 1.355761131144078e-01
1.606530612244900e+11 9.361645698167325e-01 1.360303013584255e-01
1.606938775510200e+11 9.352929912822303e-01 1.355823984747739e-01
1.607346938775500e+11 9.352870540953335e-01 1.323240066690670e-01
1.607755102040800e+11 9.350146527072893e-01 1.298641190997922e-01
1.608163265306100e+11 9.341908477123358e-01 1.252809863954697e-01
1.608571428571400e+11 9.340386376667796e-01 1.229605999316211e-01
1.608979591836700e+11 9.343527470945703e-01 1.196448977047626e-01
1.609387755102000e+11 9.345008436585394e-01 1.159949729741056e-01
1.609795918367300e+11 9.339419633087271e-01 1.122914820438588e-01
1.610204081632700e+11 9.334218917312282e-01 1.085472738715105e-01
1.610612244898000e+11 9.315625473348748e-01 1.061616818346856e-01
1.611020408163300e+11 9.302340435603943e-01 1.050027086187102e-01
1.611428571428600e+11 9.297302990507896e-01 1.031813885712998e-01
1.611836734693900e+11 9.289023127203265e-01 1.007367462960694e-01
1.612244897959200e+11 9.278809605196406e-01 1.017002194485130e-01
1.612653061224500e+11 9.270071716973211e-01 1.016646663988898e-01
1.613061224489800e+11 9.279556758066736e-01 1.010069271384419e-01
1.613469387755100e+11 9.279423397830453e-01 9.980571852383555e-02
1.613877551020400e+11 9.292161459135315e-01 9.746724321832927e-02
1.614285714285700e+11 9.296019542661980e-01 9.606860596081626e-02
1.614693877551000e+11 9.300375466805318e-01 9.661314076868634e-02
1.615102040816300e+11 9.304292524195154e-01 9.799430047295492e-02
1.615510204081600e+11 9.309760362097235e-01 9.786843494936905e-02
1.615918367346900e+11 9.314489046760862e-01 9.758930495980869e-02
1.616326530612200e+11 9.322564370286389e-01 9.757611091519129e-02
1.616734693877600e+11 9.325526998156904e-01 9.796018226024961e-02
1.617142857142900e+11 9.328930025706350e-01 9.794594736888518e-02
1.617551020408200e+11 9.331668518213003e-01 9.562693739217204e-02
1.617959183673500e+11 9.324101352847542e-01 9.481136225784192e-02
1.618367346938800e+11 9.317176761161680e-01 9.507575804776965e-02
1.618775510204100e+11 9.310059624846675e-01 9.349572628667349e-02
1.619183673469400e+11 9.303307028129756e-01 9.275806713590579e-02
1.619591836734700e+11 9.284729847894247e-01 9.130721234866504e-02
1.620000000000000e+11 9.262220210717510e-01 8.926620276878175e-02
1.620408163265300e+11 9.247251587097078e-01 8.915836180381087e-02
1.620816326530600e+11 9.221882144661764e-01 8.908042627479366e-02
1.621224489795900e+11 9.213367766921569e-01 8.801870041184374e-02
1.621632653061200e+11 9.200016802141875e-01 8.720491596262571e-02
1.622040816326500e+11 9.193837931630330e-01 8.638057878563103e-02
1.622448979591800e+11 9.183645551719143e-01 8.507838564371883e-02
1.622857142857100e+11 9.171914265945190e-01 8.362499165148683e-02
1.623265306122400e+11 9.160636789749433e-01 8.237658342705728e-02
1.623673469387800e+11 9.164934491722510e-01 7.948005121792812e-02
1.624081632653100e+11 9.163979267846789e-01 7.772700185037654e-02
1.624489795918400e+11 9.160891393807731e-01 7.522175922499455e-02
1.624897959183700e+11 9.157101690307636e-01 7.280845653727082e-02
1.625306122449000e+11 9.152465902170612e-01 7.115032035398326e-02
1.625714285714300e+11 9.146089862931920e-01 6.875494798977232e-02
1.626122448979600e+11 9.160235022152915e-01 6.789064047533311e-02
1.626530612244900e+11 9.153294157466593e-01 6.365171486709238e-02
1.626938775510200e+11 9.151826064674548e-01 5.612298268529226e-02
1.627346938775500e+11 9.176808152484099e-01 5.248973016999219e-02
1.627755102040800e+11 9.178376428521524e-01 5.089348355711065e-02
1.628163265306100e+11 9.175128230457384e-01 5.052102397196953e-02
1.628571428571400e+11 9.176813465051097e-01 4.885169703517564e-02
1.628979591836700e+11 9.183918328912609e-01 4.868542458175049e-02
1.629387755102000e+11 9.186749149180584e-01 4.805862345742369e-02
1.629795918367300e+11 9.190558989660396e-01 4.664609396654081e-02
1.630204081632700e+11 9.203974097377555e-01 4.672262148799976e-02
1.630612244898000e+11 9.212759237126238e-01 4.697664217592921e-02
1.631020408163300e+11 9.227211717198326e-01 4.694170600806809e-02
1.631428571428600e+11 9.239005871575601e-01 4.693980097801533e-02
1.631836734693900e+11 9.243447351726717e-01 4.647826235348779e-02
1.632244897959200e+11 9.244517460810651e-01 4.573948912837252e-02
1.632653061224500e+11 9.251740299225444e-01 4.528843291873614e-02
1.633061224489800e+11 9.269950296780268e-01 4.431744978089191e-02
1.633469387755100e+11 9.283129566799185e-01 4.265327260879571e-02
1.633877551020400e+11 9.288843080851547e-01 4.079857593975245e-02
1.634285714285700e+11 9.290948663463122e-01 3.986265848380770e-02
1.634693877551000e+11 9.298771921449142e-01 3.875813506410711e-02
1.635102040816300e+11 9.304581657831751e-01 3.809127109433690e-02
1.635510204081600e+11 9.311358187238944e-01 3.608105132642000e-02
1.635918367346900e+11 9.309484134319332e-01 3.329781451342170e-02
1.636326530612200e+11 9.304703346394243e-01 3.160922499977864e-02
1.636734693877600e+11 9.299778221086279e-01 3.146917673057384e-02
1.637142857142900e+11 9.300294393250594e-01 3.269251294979810e-02
1.637551020408200e+11 9.306074868681234e-01 3.383670561348704e-02
1.637959183673500e+11 9.307695776384441e-01 3.311753015440840e-02
1.638367346938800e+11 9.298943321053174e-01 3.185680361732138e-02
1.638775510204100e+11 9.292470327893094e-01 3.248857380781887e-02
1.639183673469400e+11 9.295054607244058e-01 3.361173730357665e-02
1.639591836734700e+11 9.306666411171124e-01 3.433157210077548e-02
1.640000000000000e+11 9.311294389175061e-01 3.403925764551813e-02
1.640408163265300e+11 9.316939101648365e-01 3.345730325768222e-02
1.640816326530600e+11 9.323470005681227e-01 3.337656247857015e-02
1.641224489795900e+11 9.327710888484609e-01 3.266001473260206e-02
1.641632653061200e+11 9.330385613665414e-01 2.996881189604518e-02
1.642040816326500e+11 9.333605556173031e-01 2.712096804893629e-02
1.642448979591800e+11 9.335743707944788e-01 2.497694171368550e-02
1.642857142857100e+11 9.330397883626491e-01 2.216327148367388e-02
1.643265306122400e+11 9.328083762984130e-01 2.100026477966114e-02
1.643673469387800e+11 9.330265514970636e-01 1.758717618570275e-02
1.644081632653100e+11 9.330846004794942e-01 1.508936596106909e-02
1.644489795918400e+11 9.339666220865781e-01 1.418011145542808e-02
1.644897959183700e+11 9.334247571260357e-01 1.400902950229025e-02
1.645306122449000e+11 9.334246373414605e-01 1.201319634339903e-02
1.645714285714300e+11 9.331785312672413e-01 8.812803906986485e-03
1.646122448979600e+11 9.331681622249092e-01 7.929409932147803e-03
1.646530612244900e+11 9.339269653559201e-01 8.319500042928070e-03
1.646938775510200e+11 9.343914556697318e-01 9.123864622090343e-03
1.647346938775500e+11 9.364773112322917e-01 8.132579743734249e-03
1.647755102040800e+11 9.390419060774765e-01 6.932768780258113e-03
1.648163265306100e+11 9.402971942594489e-01 6.309069498557366e-03
1.648571428571400e+11 9.422028888057735e-01 8.130968625708829e-03
1.648979591836700e+11 9.432376641424071e-01 7.175225415225406e-03
1.649387755102000e+11 9.457085404822195e-01 5.342363574762081e-03
1.649795918367300e+11 9.481844291400843e-01 5.066821987849233e-03
1.650204081632700e+11 9.500194037695706e-01 6.178480129651144e-03
1.650612244898000e+11 9.512801345743392e-01 6.659204348228720e-03
1.651020408163300e+11 9.529857716871171e-01 7.714556856048902e-03
1.651428571428600e+11 9.544792610894781e-01 1.010957287634218e-02
1.651836734693900e+11 9.551248191644282e-01 1.085026630532532e-02
1.652244897959200e+11 9.552353425341302e-01 1.054111560790907e-02
1.652653061224500e+11 9.556448058292517e-01 1.389790572394657e-02
1.653061224489800e+11 9.565909515914370e-01 1.849168849015961e-02
1.653469387755100e+11 9.567029355132800e-01 2.224645180381599e-02
1.653877551020400e+11 9.566330011355155e-01 2.487448821114943e-02
1.654285714285700e+11 9.568337783687630e-01 2.689691151220764e-02
1.654693877551000e+11 9.567040356181848e-01 3.013768797127542e-02
1.655102040816300e+11 9.562696640702876e-01 3.498594758868346e-02
1.655510204081600e+11 9.564549269221303e-01 3.943933542796843e-02
1.655918367346900e+11 9.569803955415133e-01 4.137933678592853e-02
1.656326530612200e+11 9.577521115414107e-01 4.240705432383810e-02
1.656734693877600e+11 9.585907475251995e-01 4.363323335453259e-02
1.657142857142900e+11 9.586814372370497e-01 4.360071728303877e-02
1.657551020408200e+11 9.590759130955713e-01 4.226675263268226e-02
1.657959183673500e+11 9.594120587913527e-01 4.170432537169578e-02
1.658367346938800e+11 9.594862633343642e-01 4.041418200381275e-02
1.658775510204100e+11 9.602701336131139e-01 3.910422093304067e-02
1.659183673469400e+11 9.608685981691630e-01 3.821228246085180e-02
1.659591836734700e+11 9.606322336580260e-01 3.431404767676441e-02
1.660000000000000e+11 9.602304026189252e-01 3.183473789004389e-02
1.660408163265300e+11 9.606023703325847e-01 2.982209749314161e-02
1.660816326530600e+11 9.614206118620426e-01 3.005590423680754e-02
1.661224489795900e+11 9.628784165229860e-01 3.094761166965874e-02
1.661632653061200e+11 9.636685399340033e-01 2.886259185576683e-02
1.662040816326500e+11 9.643918781986526e-01 2.722007862588541e-02
1.662448979591800e+11 9.655907777693232e-01 2.786584165105314e-02
1.662857142857100e+11 9.678945089456529e-01 3.074732749610911e-02
1.663265306122400e+11 9.710044900382885e-01 3.353545507444870e-02
1.663673469387800e+11 9.726151901774780e-01 3.136226461389177e-02
1.664081632653100e+11 9.736856529759669e-01 3.020214675331659e-02
1.664489795918400e+11 9.756651979756713e-01 3.214955761006091e-02
1.664897959183700e+11 9.780542178898692e-01 3.605559376266890e-02
1.665306122449000e+11 9.809775460509239e-01 3.902800669380514e-02
1.665714285714300e+11 9.840935197430343e-01 4.077412438224209e-02
1.666122448979600e+11 9.861597204096396e-01 4.184264193233109e-02
1.666530612244900e+11 9.876115789724087e-01 4.286183693208037e-02
1.666938775510200e+11 9.886139127149082e-01 4.369188057330244e-02
1.667346938775500e+11 9.899174316663150e-01 4.401255439153091e-02
1.667755102040800e+11 9.910950385958059e-01 4.675889865292807e-02
1.668163265306100e+11 9.929627461529421e-01 5.211367770432230e-02
1.668571428571400e+11 9.934477905966428e-01 5.519885327165763e-02
1.668979591836700e+11 9.942768981822205e-01 5.571199328259190e-02
1.669387755102000e+11 9.944578057411380e-01 5.653198945056697e-02
1.669795918367300e+11 9.949646159258009e-01 5.891738598936134e-02
1.670204081632700e+11 9.952653946258131e-01 6.292409144440589e-02
1.670612244898000e+11 9.961287651923993e-01 6.571037980163782e-02
1.671020408163300e+11 9.966365106587426e-01 6.649586891873660e-02
1.671428571428600e+11 9.979906824376726e-01 6.819657834147691e-02
1.671836734693900e+11 9.986398510822565e-01 7.068660232559959e-02
1.672244897959200e+11 9.988968696572107e-01 7.132844550075265e-02
1.672653061224500e+11 9.996763881337343e-01 7.196613236770213e-02
1.673061224489800e+11 1.001049382139622e+00 7.150642963392374e-02
1.673469387755100e+11 1.002111528087920e+00 7.241956288881016e-02
1.673877551020400e+11 1.002502338094817e+00 7.262907649253014e-02
1.674285714285700e+11 1.003204821374666e+00 7.248001011476753e-02
1.674693877551000e+11 1.004444506017553e+00 7.415318408850162e-02
1.675102040816300e+11 1.005903506904281e+00 7.533940905418318e-02
1.675510204081600e+11 1.007500693484953e+00 7.620229949257198e-02
1.675918367346900e+11 1.008875712752682e+00 7.582368893253277e-02
1.676326530612200e+11 1.009388234307602e+00 7.566422251350914e-02
1.676734693877600e+11 1.010292865290899e+00 7.830162515053642e-02
1.677142857142900e+11 1.011680868692460e+00 8.079849797267502e-02
1.677551020408200e+11 1.013087257781633e+00 8.312651379560902e-02
1.677959183673500e+11 1.013727722258389e+00 8.488324419486601e-02
1.678367346938800e+11 1.014424930658147e+00 8.704492024980984e-02
1.678775510204100e+11 1.015728415547215e+00 8.863705334398117e-02
1.679183673469400e+11 1.015985004057363e+00 9.196954416680680e-02
1.679591836734700e+11 1.015336660154020e+00 9.643679571998216e-02
1.680000000000000e+11 1.014591840128216e+00 1.000080098306458e-01
1.680408163265300e+11 1.014112447589571e+00 1.016649540820237e-01
1.680816326530600e+11 1.014403646802619e+00 1.011250015516440e-01
1.681224489795900e+11 1.014145962939073e+00 1.032622759732139e-01
1.681632653061200e+11 1.013972191049384e+00 1.045603998892899e-01
1.682040816326500e+11 1.013359587749437e+00 1.048565552025574e-01
1.682448979591800e+11 1.012902773370280e+00 1.036961960588302e-01
1.682857142857100e+11 1.012299721343984e+00 1.034405683545805e-01
1.683265306122400e+11 1.012002483216335e+00 1.048629052373579e-01
1.683673469387800e+11 1.011761028288617e+00 1.038850367642833e-01
1.684081632653100e+11 1.011674277896107e+00 1.010513321584604e-01
1.684489795918400e+11 1.011441954241111e+00 1.005658095161264e-01
1.684897959183700e+11 1.010368270747450e+00 1.016227380550343e-01
1.685306122449000e+11 1.009951502676923e+00 1.037167330429774e-01
1.685714285714300e+11 1.010008300038280e+00 1.020007379821014e-01
1.686122448979600e+11 1.010132129994208e+00 1.011631696453796e-01
1.686530612244900e+11 1.009895163371614e+00 1.032805792997438e-01
1.686938775510200e+11 1.009052530154724e+00 1.050471342273162e-01
1.687346938775500e+11 1.008727667265158e+00 1.054429947498377e-01
1.687755102040800e+11 1.008716972051938e+00 1.059604226428233e-01
1.688163265306100e+11 1.008895274567958e+00 1.068549745425644e-01
1.688571428571400e+11 1.008371375759998e+00 1.085774367381312e-01
1.688979591836700e+11 1.007631368362649e+00 1.107792392631649e-01
1.689387755102000e+11 1.007329191939139e+00 1.108104569862603e-01
1.689795918367300e+11 1.007217871762677e+00 1.099340071477157e-01
1.690204081632700e+11 1.007298995838398e+00 1.101533954491811e-01
1.690612244898000e+11 1.006683888649706e+00 1.104839961283793e-01
1.691020408163300e+11 1.006375372108668e+00 1.107043017286821e-01
1.691428571428600e+11 1.005193004368870e+00 1.101109963404966e-01
1.691836734693900e+11 1.004156001878583e+00 1.094238191047633e-01
1.692244897959200e+11 1.003346584185959e+00 1.097721275903166e-01
1.692653061224500e+11 1.002789640232534e+00 1.085411962411931e-01
1.693061224489800e+11 1.002040271510779e+00 1.065427513118061e-01
1.693469387755100e+11 1.000816253229006e+00 1.050835669805763e-01
1.693877551020400e+11 9.998063603070401e-01 1.048255790975483e-01
1.694285714285700e+11 9.989916788655676e-01 1.041762925001175e-01
1.694693877551000e+11 9.979906227893324e-01 1.036226195618891e-01
1.695102040816300e+11 9.970752701997097e-01 1.018094519332671e-01
1.695510204081600e+11 9.968856877049356e-01 9.959973770760408e-02
1.695918367346900e+11 9.967110102849779e-01 9.755586728312769e-02
1.696326530612200e+11 9.963164383929514e-01 9.721123467385410e-02
1.696734693877600e+11 9.958492987967346e-01 9.681799722480448e-02
1.697142857142900e+11 9.952769023133777e-01 9.621920445290853e-02
1.697551020408200e+11 9.952184261324599e-01 9.395589348388070e-02
1.697959183673500e+11 9.950476411558402e-01 9.179931698029115e-02
1.698367346938800e+11 9.948787251617875e-01 8.927293099828243e-02
1.698775510204100e+11 9.939965146346359e-01 8.855805239298202e-02
1.699183673469400e+11 9.935613750105481e-01 8.822284661225761e-02
1.699591836734700e+11 9.929471470032949e-01 8.723611794865301e-02
1.700000000000000e+11 9.922581558142023e-01 8.567453723260596e-02
