! Generated by Phase I extraction
# Hz S RI R 50
6.700000000000000e+10 2.512372837045716e-01 4.802740099090779e-02 3.068701735496835e-01 -8.814272567035434e-01 8.878030388177618e-01 -2.556752833853914e-01 4.773921440830478e-02 1.306980956848617e-01
6.704800000000000e+10 2.563952459104092e-01 5.049278597669103e-02 3.015962146274578e-01 -8.829868043055105e-01 8.908693383049128e-01 -2.497040783564250e-01 4.551082268114313e-02 1.286714435906504e-01
6.709600000000000e+10 2.581821195503423e-01 5.079259221526312e-02 2.983312077731251e-01 -8.809058972610631e-01 8.936526314425033e-01 -2.484248603300053e-01 4.496456757639066e-02 1.287172252190506e-01
6.714400000000000e+10 2.590472451268785e-01 4.942559202100559e-02 2.981208559126460e-01 -8.811562334086749e-01 8.936345541991433e-01 -2.501717366083036e-01 4.544986255884734e-02 1.291258899949424e-01
6.719200000000000e+10 2.569341047061686e-01 4.594077774810275e-02 3.005758963827130e-01 -8.790338864231803e-01 8.917308252210092e-01 -2.560952497466730e-01 4.670367532557204e-02 1.283291694569534e-01
6.724000000000000e+10 2.556180881077006e-01 4.794190015314657e-02 3.082892672310775e-01 -8.778330992362069e-01 8.909984167134638e-01 -2.635510268592209e-01 4.475773810804400e-02 1.289047780173589e-01
6.728800000000000e+10 2.529633547941432e-01 4.763613170695866e-02 3.129568508535976e-01 -8.773554835129014e-01 8.891086021626519e-01 -2.679102065891659e-01 4.649262921852011e-02 1.274615158937821e-01
6.733600000000000e+10 2.531976641448569e-01 5.040900143266289e-02 3.106225910352253e-01 -8.779462000335940e-01 8.873031953824788e-01 -2.661713661298986e-01 4.589735119013866e-02 1.277462196741223e-01
6.738400000000000e+10 2.569235826797965e-01 5.240566516083318e-02 3.076923949591954e-01 -8.786336698151002e-01 8.907139101972347e-01 -2.636906000177119e-01 4.447006250709637e-02 1.274198494614598e-01
6.743200000000000e+10 2.592689276929502e-01 5.079458619636873e-02 2.959774957171537e-01 -8.804507692450950e-01 8.907945825064657e-01 -2.596848530864370e-01 4.425097696616591e-02 1.297027762733138e-01
6.748000000000000e+10 2.611100263638804e-01 4.886561432757051e-02 2.943662700175058e-01 -8.832435816493290e-01 8.923076661372347e-01 -2.569082947055161e-01 4.435256348692580e-02 1.276741001010679e-01
6.752800000000000e+10 2.590411131245081e-01 4.756476180815584e-02 2.947943039899081e-01 -8.839080991117481e-01 8.930136446912753e-01 -2.582876870195053e-01 4.505405882155609e-02 1.262911321945292e-01
6.757600000000000e+10 2.552572217323349e-01 4.869297741521755e-02 2.969707276809837e-01 -8.831799579989107e-01 8.918152191289278e-01 -2.584832270941534e-01 4.562547168986582e-02 1.262477878508807e-01
6.762400000000000e+10 2.548239256851354e-01 4.984555858637259e-02 3.002926057950702e-01 -8.830355994324821e-01 8.911028234086018e-01 -2.625072044957932e-01 4.599341144732211e-02 1.253278439527478e-01
6.767200000000000e+10 2.545275135426037e-01 5.189958073181018e-02 2.999745708491287e-01 -8.813741586171638e-01 8.895657135079947e-01 -2.659791130236849e-01 4.528366768195977e-02 1.258167469547871e-01
6.772000000000000e+10 2.553960972451888e-01 5.097592667205181e-02 2.987022953092847e-01 -8.813053030898008e-01 8.892601917792663e-01 -2.656464694536789e-01 4.601192196502572e-02 1.255211641897767e-01
6.776800000000000e+10 2.568295790701297e-01 5.246774613447831e-02 2.967327814994301e-01 -8.823219588612834e-01 8.904849311043869e-01 -2.654092010503199e-01 4.517885381666288e-02 1.257685782610541e-01
6.781600000000000e+10 2.578082191981108e-01 4.998725902646469e-02 2.963589317307389e-01 -8.845214104695835e-01 8.911610387062656e-01 -2.631307414780114e-01 4.568750944237291e-02 1.256988044749194e-01
6.786400000000000e+10 2.557188332661239e-01 4.908749160585179e-02 2.950365538968763e-01 -8.880007465584353e-01 8.929444683630299e-01 -2.631340650565285e-01 4.503940820565833e-02 1.258573532443649e-01
6.791200000000000e+10 2.541279573877961e-01 4.764375971152825e-02 2.950272403333367e-01 -8.838443337147054e-01 8.890819318899317e-01 -2.674891535907177e-01 4.597102172765138e-02 1.263083651650238e-01
6.796000000000000e+10 2.545450162423564e-01 4.899677259182337e-02 2.968111187480785e-01 -8.823118100018340e-01 8.910747557271126e-01 -2.693185601280043e-01 4.755760631244737e-02 1.242451078929442e-01
6.800800000000000e+10 2.551720151582319e-01 5.066111158232434e-02 2.951943463843061e-01 -8.800832662589387e-01 8.888427469276917e-01 -2.690840546518783e-01 4.789212217481909e-02 1.251089160333179e-01
6.805600000000000e+10 2.557850981778633e-01 4.856116126896501e-02 2.958603651770796e-01 -8.825108944373832e-01 8.876003906450006e-01 -2.674831222831233e-01 4.792848517966138e-02 1.241438969709801e-01
6.810400000000000e+10 2.564681392345107e-01 4.762020047962473e-02 2.985562508767127e-01 -8.819292793980037e-01 8.876216401156874e-01 -2.712530413779129e-01 4.901339470070037e-02 1.233772540024195e-01
6.815200000000000e+10 2.551384506976004e-01 4.581542167547935e-02 3.004800593271344e-01 -8.821610318975946e-01 8.883843911609662e-01 -2.730949815103512e-01 4.922350718150351e-02 1.228865377529963e-01
6.820000000000000e+10 2.527772635317664e-01 4.560102539870177e-02 2.979005267138514e-01 -8.804580460953505e-01 8.905368085725951e-01 -2.717868264520519e-01 4.873278628445837e-02 1.231769118507065e-01
6.824800000000000e+10 2.520149443376423e-01 4.583198886729585e-02 2.886718668955096e-01 -8.832932556513211e-01 8.902967707551095e-01 -2.674977609991359e-01 4.705785778687090e-02 1.236709112554527e-01
6.829600000000000e+10 2.533292891843399e-01 4.940232275826315e-02 2.841681855712992e-01 -8.854749035426585e-01 8.911953217799501e-01 -2.659721930782804e-01 4.806137028191455e-02 1.228928070061538e-01
6.834400000000000e+10 2.557805017878490e-01 5.132425579650938e-02 2.840075341361499e-01 -8.862352772802844e-01 8.898576903792917e-01 -2.627983916789320e-01 5.004314538999776e-02 1.234941124354215e-01
6.839200000000000e+10 2.571728242085232e-01 5.113400413501659e-02 2.839374090960904e-01 -8.854118309429780e-01 8.896300800054761e-01 -2.637354398802248e-01 5.019464653907987e-02 1.235952492846769e-01
6.844000000000000e+10 2.577932503141941e-01 4.590589678911373e-02 2.907089647824221e-01 -8.842165519708168e-01 8.907197310229249e-01 -2.669711209358037e-01 5.191532708800047e-02 1.232285182367682e-01
6.848800000000000e+10 2.536312893291484e-01 4.638878546888350e-02 2.913730009220534e-01 -8.802199716782193e-01 8.890752127710281e-01 -2.747876639822462e-01 4.937686654082841e-02 1.222994039636815e-01
6.853600000000000e+10 2.514546983544644e-01 4.332703986217868e-02 2.933559634481082e-01 -8.830737696178582e-01 8.892958084500268e-01 -2.787109050988594e-01 5.074732389997280e-02 1.201478159225906e-01
6.858400000000000e+10 2.503045803657490e-01 4.691840733902608e-02 2.932790602140312e-01 -8.822919407891732e-01 8.883900175741537e-01 -2.792864834965483e-01 4.975527975548170e-02 1.214325241127902e-01
6.863200000000000e+10 2.514223926935025e-01 4.937765291014660e-02 2.943406421444122e-01 -8.840030165929521e-01 8.888256063448992e-01 -2.781084437556016e-01 5.102580488823032e-02 1.206407092642981e-01
6.868000000000000e+10 2.539417520516253e-01 4.926218490679356e-02 2.913796898839651e-01 -8.855049663650244e-01 8.900966363031847e-01 -2.741840413209227e-01 5.177080158980608e-02 1.205405410734595e-01
6.872800000000000e+10 2.552600119151138e-01 4.833023880526233e-02 2.837160258240725e-01 -8.866773265696787e-01 8.915822811880605e-01 -2.677050995278090e-01 5.142611144219314e-02 1.213718039802453e-01
6.877600000000000e+10 2.550153795470087e-01 4.485907594433504e-02 2.764357470099820e-01 -8.873313941665276e-01 8.932466992828445e-01 -2.622905076855768e-01 5.207232837713869e-02 1.204610889750823e-01
6.882400000000000e+10 2.510043095549016e-01 4.337958409017723e-02 2.724794081228049e-01 -8.892414435970859e-01 8.935314928029017e-01 -2.644702339583036e-01 5.097293081817617e-02 1.201386636090684e-01
6.887200000000000e+10 2.496263938634440e-01 4.055411726523047e-02 2.749531148625800e-01 -8.893383936401125e-01 8.925710111159194e-01 -2.685203213820272e-01 5.115351615535180e-02 1.185993575045610e-01
6.892000000000000e+10 2.469880902843348e-01 4.455240751834171e-02 2.821448263429319e-01 -8.875633717079394e-01 8.897154616192235e-01 -2.760470826339867e-01 5.091391926482610e-02 1.195612651215267e-01
6.896800000000000e+10 2.473444232641248e-01 4.250462638527224e-02 2.902861390198933e-01 -8.855004273891290e-01 8.868424319823105e-01 -2.854047703577884e-01 5.221457871598082e-02 1.180503434762050e-01
6.901600000000000e+10 2.490925100634465e-01 4.647026600896789e-02 2.954875253977304e-01 -8.847418194811444e-01 8.847099425663058e-01 -2.894377179253135e-01 5.218016884559289e-02 1.193693502231408e-01
6.906400000000000e+10 2.502134177245895e-01 4.229419892716055e-02 2.892201457085982e-01 -8.861425567676667e-01 8.868295864406289e-01 -2.843720465433064e-01 5.422943436485385e-02 1.176061812211131e-01
6.911200000000000e+10 2.495793809584865e-01 4.151063125594256e-02 2.794734814516368e-01 -8.888643684979792e-01 8.897284725359466e-01 -2.773657597641158e-01 5.373171669701075e-02 1.177310179387233e-01
6.916000000000000e+10 2.481887472807401e-01 3.921701130911386e-02 2.688952096950150e-01 -8.929500839077136e-01 8.935000922037721e-01 -2.671183430107587e-01 5.487301684182309e-02 1.164361360358340e-01
6.920800000000000e+10 2.455378373443375e-01 3.935820327002078e-02 2.608660214710712e-01 -8.939119954383552e-01 8.946253566590335e-01 -2.618396109039104e-01 5.410968891835153e-02 1.155095059343953e-01
6.925600000000000e+10 2.455846393234442e-01 4.714114426652039e-02 2.667620395387830e-01 -8.920145915187164e-01 8.943783357985420e-01 -2.598522211317958e-01 5.634819702557660e-02 1.172109565656474e-01
6.930400000000000e+10 2.459433520590551e-01 4.601208615979089e-02 2.688704598201924e-01 -8.915241300045308e-01 8.927592902750926e-01 -2.642604763643613e-01 5.550556822637713e-02 1.155627456788969e-01
6.935200000000000e+10 2.461600975092249e-01 4.978503183561932e-02 2.718713909213931e-01 -8.908742023815738e-01 8.901125628236967e-01 -2.715027992334686e-01 5.420484294013038e-02 1.174199444091237e-01
6.940000000000000e+10 2.478294920834746e-01 4.821290709244874e-02 2.766097827756966e-01 -8.878504776186191e-01 8.878999799766633e-01 -2.770477227982362e-01 5.416222544956486e-02 1.162947924375819e-01
6.944800000000000e+10 2.457003881092730e-01 4.991775593394378e-02 2.813851472669598e-01 -8.882220575964698e-01 8.864688518748501e-01 -2.830995226122405e-01 5.625847529140667e-02 1.177776236167639e-01
6.949600000000000e+10 2.469705236362885e-01 4.747931940625724e-02 2.848489489350275e-01 -8.870174114761150e-01 8.866887631700497e-01 -2.827360920456027e-01 5.786721006771878e-02 1.175295338366427e-01
6.954400000000000e+10 2.448888027130533e-01 4.887655409646149e-02 2.812853203184978e-01 -8.883441879858892e-01 8.881436810903739e-01 -2.802111791169610e-01 5.792380309793365e-02 1.187861551653970e-01
6.959200000000000e+10 2.439439451613205e-01 4.778589384615552e-02 2.726829885827886e-01 -8.904162067745364e-01 8.899348964558299e-01 -2.735260511824056e-01 5.761432685550458e-02 1.166392608273171e-01
6.964000000000000e+10 2.441668264277745e-01 4.919266011439500e-02 2.628467974031887e-01 -8.947548851093267e-01 8.924938655589558e-01 -2.666832891016893e-01 5.823114313485724e-02 1.168820407504263e-01
6.968800000000000e+10 2.452734435166720e-01 4.946656984836402e-02 2.585364057022008e-01 -8.947308802299848e-01 8.933281419780504e-01 -2.617722857037252e-01 5.826065676029241e-02 1.166934076508918e-01
6.973600000000000e+10 2.473704782838150e-01 4.909270693703681e-02 2.598477057429022e-01 -8.947180691711901e-01 8.933945891137541e-01 -2.635098143284406e-01 5.901074129835911e-02 1.164668248558366e-01
6.978400000000000e+10 2.474179299099775e-01 4.891494771272607e-02 2.635910893332176e-01 -8.927744510926495e-01 8.917541747289974e-01 -2.686649362640517e-01 5.863948554741721e-02 1.163594566742900e-01
6.983200000000000e+10 2.469153880045607e-01 4.684619046247444e-02 2.656793323274456e-01 -8.922873625384581e-01 8.905670169484449e-01 -2.734699375785246e-01 5.839405968725704e-02 1.155561688004076e-01
6.988000000000000e+10 2.462773728198658e-01 4.769993532203699e-02 2.664004048597614e-01 -8.920011206429960e-01 8.899072185404501e-01 -2.761139183202175e-01 5.809358860730569e-02 1.164805438398481e-01
6.992800000000000e+10 2.452992944808524e-01 4.654986700059102e-02 2.658293444051426e-01 -8.932970891987406e-01 8.899311563023647e-01 -2.772317080774055e-01 5.926947322515796e-02 1.156089787155259e-01
6.997600000000000e+10 2.470869571419793e-01 4.952184919628618e-02 2.672174472652915e-01 -8.919800797297166e-01 8.894314958440882e-01 -2.768217893096219e-01 5.946631389819347e-02 1.164246518367182e-01
7.002400000000000e+10 2.478096890102153e-01 4.943343720788109e-02 2.671737896015511e-01 -8.927228672611199e-01 8.893852105746302e-01 -2.765607263373573e-01 6.086862902584671e-02 1.161941316645554e-01
7.007200000000000e+10 2.487219897798351e-01 4.924167197855531e-02 2.648853163051861e-01 -8.932935721895889e-01 8.895332631285660e-01 -2.758865557056924e-01 6.094744715246361e-02 1.158463621637530e-01
7.012000000000000e+10 2.496169883978884e-01 4.814069660953113e-02 2.626367952669373e-01 -8.935880933898778e-01 8.896014810525844e-01 -2.748340537991774e-01 6.108036229218466e-02 1.156155351240773e-01
7.016800000000000e+10 2.483608137410505e-01 4.688926764744853e-02 2.596006052582722e-01 -8.943980552691321e-01 8.901507102747865e-01 -2.730308901386192e-01 6.153681082115233e-02 1.146551467316479e-01
7.021600000000000e+10 2.489400576825948e-01 4.594244478440686e-02 2.579132988933532e-01 -8.957695707247391e-01 8.915510130539898e-01 -2.731775006728088e-01 6.251794711301811e-02 1.144156673761819e-01
7.026400000000000e+10 2.461316748818180e-01 4.647525565322572e-02 2.570053235381706e-01 -8.935133407645851e-01 8.903721328883434e-01 -2.743051945082118e-01 6.106066668418313e-02 1.138145739270592e-01
7.031200000000000e+10 2.464694170236881e-01 4.823040234718384e-02 2.558722207879686e-01 -8.946844559523173e-01 8.897395892290871e-01 -2.737875571784348e-01 6.136702292041787e-02 1.146729138955523e-01
7.036000000000000e+10 2.448758724635809e-01 4.903472577850362e-02 2.526855187029428e-01 -8.948299912159223e-01 8.895384430318368e-01 -2.721318286362913e-01 6.097732918481176e-02 1.141128024104661e-01
7.040800000000000e+10 2.482487006465908e-01 4.858048478440125e-02 2.498835301634906e-01 -8.983920021102888e-01 8.906671488766232e-01 -2.690077314026545e-01 6.296159132666415e-02 1.149475712788062e-01
7.045600000000000e+10 2.474897724064916e-01 4.757653274086309e-02 2.483622153455379e-01 -8.981005955230601e-01 8.913208206549059e-01 -2.672810898156805e-01 6.331000750488366e-02 1.150578913963271e-01
7.050400000000000e+10 2.497746338097006e-01 4.727750265297706e-02 2.477355872337813e-01 -8.995763686185672e-01 8.920821587491802e-01 -2.668202873733767e-01 6.452402498846112e-02 1.162727032313052e-01
7.055200000000000e+10 2.483541452430414e-01 4.529032220339099e-02 2.478841106863891e-01 -8.981565167488800e-01 8.915428963399258e-01 -2.686248776724321e-01 6.411806961152032e-02 1.151651390261822e-01
7.060000000000000e+10 2.482600860390640e-01 4.523505560476451e-02 2.499996461832574e-01 -8.994066610984157e-01 8.908360113737284e-01 -2.722438837762057e-01 6.568533308092384e-02 1.151978512127564e-01
7.064800000000000e+10 2.492294051805061e-01 4.465914843620830e-02 2.520310065250577e-01 -8.978594735512005e-01 8.898578494771173e-01 -2.753329960318703e-01 6.528566517647261e-02 1.136565005788448e-01
7.069600000000000e+10 2.478196879053116e-01 4.473016896195631e-02 2.505640158910419e-01 -8.984874417562934e-01 8.898343715036846e-01 -2.761027481561013e-01 6.547099049110952e-02 1.143101293004206e-01
7.074400000000000e+10 2.519815552274008e-01 4.513944390799697e-02 2.470410333801833e-01 -8.994034967698779e-01 8.916864916429166e-01 -2.727199405894908e-01 6.557490923609617e-02 1.133209181520260e-01
7.079200000000000e+10 2.491731012283827e-01 4.393378105729592e-02 2.430830997665649e-01 -9.008039765364410e-01 8.928334754591242e-01 -2.698234535543326e-01 6.624060225894346e-02 1.145948600254330e-01
7.084000000000000e+10 2.539136461393300e-01 4.399148519071686e-02 2.413429075430606e-01 -9.026323861339958e-01 8.935235828548432e-01 -2.665640023820529e-01 6.726041946016195e-02 1.144521459811806e-01
7.088800000000000e+10 2.490629446955124e-01 4.255021672201580e-02 2.371154683936953e-01 -9.028088045799618e-01 8.937451043511274e-01 -2.655307674928865e-01 6.704394988655468e-02 1.158389926536588e-01
7.093600000000000e+10 2.529560661694800e-01 4.187401768227655e-02 2.353877776100779e-01 -9.043726293179539e-01 8.954602702805409e-01 -2.632404609625389e-01 6.920407694483974e-02 1.146508583310523e-01
7.098400000000000e+10 2.498966992476734e-01 4.184492512566645e-02 2.330825165744587e-01 -9.045875387602692e-01 8.952705170800943e-01 -2.625018385185405e-01 6.927438234913995e-02 1.160166565378676e-01
7.103200000000000e+10 2.522749598632892e-01 4.238482502670225e-02 2.359049163078615e-01 -9.049493312150083e-01 8.950572591656458e-01 -2.641139775517007e-01 7.088536663154231e-02 1.163609132124766e-01
7.108000000000000e+10 2.527904546217690e-01 4.156650058321794e-02 2.391957497030620e-01 -9.041232480483986e-01 8.951701746925027e-01 -2.673644690039765e-01 7.219343870773687e-02 1.157805966149060e-01
7.112800000000000e+10 2.533960852362382e-01 4.235954527656126e-02 2.416786429882203e-01 -9.033561750679169e-01 8.934973255870970e-01 -2.716875441991818e-01 7.215150403439660e-02 1.160013384063048e-01
7.117600000000000e+10 2.533148246188241e-01 4.062575630240080e-02 2.442024440853664e-01 -9.029093438689995e-01 8.937360744671051e-01 -2.753070461918772e-01 7.299368008635741e-02 1.150449129498332e-01
7.122400000000000e+10 2.541742446658734e-01 4.103497935283665e-02 2.456065558472574e-01 -9.022632703523180e-01 8.929054978681036e-01 -2.773573348603048e-01 7.388695462627259e-02 1.164100521943386e-01
7.127200000000000e+10 2.544777779858164e-01 3.940772712256763e-02 2.460487112897375e-01 -9.022204954537376e-01 8.928350146947611e-01 -2.780392338269496e-01 7.338354178794375e-02 1.156617220035828e-01
7.132000000000000e+10 2.528924306142165e-01 4.073416912645959e-02 2.441479765843720e-01 -9.019282480826813e-01 8.914312769038265e-01 -2.777265317905807e-01 7.296557167442667e-02 1.167963369669018e-01
7.136800000000000e+10 2.536518129763684e-01 3.997589141763701e-02 2.416116926136662e-01 -9.025256386021960e-01 8.923490467541176e-01 -2.768374658794420e-01 7.329882602305721e-02 1.154086810018419e-01
7.141600000000000e+10 2.521207548913148e-01 4.048684693672077e-02 2.365224213434636e-01 -9.023351720653401e-01 8.933151034326406e-01 -2.726001515986132e-01 7.298626202380992e-02 1.166785433591346e-01
7.146400000000000e+10 2.531101390548827e-01 4.181072791946193e-02 2.288588602791581e-01 -9.041961161379939e-01 8.940541418512815e-01 -2.681333010008162e-01 7.298842417274548e-02 1.145345685525887e-01
7.151200000000000e+10 2.512555794900924e-01 4.001768291570586e-02 2.230632111409200e-01 -9.048147115625165e-01 8.947636786045452e-01 -2.654016167282865e-01 7.280736349743798e-02 1.142438971980530e-01
7.156000000000000e+10 2.516992930773834e-01 4.214283729880827e-02 2.209289858491697e-01 -9.049621344417186e-01 8.942251825753155e-01 -2.664057500067957e-01 7.311574969887748e-02 1.128206568704747e-01
7.160800000000000e+10 2.498928955126346e-01 3.860723830855841e-02 2.236171504661457e-01 -9.049466508141711e-01 8.932713372599533e-01 -2.698285800607289e-01 7.378374878654016e-02 1.132548285001172e-01
7.165600000000000e+10 2.507806348500469e-01 4.019070634603834e-02 2.285875814553232e-01 -9.045561897248290e-01 8.910043417451529e-01 -2.778079699136180e-01 7.485214912587158e-02 1.118970944747010e-01
7.170400000000000e+10 2.501599743112838e-01 3.855734176296886e-02 2.385679734895222e-01 -9.029315475197208e-01 8.881033234486594e-01 -2.854766127307153e-01 7.477847980189878e-02 1.134665713423921e-01
7.175200000000000e+10 2.540407373716784e-01 4.029505488822956e-02 2.495397432864903e-01 -9.041661483307453e-01 8.880374515192804e-01 -2.867388606910590e-01 7.820475832315042e-02 1.185577120127364e-01
7.180000000000000e+10 2.508662043790068e-01 3.960184821010280e-02 2.440621882546661e-01 -9.031226032716232e-01 8.883698595469415e-01 -2.881294845710745e-01 7.779805513313953e-02 1.172549125606043e-01
7.184800000000000e+10 2.496181892058043e-01 4.097872758082382e-02 2.335284811828918e-01 -9.012585043848659e-01 8.876753067398435e-01 -2.868239037022671e-01 7.482948664327931e-02 1.130154289537984e-01
7.189600000000000e+10 2.507814747604787e-01 4.012116300862251e-02 2.282208151423426e-01 -9.044375416878513e-01 8.892785173610462e-01 -2.807754900600273e-01 7.610090895185255e-02 1.145948161866595e-01
7.194400000000000e+10 2.520285048449592e-01 3.915749638769604e-02 2.214783597751221e-01 -9.058591382119787e-01 8.942651508238435e-01 -2.731016905131727e-01 7.715707414607714e-02 1.146367471074473e-01
7.199200000000000e+10 2.535932757863764e-01 3.797486354242281e-02 2.153250736982145e-01 -9.080294000719819e-01 8.962612748959975e-01 -2.677969829893569e-01 7.819107897946330e-02 1.149806611733822e-01
7.204000000000000e+10 2.519522173738898e-01 3.776944841619142e-02 2.126597061130299e-01 -9.078225266032579e-01 8.976167427485341e-01 -2.652314915166928e-01 7.840988326226364e-02 1.139041662599761e-01
7.208800000000000e+10 2.514337822626079e-01 3.831789831145904e-02 2.158126734104810e-01 -9.092173127877492e-01 8.931377841816814e-01 -2.697617998268935e-01 7.887514068750104e-02 1.142337566274218e-01
7.213600000000000e+10 2.501233149603993e-01 3.746370365787750e-02 2.219711962178946e-01 -9.093625176514406e-01 8.913525748922203e-01 -2.764334123297639e-01 7.915921346418181e-02 1.138277177593508e-01
7.218400000000000e+10 2.495528760081737e-01 3.682424919110289e-02 2.273310587139184e-01 -9.100598027746125e-01 8.869685043499532e-01 -2.848982497946344e-01 7.913600947420554e-02 1.130481946465058e-01
7.223200000000000e+10 2.524696085671258e-01 3.892076557384208e-02 2.340470459288319e-01 -9.062282257696859e-01 8.882518375207187e-01 -2.914411570138958e-01 7.920999499238827e-02 1.128677175023279e-01
7.228000000000000e+10 2.524801304253596e-01 3.833094350072391e-02 2.374837494477201e-01 -9.053474576490184e-01 8.857442993240272e-01 -2.951109719709030e-01 7.765541256741554e-02 1.122543593645533e-01
7.232800000000000e+10 2.528795323385908e-01 3.993914976523942e-02 2.321977434500665e-01 -9.043024315801366e-01 8.881221544465321e-01 -2.918661223021187e-01 7.846935872039372e-02 1.120959210771894e-01
7.237600000000000e+10 2.533887053460978e-01 3.835452154326417e-02 2.230974645676445e-01 -9.092491054151147e-01 8.897711927112110e-01 -2.840214754734261e-01 7.849137480076165e-02 1.114787513530839e-01
7.242400000000000e+10 2.509618822014474e-01 3.847523271986286e-02 2.098043726633355e-01 -9.085144555529322e-01 8.915277137035065e-01 -2.745749972704636e-01 7.764476152805315e-02 1.105332113176769e-01
7.247200000000000e+10 2.524762927129026e-01 3.872876106486222e-02 2.026312809854496e-01 -9.126883224781660e-01 8.947344016828878e-01 -2.644209817153415e-01 7.886271276444806e-02 1.113960445366789e-01
7.252000000000000e+10 2.510699501006753e-01 3.983218622384939e-02 1.972608134363797e-01 -9.129063909261019e-01 8.963120691105839e-01 -2.629201089995272e-01 7.851824935570796e-02 1.093272447071159e-01
7.256800000000000e+10 2.506906916631913e-01 3.607140466983003e-02 1.976970990534860e-01 -9.134564040803105e-01 8.958964937803116e-01 -2.674169745518917e-01 7.951578337488435e-02 1.087577217479339e-01
7.261600000000000e+10 2.517658502994689e-01 3.820585164325174e-02 2.052525108219890e-01 -9.132040168743262e-01 8.929614939857988e-01 -2.768404594473720e-01 7.856256379197307e-02 1.066204594207186e-01
7.266400000000000e+10 2.521135367273374e-01 3.619085807433386e-02 2.149532300511739e-01 -9.100180902236266e-01 8.904501783462235e-01 -2.863126998278863e-01 7.942554480340576e-02 1.069175252887254e-01
7.271200000000000e+10 2.525859282895235e-01 3.747689431128621e-02 2.218059369759358e-01 -9.092072730670363e-01 8.878619937102797e-01 -2.948635128723133e-01 7.860510559674677e-02 1.067060382917402e-01
7.276000000000000e+10 2.519986093745951e-01 3.624488067178849e-02 2.209586944515078e-01 -9.086374434324783e-01 8.884431848941667e-01 -2.954864141250435e-01 7.880167467595600e-02 1.066938175973702e-01
7.280800000000000e+10 2.516052727647823e-01 3.688454785174496e-02 2.150754826350638e-01 -9.108406436564839e-01 8.893052499922819e-01 -2.899640725877364e-01 7.854098006438609e-02 1.075810887215913e-01
7.285600000000000e+10 2.506432329087550e-01 3.684283165119556e-02 2.041625139491970e-01 -9.125766235443845e-01 8.920071122668306e-01 -2.810300366943648e-01 7.814734434719241e-02 1.072680550795714e-01
7.290400000000000e+10 2.506546688388903e-01 3.743773259911713e-02 1.965244537643253e-01 -9.153484761891927e-01 8.933968211108602e-01 -2.732425869197976e-01 7.875448547262745e-02 1.081852591729622e-01
7.295200000000000e+10 2.504548297144688e-01 3.717046372606654e-02 1.912326294251067e-01 -9.154862521389294e-01 8.948882067060402e-01 -2.705379523118354e-01 7.928978350196855e-02 1.073749565301983e-01
7.300000000000000e+10 2.512098900854360e-01 3.746545346169092e-02 1.967339030394935e-01 -9.162062098207555e-01 8.930904191313258e-01 -2.752589617796830e-01 8.026554747444566e-02 1.081736370509828e-01
7.304800000000000e+10 2.507692308508617e-01 3.518185876411697e-02 2.031980775181148e-01 -9.136575708309630e-01 8.909507822108067e-01 -2.857585003442263e-01 8.054348527050058e-02 1.068109387531225e-01
7.309600000000000e+10 2.512815680933036e-01 3.607201757857414e-02 2.136106402066252e-01 -9.123635113033062e-01 8.871822181945626e-01 -2.947541272424309e-01 8.093392411089476e-02 1.070238796132421e-01
7.314400000000000e+10 2.502899303954279e-01 3.400185221249000e-02 2.162660274196414e-01 -9.109643070981972e-01 8.855423746515424e-01 -3.018118435637168e-01 8.076105486483257e-02 1.061798253766805e-01
7.319200000000000e+10 2.507157854810138e-01 3.582735049433372e-02 2.165283608935246e-01 -9.119774205351293e-01 8.857863791238365e-01 -3.014152810187474e-01 8.077710182816696e-02 1.059851988161515e-01
7.324000000000000e+10 2.498118823338612e-01 3.458535154398993e-02 2.096126740923690e-01 -9.129747057654556e-01 8.869779717837699e-01 -2.973616511242890e-01 8.069067683367030e-02 1.063939325136096e-01
7.328800000000000e+10 2.502957388764729e-01 3.713347433694579e-02 2.034709286036741e-01 -9.141321937042963e-01 8.892646607403364e-01 -2.893873027599096e-01 8.034945519674430e-02 1.068110612730925e-01
7.333600000000000e+10 2.521356455087173e-01 3.853655567314661e-02 1.964968878304592e-01 -9.132226501109549e-01 8.942727419899066e-01 -2.626567261655672e-01 7.693435592228938e-02 1.130373676621476e-01
7.338400000000000e+10 2.531564670405279e-01 3.907607455759457e-02 1.968924149444010e-01 -9.128902052903276e-01 8.946744850660385e-01 -2.675730652464406e-01 7.867090708599196e-02 1.129713096761908e-01
7.343200000000000e+10 2.538259942884092e-01 3.763500474526615e-02 2.012183626253780e-01 -9.118726417253434e-01 8.926501005445069e-01 -2.713892174074352e-01 7.787136524856469e-02 1.114857475430211e-01
7.348000000000000e+10 2.507364061860219e-01 3.529193314924896e-02 2.074468749816206e-01 -9.108360950048715e-01 8.857248179317886e-01 -3.000613598335623e-01 8.266909185515268e-02 1.076109790632677e-01
7.352800000000000e+10 2.510923237366721e-01 3.519610134030605e-02 2.130837789023307e-01 -9.092959526687467e-01 8.842478312909168e-01 -3.046157036242723e-01 8.300048856776981e-02 1.085711622893206e-01
7.357600000000000e+10 2.501797755982571e-01 3.560242895359120e-02 2.141074609754877e-01 -9.085619071740371e-01 8.841753623997276e-01 -3.066384506195620e-01 8.364122939447304e-02 1.089049850034052e-01
7.362400000000000e+10 2.504627528624284e-01 3.629390256836280e-02 2.104040105704978e-01 -9.087633828416405e-01 8.853442513463824e-01 -3.050200702846838e-01 8.336490793611492e-02 1.083185339279619e-01
7.367200000000000e+10 2.506268744247341e-01 3.724618422845062e-02 2.034180738271674e-01 -9.096787460534113e-01 8.873199281560169e-01 -2.989996141410368e-01 8.329569230160433e-02 1.084452752975760e-01
7.372000000000000e+10 2.530980577127593e-01 3.842475983249142e-02 1.943070939912356e-01 -9.110912928001396e-01 8.949499205131031e-01 -2.703864439079351e-01 7.727094308035713e-02 1.114817799594333e-01
7.376800000000000e+10 2.537561809003316e-01 3.884509499816424e-02 1.898231589370422e-01 -9.123598798200895e-01 8.957997429151421e-01 -2.664598754686631e-01 7.863887811276354e-02 1.136069066133835e-01
7.381600000000000e+10 2.534633207954035e-01 3.798719761489020e-02 1.871608288484841e-01 -9.133936600653272e-01 8.953142969808879e-01 -2.659158877453774e-01 7.880755793437454e-02 1.130280684489057e-01
7.386400000000000e+10 2.543454808613899e-01 3.876534558219168e-02 1.899120645971503e-01 -9.143226336544945e-01 8.930139230315834e-01 -2.706038781609371e-01 7.929351639078733e-02 1.115904882657382e-01
7.391200000000000e+10 2.520692703999651e-01 3.657548984451140e-02 1.973700800835017e-01 -9.138489885053888e-01 8.843267975632210e-01 -3.007754699764459e-01 8.679472237110865e-02 1.089376313733277e-01
7.396000000000000e+10 2.520852372234291e-01 3.701318617672598e-02 2.061344084279361e-01 -9.115775417833055e-01 8.812288395508880e-01 -3.082647942833323e-01 8.678407128071072e-02 1.093771814141712e-01
7.400800000000000e+10 2.520546073920033e-01 3.700134040697654e-02 2.102567497764605e-01 -9.116315704791017e-01 8.807184971693489e-01 -3.097272395415123e-01 8.696075780120953e-02 1.107516204222929e-01
7.405600000000000e+10 2.521698589834810e-01 3.681299024244954e-02 2.074317912073908e-01 -9.119603823929301e-01 8.812220351690190e-01 -3.089652787512774e-01 8.740428424998593e-02 1.106266244358655e-01
7.410400000000000e+10 2.524019627087485e-01 3.702527447369336e-02 2.026986315353445e-01 -9.124059124357027e-01 8.824079703204063e-01 -3.049921204124592e-01 8.814461305730086e-02 1.102182779916741e-01
7.415200000000000e+10 2.524979822914358e-01 3.721211055955828e-02 1.954557377317857e-01 -9.137683833220867e-01 8.862336042231648e-01 -2.968572375834382e-01 8.812139634170053e-02 1.100451963000810e-01
7.420000000000000e+10 2.527953627161508e-01 3.672947257022718e-02 1.871795696468773e-01 -9.155564955664026e-01 8.890008596417085e-01 -2.896564762244833e-01 8.866075694857853e-02 1.097863581165015e-01
7.424800000000000e+10 2.528175583365186e-01 3.580707974517864e-02 1.833627258659691e-01 -9.174735733011236e-01 8.900860602985953e-01 -2.872890572741370e-01 8.890381676684396e-02 1.094302314679295e-01
7.429600000000000e+10 2.523996834808620e-01 3.576004619635897e-02 1.856567712961239e-01 -9.175875967707620e-01 8.886554408756893e-01 -2.900999852554731e-01 8.922053703044520e-02 1.091550212566995e-01
7.434400000000000e+10 2.515810001263168e-01 3.476489030869909e-02 1.922911377105476e-01 -9.163707598289588e-01 8.862049895474406e-01 -2.980692563187369e-01 8.915186163263175e-02 1.088629032018579e-01
7.439200000000000e+10 2.516918260385520e-01 3.538372916560922e-02 1.989867738072524e-01 -9.148613183559756e-01 8.834373239501140e-01 -3.069508531898877e-01 8.917467004534410e-02 1.087689447484751e-01
7.444000000000000e+10 2.514578267734804e-01 3.547756387827210e-02 2.034007594217963e-01 -9.130306559265913e-01 8.817912189877317e-01 -3.124841769522450e-01 8.927903423081604e-02 1.085361231819133e-01
7.448800000000000e+10 2.519521369082674e-01 3.572782794043206e-02 2.023996596744401e-01 -9.132016625271959e-01 8.818591034249851e-01 -3.122644683333330e-01 8.942271573484289e-02 1.085646077572752e-01
7.453600000000000e+10 2.527506410917426e-01 3.536057855930998e-02 1.952340656629467e-01 -9.143897336224061e-01 8.835431682886660e-01 -3.075795973071354e-01 8.951236084699515e-02 1.082265509130662e-01
7.458400000000000e+10 2.520912647131494e-01 3.398540138901479e-02 1.857615365802462e-01 -9.164277797838403e-01 8.862328589501773e-01 -3.003160539908135e-01 8.956342906538595e-02 1.086847690326814e-01
7.463200000000000e+10 2.528737534129564e-01 3.423338040642337e-02 1.779208049326991e-01 -9.178110419937661e-01 8.879835529918665e-01 -2.945022334047346e-01 8.981276101621025e-02 1.083819236978057e-01
7.468000000000000e+10 2.514959733066797e-01 3.319568013174488e-02 1.757518674232442e-01 -9.180008698238937e-01 8.885392517295954e-01 -2.933797992430197e-01 8.969547285458673e-02 1.083381842397011e-01
7.472800000000000e+10 2.516096577799193e-01 3.386209894138031e-02 1.797911360963283e-01 -9.166873381984738e-01 8.869460710369316e-01 -2.979647314148660e-01 8.977401946572684e-02 1.078730549228227e-01
7.477600000000000e+10 2.506786670268292e-01 3.340033354787859e-02 1.877589109189650e-01 -9.156475301551400e-01 8.842837977294044e-01 -3.058848468996941e-01 8.978455975529942e-02 1.077918355521682e-01
7.482400000000000e+10 2.508322979209829e-01 3.347803840284787e-02 1.936897662045913e-01 -9.137666370423454e-01 8.816645863361496e-01 -3.141339546034950e-01 8.990002464685012e-02 1.077271086828593e-01
7.487200000000000e+10 2.505235262580626e-01 3.344356652001491e-02 1.961095337891351e-01 -9.139925955542250e-01 8.805199664205725e-01 -3.174446079430981e-01 8.972393607649561e-02 1.076438410084432e-01
7.492000000000000e+10 2.508897878447936e-01 3.389618296847587e-02 1.909800514380549e-01 -9.138885425998248e-01 8.821892123926831e-01 -3.146646404341923e-01 8.953730243072160e-02 1.076993803742015e-01
7.496800000000000e+10 2.499005167244615e-01 3.318454706736013e-02 1.865180221248438e-01 -9.161540624677916e-01 8.838636339520030e-01 -3.093065238591491e-01 8.903522938037928e-02 1.074989806471382e-01
7.501600000000000e+10 2.500622721013784e-01 3.352052965684487e-02 1.805611865386992e-01 -9.166974992857633e-01 8.856446899225210e-01 -3.037114229208939e-01 8.904128844065656e-02 1.075286829715072e-01
7.506400000000000e+10 2.494641447878128e-01 3.304377622473419e-02 1.785288381354338e-01 -9.178732899816940e-01 8.860663192916762e-01 -3.029626645516090e-01 8.866361635169273e-02 1.072419287548175e-01
7.511200000000000e+10 2.497364558114229e-01 3.306403749688067e-02 1.795943445982528e-01 -9.176108101187259e-01 8.849152417190591e-01 -3.051215718733852e-01 8.881859129990863e-02 1.073564744553018e-01
7.516000000000000e+10 2.492211961806327e-01 3.256036765801198e-02 1.819043047157644e-01 -9.175184674607400e-01 8.830215638792926e-01 -3.104581935616152e-01 8.818754328631680e-02 1.072786057612956e-01
7.520800000000000e+10 2.498874014063220e-01 3.186607876232395e-02 1.862038956322477e-01 -9.158276564995496e-01 8.812025069829583e-01 -3.142000610387857e-01 8.974375406223985e-02 1.076565655409870e-01
7.525600000000000e+10 2.491966913715558e-01 3.193619473902851e-02 1.852160246495535e-01 -9.163709671863322e-01 8.805735120698068e-01 -3.146485319387613e-01 8.955545802511658e-02 1.070662179050573e-01
7.530400000000000e+10 2.494386706799125e-01 3.147158047532145e-02 1.823111831990253e-01 -9.169219295541087e-01 8.823029439681475e-01 -3.111957090485460e-01 9.071755621589253e-02 1.066906796976127e-01
7.535200000000000e+10 2.491373116023192e-01 3.175610497676913e-02 1.762276031767615e-01 -9.188808994735740e-01 8.836724852786472e-01 -3.057515931492538e-01 9.062837595474031e-02 1.062538665260483e-01
7.540000000000000e+10 2.491630563366119e-01 3.113013622765940e-02 1.717562239903309e-01 -9.197687436876667e-01 8.854825981470341e-01 -3.036582281013145e-01 9.094696180608054e-02 1.058005381949318e-01
7.544800000000000e+10 2.488087237527940e-01 3.083244001322278e-02 1.706031872283402e-01 -9.206216642810456e-01 8.853567553266951e-01 -3.046348592348491e-01 9.073264556605778e-02 1.052101120818039e-01
7.549600000000000e+10 2.483679817546042e-01 3.134606612529225e-02 1.730279464941661e-01 -9.196021393052378e-01 8.837019235594203e-01 -3.077909987358151e-01 9.092347260732708e-02 1.047808487781072e-01
7.554400000000000e+10 2.485903740062748e-01 3.144532624047144e-02 1.765780890774079e-01 -9.199273495380811e-01 8.826137169261666e-01 -3.109088613967302e-01 9.122079375543535e-02 1.047444741080619e-01
7.559200000000000e+10 2.486003236624320e-01 3.150756424275861e-02 1.770415582438506e-01 -9.188647573331000e-01 8.818858997406269e-01 -3.146978075660251e-01 9.093771083509372e-02 1.045722401989746e-01
7.564000000000000e+10 2.488935370964812e-01 3.119380607598092e-02 1.758559696418766e-01 -9.193867787781655e-01 8.819268547331566e-01 -3.135799560534939e-01 9.097908381092015e-02 1.046281189584875e-01
7.568800000000000e+10 2.480858433977046e-01 3.058389741995825e-02 1.706453125438715e-01 -9.198034699446088e-01 8.826457354530792e-01 -3.102574823202269e-01 9.076802000885136e-02 1.049079251355860e-01
7.573600000000000e+10 2.482738963700027e-01 3.034675291161991e-02 1.654032693681297e-01 -9.209589513877700e-01 8.840390536820734e-01 -3.060656934724844e-01 9.049030139737471e-02 1.046583242535536e-01
7.578400000000000e+10 2.464284712368500e-01 2.877316819765524e-02 1.610279592987477e-01 -9.214583975196500e-01 8.851515984318382e-01 -3.030195931294948e-01 9.086769563918934e-02 1.052450534076282e-01
7.583200000000000e+10 2.461477223068326e-01 2.927715929032411e-02 1.588800362574951e-01 -9.217667059930769e-01 8.859244552693670e-01 -3.017545688719820e-01 9.073557957998016e-02 1.049616243922122e-01
7.588000000000000e+10 2.446473311304183e-01 2.853770042932786e-02 1.597738442298476e-01 -9.223439125219663e-01 8.855076075249549e-01 -3.031676887942406e-01 9.087065043041599e-02 1.050313098080529e-01
7.592800000000000e+10 2.440722588324585e-01 2.903634426731875e-02 1.623889928941864e-01 -9.211739989293282e-01 8.839099170198134e-01 -3.072345053156418e-01 9.038723477626547e-02 1.049070417828231e-01
7.597600000000000e+10 2.433285857855357e-01 2.868601546835222e-02 1.621797633392885e-01 -9.203614291964228e-01 8.829492132204707e-01 -3.088905368147649e-01 9.091697968947828e-02 1.050777357102885e-01
7.602400000000000e+10 2.446577971671186e-01 3.008859722630709e-02 1.650379401185157e-01 -9.215713813883226e-01 8.831944873452487e-01 -3.120758356321491e-01 9.067348059307419e-02 1.037606460173963e-01
7.607200000000000e+10 2.450748000220465e-01 2.888458779320612e-02 1.654794532484952e-01 -9.215934290340054e-01 8.813447481554550e-01 -3.141861445593669e-01 9.063481462506992e-02 1.044524507597015e-01
7.612000000000000e+10 2.455174282653239e-01 2.918639053610184e-02 1.634282105490754e-01 -9.217775003377601e-01 8.829055804943403e-01 -3.129998230228687e-01 9.026954660399363e-02 1.037821591410364e-01
7.616800000000000e+10 2.455531133262471e-01 2.844800618945629e-02 1.604649896192792e-01 -9.223815568841091e-01 8.830922689258960e-01 -3.112569577669181e-01 9.028959927853686e-02 1.041442871305567e-01
7.621600000000000e+10 2.460574196016495e-01 2.682838144675763e-02 1.551268862208736e-01 -9.226792219555923e-01 8.850761522884876e-01 -3.083629258555090e-01 9.089992079171760e-02 1.036048336072662e-01
7.626400000000000e+10 2.450711184066287e-01 2.620796465060961e-02 1.515760289236345e-01 -9.234113028987349e-01 8.849952050338591e-01 -3.058470883352927e-01 9.089807084192633e-02 1.033555367353002e-01
7.631200000000000e+10 2.452560661892348e-01 2.493901958998202e-02 1.485862927760319e-01 -9.250316755362762e-01 8.866549294963535e-01 -3.037600179130853e-01 9.192888654191697e-02 1.023753409552495e-01
7.636000000000000e+10 2.443933243389119e-01 2.541190778087508e-02 1.481791687634098e-01 -9.256512768673003e-01 8.859358418246257e-01 -3.039885116296293e-01 9.192155384174099e-02 1.015353669638524e-01
7.640800000000000e+10 2.448927211540495e-01 2.458305347846198e-02 1.515253054653140e-01 -9.259392630855172e-01 8.852707838187263e-01 -3.072908742181487e-01 9.342666064866362e-02 1.008958704369901e-01
7.645600000000000e+10 2.439175823126939e-01 2.565947346899670e-02 1.561537275392000e-01 -9.241488098824044e-01 8.833464834770502e-01 -3.130699430303729e-01 9.297326859680978e-02 1.003994596075498e-01
7.650400000000000e+10 2.441498223683180e-01 2.457837544230782e-02 1.602655375972378e-01 -9.245489420447759e-01 8.822612495146294e-01 -3.178612530508975e-01 9.391410846342188e-02 9.935062375562549e-02
7.655200000000000e+10 2.440314490357274e-01 2.518365452515245e-02 1.595073668532141e-01 -9.262763202992219e-01 8.809562621959514e-01 -3.179094097234277e-01 9.385235190343649e-02 9.883986050945538e-02
7.660000000000000e+10 2.442180482842646e-01 2.416859573741126e-02 1.556807233174415e-01 -9.261717110925429e-01 8.840563700975478e-01 -3.156168813246479e-01 9.444273348882495e-02 9.838579700298132e-02
7.664800000000000e+10 2.429645669521794e-01 2.433886860132014e-02 1.502702666005678e-01 -9.267526779081490e-01 8.847792810606280e-01 -3.136896158270038e-01 9.417433552466364e-02 9.760186321022736e-02
7.669600000000000e+10 2.440629383731664e-01 2.465429732690239e-02 1.466068619001423e-01 -9.282613246822443e-01 8.867665463513226e-01 -3.085177377065551e-01 9.479185149276165e-02 9.804918991398817e-02
7.674400000000000e+10 2.429613254553822e-01 2.495233984855230e-02 1.427286934822982e-01 -9.278516249413412e-01 8.862394885198001e-01 -3.083762872726556e-01 9.439383113267454e-02 9.772805680607446e-02
7.679200000000000e+10 2.442795086072607e-01 2.583684974359903e-02 1.475282585194692e-01 -9.257889205197741e-01 8.865003041222780e-01 -3.101501373169470e-01 9.597703164092752e-02 9.846688211261481e-02
7.684000000000000e+10 2.460588442626988e-01 2.344596210692153e-02 1.515610174925074e-01 -9.269395350381296e-01 8.856042148814834e-01 -3.153312473313019e-01 9.745851832409319e-02 9.811425020846609e-02
7.688800000000000e+10 2.439056819892031e-01 2.440085548036932e-02 1.518038714890250e-01 -9.266718482045522e-01 8.829246853295674e-01 -3.181070103945924e-01 9.582548958080894e-02 9.809042745302576e-02
7.693600000000000e+10 2.454555938533022e-01 2.109850648523134e-02 1.502173083849756e-01 -9.282383990463998e-01 8.837686777577692e-01 -3.165952976695269e-01 9.794992892650038e-02 9.739305634491800e-02
7.698400000000000e+10 2.440026964796517e-01 2.088544145940607e-02 1.439426944985671e-01 -9.294288319766864e-01 8.854657570456297e-01 -3.132386083123254e-01 9.684155597845959e-02 9.750780362043736e-02
7.703200000000000e+10 2.428625992426945e-01 1.924341217376519e-02 1.388190145012015e-01 -9.296497213524741e-01 8.864982960595579e-01 -3.092371954407087e-01 9.742046878377883e-02 9.720140836373192e-02
7.708000000000000e+10 2.412189720912895e-01 2.035107354575273e-02 1.355203669754897e-01 -9.297330589722428e-01 8.869938008380092e-01 -3.073442666607868e-01 9.659161891738105e-02 9.748412914664882e-02
7.712800000000000e+10 2.405173399529428e-01 1.986801062796354e-02 1.368037517540940e-01 -9.289354628082844e-01 8.860578412460108e-01 -3.091521176941653e-01 9.690193590582431e-02 9.710555223715162e-02
7.717600000000000e+10 2.402984527816892e-01 2.183465392974523e-02 1.421908164864897e-01 -9.275341185560940e-01 8.844583637438810e-01 -3.147428297764477e-01 9.622355869906965e-02 9.668636060556730e-02
7.722400000000000e+10 2.412932868945180e-01 2.194974256586184e-02 1.491700785951462e-01 -9.279589255513223e-01 8.822882919333179e-01 -3.204642279148347e-01 9.719489523984780e-02 9.608152897789081e-02
7.727200000000000e+10 2.418071317348171e-01 2.406483747592426e-02 1.494493170029449e-01 -9.264379605205025e-01 8.803843154054785e-01 -3.217245372662444e-01 9.614975478701077e-02 9.642754325629209e-02
7.732000000000000e+10 2.439456573107887e-01 2.279676989789281e-02 1.476916321352013e-01 -9.273928145386321e-01 8.833378942401702e-01 -3.197125452169552e-01 9.689261966377062e-02 9.666951073534462e-02
7.736800000000000e+10 2.441719463577554e-01 2.316748602127908e-02 1.430245546539376e-01 -9.279485178565354e-01 8.847852372840765e-01 -3.149630450148257e-01 9.748192367121182e-02 9.675553336895736e-02
7.741600000000000e+10 2.436056578979476e-01 2.045590426491639e-02 1.349888846149814e-01 -9.308930808209727e-01 8.864096253990897e-01 -3.103322788886806e-01 9.698922461852602e-02 9.560403096956760e-02
7.746400000000000e+10 2.429120743112111e-01 2.016632920107332e-02 1.302441854080032e-01 -9.313195683519666e-01 8.876931076649321e-01 -3.081920542362205e-01 9.639477766867215e-02 9.475006894344705e-02
7.751200000000000e+10 2.426868754081223e-01 2.085612604318016e-02 1.313499502838029e-01 -9.321182724967451e-01 8.870831821097744e-01 -3.070645135340914e-01 9.781677698865304e-02 9.504963211326033e-02
7.756000000000000e+10 2.416887187929075e-01 2.048858254343126e-02 1.342348046849752e-01 -9.309826194697982e-01 8.857699271168228e-01 -3.143985970420748e-01 9.676771955898314e-02 9.387012079384614e-02
7.760800000000000e+10 2.410840453617401e-01 2.049297042376886e-02 1.382224223241978e-01 -9.311937637905803e-01 8.833272565320776e-01 -3.202399328431807e-01 9.691193466349314e-02 9.304335147331927e-02
7.765600000000000e+10 2.426660352558820e-01 2.181593846681438e-02 1.407576402668251e-01 -9.304776932965295e-01 8.871678973433650e-01 -3.217828987313209e-01 9.898949359608394e-02 9.225318656341312e-02
7.770400000000000e+10 2.371739498628523e-01 2.160715741797251e-02 1.334978829059384e-01 -9.282673248273869e-01 8.798836873325198e-01 -3.238728129894254e-01 9.436908674780768e-02 9.176288911533603e-02
7.775200000000000e+10 2.402534228827559e-01 2.327706496145147e-02 1.353237917339969e-01 -9.291930294456974e-01 8.835487696253058e-01 -3.189044023736967e-01 9.684687721974077e-02 9.229557193086962e-02
7.780000000000000e+10 2.409709539460235e-01 2.197265170526525e-02 1.328993790382812e-01 -9.318112003212863e-01 8.849241959253356e-01 -3.183485265481724e-01 9.780064904591886e-02 9.145404370630174e-02
7.784800000000000e+10 2.406173918852799e-01 2.142653860469151e-02 1.308311932140556e-01 -9.313715496876606e-01 8.859411342880358e-01 -3.180023622275491e-01 9.769071169370676e-02 9.157398225263412e-02
7.789600000000000e+10 2.396020366852070e-01 2.106962746642283e-02 1.295920467942235e-01 -9.316680031293618e-01 8.847843352221043e-01 -3.182364480792252e-01 9.761005950396318e-02 9.122793555039437e-02
7.794400000000000e+10 2.391644814732345e-01 2.151315856151091e-02 1.286295353764868e-01 -9.316624279166982e-01 8.850963078935984e-01 -3.184331836145583e-01 9.729286118141497e-02 9.176624748085981e-02
7.799200000000000e+10 2.394825761919730e-01 2.128822249832218e-02 1.276078460313110e-01 -9.323318090833468e-01 8.844350205495594e-01 -3.181313372796429e-01 9.828733477164869e-02 9.201286065876071e-02
7.804000000000000e+10 2.391468346006425e-01 2.169676160151512e-02 1.261078794349390e-01 -9.316255801954203e-01 8.847524447900437e-01 -3.183593758074948e-01 9.790614591801379e-02 9.235303511674774e-02
7.808800000000000e+10 2.397653110503635e-01 2.160235365751728e-02 1.254761599684769e-01 -9.323113814679225e-01 8.839145006374689e-01 -3.182835288160450e-01 9.867614071081844e-02 9.261897242228577e-02
7.813600000000000e+10 2.399689630672172e-01 2.109380088625641e-02 1.251674635295600e-01 -9.320654059630594e-01 8.843744685406708e-01 -3.184071408172998e-01 9.910710245277916e-02 9.294768620938465e-02
7.818400000000000e+10 2.401270739363872e-01 2.011304940983209e-02 1.264897169152554e-01 -9.323504980064716e-01 8.837221129215370e-01 -3.203063056058651e-01 9.934762997209555e-02 9.316589832795619e-02
7.823200000000000e+10 2.401584587316575e-01 2.047959955954721e-02 1.294032160774938e-01 -9.318959451499389e-01 8.834913582830959e-01 -3.232847963847051e-01 9.972748155074596e-02 9.329974821650022e-02
7.828000000000000e+10 2.398747189096908e-01 1.999562212908372e-02 1.300558969637462e-01 -9.316273905922715e-01 8.831682566836241e-01 -3.232872091670586e-01 1.011301043058049e-01 9.440062810276290e-02
7.832800000000000e+10 2.384534500220788e-01 1.959785702826162e-02 1.264788527548003e-01 -9.324614911202797e-01 8.837416309224485e-01 -3.254330069983418e-01 1.002792425128912e-01 9.329564012748255e-02
7.837600000000000e+10 2.375413259134490e-01 1.858047893003861e-02 1.201952364456335e-01 -9.337352970206869e-01 8.848326502833888e-01 -3.213098177093986e-01 1.000325656781068e-01 9.290396538426508e-02
7.842400000000000e+10 2.386341088922564e-01 1.946692163998297e-02 1.164921611969402e-01 -9.342318515524486e-01 8.877813189733330e-01 -3.177211783473046e-01 1.014042318610938e-01 9.245638923386015e-02
7.847200000000000e+10 2.371783156145580e-01 1.796053736926435e-02 1.129060548362576e-01 -9.351688865671626e-01 8.874746153293313e-01 -3.184490121037373e-01 1.006970965422867e-01 9.133408113366943e-02
7.852000000000000e+10 2.379578961202995e-01 2.165409863358592e-02 1.170459189389270e-01 -9.304378932529163e-01 8.847563178124758e-01 -3.202197459264067e-01 9.997788530439744e-02 9.249328585016373e-02
7.856800000000000e+10 2.372322547876701e-01 1.721782784537934e-02 1.182953347612350e-01 -9.372174280819586e-01 8.835365372636425e-01 -3.247045866583201e-01 1.014402664101030e-01 9.059919003047551e-02
7.861600000000000e+10 2.383919666525759e-01 1.869224038678281e-02 1.219377588701272e-01 -9.353753794035022e-01 8.826440651093909e-01 -3.294484121728987e-01 1.017094617694276e-01 8.962089618749881e-02
7.866400000000000e+10 2.367706754178968e-01 1.768609199091050e-02 1.205556192465171e-01 -9.341738396327744e-01 8.822210856145480e-01 -3.305688960895467e-01 1.011954946829052e-01 8.964415609722318e-02
7.871200000000000e+10 2.378849389797439e-01 1.877612704760032e-02 1.164877972998232e-01 -9.340178583468934e-01 8.835795624817281e-01 -3.270120733271870e-01 1.015274734935210e-01 8.820489637090917e-02
7.876000000000000e+10 2.362256766579927e-01 1.806032475551919e-02 1.104646348718026e-01 -9.356515586351323e-01 8.840356477345218e-01 -3.234261187499473e-01 1.007654197165263e-01 8.808231316846010e-02
7.880800000000000e+10 2.366603085426648e-01 2.066887269747460e-02 1.064434771932208e-01 -9.345313095928390e-01 8.843735562747718e-01 -3.177298402983775e-01 1.006568712868789e-01 8.855717389111305e-02
7.885600000000000e+10 2.361146834530362e-01 1.928113728962676e-02 1.078242065705844e-01 -9.343162130280008e-01 8.857925761289320e-01 -3.220773496566660e-01 1.020349434856110e-01 8.829781869843187e-02
7.890400000000000e+10 2.364469235824999e-01 1.815600376305244e-02 1.122652068197821e-01 -9.355239749829894e-01 8.842560033851484e-01 -3.282272074859001e-01 1.029542830594249e-01 8.745619260553629e-02
7.895200000000000e+10 2.357830537703827e-01 1.785090122233826e-02 1.153956981179112e-01 -9.357543974355563e-01 8.816185697865260e-01 -3.333308799641395e-01 1.031914661885893e-01 8.752357475596760e-02
7.900000000000000e+10 2.343227731857229e-01 1.673281332762312e-02 1.154514978061326e-01 -9.345083403333941e-01 8.799322305470860e-01 -3.350585476089092e-01 1.036342752551967e-01 8.732401954115862e-02
7.904800000000000e+10 2.345594000700270e-01 1.679384769211803e-02 1.116690336742294e-01 -9.357614692496603e-01 8.819169184591038e-01 -3.316492764586742e-01 1.044761080452943e-01 8.718323965462291e-02
7.909600000000000e+10 2.333495957928178e-01 1.526782123255499e-02 1.042285067326774e-01 -9.363536837814936e-01 8.836545617743912e-01 -3.268445376257492e-01 1.051183831457710e-01 8.731885088667081e-02
7.914400000000000e+10 2.331292979086115e-01 1.525253800300627e-02 9.692022151882683e-02 -9.370488471709737e-01 8.865688310827563e-01 -3.196398393049215e-01 1.062263138366406e-01 8.680281096978970e-02
7.919200000000000e+10 2.319078136861916e-01 1.583114671227046e-02 9.326793984913309e-02 -9.367887299142755e-01 8.866380285177003e-01 -3.178694048416512e-01 1.061841380403772e-01 8.658609870722617e-02
7.924000000000000e+10 2.327807538304075e-01 1.636044152433835e-02 9.687674711506170e-02 -9.364158961993756e-01 8.866615874516347e-01 -3.203376838323839e-01 1.072882020056682e-01 8.637997016494421e-02
7.928800000000000e+10 2.329774141766735e-01 1.689035913794520e-02 1.048361157675326e-01 -9.356181972010124e-01 8.828676739836452e-01 -3.291642809545106e-01 1.068833640219418e-01 8.556495306754384e-02
7.933600000000000e+10 2.330932068978901e-01 1.696783040792144e-02 1.105703541453520e-01 -9.350657308609902e-01 8.804589438820010e-01 -3.351679993253647e-01 1.070678207802802e-01 8.612442942561889e-02
7.938400000000000e+10 2.323173173215317e-01 1.635241798636963e-02 1.101130843053408e-01 -9.346856379320739e-01 8.798100392771155e-01 -3.372157535843383e-01 1.066139883470651e-01 8.584152923672511e-02
7.943200000000000e+10 2.329310879906602e-01 1.762370713520258e-02 1.053668026587463e-01 -9.351322771681243e-01 8.817052405171303e-01 -3.321201331635820e-01 1.070484420966283e-01 8.619187218323510e-02
7.948000000000000e+10 2.321720992557968e-01 1.621377125424108e-02 9.751520995859753e-02 -9.364094249427060e-01 8.835623532147640e-01 -3.261631870014784e-01 1.059480849965357e-01 8.620588348521988e-02
7.952800000000000e+10 2.324688320184332e-01 1.875217417743467e-02 8.897498923646853e-02 -9.372928943858028e-01 8.855122915438857e-01 -3.195139598544631e-01 1.051781593462628e-01 8.622777028140081e-02
7.957600000000000e+10 2.310985911386848e-01 1.714440795765267e-02 8.388961991275411e-02 -9.378671009320071e-01 8.871836314221206e-01 -3.158018179549932e-01 1.054093433451291e-01 8.657051481216466e-02
7.962400000000000e+10 2.326091425178224e-01 2.019315152819309e-02 8.589504081608013e-02 -9.383729922521574e-01 8.864303310548339e-01 -3.171662031623825e-01 1.065847413865080e-01 8.740284761266987e-02
7.967200000000000e+10 2.309662357157093e-01 1.844106080835425e-02 9.198333231499696e-02 -9.377281430514084e-01 8.833762393322724e-01 -3.248312528987585e-01 1.066110680235405e-01 8.642461109262997e-02
7.972000000000000e+10 2.325923313327636e-01 2.072715267789987e-02 9.849880986602998e-02 -9.368353907466975e-01 8.808574243352403e-01 -3.307338439555815e-01 1.070083871885082e-01 8.736942958917282e-02
7.976800000000000e+10 2.313328069205527e-01 2.002230266110598e-02 9.919989665246073e-02 -9.360165210135608e-01 8.787945694849487e-01 -3.352612324027945e-01 1.053713731322664e-01 8.521741754678409e-02
7.981600000000000e+10 2.322168832151081e-01 1.891268556178790e-02 9.733461283583225e-02 -9.393145262661969e-01 8.820419553516183e-01 -3.373871914434690e-01 1.083405025384024e-01 8.187691851675066e-02
7.986400000000000e+10 2.317335967153099e-01 1.774597902457926e-02 9.250316416765496e-02 -9.386836977239945e-01 8.829723739623848e-01 -3.347053695022259e-01 1.067706567008007e-01 8.174293505210138e-02
7.991200000000000e+10 2.323764185196312e-01 1.910720373817401e-02 8.901526394046841e-02 -9.384590365560654e-01 8.833056951618248e-01 -3.310255468732241e-01 1.063228237061646e-01 8.189470019029878e-02
7.996000000000000e+10 2.306747105398732e-01 1.670544319230685e-02 8.380643212268152e-02 -9.379671006583492e-01 8.849091750087118e-01 -3.300747019754092e-01 1.061333547233432e-01 8.163860847387107e-02
8.000800000000000e+10 2.305941950883174e-01 1.721577374596166e-02 8.107548175548256e-02 -9.371267602262823e-01 8.854617542755924e-01 -3.286108242958790e-01 1.061752359529842e-01 8.133767977835428e-02
8.005600000000000e+10 2.296679841002216e-01 1.785628645466148e-02 8.061364567750351e-02 -9.388358563739887e-01 8.827900491584314e-01 -3.281074135520949e-01 1.050256846542714e-01 8.126814682914098e-02
8.010400000000000e+10 2.302204747213305e-01 1.718436378021247e-02 8.139221046931587e-02 -9.413813863398005e-01 8.814906736194533e-01 -3.276109052077142e-01 1.066635903837085e-01 8.264058064215618e-02
8.015200000000000e+10 2.304404293710501e-01 1.770285070302573e-02 8.217323408916756e-02 -9.394966222134334e-01 8.822328280196208e-01 -3.298796764854097e-01 1.068017287176597e-01 8.223926696792058e-02
8.020000000000000e+10 2.325990143682057e-01 1.721262478002958e-02 8.647183008712846e-02 -9.412504414912265e-01 8.822742428573637e-01 -3.330141155157672e-01 1.081932278143843e-01 8.218751860438848e-02
8.024800000000000e+10 2.328287700699213e-01 1.682642575946003e-02 8.753439940314689e-02 -9.404201177697030e-01 8.817206693263792e-01 -3.361236361533538e-01 1.083717233180115e-01 8.223315537419484e-02
8.029600000000000e+10 2.330029029347491e-01 1.584633256397002e-02 8.957609329135925e-02 -9.411659684929886e-01 8.813234694651533e-01 -3.391604320322469e-01 1.092409999803823e-01 8.201997165661029e-02
8.034400000000000e+10 2.326845719131158e-01 1.421711825312671e-02 8.808470872607113e-02 -9.418938642139340e-01 8.813247513124179e-01 -3.411456993814351e-01 1.098957508135812e-01 8.063682365877851e-02
8.039200000000000e+10 2.321228509917099e-01 1.432118523973489e-02 8.574497740778872e-02 -9.405231589639689e-01 8.831275380690415e-01 -3.400419339657507e-01 1.101233084667342e-01 8.104640558163342e-02
8.044000000000000e+10 2.309801917682406e-01 1.497930436280132e-02 7.734230004945818e-02 -9.414315374619153e-01 8.820326480816451e-01 -3.359423417759735e-01 1.090019993860134e-01 7.962978697691095e-02
8.048800000000000e+10 2.316750909903289e-01 1.525458806522752e-02 7.466682483418936e-02 -9.411831129373280e-01 8.835882160683013e-01 -3.317277839841310e-01 1.100732641843531e-01 8.111615530729384e-02
8.053600000000000e+10 2.314506978365092e-01 1.504915177052577e-02 7.248660039184764e-02 -9.421476067610346e-01 8.837801940126597e-01 -3.316739895750700e-01 1.110115601588313e-01 8.034720464616300e-02
8.058400000000000e+10 2.327582716121493e-01 1.515942550132135e-02 7.557538520525342e-02 -9.415120730250053e-01 8.836829699958174e-01 -3.339742363757611e-01 1.118611121406350e-01 8.074891616216082e-02
8.063200000000000e+10 2.332670151000076e-01 1.577507151293869e-02 7.790516979279932e-02 -9.405997585455115e-01 8.816124431981139e-01 -3.384667183583676e-01 1.114292690248552e-01 7.939520528358848e-02
8.068000000000000e+10 2.330958424803039e-01 1.363311262772631e-02 8.058799915682983e-02 -9.413272969817982e-01 8.808460902320843e-01 -3.410663160692368e-01 1.117045095727896e-01 7.994628662023218e-02
8.072800000000000e+10 2.334178408968499e-01 1.505048967241929e-02 7.871385025547240e-02 -9.415839770778008e-01 8.806701150679577e-01 -3.401582265481545e-01 1.115018325658129e-01 8.014662733330177e-02
8.077600000000000e+10 2.322621112635103e-01 1.277924100978055e-02 7.253701298454000e-02 -9.422809004284476e-01 8.819242605225224e-01 -3.359331890374233e-01 1.116906710768333e-01 8.041218232207521e-02
8.082400000000000e+10 2.322218826780570e-01 1.438887050928029e-02 6.606461138269443e-02 -9.424443418530551e-01 8.843910531720764e-01 -3.298844152912084e-01 1.122729426100481e-01 8.021569216338223e-02
8.087200000000000e+10 2.309968237289656e-01 1.337953763335341e-02 6.229369942740055e-02 -9.438849294962951e-01 8.835138552241522e-01 -3.286770111194172e-01 1.120074640258926e-01 7.993202941784076e-02
8.092000000000000e+10 2.319601209267747e-01 1.483746606674639e-02 6.505971365852713e-02 -9.428041965770876e-01 8.834879320456097e-01 -3.309950070827574e-01 1.121197238581900e-01 8.014770388087905e-02
8.096800000000000e+10 2.313033962882354e-01 1.404129607530218e-02 7.073974642925580e-02 -9.423139850836235e-01 8.797924645698398e-01 -3.399647652854280e-01 1.122629867843767e-01 7.940464942265427e-02
8.101600000000000e+10 2.316660032609771e-01 1.360984667870041e-02 7.609483869779345e-02 -9.423137443607782e-01 8.790193569789354e-01 -3.451970493044921e-01 1.135645531909977e-01 7.892132978562748e-02
8.106400000000000e+10 2.309677540421329e-01 1.405566003914456e-02 7.487053219246161e-02 -9.407911467890177e-01 8.790494538064820e-01 -3.446329055969201e-01 1.139468459451647e-01 7.908258374028834e-02
8.111200000000000e+10 2.306258675952195e-01 1.345286582946073e-02 6.726692954743335e-02 -9.421104909706446e-01 8.809397307023789e-01 -3.396627760940906e-01 1.138768297779289e-01 7.828512014237947e-02
8.116000000000000e+10 2.301883639636497e-01 1.302468694576966e-02 5.541188543863581e-02 -9.424632795392119e-01 8.827251725759537e-01 -3.310983989143634e-01 1.123359058386411e-01 7.789879000776249e-02
8.120800000000000e+10 2.296575771337575e-01 1.354758636136826e-02 4.567584267291784e-02 -9.406539120474782e-01 8.864729964274440e-01 -3.237824056011933e-01 1.118977383232260e-01 7.703278105599005e-02
8.125600000000000e+10 2.295197047693843e-01 1.204086164271534e-02 4.422255533558012e-02 -9.425034627609971e-01 8.890467327807424e-01 -3.213125893082439e-01 1.144188499949564e-01 7.867970829106399e-02
8.130400000000000e+10 2.288365795669072e-01 1.204764978509447e-02 4.877311005579540e-02 -9.431813009613199e-01 8.859840533654320e-01 -3.269749537481421e-01 1.141800155150032e-01 7.807919579421740e-02
8.135200000000000e+10 2.289066944426348e-01 1.363612681340634e-02 6.179932324884797e-02 -9.408744343882952e-01 8.802358927130483e-01 -3.383252512382885e-01 1.125076299164439e-01 7.850000468599250e-02
8.140000000000000e+10 2.290287256291913e-01 1.485059928890553e-02 7.347298310194575e-02 -9.388977326125223e-01 8.750291740471769e-01 -3.480527825524043e-01 1.120402687041420e-01 7.884056119711262e-02
8.144800000000000e+10 2.280402324218524e-01 1.304550892027300e-02 7.203942490323767e-02 -9.417648222732854e-01 8.741497201867109e-01 -3.533096502380552e-01 1.131821229589484e-01 7.649014118098738e-02
8.149600000000000e+10 2.292894549729420e-01 1.374329991745842e-02 6.617592428019828e-02 -9.446869405707121e-01 8.766250060248104e-01 -3.479801916051791e-01 1.147599286025965e-01 7.466468855504539e-02
8.154400000000000e+10 2.274197956277841e-01 1.242315058333627e-02 5.172844108996987e-02 -9.420766279221889e-01 8.779084786271020e-01 -3.370236297118098e-01 1.135144840719024e-01 7.548728331461509e-02
8.159200000000000e+10 2.309352445122483e-01 1.424344247266797e-02 3.771938037033813e-02 -9.388510458723236e-01 8.851951439889555e-01 -3.235482106505085e-01 1.119465647948263e-01 7.339454027077313e-02
8.164000000000000e+10 2.305607128292118e-01 1.192119874064359e-02 3.026122988180975e-02 -9.451980135944646e-01 8.890865300139242e-01 -3.175250693418282e-01 1.140758550743347e-01 7.224886470687231e-02
8.168800000000000e+10 2.315476108872244e-01 1.221611719042016e-02 3.425646301967893e-02 -9.438387925508377e-01 8.908637986324865e-01 -3.190749589277702e-01 1.149006199725384e-01 7.324359559573816e-02
8.173600000000000e+10 2.314081239825794e-01 1.305876570716565e-02 4.376030239440953e-02 -9.426819082435167e-01 8.853913515682814e-01 -3.273133106870512e-01 1.140228305518828e-01 7.443728059001770e-02
8.178400000000000e+10 2.318714567271406e-01 1.358967651958467e-02 5.488878458563921e-02 -9.406660606118258e-01 8.801177719547798e-01 -3.393362124906842e-01 1.127126412400097e-01 7.333957222920452e-02
8.183200000000000e+10 2.310217212040395e-01 1.373009951574988e-02 6.042406824440460e-02 -9.400616045301091e-01 8.775181435181831e-01 -3.478267384167448e-01 1.127209328619410e-01 7.228850903431414e-02
8.188000000000000e+10 2.317875573220301e-01 1.355286249915482e-02 6.043562198682959e-02 -9.429798605453544e-01 8.770979715612626e-01 -3.497729169952470e-01 1.142043512357361e-01 7.136574357742975e-02
8.192800000000000e+10 2.318082764596273e-01 1.326015819565402e-02 5.699541732602347e-02 -9.442390273783633e-01 8.782435240391414e-01 -3.470752531804047e-01 1.149030822184472e-01 7.200778151871302e-02
8.197600000000000e+10 2.321201127793404e-01 1.327237373146227e-02 5.127465679467508e-02 -9.442576475162173e-01 8.798190191114890e-01 -3.418721382508585e-01 1.151025652039206e-01 7.227471450512202e-02
8.202400000000000e+10 2.311834561565231e-01 1.270624709640689e-02 4.406126159577973e-02 -9.442169804104291e-01 8.823724634716482e-01 -3.369810031064540e-01 1.154897686230388e-01 7.232755690199430e-02
8.207200000000000e+10 2.306813949849576e-01 1.337362447511446e-02 3.970532222773228e-02 -9.435709957292315e-01 8.835967226626517e-01 -3.315915001323139e-01 1.162123924964141e-01 7.339663091259860e-02
8.212000000000000e+10 2.301010618616210e-01 1.375097186123020e-02 3.887531956766239e-02 -9.430121907263095e-01 8.832902077921009e-01 -3.307545617595862e-01 1.171777908373868e-01 7.301566066534690e-02
8.216800000000000e+10 2.301128643496168e-01 1.278331338158285e-02 4.098878186017048e-02 -9.442848731958496e-01 8.825767046455657e-01 -3.350900540368004e-01 1.179996149755443e-01 7.264747275982215e-02
8.221600000000000e+10 2.304758889875635e-01 1.310655147005929e-02 4.491469204606305e-02 -9.424798308805153e-01 8.828230760509382e-01 -3.381790224695114e-01 1.182469624244213e-01 7.283208598055271e-02
8.226400000000000e+10 2.312009968204009e-01 1.236879136507190e-02 4.865227833986520e-02 -9.455230564416055e-01 8.812784513895018e-01 -3.434080488802778e-01 1.191730531394166e-01 7.308086134748043e-02
8.231200000000000e+10 2.314804411105371e-01 1.248532968030248e-02 5.048147015241141e-02 -9.450268382119251e-01 8.797991883336380e-01 -3.466923313722739e-01 1.192734439265533e-01 7.361528117811694e-02
8.236000000000000e+10 2.327139876554950e-01 1.185056698332599e-02 4.936730389113334e-02 -9.457034035690414e-01 8.804189343448835e-01 -3.459684145331072e-01 1.197129213533814e-01 7.485526982595679e-02
8.240800000000000e+10 2.332096390655001e-01 9.997408833354886e-03 4.238094080810290e-02 -9.456945227985963e-01 8.827301985524267e-01 -3.420956742627426e-01 1.198892121310537e-01 7.413101355947337e-02
8.245600000000000e+10 2.337556760132515e-01 8.752633361084257e-03 3.517958665163651e-02 -9.465951876854544e-01 8.851842469787721e-01 -3.359093211841830e-01 1.193933087462214e-01 7.426705084881602e-02
8.250400000000000e+10 2.330005289337542e-01 7.454255198016254e-03 2.791035790896713e-02 -9.466263295099588e-01 8.866232104474470e-01 -3.313585174530484e-01 1.185460808235557e-01 7.395387223731374e-02
8.255200000000000e+10 2.322035591550516e-01 7.473067091975108e-03 2.585726542986471e-02 -9.471058047592412e-01 8.861464494904857e-01 -3.302705846999808e-01 1.182781641423597e-01 7.448647755965304e-02
8.260000000000000e+10 2.321210971108606e-01 8.024607733347476e-03 3.035986649690310e-02 -9.466875563149967e-01 8.837956129193945e-01 -3.346606190475851e-01 1.181372027218604e-01 7.410365063301468e-02
8.264800000000000e+10 2.316135262566716e-01 8.296492008118710e-03 4.062276316141828e-02 -9.477683643394696e-01 8.789561787395700e-01 -3.453130043794978e-01 1.172622151818546e-01 7.362485371801922e-02
8.269600000000000e+10 2.317102876989235e-01 8.315984184169171e-03 5.069173961155727e-02 -9.466618491913933e-01 8.747686482889599e-01 -3.567154943138590e-01 1.169120999662409e-01 7.388885004259067e-02
8.274400000000000e+10 2.319892589872558e-01 8.473310647663844e-03 5.244483971535579e-02 -9.466141292531485e-01 8.740212215465626e-01 -3.595471529403112e-01 1.171954568831386e-01 7.326722226896336e-02
8.279200000000000e+10 2.322419806320476e-01 8.207968926436477e-03 4.363527834464531e-02 -9.460968054301439e-01 8.762438060079769e-01 -3.528099653128486e-01 1.168932713760460e-01 7.291792365716672e-02
8.284000000000000e+10 2.323598818998789e-01 7.619752261749832e-03 2.772549475221753e-02 -9.467171323882546e-01 8.827772622766078e-01 -3.382614048280256e-01 1.167962121003008e-01 7.238530224762514e-02
8.288800000000000e+10 2.321142450757571e-01 6.527244000817086e-03 8.116819526312347e-03 -9.483851632168890e-01 8.873635192767551e-01 -3.225986066475718e-01 1.160934681885232e-01 7.213425471021966e-02
8.293600000000000e+10 2.316798400012046e-01 5.570741640379898e-03 -1.334251411291252e-03 -9.463789329005570e-01 8.918037178309661e-01 -3.153735065549362e-01 1.154352102886127e-01 7.209981661412722e-02
8.298400000000000e+10 2.316967122241151e-01 5.423752724640915e-03 4.417274911079933e-03 -9.470898649626863e-01 8.893659172329371e-01 -3.204784026865504e-01 1.157736198779190e-01 7.273940155497682e-02
8.303200000000000e+10 2.322181707658732e-01 5.082806642468167e-03 2.300195771684008e-02 -9.475404718121153e-01 8.837436645973515e-01 -3.372125817404009e-01 1.161482942383338e-01 7.296620666306231e-02
8.308000000000000e+10 2.314784368335361e-01 4.569008210522870e-03 4.327113114880356e-02 -9.469914422785755e-01 8.752907733884100e-01 -3.572093943890366e-01 1.162621411451562e-01 7.293588898966114e-02
8.312800000000000e+10 2.308948403312190e-01 4.838117128889284e-03 5.566818108182688e-02 -9.463788543043731e-01 8.695580426582815e-01 -3.702673643394532e-01 1.159496773543468e-01 7.256441694678589e-02
8.317600000000000e+10 2.304494831499800e-01 4.434976265450896e-03 5.448816473726661e-02 -9.464478755786945e-01 8.691914416402592e-01 -3.711908004030769e-01 1.161917660085161e-01 7.189525080541849e-02
8.322400000000000e+10 2.298688669384201e-01 4.090239828761961e-03 3.773964781829102e-02 -9.467680925776679e-01 8.752859442489528e-01 -3.588771858972015e-01 1.162976965474385e-01 7.120246821914285e-02
8.327200000000000e+10 2.296982554839792e-01 3.729434601140431e-03 1.374834370860415e-02 -9.485775251580917e-01 8.823050165944268e-01 -3.388321818706804e-01 1.175230807385865e-01 7.088548298202968e-02
8.332000000000000e+10 2.298550349441817e-01 3.232873109261497e-03 -6.862775113430458e-03 -9.485177523838597e-01 8.908494078307471e-01 -3.186572692799443e-01 1.183198184813974e-01 7.083376196984706e-02
8.336800000000000e+10 2.288027619790833e-01 2.421542495564618e-03 -1.716821327868153e-02 -9.491710054797289e-01 8.925787314890964e-01 -3.118481254255098e-01 1.184135139433662e-01 7.009691027077901e-02
8.341600000000000e+10 2.289066305979863e-01 2.069180925853289e-03 -9.879538985648594e-03 -9.499064940733285e-01 8.913319624111788e-01 -3.193857195212015e-01 1.192172950256734e-01 7.028326974761670e-02
8.346400000000000e+10 2.289809820038508e-01 1.440849120244883e-03 8.181948389681483e-03 -9.505792796380442e-01 8.839679975514233e-01 -3.365403479964695e-01 1.194283833924374e-01 7.065378181407564e-02
8.351200000000000e+10 2.288448224451709e-01 9.721396120074306e-04 2.893281881998038e-02 -9.489874086136546e-01 8.795231479328987e-01 -3.567299441011445e-01 1.196082602013726e-01 7.022899981491121e-02
8.356000000000000e+10 2.273437500458609e-01 1.339142517560019e-03 4.031829289653162e-02 -9.479658568242716e-01 8.720596263461677e-01 -3.695604774047053e-01 1.194772810841593e-01 6.991691894567388e-02
8.360800000000000e+10 2.271508822133571e-01 1.769007272905981e-03 4.126069774130430e-02 -9.481995661741816e-01 8.712417351628252e-01 -3.716384591334834e-01 1.194815122036036e-01 6.945964586237838e-02
8.365600000000000e+10 2.264942746838283e-01 1.585159517883462e-03 3.112506312526342e-02 -9.484978819091907e-01 8.736656000884585e-01 -3.644345106989625e-01 1.191435168531004e-01 6.986056534834159e-02
8.370400000000000e+10 2.264586021030672e-01 1.251490913283762e-03 1.832702639022244e-02 -9.495890444843874e-01 8.784944949086577e-01 -3.534205844890172e-01 1.192005612777285e-01 6.982551848195474e-02
8.375200000000000e+10 2.262209327903072e-01 1.043033869879350e-03 4.509327143577630e-03 -9.497512207162905e-01 8.831192290848547e-01 -3.408964357542447e-01 1.188120890464168e-01 7.017064091921812e-02
8.380000000000000e+10 2.256882105099977e-01 6.551967852359831e-04 -4.927598292053666e-03 -9.494569388537456e-01 8.862262299665957e-01 -3.330104240463919e-01 1.187334473881981e-01 7.049580771707011e-02
8.384800000000000e+10 2.248619894670436e-01 -9.922717224663720e-05 -6.346683756556986e-03 -9.487249859372232e-01 8.858733765399002e-01 -3.343995362928234e-01 1.189435867205635e-01 7.076830351616616e-02
8.389600000000000e+10 2.249807527328952e-01 2.580488004338468e-04 6.864225045537666e-04 -9.503954954512773e-01 8.832589255627790e-01 -3.390782054453547e-01 1.196193163265082e-01 7.093299533361942e-02
8.394400000000000e+10 2.246270201179012e-01 -3.773656338578415e-04 8.853139897551317e-03 -9.510890261851356e-01 8.798977171137669e-01 -3.490869977793180e-01 1.207944278604665e-01 7.020008736166880e-02
8.399200000000000e+10 2.241736026210652e-01 5.330912594208402e-05 1.846453511467780e-02 -9.506258629523512e-01 8.759304115091533e-01 -3.594912108033390e-01 1.207268813673772e-01 6.965027074418105e-02
8.404000000000000e+10 2.242032308488314e-01 2.827416390872940e-04 2.269143782812671e-02 -9.498366446563499e-01 8.745664758021182e-01 -3.658275811626084e-01 1.204338710152953e-01 6.917451971534894e-02
8.408800000000000e+10 2.257940318406682e-01 1.186167571117108e-03 2.330262522260139e-02 -9.503585911783425e-01 8.756976609249904e-01 -3.652413466410743e-01 1.208907690383212e-01 6.888226195410871e-02
8.413600000000000e+10 2.264228514180401e-01 1.420249454941046e-03 1.567860471590502e-02 -9.498996011695247e-01 8.787145591469769e-01 -3.588929497999426e-01 1.208913468499132e-01 6.888032975569532e-02
8.418400000000000e+10 2.271121312691422e-01 8.204990779705148e-04 4.935848491650762e-03 -9.511626565723739e-01 8.816327563962966e-01 -3.504257144719647e-01 1.203585709320647e-01 6.792205488524067e-02
8.423200000000000e+10 2.266125966958661e-01 -8.680843112593480e-04 -1.067463452397245e-02 -9.483412003700918e-01 8.865289275408740e-01 -3.404608247780285e-01 1.186810762812597e-01 6.733820295117811e-02
8.428000000000000e+10 2.264315898098392e-01 -3.284728010410017e-04 -1.133456701229620e-02 -9.505356365292388e-01 8.871297706839398e-01 -3.368552339505908e-01 1.194547037696669e-01 6.744547008802086e-02
8.432800000000000e+10 2.255496928292079e-01 -2.038555788259077e-03 -1.128548544405532e-02 -9.500740222431053e-01 8.855451666687874e-01 -3.410636682757314e-01 1.189258418294503e-01 6.704318956166093e-02
8.437600000000000e+10 2.234414143962357e-01 -2.391348089469886e-03 -4.492986156486037e-04 -9.496308183974327e-01 8.803565137202732e-01 -3.525754139183325e-01 1.184732598280665e-01 6.638907030962447e-02
8.442400000000000e+10 2.223201076429673e-01 -3.022373190912844e-03 1.026500651859541e-02 -9.491865917332729e-01 8.752285227403345e-01 -3.647936035547831e-01 1.179776934039389e-01 6.579965836362646e-02
8.447200000000000e+10 2.205322154725994e-01 -2.933197921241810e-03 1.292489424972370e-02 -9.497779097603912e-01 8.723808445190546e-01 -3.695581488110457e-01 1.176005505493953e-01 6.559437678591455e-02
8.452000000000000e+10 2.196812984100031e-01 -2.116462396174620e-03 6.422717253881638e-03 -9.482489474064315e-01 8.744729086964067e-01 -3.646948797266800e-01 1.173040267180525e-01 6.545093398944424e-02
8.456800000000000e+10 2.195527320820125e-01 -1.909090684112332e-03 -7.323104765060479e-03 -9.492729738005187e-01 8.793463465166316e-01 -3.520785217717980e-01 1.176604150331456e-01 6.563698334412606e-02
8.461600000000000e+10 2.198636089131363e-01 -1.335708313973908e-03 -2.324828779087873e-02 -9.490451788289965e-01 8.855473369997449e-01 -3.377529497452307e-01 1.181157989549483e-01 6.540590355804658e-02
8.466400000000000e+10 2.200798530768798e-01 -2.173032331226384e-03 -3.139787124709548e-02 -9.513786653101192e-01 8.861778412802862e-01 -3.298561220146746e-01 1.184240139054369e-01 6.493759077770668e-02
8.471200000000000e+10 2.194512147607707e-01 -1.634557400287253e-03 -2.994379972683214e-02 -9.467108727390614e-01 8.866849820704662e-01 -3.341065271491771e-01 1.181504983246532e-01 6.483551246599338e-02
8.476000000000000e+10 2.191288484955242e-01 -2.253183387213634e-03 -1.408385090643647e-02 -9.477414932243212e-01 8.809834054620735e-01 -3.506989383854834e-01 1.181643327151692e-01 6.383740928768579e-02
8.480800000000000e+10 2.183715513720348e-01 -1.599898056421265e-03 5.977026051112498e-03 -9.477849522605800e-01 8.730708413857056e-01 -3.687549730036959e-01 1.181493605946063e-01 6.418100838147249e-02
8.485600000000000e+10 2.172934978268868e-01 -8.201347117134337e-04 1.644566529554572e-02 -9.471645325029159e-01 8.683919969519964e-01 -3.791098614439966e-01 1.180218195029142e-01 6.385106667025386e-02
8.490400000000000e+10 2.161791067395493e-01 4.651236728525353e-04 1.422857249788179e-02 -9.447361108985303e-01 8.681303907101886e-01 -3.794396160378227e-01 1.178711002974896e-01 6.398377486165435e-02
8.495200000000000e+10 2.171390601713096e-01 1.714865771300135e-03 3.881764578999627e-03 -9.450264324411425e-01 8.732065959465901e-01 -3.694136928070794e-01 1.179893831409690e-01 6.372668032903864e-02
8.500000000000000e+10 2.187219154298725e-01 4.032049203923049e-06 -1.568493439221010e-02 -9.483105823489690e-01 8.796773276545468e-01 -3.549306565364111e-01 1.174531809708935e-01 6.307551397230859e-02
8.504800000000000e+10 2.178469354292983e-01 1.767827948628035e-04 -3.088963489084007e-02 -9.461525839390904e-01 8.835358359828006e-01 -3.412743156041189e-01 1.175536323427856e-01 6.309847981920648e-02
8.509600000000000e+10 2.165766715350105e-01 -1.910000630614520e-03 -3.276884737492066e-02 -9.477572986038856e-01 8.828168809334296e-01 -3.429263325424121e-01 1.170722209148282e-01 6.157603275466649e-02
8.514400000000000e+10 2.160235807772073e-01 -2.123608553753085e-03 -1.857379712739564e-02 -9.462312861934006e-01 8.790457728612199e-01 -3.540439923708890e-01 1.198885370315294e-01 6.229713362655367e-02
8.519200000000000e+10 2.154538057128380e-01 -5.611897103118356e-03 -6.666895428641793e-03 -9.533769461410458e-01 8.719293918816244e-01 -3.727311289729006e-01 1.170555236919080e-01 6.039330317045200e-02
8.524000000000000e+10 2.110153839999613e-01 -7.417800825969884e-03 1.161257465764159e-02 -9.502708502854436e-01 8.613171452171086e-01 -3.989625083758782e-01 1.178050968583040e-01 5.902405814377885e-02
8.528800000000000e+10 2.133064106985818e-01 -3.471065040088315e-03 1.077142724165710e-02 -9.461186309628908e-01 8.671670215054830e-01 -3.852671416427329e-01 1.179628539836080e-01 6.260292327434110e-02
8.533600000000000e+10 2.115070033678627e-01 -3.638173370849642e-03 5.159147395242262e-03 -9.476647150082785e-01 8.677915413962513e-01 -3.893076402023942e-01 1.173257875902960e-01 5.981166660452429e-02
8.538400000000000e+10 2.124901944177270e-01 9.279158038687025e-05 -1.408178780663109e-02 -9.466505091950557e-01 8.741980494158985e-01 -3.631425379490626e-01 1.194277059929038e-01 6.277661310344203e-02
8.543200000000000e+10 2.127478702044611e-01 -3.133930693476225e-04 -2.887376027409645e-02 -9.471319140037393e-01 8.801390049197272e-01 -3.527456635776994e-01 1.191155038052480e-01 6.153831179057617e-02
8.548000000000000e+10 2.127618207442813e-01 1.377482720419100e-03 -3.564229829921525e-02 -9.467441921979538e-01 8.809675458983089e-01 -3.437388677634337e-01 1.194152457588486e-01 6.255968772060570e-02
8.552800000000000e+10 2.145656278092367e-01 3.227949991621560e-04 -3.465492563504610e-02 -9.463424041197266e-01 8.847968817635321e-01 -3.471191291738491e-01 1.201165260485268e-01 6.174504965833941e-02
8.557600000000000e+10 2.124853029140837e-01 -1.873108476749099e-03 -2.662935309792084e-02 -9.446198169556311e-01 8.772369196048470e-01 -3.598161008852500e-01 1.183045422695430e-01 6.161574228073296e-02
8.562400000000000e+10 2.123077170107472e-01 -2.219026588044764e-03 -1.694832794233323e-02 -9.466372711196331e-01 8.732019278457975e-01 -3.683049908527466e-01 1.187659604094407e-01 6.115429184847591e-02
8.567200000000000e+10 2.112153472853132e-01 -2.823330635122244e-03 -1.292776226602878e-02 -9.474531318246986e-01 8.706308676963057e-01 -3.742180663676979e-01 1.183758110882703e-01 6.074786612392868e-02
8.572000000000000e+10 2.123134916262155e-01 -2.466827904921648e-03 -1.318740712960686e-02 -9.476125528097724e-01 8.728144578814606e-01 -3.739751708720557e-01 1.188992635888518e-01 6.058455926490833e-02
8.576800000000000e+10 2.092305679374425e-01 -2.366489110931252e-03 -1.780384911501659e-02 -9.478550531934733e-01 8.693039716392483e-01 -3.716903761756726e-01 1.172418191950461e-01 6.111883908063991e-02
8.581600000000000e+10 2.120586968678608e-01 3.618490144710027e-04 -2.089658152211024e-02 -9.477680860033916e-01 8.745935393717166e-01 -3.652097182706234e-01 1.192929069000877e-01 6.163948555720158e-02
8.586400000000000e+10 2.105012668282661e-01 -2.597729668240638e-03 -3.175512892755862e-02 -9.490008693227648e-01 8.752411513104033e-01 -3.604763661819900e-01 1.182717222187841e-01 6.100539014879210e-02
8.591200000000000e+10 2.127557226514591e-01 6.188543589761401e-04 -3.343941242863761e-02 -9.464255998914269e-01 8.791544452746957e-01 -3.553262769347510e-01 1.199275877947200e-01 6.164761608418323e-02
8.596000000000000e+10 2.125394118317344e-01 -6.370496619085389e-04 -3.387105063729614e-02 -9.475079490418475e-01 8.788250718962058e-01 -3.561246601930040e-01 1.201290150741072e-01 6.147744348828742e-02
8.600800000000000e+10 2.121373832903702e-01 -1.041655162870011e-03 -3.146338473110044e-02 -9.471560069611343e-01 8.776266374310888e-01 -3.607791062307773e-01 1.203188015868403e-01 6.031556112924421e-02
8.605600000000000e+10 2.103986677039559e-01 -1.826492234623305e-03 -3.134086009710463e-02 -9.474754537029207e-01 8.752794558747538e-01 -3.648825196354356e-01 1.189558155758057e-01 5.952455339287038e-02
8.610400000000000e+10 2.096195769784896e-01 -7.748482015527414e-05 -3.072640311234535e-02 -9.446572226919059e-01 8.751871121096637e-01 -3.640632789732220e-01 1.193778998588518e-01 5.985497223283121e-02
8.615200000000000e+10 2.095210403444727e-01 4.275647857240826e-04 -3.216017121623226e-02 -9.441969443398234e-01 8.755642996815420e-01 -3.626614956654369e-01 1.198582304928138e-01 5.963575147646580e-02
8.620000000000000e+10 2.085418337885213e-01 1.778145664398248e-03 -3.351453120009575e-02 -9.441079398039943e-01 8.743197595950414e-01 -3.614759552322177e-01 1.198406672318347e-01 5.995427190911341e-02
8.624800000000000e+10 2.055671022965613e-01 -7.376630516341676e-03 -6.141024007404346e-02 -9.430626960662370e-01 8.769421964631499e-01 -3.663724856781381e-01 1.104196340883210e-01 5.517038170054079e-02
8.629600000000000e+10 2.022049527946551e-01 -6.545219770640111e-03 -6.176510664849650e-02 -9.410121474433831e-01 8.709748672880564e-01 -3.678093574888123e-01 1.083751995237909e-01 5.744444195791666e-02
8.634400000000000e+10 2.111953662776845e-01 -3.820041953234482e-03 -4.947634479637000e-02 -9.518855944009331e-01 8.798283577172437e-01 -3.589236846560412e-01 1.184063534455480e-01 5.487013271991747e-02
8.639200000000000e+10 2.087802767206926e-01 1.255560090552005e-04 -4.260560249832294e-02 -9.432022689786638e-01 8.755261036767269e-01 -3.607730678197087e-01 1.179768373806843e-01 5.975579994953802e-02
8.644000000000000e+10 2.075426450543392e-01 6.386754993409183e-04 -4.222668957395161e-02 -9.426242930549565e-01 8.732078793595445e-01 -3.618679699099768e-01 1.183881193242065e-01 5.856468224060220e-02
8.648800000000000e+10 2.085404494161906e-01 -1.067448514992792e-03 -3.885575472220786e-02 -9.432044216736518e-01 8.758928122509577e-01 -3.655187878335700e-01 1.184023188178626e-01 5.779958859947477e-02
8.653600000000000e+10 2.071911971718265e-01 -1.610925004642478e-03 -4.189504158373714e-02 -9.454306195434499e-01 8.731587761117375e-01 -3.655965554108147e-01 1.184686016571187e-01 5.721603895020646e-02
8.658400000000000e+10 2.070441150950759e-01 -4.998857999754017e-03 -4.685901597710469e-02 -9.466954016867204e-01 8.789337536004850e-01 -3.661049448882202e-01 1.187031764523354e-01 5.472803457166091e-02
8.663200000000000e+10 2.044506930946472e-01 -2.092379487389705e-03 -5.148069846112480e-02 -9.438485046831266e-01 8.753960083645170e-01 -3.610588067094329e-01 1.181158554110077e-01 5.679129230261719e-02
8.668000000000000e+10 2.030854430661453e-01 -2.845819459431375e-03 -5.594928954150045e-02 -9.441030174132166e-01 8.738878152876925e-01 -3.600240488728487e-01 1.171413984771721e-01 5.703037886924404e-02
8.672800000000000e+10 2.061432957833815e-01 -1.800602972059864e-03 -5.147789249364191e-02 -9.488275711086575e-01 8.765573187361535e-01 -3.599025023047378e-01 1.191979022105475e-01 5.403923053075953e-02
8.677600000000000e+10 2.082288338073514e-01 -4.510234712322743e-03 -5.486014062012665e-02 -9.494612111860221e-01 8.817800462193535e-01 -3.588814215459987e-01 1.204309187295722e-01 5.306243587485319e-02
8.682400000000000e+10 2.054951359085320e-01 -3.264432469283491e-03 -5.050051173577041e-02 -9.442374493181962e-01 8.769888668144438e-01 -3.662540755060474e-01 1.190600229028821e-01 5.473838561832631e-02
8.687200000000000e+10 2.065195721327157e-01 -4.090910159063154e-03 -4.736360071044408e-02 -9.462973624469992e-01 8.753433124906780e-01 -3.687557389174032e-01 1.199282523569888e-01 5.413224928816204e-02
8.692000000000000e+10 2.057990803781210e-01 -3.595153284343925e-03 -4.358602914214042e-02 -9.450726864784765e-01 8.741580780249445e-01 -3.722027502243549e-01 1.195947721195754e-01 5.473521743538787e-02
8.696800000000000e+10 2.054722861449874e-01 -2.501739706294426e-03 -4.650878032105032e-02 -9.417585435609926e-01 8.741716008373461e-01 -3.701163568635629e-01 1.197903778187755e-01 5.544245295807700e-02
8.701600000000000e+10 2.033532969179429e-01 -3.052550495327205e-03 -5.173783127380138e-02 -9.416363089995291e-01 8.735812049037293e-01 -3.671047377840620e-01 1.185027712334020e-01 5.536051343418564e-02
8.706400000000000e+10 2.026281354314531e-01 -3.473543246469352e-03 -5.656228847581662e-02 -9.441654481530315e-01 8.721866058542070e-01 -3.652813169117926e-01 1.186918419363103e-01 5.466612105275884e-02
8.711200000000000e+10 2.013961146123409e-01 -8.576850508004387e-03 -6.017631956662067e-02 -9.476296439847496e-01 8.746953573413382e-01 -3.709136038842352e-01 1.178463950558565e-01 5.193055923491052e-02
8.716000000000000e+10 2.019675055002305e-01 -5.797636293970738e-03 -5.699516842756641e-02 -9.451111739263419e-01 8.742104644857573e-01 -3.696467884816170e-01 1.191487616631878e-01 5.324643683094017e-02
8.720800000000000e+10 2.024198555416062e-01 -6.876880613356683e-03 -5.536161315760158e-02 -9.476705500389900e-01 8.747410336962552e-01 -3.730984554124936e-01 1.196418588724254e-01 5.165037831494902e-02
8.725600000000000e+10 2.035314495756886e-01 -6.889714039138991e-03 -5.179209942966879e-02 -9.470987110496583e-01 8.743968357168483e-01 -3.748495100992125e-01 1.209700985997217e-01 5.201832424825317e-02
8.730400000000000e+10 2.036886785938218e-01 -5.438252923379026e-03 -4.919975095372596e-02 -9.478654231411743e-01 8.717597966493714e-01 -3.767758175149430e-01 1.210393884859487e-01 5.215717705702094e-02
8.735200000000000e+10 2.031219406840926e-01 -6.271388558172709e-03 -5.294736337318751e-02 -9.466536319553269e-01 8.699145869992548e-01 -3.756483719799584e-01 1.206836383592764e-01 5.256514505834767e-02
8.740000000000000e+10 2.014768315501615e-01 -4.857968066534203e-03 -5.844013628171608e-02 -9.445872046521371e-01 8.703440214315260e-01 -3.719436185216318e-01 1.198700705647593e-01 5.381262374697574e-02
8.744800000000000e+10 2.020712610089996e-01 -6.140409024081576e-03 -6.474818605655000e-02 -9.425628103430158e-01 8.761065022166031e-01 -3.698471283879212e-01 1.198441387520393e-01 5.145195693491687e-02
8.749600000000000e+10 2.007855688934549e-01 -6.032438978506532e-03 -6.383148960486743e-02 -9.433453575739910e-01 8.753159635793366e-01 -3.723181243012809e-01 1.193258965634827e-01 5.104497246482954e-02
8.754400000000000e+10 2.015399316750384e-01 -6.660561172505548e-03 -6.106968563132940e-02 -9.462010326270142e-01 8.739146126866296e-01 -3.735852735872983e-01 1.209869273623546e-01 4.917209276373202e-02
8.759200000000000e+10 2.005206171030992e-01 -5.760428855727681e-03 -5.895929318686297e-02 -9.452223140578410e-01 8.729287024577580e-01 -3.768257379782199e-01 1.212515418241235e-01 4.984160610107429e-02
8.764000000000000e+10 2.014656065928511e-01 -7.771839362711631e-03 -5.535817663786254e-02 -9.468329598576559e-01 8.729916091164984e-01 -3.808557574316279e-01 1.210677828875197e-01 4.736937372060138e-02
8.768800000000000e+10 1.981533747474044e-01 -3.057036653588107e-03 -5.411256543761648e-02 -9.406510704368319e-01 8.673421968923062e-01 -3.832202723337541e-01 1.191456155931855e-01 5.124341933518465e-02
8.773600000000000e+10 2.002971360572956e-01 -9.073498140339727e-03 -5.806103894368694e-02 -9.497025731398070e-01 8.700674789042985e-01 -3.836299169983515e-01 1.201562821787737e-01 4.589718487692109e-02
8.778400000000000e+10 2.000710446338661e-01 -8.560437225304057e-03 -6.430509930483519e-02 -9.514163078646359e-01 8.714721358817458e-01 -3.796389338228865e-01 1.208251172137933e-01 4.537855414925511e-02
8.783200000000000e+10 2.018310492349314e-01 -7.739873897899251e-03 -6.818249884731337e-02 -9.497666309906768e-01 8.737960127453798e-01 -3.723814723800866e-01 1.222497394001848e-01 4.752933052420983e-02
8.788000000000000e+10 2.015439710283494e-01 -7.990089110322137e-03 -7.065098755563350e-02 -9.478505155019460e-01 8.755035968889229e-01 -3.712481508837879e-01 1.220046777421361e-01 4.639972190225300e-02
8.792800000000000e+10 2.006072921687728e-01 -1.010634131416827e-02 -7.792940755783351e-02 -9.476160685850620e-01 8.772910378558656e-01 -3.706733911699661e-01 1.213546373041311e-01 4.456528280019621e-02
8.797600000000000e+10 2.026664656419318e-01 -8.371595262211396e-03 -7.127753815825637e-02 -9.467883665922443e-01 8.786405891911049e-01 -3.699829645908461e-01 1.236985749849387e-01 4.507991379094773e-02
8.802400000000000e+10 1.992392098213814e-01 -1.161789199232022e-02 -7.557731209658568e-02 -9.483278092678767e-01 8.752657955976655e-01 -3.790559014131552e-01 1.204622786866270e-01 4.197876806090830e-02
8.807200000000000e+10 2.010862814849708e-01 -7.748743878863112e-03 -6.723440611748574e-02 -9.455539230638220e-01 8.735295852687109e-01 -3.783355440362382e-01 1.221190600233767e-01 4.419105547153004e-02
8.812000000000000e+10 1.997178729027443e-01 -9.873306190334434e-03 -6.559350848296752e-02 -9.512679718499726e-01 8.704974067531305e-01 -3.867396654857466e-01 1.213379492406444e-01 4.007623906544616e-02
8.816800000000000e+10 2.035001941846137e-01 -6.044481750603180e-03 -5.471840458346201e-02 -9.478157260075397e-01 8.679435825357233e-01 -3.881878729766330e-01 1.229426269743744e-01 4.513046356339717e-02
8.821600000000000e+10 2.005014926865504e-01 -5.342011406313151e-03 -5.946566997931693e-02 -9.434149044135450e-01 8.667348642976205e-01 -3.899312351721261e-01 1.197009563088163e-01 4.394654932503692e-02
8.826400000000000e+10 2.004361791717614e-01 -8.080501199372120e-03 -7.453506271690180e-02 -9.468406246191560e-01 8.720559619560593e-01 -3.832789818513390e-01 1.197828764266448e-01 3.947814968876870e-02
8.831200000000000e+10 2.011006227886527e-01 -1.076059053436205e-02 -8.639814231854849e-02 -9.484799318128095e-01 8.765376781012523e-01 -3.723903543613875e-01 1.195966898452820e-01 3.911879642016894e-02
8.836000000000000e+10 2.019269297501286e-01 -1.009038003251163e-02 -9.431160744887827e-02 -9.476151870786635e-01 8.799423221167648e-01 -3.630263067951685e-01 1.204294152179346e-01 4.041123941251491e-02
8.840800000000000e+10 2.016512202399606e-01 -1.110395405973454e-02 -9.536522010600557e-02 -9.484797024913194e-01 8.807913570110341e-01 -3.618165427193987e-01 1.207389929770567e-01 4.015199465153318e-02
8.845600000000000e+10 2.010679129862942e-01 -1.144766353496474e-02 -9.096165292275907e-02 -9.498038639240942e-01 8.783455679925071e-01 -3.694129827713158e-01 1.209308877705711e-01 3.921830449238492e-02
8.850400000000000e+10 2.012476328311431e-01 -1.173570924583675e-02 -7.559698451303694e-02 -9.524662666146652e-01 8.689259408374798e-01 -3.808662185162377e-01 1.217612736591780e-01 4.211117562116154e-02
8.855200000000000e+10 1.985796846200131e-01 -8.790860587711011e-03 -7.115284825116172e-02 -9.500253966478528e-01 8.688430869043051e-01 -3.952351198095140e-01 1.186564682886624e-01 3.529926328398467e-02
8.860000000000000e+10 1.945891303628760e-01 -1.032581110890295e-02 -7.427789811277960e-02 -9.522281401290084e-01 8.655725539790617e-01 -4.023020456897826e-01 1.181566194891582e-01 2.802487507628314e-02
8.864800000000000e+10 1.941694152627767e-01 -3.127878894876127e-03 -6.873738802321067e-02 -9.528403550030062e-01 8.694122924371825e-01 -3.960404573878020e-01 1.239950440869692e-01 1.913211934256808e-02
8.869600000000000e+10 1.910954949659787e-01 -1.390578214043337e-02 -1.098422425328636e-01 -9.484405024701563e-01 8.698801365264897e-01 -3.941834861648323e-01 1.092729566265240e-01 2.209666498588401e-02
8.874400000000000e+10 1.923737247437877e-01 -1.308461925643766e-02 -1.198463081356177e-01 -9.444084056960649e-01 8.755016792946260e-01 -3.816610919382556e-01 1.097403573529638e-01 2.378983673377408e-02
8.879200000000000e+10 1.939593649584623e-01 -1.302447170507236e-02 -1.254588586108857e-01 -9.433494520440551e-01 8.778313565723167e-01 -3.744472404003660e-01 1.101763642431091e-01 2.421749714624150e-02
8.884000000000000e+10 1.945835437076666e-01 -1.477927399812539e-02 -1.216428923525643e-01 -9.479905440503619e-01 8.782646469431240e-01 -3.770109010690505e-01 1.125130271150083e-01 2.383214431272866e-02
8.888800000000000e+10 1.990623365596409e-01 -7.979129434877191e-03 -8.398712337000215e-02 -9.502303148171956e-01 8.762268342495289e-01 -3.817689402260733e-01 1.259936269749036e-01 2.948651742305194e-02
8.893600000000000e+10 2.042622848201261e-01 -7.928934983682041e-03 -6.570206398179038e-02 -9.483252953028742e-01 8.693463947804433e-01 -3.920499153399153e-01 1.233697874373265e-01 4.061590872698236e-02
8.898400000000000e+10 2.024503010304617e-01 -9.416221692488274e-03 -6.372723921333123e-02 -9.489966663429780e-01 8.627372295403193e-01 -4.003587749936185e-01 1.210348159578441e-01 4.038767345595495e-02
8.903200000000000e+10 2.018430898358038e-01 -8.065403402594148e-03 -6.546189792413626e-02 -9.524952773803071e-01 8.623317400043611e-01 -4.004402855235727e-01 1.208757139549362e-01 3.732227988857752e-02
8.908000000000000e+10 2.011395341429759e-01 -9.255340009044634e-03 -7.453553477848902e-02 -9.516752131719771e-01 8.620331058905270e-01 -3.982778178472599e-01 1.188708580267629e-01 3.601945352389561e-02
8.912800000000000e+10 2.019368861330558e-01 -8.675582600263692e-03 -8.525098823943594e-02 -9.491311244810473e-01 8.686930312706633e-01 -3.895825725835605e-01 1.187633986281193e-01 3.638940059745749e-02
8.917600000000000e+10 2.029107304163641e-01 -1.030932006420600e-02 -9.191979192278860e-02 -9.490593375428890e-01 8.701410238969758e-01 -3.832597472708806e-01 1.200195577159124e-01 3.700828966277386e-02
8.922400000000000e+10 2.033430821948478e-01 -9.422735509805895e-03 -9.208918339525247e-02 -9.483197464163449e-01 8.718446826212444e-01 -3.823387789265663e-01 1.197359006677721e-01 3.712481196793148e-02
8.927200000000000e+10 2.044651105634724e-01 -1.111412481697893e-02 -8.764738894691976e-02 -9.488246743436142e-01 8.707177118009132e-01 -3.868695918250836e-01 1.209173126551621e-01 3.695420888661035e-02
8.932000000000000e+10 2.034268826018787e-01 -1.207010482865200e-02 -8.189771254536117e-02 -9.502468764189143e-01 8.671062465532638e-01 -3.945647350412694e-01 1.203692612905693e-01 3.670942584002781e-02
8.936800000000000e+10 2.039613558198045e-01 -1.170120964468103e-02 -7.749197670157820e-02 -9.482823547443338e-01 8.663353755658332e-01 -4.002872223342421e-01 1.204057124985363e-01 3.669239579510951e-02
8.941600000000000e+10 2.025039046777745e-01 -1.149293503348951e-02 -7.667327405702701e-02 -9.499192234373336e-01 8.623556785854629e-01 -4.010849592624339e-01 1.203663315478780e-01 3.651511714983813e-02
8.946400000000000e+10 2.031891746298701e-01 -1.024429738610946e-02 -7.841943999705853e-02 -9.493684941150823e-01 8.623910914335862e-01 -4.009840587403700e-01 1.201602200980168e-01 3.600490895453891e-02
8.951200000000000e+10 2.042856580807771e-01 -9.246314381888006e-03 -7.632397873502729e-02 -9.485214077317267e-01 8.642860039053702e-01 -3.969116481264727e-01 1.216103840703563e-01 3.727949820500615e-02
8.956000000000000e+10 2.039359467354373e-01 -9.562796928427316e-03 -8.276674979492324e-02 -9.479789585668925e-01 8.613439843188108e-01 -3.981390520614896e-01 1.193206865799558e-01 3.750693686773338e-02
8.960800000000000e+10 2.035409041618844e-01 -1.239906364719050e-02 -8.846171016312036e-02 -9.500593149670425e-01 8.643659415462150e-01 -3.965932600381435e-01 1.200694392928612e-01 3.507575832010118e-02
8.965600000000000e+10 2.064418935254653e-01 -9.716503584003658e-03 -8.575098694704210e-02 -9.485057174113449e-01 8.652609362055340e-01 -3.929696163423924e-01 1.202416366117946e-01 3.829680932396465e-02
8.970400000000000e+10 2.037374887830443e-01 -1.330337464237714e-02 -9.145317130417556e-02 -9.501019566499548e-01 8.660325105355103e-01 -3.952363665284004e-01 1.208409746039698e-01 3.493503133563248e-02
8.975200000000000e+10 2.059846876995020e-01 -1.262705345675124e-02 -9.084118661408884e-02 -9.497442950615229e-01 8.674204345628310e-01 -3.907772586377437e-01 1.212140075584491e-01 3.824797038086612e-02
8.980000000000000e+10 2.035451586400021e-01 -1.446804301809458e-02 -9.686515677120244e-02 -9.494412859697096e-01 8.671523059796928e-01 -3.908822764317257e-01 1.210103330428884e-01 3.658175376536742e-02
8.984800000000000e+10 2.043929042579277e-01 -1.214041396354838e-02 -9.573022744381995e-02 -9.491579783578917e-01 8.683845205786080e-01 -3.896618566949874e-01 1.224045393380267e-01 3.532580515148771e-02
8.989600000000000e+10 2.040366337086357e-01 -1.117680702630943e-02 -9.993785134961472e-02 -9.458279367910816e-01 8.662586955972401e-01 -3.874624993142811e-01 1.201641401596871e-01 3.647885556308013e-02
8.994400000000000e+10 2.069319621185907e-01 -1.387076513266437e-02 -9.409556042810115e-02 -9.498525507902743e-01 8.686959025045654e-01 -3.937665060745433e-01 1.238035242687402e-01 3.561568911436386e-02
8.999200000000000e+10 2.053610204536308e-01 -1.675001275121299e-02 -9.520621728641235e-02 -9.502589219062815e-01 8.686007657228662e-01 -3.975466189486108e-01 1.234644992348715e-01 3.564186168589877e-02
9.004000000000000e+10 2.054516722813826e-01 -1.605817666839068e-02 -9.649009527401588e-02 -9.512441855779985e-01 8.670273426608573e-01 -3.986669357290629e-01 1.240480628823828e-01 3.383765318817296e-02
9.008800000000000e+10 2.041782379448879e-01 -1.603613015185378e-02 -1.017311322947217e-01 -9.479227878018129e-01 8.679408283946856e-01 -3.931411355287844e-01 1.236767090152244e-01 3.594546105107974e-02
9.013600000000000e+10 2.058369553459014e-01 -1.354429298167121e-02 -1.040043605652222e-01 -9.441459643564268e-01 8.716528320517183e-01 -3.866586001891962e-01 1.249276926077664e-01 3.649100917192940e-02
9.018400000000000e+10 2.068555940336604e-01 -1.383497048749363e-02 -1.090932075564065e-01 -9.442467978772653e-01 8.740417843675707e-01 -3.825525795920138e-01 1.226806240993842e-01 3.550737877820469e-02
9.023200000000000e+10 2.045535029536470e-01 -1.627728293997127e-02 -1.160434645757496e-01 -9.480843378141713e-01 8.702531966640967e-01 -3.869877723857213e-01 1.219066822118087e-01 3.132158959674703e-02
9.028000000000000e+10 2.044199322176519e-01 -1.692898590239461e-02 -1.121596159200970e-01 -9.470191940588127e-01 8.695213963270253e-01 -3.850057689471270e-01 1.218675237085141e-01 3.624023513027323e-02
9.032800000000000e+10 2.042872474371338e-01 -1.696918185604665e-02 -1.085771816055776e-01 -9.478288680836139e-01 8.703597784829301e-01 -3.888386580011653e-01 1.237703594299990e-01 3.659655162579954e-02
9.037600000000000e+10 2.027050940406631e-01 -1.721425419645554e-02 -1.058160691430759e-01 -9.481153274502035e-01 8.679956385894184e-01 -3.933888472476414e-01 1.238851191781273e-01 3.635492064853609e-02
9.042400000000000e+10 2.030690865716633e-01 -1.594562185437318e-02 -1.066585834063935e-01 -9.467148753484438e-01 8.688025758710826e-01 -3.941081381645031e-01 1.248537302033392e-01 3.627269441901527e-02
9.047200000000000e+10 2.030461908105057e-01 -1.556619000592225e-02 -1.113457021234220e-01 -9.455135087539648e-01 8.692315681305331e-01 -3.884455936671106e-01 1.247977116227005e-01 3.688620315314861e-02
9.052000000000000e+10 2.045782294849453e-01 -1.390288516996705e-02 -1.100086171120738e-01 -9.481000999309775e-01 8.711582470931639e-01 -3.853344517711350e-01 1.276338150956164e-01 3.700530439380083e-02
9.056800000000000e+10 2.017312074265368e-01 -1.684753591358581e-02 -1.196204685087361e-01 -9.502200868907541e-01 8.711393632986151e-01 -3.880005855404726e-01 1.272167136265845e-01 3.176258506059978e-02
9.061600000000000e+10 2.046644483274255e-01 -1.465012425741880e-02 -1.199415744441390e-01 -9.462514382541984e-01 8.701485420670232e-01 -3.835490063973123e-01 1.247708549677815e-01 3.338306143099441e-02
9.066400000000000e+10 2.046731798330447e-01 -2.021511708192275e-02 -1.177573135921113e-01 -9.467873272409525e-01 8.765347348312224e-01 -3.866087151653275e-01 1.265112824793914e-01 3.546956962243952e-02
9.071200000000000e+10 2.011263633952364e-01 -2.190881929659384e-02 -1.191395636157240e-01 -9.462891470237693e-01 8.734421531465856e-01 -3.944057193615553e-01 1.253212806421462e-01 3.401874810895732e-02
9.076000000000000e+10 1.990809023332636e-01 -1.906043414145126e-02 -1.183891220811354e-01 -9.437252566314049e-01 8.699147333150825e-01 -3.933313724930237e-01 1.246051754680065e-01 3.391035684275340e-02
9.080800000000000e+10 2.007797052855299e-01 -1.827608738639280e-02 -1.160450508260245e-01 -9.471245181682340e-01 8.703914211832036e-01 -3.945863495952465e-01 1.258348878092170e-01 3.286904096095837e-02
9.085600000000000e+10 1.993746397216929e-01 -1.789291561896839e-02 -1.210729783775824e-01 -9.456776710066270e-01 8.707569079890645e-01 -3.920549941959324e-01 1.244731595504742e-01 3.236669843766785e-02
9.090400000000000e+10 2.001101699611994e-01 -1.694357679370928e-02 -1.230746742552138e-01 -9.451428977007330e-01 8.698380731587447e-01 -3.912730774922190e-01 1.243767146063001e-01 3.272678933464435e-02
9.095200000000000e+10 1.989138179842461e-01 -1.762608096846221e-02 -1.225680012193742e-01 -9.453051262189140e-01 8.693149565640429e-01 -3.909261997577527e-01 1.237532762068016e-01 3.421113088409320e-02
9.100000000000000e+10 2.002045345926950e-01 -1.692996226540777e-02 -1.197075274163594e-01 -9.456772634430503e-01 8.692801719921793e-01 -3.928601490498755e-01 1.248820003432453e-01 3.501788957981777e-02
9.104800000000000e+10 1.980391656995354e-01 -1.925736937421937e-02 -1.175779896199617e-01 -9.473656951809172e-01 8.678527398898038e-01 -3.989704198787259e-01 1.257820108952147e-01 3.384417974459507e-02
9.109600000000000e+10 1.988596401977162e-01 -1.820372248708884e-02 -1.148113773182576e-01 -9.473961500564650e-01 8.676865489922829e-01 -3.997428394001808e-01 1.262393328081765e-01 3.461934945649278e-02
9.114400000000000e+10 1.972898576670848e-01 -1.995259231357635e-02 -1.175719813900903e-01 -9.477634523573329e-01 8.671530450556278e-01 -4.003469144476988e-01 1.271047816208182e-01 3.379574527676466e-02
9.119200000000000e+10 1.966194237965641e-01 -1.922130214759540e-02 -1.221306768159065e-01 -9.470174966143046e-01 8.690331949595593e-01 -3.978134496242927e-01 1.268866944485571e-01 3.321827518260711e-02
9.124000000000000e+10 1.946402195723796e-01 -2.082126819315249e-02 -1.291074797236332e-01 -9.466091917340045e-01 8.718194373943945e-01 -3.959448463831960e-01 1.281481723055560e-01 3.149743137996877e-02
9.128800000000000e+10 1.927944090330685e-01 -2.118193641166107e-02 -1.317555573009206e-01 -9.446890887895857e-01 8.703001644511437e-01 -3.959650034200813e-01 1.258039932363587e-01 3.234984299633380e-02
9.133600000000000e+10 1.939168986232529e-01 -1.930931056520088e-02 -1.313896675740251e-01 -9.450916955138242e-01 8.716665055061017e-01 -3.940650969946511e-01 1.277355320009991e-01 3.256145957827269e-02
9.138400000000000e+10 1.928170407098249e-01 -1.884249563491273e-02 -1.313160242189436e-01 -9.441920057713957e-01 8.711092891585008e-01 -3.954652151412995e-01 1.271912185048690e-01 3.324005322569212e-02
9.143200000000000e+10 1.933713153592373e-01 -1.836865051101366e-02 -1.296583469928972e-01 -9.445768595313937e-01 8.699012104243737e-01 -3.988491979043552e-01 1.274435836809348e-01 3.295316895035703e-02
9.148000000000000e+10 1.929415456780774e-01 -1.914462742628328e-02 -1.307143701885320e-01 -9.448935773306819e-01 8.694763058700209e-01 -3.989718140294815e-01 1.267258431987063e-01 3.324709705221238e-02
9.152800000000000e+10 1.935496400868409e-01 -1.885815104411612e-02 -1.312029472092197e-01 -9.438441545259769e-01 8.690672204400870e-01 -3.989123241904226e-01 1.269720067160560e-01 3.332180543171016e-02
9.157600000000000e+10 1.933721534736341e-01 -2.003203794643615e-02 -1.322257622335684e-01 -9.450627514403942e-01 8.697171994092792e-01 -3.985152470515632e-01 1.272527043167646e-01 3.329062975879080e-02
9.162400000000000e+10 1.930082276330352e-01 -2.096922902184175e-02 -1.340552319423212e-01 -9.445947821057222e-01 8.692668565701268e-01 -3.989504780154370e-01 1.268701560406292e-01 3.349650401091524e-02
9.167200000000000e+10 1.922353128984496e-01 -2.124732154308527e-02 -1.352753154682883e-01 -9.447591128693534e-01 8.699343998011281e-01 -3.972840591192605e-01 1.267923508406368e-01 3.397762618217939e-02
9.172000000000000e+10 1.910353753398248e-01 -2.112147664347410e-02 -1.378728948473531e-01 -9.453789898943722e-01 8.688127427092519e-01 -3.983246631683215e-01 1.274272263892127e-01 3.323504829560773e-02
9.176800000000000e+10 1.916585282120903e-01 -2.089882154026875e-02 -1.384992621421830e-01 -9.453093067632219e-01 8.699177349207969e-01 -3.959739311871681e-01 1.278117129313462e-01 3.428949061105879e-02
9.181600000000000e+10 1.901392306089319e-01 -2.058094965504108e-02 -1.400288645781334e-01 -9.447660237556613e-01 8.683985212880577e-01 -3.981418860447600e-01 1.280743568119834e-01 3.335903577002795e-02
9.186400000000000e+10 1.905068528524012e-01 -2.026301596901621e-02 -1.413657154848488e-01 -9.442837055771873e-01 8.684635268239713e-01 -3.989662461536836e-01 1.286434835759775e-01 3.229848262258359e-02
9.191200000000000e+10 1.903375083530658e-01 -2.048970263519188e-02 -1.419188615328003e-01 -9.437267673082237e-01 8.681486162047857e-01 -3.992495000845927e-01 1.277762981199791e-01 3.281497912150073e-02
9.196000000000000e+10 1.906928111247204e-01 -1.942280008086033e-02 -1.439543973695731e-01 -9.423860411360743e-01 8.678534302361591e-01 -3.991503292518362e-01 1.279336784705336e-01 3.146313211715066e-02
9.200800000000000e+10 1.904609507346691e-01 -1.936119238382514e-02 -1.429986658815146e-01 -9.421809976314595e-01 8.672942045260655e-01 -3.990224734274440e-01 1.277505052427855e-01 3.254856685366063e-02
9.205600000000000e+10 1.902336966899111e-01 -1.972906927216968e-02 -1.422280712109777e-01 -9.418918010239069e-01 8.665780663117728e-01 -4.007909478123323e-01 1.271702696391242e-01 3.231141167670783e-02
9.210400000000000e+10 1.890242938059738e-01 -1.968892248832357e-02 -1.442983067754525e-01 -9.409379507211394e-01 8.670704479229068e-01 -3.994649236585685e-01 1.271117725596199e-01 3.313300048605718e-02
9.215200000000000e+10 1.874450093232483e-01 -1.910371795603774e-02 -1.459612333695800e-01 -9.405977342889642e-01 8.655018868233487e-01 -4.020916984635916e-01 1.261549405477538e-01 3.237039006461712e-02
9.220000000000000e+10 1.861872659158332e-01 -1.980688145715341e-02 -1.475338761108625e-01 -9.397818866964462e-01 8.665700542968413e-01 -3.997006930482006e-01 1.257678130805473e-01 3.369915536743025e-02
9.224800000000000e+10 1.864978766444325e-01 -1.794811588380375e-02 -1.477086752457822e-01 -9.388203806196925e-01 8.656493125366590e-01 -3.997875767217520e-01 1.263531721654914e-01 3.347953137646196e-02
9.229600000000000e+10 1.854005875351017e-01 -1.924733402552455e-02 -1.481288704914224e-01 -9.386090543373689e-01 8.662533824135493e-01 -3.994652270286494e-01 1.265264971826359e-01 3.394189627029465e-02
9.234400000000000e+10 1.859730722026521e-01 -1.813250958381136e-02 -1.491360883668136e-01 -9.402157294900557e-01 8.646005763784684e-01 -4.009272351069962e-01 1.276990905483165e-01 3.281778466510929e-02
9.239200000000000e+10 1.849122079072543e-01 -2.060766053684456e-02 -1.502953083731780e-01 -9.400235763708426e-01 8.645681199563979e-01 -4.016420929645197e-01 1.277680761063158e-01 3.301297541192131e-02
9.244000000000000e+10 1.834773788584015e-01 -2.066355913406021e-02 -1.512631757769933e-01 -9.396122288514234e-01 8.631731432989522e-01 -4.036386853056611e-01 1.279900125682167e-01 3.194942206779162e-02
9.248800000000000e+10 1.835064995765097e-01 -2.218569984634767e-02 -1.520454679269001e-01 -9.406853988738578e-01 8.646044853666784e-01 -4.026519605289666e-01 1.288920286971885e-01 3.189913489778211e-02
9.253600000000000e+10 1.826472423616739e-01 -2.263276942018964e-02 -1.553039696457832e-01 -9.401004900088681e-01 8.642179508790326e-01 -4.045403815537785e-01 1.290497559482182e-01 3.042566504784080e-02
9.258400000000000e+10 1.829518547940204e-01 -2.249641122408333e-02 -1.559093437366826e-01 -9.393440770578482e-01 8.651460098060954e-01 -4.025105587716008e-01 1.288978692750200e-01 3.071210397604265e-02
9.263200000000000e+10 1.818792497105285e-01 -2.236390796391194e-02 -1.579703009432318e-01 -9.383249965148963e-01 8.636948641193793e-01 -4.037571084916231e-01 1.287721931538478e-01 2.981249095488567e-02
9.268000000000000e+10 1.821228226136867e-01 -2.184986679126471e-02 -1.605293860900932e-01 -9.387577098621018e-01 8.658581252309606e-01 -4.011881740466979e-01 1.291490520750852e-01 2.965914511157614e-02
9.272800000000000e+10 1.812227294591257e-01 -2.146702656090191e-02 -1.643790563656976e-01 -9.371314795606396e-01 8.655536512871689e-01 -4.003882583181075e-01 1.282404845331812e-01 2.974311502334039e-02
9.277600000000000e+10 1.815718547588593e-01 -2.107431784086664e-02 -1.654295412259509e-01 -9.367071249526369e-01 8.667670752861051e-01 -3.996134610396392e-01 1.284441412668756e-01 2.978635545844046e-02
9.282400000000000e+10 1.812732559562984e-01 -2.091802695031910e-02 -1.644800433286440e-01 -9.368030253739977e-01 8.658079888203256e-01 -4.009704069360541e-01 1.283380906747097e-01 3.010038155332781e-02
9.287200000000000e+10 1.812904729018659e-01 -2.137458003877661e-02 -1.620192124522180e-01 -9.371637991579881e-01 8.645623017342905e-01 -4.045211685007176e-01 1.283764965507265e-01 2.996454695389940e-02
9.292000000000000e+10 1.812133025476897e-01 -2.188472174199161e-02 -1.604312142665801e-01 -9.379022764689209e-01 8.637952365751479e-01 -4.067674143690745e-01 1.285365007603792e-01 2.933603563362036e-02
9.296800000000000e+10 1.807165132629363e-01 -2.298269807647122e-02 -1.585357670123615e-01 -9.389234413534503e-01 8.621780688190874e-01 -4.092503616937763e-01 1.286166583504300e-01 2.906332048344240e-02
9.301600000000000e+10 1.804392486420267e-01 -2.323392012286002e-02 -1.600098061902745e-01 -9.387241717333952e-01 8.632426428078634e-01 -4.089763504850490e-01 1.290040008578687e-01 2.809833938728659e-02
9.306400000000000e+10 1.786778712612652e-01 -2.455308980505624e-02 -1.652343156999661e-01 -9.385085987132555e-01 8.635942624848771e-01 -4.068950295690538e-01 1.280997130925742e-01 2.798804636757220e-02
9.311200000000000e+10 1.785117768649644e-01 -2.519241699169664e-02 -1.721209623054852e-01 -9.375786177999536e-01 8.672545166803364e-01 -4.022251560560120e-01 1.289098690339389e-01 2.701435154991976e-02
9.316000000000000e+10 1.774502830049311e-01 -2.532801299571332e-02 -1.805477985616095e-01 -9.366159459007882e-01 8.679831144454331e-01 -3.967415758816707e-01 1.277147274036911e-01 2.720857013756294e-02
9.320800000000000e+10 1.769395262635166e-01 -2.501385655644670e-02 -1.831250462384701e-01 -9.357783337951713e-01 8.699512441310434e-01 -3.943908788226677e-01 1.284398794273779e-01 2.632986264530994e-02
9.325600000000000e+10 1.765298009986861e-01 -2.443364654206608e-02 -1.815052231528842e-01 -9.350456948727552e-01 8.667494973529823e-01 -3.989119413719563e-01 1.277226267688922e-01 2.601543417696446e-02
9.330400000000000e+10 1.762367175857723e-01 -2.506722663376581e-02 -1.738875017673019e-01 -9.366407583519323e-01 8.645802409206912e-01 -4.057088965198227e-01 1.277419569481722e-01 2.558773077561724e-02
9.335200000000000e+10 1.767846023692672e-01 -2.454111745375067e-02 -1.675364552344610e-01 -9.377295344096280e-01 8.601924179636076e-01 -4.137869856948596e-01 1.270119084279318e-01 2.511787888214867e-02
9.340000000000000e+10 1.758934078271317e-01 -2.562102226604550e-02 -1.634113084266793e-01 -9.382168288527690e-01 8.586613176707949e-01 -4.196664636592953e-01 1.264041457542346e-01 2.485602033950203e-02
9.344800000000000e+10 1.762713770239424e-01 -2.359415166981468e-02 -1.623094550274055e-01 -9.379118210111985e-01 8.565216764799571e-01 -4.190139959330654e-01 1.262983716898659e-01 2.520681366274063e-02
9.349600000000000e+10 1.779045740143724e-01 -2.378659588009873e-02 -1.671627532262008e-01 -9.383559790788299e-01 8.625535100287210e-01 -4.129972094494470e-01 1.270370312744831e-01 2.451786551890395e-02
9.354400000000000e+10 1.766687921139562e-01 -2.353000600105295e-02 -1.739152332331444e-01 -9.351800512073617e-01 8.643696902164473e-01 -4.095750738582795e-01 1.261320829841279e-01 2.517521922905966e-02
9.359200000000000e+10 1.761103955526124e-01 -2.320299344973044e-02 -1.810039715662690e-01 -9.324876206890862e-01 8.648074804116922e-01 -4.050153417195530e-01 1.255326745096906e-01 2.406346698644706e-02
9.364000000000000e+10 1.763965982978761e-01 -2.242459653899379e-02 -1.834553369764538e-01 -9.335337886098204e-01 8.647542228108205e-01 -4.020761627437451e-01 1.255038485590362e-01 2.458125025541077e-02
9.368800000000000e+10 1.764047830450617e-01 -2.285695858442810e-02 -1.851247445115517e-01 -9.345289584940281e-01 8.660468445515480e-01 -4.001854190761868e-01 1.261974078146727e-01 2.453466056290111e-02
9.373600000000000e+10 1.764816698129938e-01 -2.176072460270795e-02 -1.847626380268429e-01 -9.358903649959595e-01 8.657937301435614e-01 -4.010272694818777e-01 1.266966252605779e-01 2.422973461289285e-02
9.378400000000000e+10 1.753689979493638e-01 -2.383034527830378e-02 -1.858962594239832e-01 -9.355339260043286e-01 8.660957221405163e-01 -4.027153391223726e-01 1.264351843714791e-01 2.396452721251665e-02
9.383200000000000e+10 1.757964688030143e-01 -2.270297999075924e-02 -1.851353991784647e-01 -9.365038835891560e-01 8.651707159730739e-01 -4.040471002161476e-01 1.269944029228795e-01 2.292890782843101e-02
9.388000000000000e+10 1.747340515073228e-01 -2.466949900324959e-02 -1.844261141483865e-01 -9.367575771580229e-01 8.638710551552842e-01 -4.081055978603431e-01 1.264157392795354e-01 2.261774458408964e-02
9.392800000000000e+10 1.748186561146352e-01 -2.410050077013569e-02 -1.803566549564596e-01 -9.377122003172509e-01 8.609312651141116e-01 -4.132925047253260e-01 1.263230221364347e-01 2.167040077865029e-02
9.397600000000000e+10 1.744427116434696e-01 -2.396577107905673e-02 -1.747817558022803e-01 -9.373101773719141e-01 8.585678839822726e-01 -4.182697366094109e-01 1.259339195458519e-01 2.162427282849757e-02
9.402400000000000e+10 1.745045680140548e-01 -2.395676089644312e-02 -1.721885971550115e-01 -9.377177601232712e-01 8.570495798747572e-01 -4.221054279021340e-01 1.257112640055992e-01 2.119112611478862e-02
9.407200000000000e+10 1.738491187415351e-01 -2.329725512835698e-02 -1.716185308977250e-01 -9.378474990844219e-01 8.565711909231980e-01 -4.231170673980278e-01 1.255057700427793e-01 2.107125579487698e-02
9.412000000000000e+10 1.746196948695474e-01 -2.340199765177051e-02 -1.779383796099125e-01 -9.360760713798522e-01 8.595445855809847e-01 -4.187745622708138e-01 1.253043165939308e-01 2.107634384939778e-02
9.416800000000000e+10 1.748083997792864e-01 -2.336791078487427e-02 -1.870998719895997e-01 -9.349204241508102e-01 8.638451867403262e-01 -4.112677992578849e-01 1.246568168146415e-01 2.080292740189630e-02
9.421600000000000e+10 1.757818891493711e-01 -2.353295412990535e-02 -1.973734544154328e-01 -9.324986496225337e-01 8.684514144851295e-01 -4.029820277220329e-01 1.246744223809705e-01 2.064119507033971e-02
9.426400000000000e+10 1.757199639485486e-01 -2.340341452523254e-02 -2.018096866401095e-01 -9.320923945664957e-01 8.692825854804612e-01 -3.998272704914673e-01 1.243329556714684e-01 2.021562113878800e-02
9.431200000000000e+10 1.761078918910677e-01 -2.360820374966568e-02 -2.017269003964425e-01 -9.326899483312034e-01 8.676077762316977e-01 -4.016039755667472e-01 1.239882613018674e-01 1.991970099372639e-02
9.436000000000000e+10 1.762443091258621e-01 -2.408470327446935e-02 -1.918741960138795e-01 -9.334716660250023e-01 8.641088189927683e-01 -4.109806936937456e-01 1.236564759754825e-01 2.013058127557594e-02
9.440800000000000e+10 1.763096120317538e-01 -2.419254527374709e-02 -1.820292267154488e-01 -9.358848431469123e-01 8.588252453776152e-01 -4.214370413356050e-01 1.236727869925466e-01 1.986022774538450e-02
9.445600000000000e+10 1.763788266413491e-01 -2.472015521045907e-02 -1.751271572821392e-01 -9.378544617112240e-01 8.563616199143894e-01 -4.271889420254372e-01 1.236656655877981e-01 1.984633913922682e-02
9.450400000000000e+10 1.753457860027793e-01 -2.436383334418822e-02 -1.765326382416148e-01 -9.374917690784758e-01 8.553091746094845e-01 -4.267286522381626e-01 1.235920101559808e-01 2.003111591200254e-02
9.455200000000000e+10 1.759079514429941e-01 -2.466065647923845e-02 -1.835385246076182e-01 -9.366604985303746e-01 8.586211868905632e-01 -4.208666650981108e-01 1.239856331007416e-01 1.966232439075816e-02
9.460000000000000e+10 1.740836464901266e-01 -2.479293171695215e-02 -1.953942430196827e-01 -9.339157991706897e-01 8.621546906302816e-01 -4.124914943354014e-01 1.233395646813126e-01 1.997650235881468e-02
9.464800000000000e+10 1.746847636973221e-01 -2.331343050144067e-02 -2.018155062906096e-01 -9.324041286380734e-01 8.642498652187021e-01 -4.061200460654996e-01 1.237560810573440e-01 1.943999053427473e-02
9.469600000000000e+10 1.738731739926727e-01 -2.417653370076060e-02 -2.028958997380148e-01 -9.322155899528922e-01 8.640564881624536e-01 -4.064919300894314e-01 1.234808999883102e-01 1.987142518273554e-02
9.474400000000000e+10 1.754296826408702e-01 -2.355711886803729e-02 -1.982518219763458e-01 -9.329263998889037e-01 8.621862886058690e-01 -4.124211844218735e-01 1.236757000141575e-01 1.852740389578226e-02
9.479200000000000e+10 1.750767538943195e-01 -2.528145777313458e-02 -1.902570284279489e-01 -9.353360553022193e-01 8.577450976600884e-01 -4.204898912895952e-01 1.232456682598049e-01 1.892558175996431e-02
9.484000000000000e+10 1.764732787365146e-01 -2.475738741583016e-02 -1.846891117735661e-01 -9.355791985314930e-01 8.555542371422692e-01 -4.263978036985930e-01 1.229184026981440e-01 1.862148105604498e-02
9.488800000000000e+10 1.776222584327205e-01 -2.292276169910410e-02 -1.811045420449538e-01 -9.376267594910606e-01 8.541052779485003e-01 -4.269641892038004e-01 1.232998000506647e-01 1.781167338003936e-02
9.493600000000000e+10 1.817492356902840e-01 -2.601058682065301e-02 -1.873657186789595e-01 -9.424811905272692e-01 8.557269970742836e-01 -4.197534878046409e-01 1.228600199841232e-01 1.841322392736692e-02
9.498400000000000e+10 1.778696971394813e-01 -3.056201754816671e-02 -2.038412945059408e-01 -9.380095837753337e-01 8.625812985613589e-01 -4.196000345682225e-01 1.198284500160003e-01 1.552827716569522e-02
9.503200000000000e+10 1.780579105806195e-01 -2.936681095290085e-02 -2.009101646788919e-01 -9.322539629095142e-01 8.609289862909070e-01 -4.194906733199876e-01 1.199518040224674e-01 1.768160947565144e-02
9.508000000000000e+10 1.779272809406193e-01 -2.771269335391880e-02 -1.991125518685838e-01 -9.338653099533123e-01 8.593845086260410e-01 -4.184280267149226e-01 1.212530203551498e-01 1.790217928387291e-02
9.512800000000000e+10 1.792615951761457e-01 -2.808438485045248e-02 -1.960291003509767e-01 -9.361825663289661e-01 8.586416944291374e-01 -4.197708391451520e-01 1.215839122542571e-01 1.755550910739303e-02
9.517600000000000e+10 1.785711430073042e-01 -2.747686861018955e-02 -1.945364105450668e-01 -9.378995848801416e-01 8.573718424699842e-01 -4.229168696613174e-01 1.216364515640751e-01 1.648040774548542e-02
9.522400000000000e+10 1.790413285831566e-01 -2.798936658353005e-02 -1.934025697671415e-01 -9.389645879038768e-01 8.564039674416870e-01 -4.238599802521492e-01 1.218292615440633e-01 1.657017925176308e-02
9.527200000000000e+10 1.787207792138867e-01 -2.633516990361623e-02 -1.952747998867056e-01 -9.389641637516331e-01 8.571086575497937e-01 -4.221592955549321e-01 1.223111004480796e-01 1.599472175207890e-02
9.532000000000000e+10 1.791465319539609e-01 -2.745098851679941e-02 -1.979070435547268e-01 -9.387702822649481e-01 8.577257314212271e-01 -4.213454965011957e-01 1.222188360876659e-01 1.558207825393858e-02
9.536800000000000e+10 1.792870957357735e-01 -2.622928482031820e-02 -2.000820878762627e-01 -9.381845254297452e-01 8.590647037020219e-01 -4.203556288431101e-01 1.223220626286927e-01 1.462548397420553e-02
9.541600000000000e+10 1.793524685585669e-01 -2.725706684725693e-02 -2.024609355933639e-01 -9.370182175309593e-01 8.597984595279539e-01 -4.199873366955765e-01 1.217933669790885e-01 1.450161127608272e-02
9.546400000000000e+10 1.793627144958323e-01 -2.623446582875481e-02 -2.048149171484930e-01 -9.356063086811303e-01 8.610502271524946e-01 -4.186448152004997e-01 1.214616365991115e-01 1.424826425113839e-02
9.551200000000000e+10 1.794403834436162e-01 -2.756704808349222e-02 -2.100788334321489e-01 -9.346034068568451e-01 8.628411574843980e-01 -4.166269873903563e-01 1.208583487777811e-01 1.352778992211003e-02
9.556000000000000e+10 1.791236686549297e-01 -2.673270845280290e-02 -2.161723460118973e-01 -9.327589722549039e-01 8.651777426594514e-01 -4.109693815100332e-01 1.207651280591220e-01 1.374840059759744e-02
9.560800000000000e+10 1.796654392326949e-01 -2.734313850357785e-02 -2.196438288560011e-01 -9.315450192476968e-01 8.672572286219761e-01 -4.078040057224491e-01 1.206779723889429e-01 1.396513265153356e-02
9.565600000000000e+10 1.791850025551045e-01 -2.761611236049840e-02 -2.183095739767276e-01 -9.317744607722253e-01 8.652673296012739e-01 -4.113601352383938e-01 1.204868582786947e-01 1.409839538650897e-02
9.570400000000000e+10 1.800040396219200e-01 -2.892932047412652e-02 -2.112557856131164e-01 -9.327218443801158e-01 8.623932324103067e-01 -4.183211548347078e-01 1.207497307043233e-01 1.448772819260802e-02
9.575200000000000e+10 1.791248453508567e-01 -2.902966353022754e-02 -1.981745082206163e-01 -9.347032502361675e-01 8.558566998617761e-01 -4.315757970737936e-01 1.212598475175164e-01 1.435254680595218e-02
9.580000000000000e+10 1.792033703503002e-01 -2.904529064176613e-02 -1.870752331554472e-01 -9.364259841761934e-01 8.498237495589414e-01 -4.400994787867586e-01 1.213565242465615e-01 1.499666949103408e-02
9.584800000000000e+10 1.786428549024705e-01 -2.905405286451760e-02 -1.849570085654554e-01 -9.391011787989951e-01 8.469658422352152e-01 -4.427497648968901e-01 1.221423022770284e-01 1.453155019240182e-02
9.589600000000000e+10 1.793006999969645e-01 -3.050702224233914e-02 -1.936998699009989e-01 -9.391564504462284e-01 8.513920313966873e-01 -4.363333274048048e-01 1.225359172026356e-01 1.377596588037727e-02
9.594400000000000e+10 1.778912900616189e-01 -3.079263090661249e-02 -2.113720203802119e-01 -9.354183410576662e-01 8.580673603046087e-01 -4.231002246473242e-01 1.220865044747978e-01 1.338066120243401e-02
9.599200000000000e+10 1.792641114205411e-01 -3.087398625396617e-02 -2.304191208269218e-01 -9.319131217764093e-01 8.672025343242524e-01 -4.061332900907936e-01 1.227414233681733e-01 1.263523805068637e-02
9.604000000000000e+10 1.814328924245237e-01 -3.318066807050068e-02 -2.445346824652993e-01 -9.293416938873722e-01 8.747374663982211e-01 -3.944306769730768e-01 1.232909203455840e-01 1.200745082459218e-02
9.608800000000000e+10 1.816441553065742e-01 -3.182595704497393e-02 -2.455600272256359e-01 -9.287414129559092e-01 8.752698289294714e-01 -3.940864841306393e-01 1.234932437126628e-01 1.152664407228253e-02
9.613600000000000e+10 1.822530684693363e-01 -3.285724155195577e-02 -2.344657442812435e-01 -9.311515093316348e-01 8.702021541757541e-01 -4.062474067070913e-01 1.233372001566389e-01 1.080837929360591e-02
9.618400000000000e+10 1.812715412819638e-01 -3.202671015772565e-02 -2.171417959372665e-01 -9.348797252882891e-01 8.622780916083304e-01 -4.241682374508351e-01 1.226563356514838e-01 1.036701116338239e-02
9.623200000000000e+10 1.825103073662549e-01 -3.252847577023435e-02 -1.994059182896420e-01 -9.388316911475104e-01 8.543217305510890e-01 -4.400123071828707e-01 1.230892181958744e-01 1.050758010754054e-02
9.628000000000000e+10 1.813563542621336e-01 -3.290560956143305e-02 -1.927690068377532e-01 -9.398496675048621e-01 8.503383722091031e-01 -4.480425127062784e-01 1.229068212355702e-01 1.060106077231652e-02
9.632800000000000e+10 1.817672456141873e-01 -3.365454691239577e-02 -1.975667967274348e-01 -9.384917481772579e-01 8.519981790564891e-01 -4.448329962768734e-01 1.233435329011640e-01 1.065970776397982e-02
9.637600000000000e+10 1.810734771787183e-01 -3.406774999454337e-02 -2.101394568562366e-01 -9.362717056275465e-01 8.574397173384256e-01 -4.345407456443258e-01 1.229335400101916e-01 1.052457363525527e-02
9.642400000000000e+10 1.804844605536747e-01 -3.378316010672925e-02 -2.250760299464578e-01 -9.317884248015980e-01 8.636160509312281e-01 -4.216261929064275e-01 1.228261993103203e-01 1.046920241264925e-02
9.647200000000000e+10 1.795156462942939e-01 -3.486971266948438e-02 -2.342303431406985e-01 -9.303532242204002e-01 8.677642224538342e-01 -4.157818384917239e-01 1.224531443986439e-01 9.525775888295380e-03
9.652000000000000e+10 1.790412074355160e-01 -3.468413986579742e-02 -2.343402506198851e-01 -9.308943381634346e-01 8.643152004414496e-01 -4.163356612171019e-01 1.226467847687075e-01 1.000766655707781e-02
9.656800000000000e+10 1.795979705903973e-01 -3.819437186572155e-02 -2.316623613165358e-01 -9.424960961460583e-01 8.604549205695156e-01 -4.176687382498531e-01 1.250029242367890e-01 7.544988839059881e-03
9.661600000000000e+10 1.781718275847027e-01 -3.434594794162225e-02 -2.183298891072847e-01 -9.304076849964623e-01 8.614390910529389e-01 -4.309274083536217e-01 1.231725918564693e-01 9.121138777277252e-03
9.666400000000000e+10 1.791493627553195e-01 -3.600105387662569e-02 -2.125484168390681e-01 -9.374420084328050e-01 8.557857557394946e-01 -4.375081437829468e-01 1.237648798136889e-01 8.136354041029817e-03
9.671200000000000e+10 1.791424962109201e-01 -3.557840647026229e-02 -2.113707436268579e-01 -9.388375806024863e-01 8.551296798753828e-01 -4.398521671535825e-01 1.240304974438163e-01 7.403941307864550e-03
9.676000000000000e+10 1.786418198333440e-01 -3.739380069846578e-02 -2.174777432591420e-01 -9.369576154571782e-01 8.561140692549314e-01 -4.380123911794441e-01 1.232163560453792e-01 6.223822758762457e-03
9.680800000000000e+10 1.785817367636810e-01 -3.518975615285805e-02 -2.226653207142670e-01 -9.357888640151264e-01 8.580356252582172e-01 -4.322442719262933e-01 1.239638450324644e-01 6.611336249354364e-03
9.685600000000000e+10 1.787150985150047e-01 -3.751349291610113e-02 -2.305323734366062e-01 -9.344807345799825e-01 8.611120249117827e-01 -4.277324899573871e-01 1.234029486342620e-01 5.112383624327197e-03
9.690400000000000e+10 1.790441008320863e-01 -3.614806264199404e-02 -2.293599975581225e-01 -9.343058722643551e-01 8.621310913461671e-01 -4.270333256552838e-01 1.249620199622161e-01 6.141992813948253e-03
9.695200000000000e+10 1.779392211143260e-01 -3.670031897403349e-02 -2.305814389637757e-01 -9.321528820184973e-01 8.622620984576909e-01 -4.295968201241219e-01 1.238479664302774e-01 5.400024172125937e-03
9.700000000000000e+10 1.775136556897714e-01 -3.621520590527314e-02 -2.276644535803980e-01 -9.333036198107023e-01 8.596927128176538e-01 -4.313408611382050e-01 1.245865370495037e-01 6.196418967473720e-03
9.704800000000000e+10 1.765383982089649e-01 -3.656732454519659e-02 -2.284759480031554e-01 -9.334742406715298e-01 8.583482131429697e-01 -4.345396193464097e-01 1.233620990409158e-01 5.467852468201979e-03
9.709600000000000e+10 1.758312925206034e-01 -3.816848341349679e-02 -2.307088829264646e-01 -9.337360612348338e-01 8.597738461064417e-01 -4.342744478202679e-01 1.242946638318051e-01 4.106513375383316e-03
9.714400000000000e+10 1.755077984530104e-01 -3.743502599272302e-02 -2.342435244822900e-01 -9.323083603547874e-01 8.615133770236622e-01 -4.298579125235703e-01 1.251687040404132e-01 5.575423659866093e-03
9.719200000000000e+10 1.745231194945935e-01 -3.824022267756957e-02 -2.376016108084100e-01 -9.322182272160404e-01 8.619919564031218e-01 -4.308322580697146e-01 1.240916853169610e-01 3.298617958324875e-03
9.724000000000000e+10 1.716677923409080e-01 -3.668446889054938e-02 -2.395435093894851e-01 -9.275361337934885e-01 8.591319620897219e-01 -4.304799445423199e-01 1.231701260023186e-01 4.339390803422838e-03
9.728800000000000e+10 1.735541049648951e-01 -3.878761259508577e-02 -2.371556449868688e-01 -9.317646533201035e-01 8.611984905610391e-01 -4.313340798126009e-01 1.251334321986745e-01 4.548074010630969e-03
9.733600000000000e+10 1.721227005710626e-01 -3.870980478157886e-02 -2.380548813063884e-01 -9.307203858018498e-01 8.606614477477061e-01 -4.319875211258586e-01 1.247778256367460e-01 3.687773665170409e-03
9.738400000000000e+10 1.711072788485989e-01 -3.932246639167887e-02 -2.395975513482173e-01 -9.300180827095966e-01 8.605793560169837e-01 -4.325730546440468e-01 1.249523345740574e-01 3.448538876823765e-03
9.743200000000000e+10 1.713121386202274e-01 -4.022056679295904e-02 -2.429399802587087e-01 -9.295797883546467e-01 8.613038042688934e-01 -4.306449877286455e-01 1.248232977680920e-01 2.929339661495869e-03
9.748000000000000e+10 1.699732329062717e-01 -4.002901933490995e-02 -2.465363976070972e-01 -9.289786872005328e-01 8.617875061148478e-01 -4.287997849578222e-01 1.243796458821827e-01 2.884236057490071e-03
9.752800000000000e+10 1.702882803583565e-01 -4.073545417716352e-02 -2.479095783014363e-01 -9.295056434210122e-01 8.619849564542024e-01 -4.288272308433142e-01 1.244983963758800e-01 1.768031390162339e-03
9.757600000000000e+10 1.701137506560534e-01 -3.927082142156327e-02 -2.474819592150774e-01 -9.275023647446305e-01 8.620748923553361e-01 -4.283588727847327e-01 1.240178305694166e-01 3.212332760165084e-03
9.762400000000000e+10 1.703251771374970e-01 -4.046363100468262e-02 -2.484114798861632e-01 -9.290477691793254e-01 8.603809667246962e-01 -4.311930466324690e-01 1.245462094199348e-01 1.867063338073256e-03
9.767200000000000e+10 1.702836667907307e-01 -3.925472786045616e-02 -2.477788220377747e-01 -9.296675452716513e-01 8.610185036980209e-01 -4.311877462312610e-01 1.244843743924336e-01 1.489397778654834e-03
9.772000000000000e+10 1.706264763992804e-01 -3.908167221329317e-02 -2.491009737024513e-01 -9.291026689493292e-01 8.607575415954192e-01 -4.318711471312782e-01 1.245899368400187e-01 1.011991249169839e-03
9.776800000000000e+10 1.702272201906164e-01 -3.773408712809031e-02 -2.498388573554174e-01 -9.258174287869931e-01 8.608635193424288e-01 -4.292851145809629e-01 1.245845334505195e-01 2.089322538315757e-03
9.781600000000000e+10 1.712302891861368e-01 -3.589605367066690e-02 -2.504844387271576e-01 -9.300996923388570e-01 8.583545169935832e-01 -4.285866956550112e-01 1.235076037360932e-01 1.229768096691608e-03
9.786400000000000e+10 1.709219036205602e-01 -3.863212280663891e-02 -2.552049497864305e-01 -9.266988421049327e-01 8.657092516653807e-01 -4.279253886544100e-01 1.255016692810349e-01 1.874214859901454e-03
9.791200000000000e+10 1.687643458441823e-01 -4.071564353241287e-02 -2.531520720173302e-01 -9.307646531356850e-01 8.630614750172177e-01 -4.353685212259366e-01 1.262862117714613e-01 -1.568447260254666e-03
9.796000000000000e+10 1.671539429471487e-01 -3.735210735532095e-02 -2.507785743297046e-01 -9.286561653719889e-01 8.564093369360517e-01 -4.373917554873823e-01 1.235155705108401e-01 -3.014545047576369e-04
9.800800000000000e+10 1.672816861500943e-01 -3.844469592246424e-02 -2.482084353904238e-01 -9.319468309193113e-01 8.557576385013590e-01 -4.397096490687020e-01 1.251854847606701e-01 -1.033057959370351e-03
9.805600000000000e+10 1.659050497118224e-01 -3.793124422587707e-02 -2.520618485006756e-01 -9.311763038225762e-01 8.529978132775790e-01 -4.387564198101198e-01 1.233956753315734e-01 -7.000770930159002e-04
9.810400000000000e+10 1.664884907963677e-01 -3.850451190808195e-02 -2.530523165934979e-01 -9.309904270235370e-01 8.559267199985573e-01 -4.363301170631669e-01 1.241512292773153e-01 -4.639773760288307e-04
9.815200000000000e+10 1.646107404261786e-01 -3.798607788098472e-02 -2.578201527314539e-01 -9.262879171787236e-01 8.574320389671404e-01 -4.353330750544764e-01 1.239467626985852e-01 -1.380041132564577e-03
9.820000000000000e+10 1.644996382808211e-01 -3.965539882145895e-02 -2.589598951461859e-01 -9.289924970501531e-01 8.590107919859180e-01 -4.357149797670809e-01 1.244322771917296e-01 -2.351998682628526e-03
9.824800000000000e+10 1.638665241290761e-01 -3.968168007679213e-02 -2.584684640707073e-01 -9.262221595601500e-01 8.592629371387919e-01 -4.397303046687487e-01 1.245609082626999e-01 -2.944121806188641e-03
9.829600000000000e+10 1.651594972390525e-01 -4.071604155810921e-02 -2.522881496742401e-01 -9.280449642275914e-01 8.565203855996223e-01 -4.422263981255630e-01 1.246978975901436e-01 -1.531681478805300e-03
9.834400000000000e+10 1.634882241083228e-01 -3.840604403712208e-02 -2.520826655350983e-01 -9.272987592767711e-01 8.517928327183264e-01 -4.461484242575025e-01 1.232748411673639e-01 -3.114673855420734e-03
9.839200000000000e+10 1.638742581635180e-01 -3.995553337508695e-02 -2.512372300821096e-01 -9.287559983678272e-01 8.535568252876320e-01 -4.454711560337209e-01 1.240003354842785e-01 -3.146407719926407e-03
9.844000000000000e+10 1.644909072058431e-01 -3.911522279606927e-02 -2.566728525257671e-01 -9.264267822346941e-01 8.547423758911068e-01 -4.400739346973052e-01 1.240391235643464e-01 -2.157111938567503e-03
9.848800000000000e+10 1.633920267627641e-01 -4.144099288568056e-02 -2.675989541376909e-01 -9.258601343848403e-01 8.607907499826266e-01 -4.337168201333648e-01 1.243149899927478e-01 -3.643168391001099e-03
9.853600000000000e+10 1.626991680505785e-01 -4.081845342589977e-02 -2.747265455440845e-01 -9.243226574082506e-01 8.627698417900496e-01 -4.295807626343870e-01 1.234203542873054e-01 -4.112220187529562e-03
9.858400000000000e+10 1.618967487441137e-01 -4.102084846998118e-02 -2.761308287419259e-01 -9.230497440447204e-01 8.632270748200901e-01 -4.296445443034030e-01 1.228301352400912e-01 -3.921378126384299e-03
9.863200000000000e+10 1.607556840503522e-01 -3.927291468787625e-02 -2.714235630248366e-01 -9.220634705214569e-01 8.572773250995851e-01 -4.379937281546500e-01 1.220790762747689e-01 -4.484203538231704e-03
9.868000000000000e+10 1.611977929657365e-01 -3.924086022743755e-02 -2.602659425308266e-01 -9.249114342828615e-01 8.523900874817687e-01 -4.469216247241576e-01 1.226905941526029e-01 -3.228613803090988e-03
9.872800000000000e+10 1.614446868043477e-01 -3.846373774602117e-02 -2.519435813400549e-01 -9.265466270553770e-01 8.483335856638233e-01 -4.554057596427008e-01 1.232428468466193e-01 -2.823466637088176e-03
9.877600000000000e+10 1.612694624128219e-01 -3.840031658093065e-02 -2.476891643066618e-01 -9.282021036355429e-01 8.482842170973784e-01 -4.588958906509706e-01 1.238038674029009e-01 -2.842652507040095e-03
9.882400000000000e+10 1.598085809708648e-01 -3.893570007617990e-02 -2.535722176674413e-01 -9.269000435096896e-01 8.509208282000873e-01 -4.565535262575261e-01 1.240909517507020e-01 -4.402959909917129e-03
9.887200000000000e+10 1.589260493640637e-01 -3.789616972506724e-02 -2.652660836860598e-01 -9.233489292673437e-01 8.543727209984785e-01 -4.466422574506047e-01 1.236345390248616e-01 -4.985810507583252e-03
9.892000000000000e+10 1.595083689478879e-01 -3.799957188678917e-02 -2.788709300346195e-01 -9.204547290833975e-01 8.590337573412953e-01 -4.353751904837281e-01 1.235793348090911e-01 -5.073576014060929e-03
9.896800000000000e+10 1.594905167686957e-01 -3.812015500459284e-02 -2.883774696325441e-01 -9.175743113438677e-01 8.638708603383279e-01 -4.273900563736249e-01 1.235819822051329e-01 -5.056191219504376e-03
9.901600000000000e+10 1.591838351269299e-01 -3.893250640560548e-02 -2.891233455514553e-01 -9.162520333061721e-01 8.631535683363607e-01 -4.294167345003947e-01 1.236551203975643e-01 -5.497840873529282e-03
9.906400000000000e+10 1.579308311298993e-01 -3.984560219939491e-02 -2.839469923383433e-01 -9.201362819005724e-01 8.601939125703962e-01 -4.359452290227515e-01 1.234211449770098e-01 -5.968462025004164e-03
9.911200000000000e+10 1.587127035025582e-01 -3.885317155381644e-02 -2.740046863088176e-01 -9.205954250654568e-01 8.519517751708462e-01 -4.464415250423376e-01 1.225439977619670e-01 -5.937274019930029e-03
9.916000000000000e+10 1.582103955220548e-01 -4.011310053180208e-02 -2.684904075310060e-01 -9.276057466252592e-01 8.484111299952338e-01 -4.505560140694539e-01 1.236326286328195e-01 -6.315475865798745e-03
9.920800000000000e+10 1.584238953799993e-01 -3.937044678518287e-02 -2.672833526081966e-01 -9.268317332122020e-01 8.464002845018371e-01 -4.549150040656768e-01 1.240567622804094e-01 -7.115933920218080e-03
9.925600000000000e+10 1.588143990551204e-01 -3.990437912209741e-02 -2.696967940082708e-01 -9.253380759175563e-01 8.487030329097421e-01 -4.525122382570705e-01 1.241945730833310e-01 -7.086689242480797e-03
9.930400000000000e+10 1.585511786829005e-01 -3.928576259541314e-02 -2.760364753894599e-01 -9.225461360292223e-01 8.511003269565954e-01 -4.477028412819440e-01 1.238399079134218e-01 -6.634334627554977e-03
9.935200000000000e+10 1.596039801585578e-01 -4.054514589810299e-02 -2.819364868474715e-01 -9.211310027859561e-01 8.572881906972688e-01 -4.422620126987815e-01 1.256319299680342e-01 -6.921705276504905e-03
9.940000000000000e+10 1.576760187290984e-01 -4.010994388969200e-02 -2.882630009812914e-01 -9.204939304307218e-01 8.562067720165237e-01 -4.410921233802548e-01 1.240108593855567e-01 -8.269162381519694e-03
9.944800000000000e+10 1.583727388043496e-01 -4.002019561483432e-02 -2.901120470474433e-01 -9.208637779528104e-01 8.552245724818466e-01 -4.393709010212936e-01 1.250662952036198e-01 -7.827136194850867e-03
9.949600000000000e+10 1.577828456804264e-01 -3.858973684516068e-02 -2.900690114315986e-01 -9.189629964363634e-01 8.526488609200226e-01 -4.409994624680106e-01 1.241725935493321e-01 -8.805326765715306e-03
9.954400000000000e+10 1.583445124734763e-01 -3.935012777198171e-02 -2.883065285958077e-01 -9.203286752840372e-01 8.525251362877216e-01 -4.430968031579222e-01 1.249991463728209e-01 -8.005295259523941e-03
9.959200000000000e+10 1.591749525397669e-01 -3.915887564885453e-02 -2.858537980305250e-01 -9.205990768991249e-01 8.526452072056999e-01 -4.445664918613391e-01 1.255962666337729e-01 -7.449081407030945e-03
9.964000000000000e+10 1.561423218694882e-01 -3.910044329220892e-02 -2.864203335422045e-01 -9.204640071908236e-01 8.512818025677062e-01 -4.487268038841818e-01 1.258017739449457e-01 -7.940302977000525e-03
9.968800000000000e+10 1.572245559381732e-01 -3.864731253696827e-02 -2.857599240103119e-01 -9.181078745512422e-01 8.524845191160322e-01 -4.485540020023433e-01 1.257272615281316e-01 -7.767976550216475e-03
9.973600000000000e+10 1.562191422172153e-01 -3.755912371023369e-02 -2.864229969269029e-01 -9.160151799664173e-01 8.514705703141225e-01 -4.500848084842133e-01 1.259775205040443e-01 -8.425497978922718e-03
9.978400000000000e+10 1.572023047281565e-01 -3.918555734189933e-02 -2.857960296208607e-01 -9.174494655405950e-01 8.513710129944102e-01 -4.489651003842972e-01 1.254346186617563e-01 -7.250739815719730e-03
9.983200000000000e+10 1.561424603405062e-01 -4.028638367949947e-02 -2.880733182093478e-01 -9.208610418673802e-01 8.513703050680625e-01 -4.494196786261075e-01 1.259534342804260e-01 -7.634380978607054e-03
9.988000000000000e+10 1.572368898410822e-01 -3.968202516273289e-02 -2.863579139640529e-01 -9.171875543287278e-01 8.498848748954915e-01 -4.509223584197615e-01 1.247779250876873e-01 -8.346912183530076e-03
9.992800000000000e+10 1.553954419264311e-01 -4.199272178236031e-02 -2.877695738154786e-01 -9.189907434918108e-01 8.507406750375119e-01 -4.513646011300276e-01 1.248531936090196e-01 -7.134479494067731e-03
9.997600000000000e+10 1.543094521321940e-01 -4.259092264679187e-02 -2.902994804037523e-01 -9.210352562890702e-01 8.496130872175535e-01 -4.526518354164868e-01 1.243206771826936e-01 -7.482564079206335e-03
1.000240000000000e+11 1.565706669655886e-01 -4.311861009983262e-02 -2.884247757070836e-01 -9.187143981750187e-01 8.511115217209644e-01 -4.529456804613993e-01 1.237789123838491e-01 -8.122650915365298e-03
1.000720000000000e+11 1.538704363343167e-01 -4.257181796763637e-02 -2.913737169749397e-01 -9.159434878712144e-01 8.508220730244503e-01 -4.524902265708275e-01 1.233914184540075e-01 -6.745484277145656e-03
1.001200000000000e+11 1.550884437568566e-01 -4.231660251909550e-02 -2.962369872344519e-01 -9.142284905810549e-01 8.526100085328187e-01 -4.498869233184651e-01 1.234741148144385e-01 -8.650763923950169e-03
1.001680000000000e+11 1.550397459756923e-01 -4.355552992006537e-02 -3.009044048787813e-01 -9.138686658964982e-01 8.544713313222718e-01 -4.456679994400952e-01 1.232678755507492e-01 -8.106198291926809e-03
1.002160000000000e+11 1.560852186101018e-01 -4.213468239061945e-02 -3.058791185014070e-01 -9.110681957317325e-01 8.563559237668726e-01 -4.419913399526017e-01 1.228869018673579e-01 -8.853889828128025e-03
1.002640000000000e+11 1.568262704995545e-01 -4.192540185618488e-02 -3.045905403931762e-01 -9.112416623130940e-01 8.559927649533681e-01 -4.399090833198677e-01 1.238142315724335e-01 -7.978515507649206e-03
1.003120000000000e+11 1.560213288937393e-01 -4.054802603277298e-02 -3.013111900804655e-01 -9.087218401016304e-01 8.529970551674971e-01 -4.455949354654704e-01 1.231616463930469e-01 -7.718180895679427e-03
1.003600000000000e+11 1.569973653687587e-01 -4.238508170659318e-02 -2.973161487096109e-01 -9.205144947551763e-01 8.489047152714254e-01 -4.498596515338205e-01 1.243365037393458e-01 -9.310071329928253e-03
1.004080000000000e+11 1.534415943972982e-01 -3.874971883922038e-02 -2.922336465549475e-01 -9.159084701105579e-01 8.404639914932106e-01 -4.553422936786061e-01 1.228600175934014e-01 -7.654424860091392e-03
1.004560000000000e+11 1.545327766110407e-01 -3.832263853670581e-02 -2.881890780643034e-01 -9.151735178230533e-01 8.431237793810366e-01 -4.630596610717673e-01 1.242368805313933e-01 -1.051115692932168e-02
1.005040000000000e+11 1.537045530127378e-01 -4.288722721903955e-02 -2.927891197292579e-01 -9.187468263856116e-01 8.451949300516475e-01 -4.613368821272013e-01 1.217965541645877e-01 -1.005770324167966e-02
1.005520000000000e+11 1.555272410327234e-01 -4.084939128152747e-02 -3.023837471519198e-01 -9.148966606843673e-01 8.523037676513541e-01 -4.519802044653981e-01 1.238290248329625e-01 -1.061070376368877e-02
1.006000000000000e+11 1.512498564021360e-01 -3.882090816538387e-02 -3.113147897286244e-01 -9.041931471305786e-01 8.551623770968022e-01 -4.438242848855899e-01 1.220302333420362e-01 -8.514817949880960e-03
1.006480000000000e+11 1.573315570117252e-01 -3.898415593954097e-02 -3.181941277060431e-01 -9.042698847719529e-01 8.571971772619019e-01 -4.342972632498778e-01 1.225891855533810e-01 -1.019873166640122e-02
1.006960000000000e+11 1.500291946563131e-01 -3.599076790765231e-02 -3.220203067271735e-01 -9.045800463530300e-01 8.508882773597328e-01 -4.333731581693577e-01 1.236784915074545e-01 -8.133176061315524e-03
1.007440000000000e+11 1.518693474105629e-01 -4.098443651724892e-02 -3.161898102321007e-01 -9.088038182161876e-01 8.571570141153336e-01 -4.445169586799577e-01 1.245548536488953e-01 -9.817684576180166e-03
1.007920000000000e+11 1.542819189482803e-01 -3.995234227091638e-02 -3.076306873627189e-01 -9.075392284569765e-01 8.526017443373162e-01 -4.480324142865344e-01 1.231507111548917e-01 -1.013242601599121e-02
1.008400000000000e+11 1.542329465490307e-01 -3.950186055818401e-02 -3.006179325986236e-01 -9.112340220885684e-01 8.468900991759230e-01 -4.549365152939374e-01 1.244552316733353e-01 -9.934117592977897e-03
1.008880000000000e+11 1.537378478657669e-01 -4.005354511840181e-02 -2.978777313723317e-01 -9.119733962094266e-01 8.435755180576475e-01 -4.579135953966177e-01 1.230065930811468e-01 -9.492725872511232e-03
1.009360000000000e+11 1.528255973094810e-01 -4.149885530534359e-02 -3.007467979722123e-01 -9.137707607639217e-01 8.444427713238147e-01 -4.586615630285714e-01 1.242070055178280e-01 -9.005524694214033e-03
1.009840000000000e+11 1.529058483019384e-01 -4.153208762689914e-02 -3.057410626518428e-01 -9.128373572519179e-01 8.460390345903824e-01 -4.560137036881601e-01 1.241317401409356e-01 -9.430787524009934e-03
1.010320000000000e+11 1.544405724804600e-01 -4.166924807287887e-02 -3.094839066744616e-01 -9.106475173743985e-01 8.467147102269630e-01 -4.520980375562607e-01 1.243975287386948e-01 -9.474163756778078e-03
1.010800000000000e+11 1.550943978582803e-01 -4.212362699064393e-02 -3.130879388347987e-01 -9.101113403377994e-01 8.492684021777848e-01 -4.489596775960809e-01 1.245800906910968e-01 -9.332143053920076e-03
1.011280000000000e+11 1.551907617053401e-01 -4.230564746618014e-02 -3.157014200266060e-01 -9.086728624303116e-01 8.497704640906432e-01 -4.491182789824884e-01 1.247543378747303e-01 -9.386379417352776e-03
1.011760000000000e+11 1.575759191401583e-01 -4.405426494388814e-02 -3.170626751351832e-01 -9.116591062034066e-01 8.517787553320820e-01 -4.468960671991414e-01 1.252393159406794e-01 -1.069276937606589e-02
1.012240000000000e+11 1.555650780869850e-01 -4.007148799264717e-02 -3.148509362624031e-01 -9.059757838797522e-01 8.506719224270355e-01 -4.485190589791969e-01 1.256191689501368e-01 -9.228414783144753e-03
1.012720000000000e+11 1.570025205325604e-01 -4.194099951249189e-02 -3.154023820748079e-01 -9.089931837632390e-01 8.502583864290462e-01 -4.500471644638234e-01 1.250629345408356e-01 -1.065495106347758e-02
1.013200000000000e+11 1.560608923440081e-01 -4.160703187499418e-02 -3.162357797113825e-01 -9.080851813176083e-01 8.512247871343613e-01 -4.485353619746875e-01 1.246187872068207e-01 -1.019159062210784e-02
1.013680000000000e+11 1.574336279958463e-01 -4.055307517514929e-02 -3.149171471463801e-01 -9.080432553861655e-01 8.499595657073681e-01 -4.502977941805336e-01 1.252126669854613e-01 -1.070350379975205e-02
1.014160000000000e+11 1.568248456939871e-01 -4.259448062641379e-02 -3.126231547918319e-01 -9.124256245733919e-01 8.478196711562840e-01 -4.524884154960281e-01 1.240756444385087e-01 -1.100610942172414e-02
1.014640000000000e+11 1.565084343499841e-01 -4.293490595140828e-02 -3.108890776660416e-01 -9.122087739559896e-01 8.479017423586401e-01 -4.557763164557601e-01 1.241100183456571e-01 -1.021001949064532e-02
1.015120000000000e+11 1.555212455356078e-01 -4.425171612375099e-02 -3.085969453801888e-01 -9.143690824448423e-01 8.466377960950928e-01 -4.614938678095033e-01 1.242245949746732e-01 -1.137159617846595e-02
1.015600000000000e+11 1.562909516565500e-01 -4.180226955795564e-02 -3.073025644336242e-01 -9.105758076183423e-01 8.429741870533349e-01 -4.605770627634812e-01 1.255726711405707e-01 -1.174491402208897e-02
1.016080000000000e+11 1.561426948996469e-01 -4.154848643227961e-02 -3.081621506420661e-01 -9.089911690290954e-01 8.435934311465859e-01 -4.568626142732714e-01 1.256292304159083e-01 -1.167470058775965e-02
1.016560000000000e+11 1.560556063032173e-01 -4.437577926276325e-02 -3.166344330605079e-01 -9.054800654757829e-01 8.473135167574883e-01 -4.560231564538371e-01 1.249941353605180e-01 -1.316643639137396e-02
1.017040000000000e+11 1.558980575196784e-01 -4.394912445725787e-02 -3.175341444131006e-01 -9.056474137800796e-01 8.483279468489155e-01 -4.514959616968854e-01 1.253432691183404e-01 -1.259184099056685e-02
1.017520000000000e+11 1.560004437399189e-01 -4.526441768818481e-02 -3.199530384025127e-01 -9.081595728414746e-01 8.518504726122889e-01 -4.489164969041174e-01 1.249565615407043e-01 -1.193360621348325e-02
1.018000000000000e+11 1.552710980627474e-01 -4.567662845814199e-02 -3.237844111591671e-01 -9.121701345159444e-01 8.544513372580556e-01 -4.508065209799256e-01 1.251353044514706e-01 -1.295661934206563e-02
1.018480000000000e+11 1.624900437465026e-01 -4.203673711918535e-02 -3.180961138887654e-01 -9.070138322596736e-01 8.580377957644393e-01 -4.487023749102012e-01 1.279869514046464e-01 -1.468798146869766e-02
1.018960000000000e+11 1.620408156311866e-01 -4.438389215115723e-02 -3.182186782462192e-01 -9.064385900940869e-01 8.519187813673336e-01 -4.548073759949703e-01 1.261585399095418e-01 -1.601710416203656e-02
1.019440000000000e+11 1.569431863780328e-01 -4.588234245489539e-02 -3.234942304656231e-01 -9.086844033094811e-01 8.497780235190288e-01 -4.492983024252235e-01 1.238477452294290e-01 -1.251704746321768e-02
1.019920000000000e+11 1.621130182957765e-01 -4.336286708398465e-02 -3.162042425745483e-01 -9.169147929583042e-01 8.527621151591757e-01 -4.540203018346778e-01 1.269042414655901e-01 -1.448979895898840e-02
1.020400000000000e+11 1.608498739816012e-01 -4.109759342965454e-02 -3.086059359254162e-01 -9.093219717017003e-01 8.485344137376218e-01 -4.621479898842587e-01 1.270729358141430e-01 -1.453112141648806e-02
1.020880000000000e+11 1.556512815127701e-01 -4.394377631566698e-02 -3.119903575690111e-01 -9.049422896949775e-01 8.410566134276823e-01 -4.693028859358611e-01 1.246001751097091e-01 -1.521576196299916e-02
1.021360000000000e+11 1.536167287199076e-01 -4.418154794840624e-02 -3.133996409578552e-01 -9.057778845283577e-01 8.401548931837992e-01 -4.650609609875215e-01 1.239099230396282e-01 -1.469516502252388e-02
1.021840000000000e+11 1.532691807086568e-01 -4.495126159098150e-02 -3.202723968357504e-01 -9.059433478209101e-01 8.459018212890221e-01 -4.611256431384978e-01 1.232447392658614e-01 -1.445296367989244e-02
1.022320000000000e+11 1.532693291783513e-01 -4.512573905469359e-02 -3.317689313862898e-01 -9.043434504604781e-01 8.516131653860324e-01 -4.524180880126810e-01 1.226309910463898e-01 -1.513741461932709e-02
1.022800000000000e+11 1.532916938405492e-01 -4.590253507870955e-02 -3.415591381914986e-01 -9.031680252931574e-01 8.557742434394053e-01 -4.459341027135281e-01 1.217814961311386e-01 -1.525514401670959e-02
1.023280000000000e+11 1.557142847387853e-01 -4.454079071237912e-02 -3.430525260333814e-01 -9.037159408773773e-01 8.588770550590026e-01 -4.401050398913711e-01 1.222506221695024e-01 -1.548327745228613e-02
1.023760000000000e+11 1.555496638561837e-01 -4.381023611603376e-02 -3.425222903484980e-01 -9.058371368555448e-01 8.563536010083814e-01 -4.441716253608123e-01 1.225004421800755e-01 -1.555129944904919e-02
1.024240000000000e+11 1.531314595725026e-01 -4.732868327958199e-02 -3.324822174621004e-01 -9.033609401189893e-01 8.484777628164285e-01 -4.601171842620534e-01 1.209409407989721e-01 -1.612432641645840e-02
1.024720000000000e+11 1.508270440922634e-01 -4.941050882267126e-02 -3.206335924968651e-01 -9.076093378384620e-01 8.414800677903096e-01 -4.731536396036469e-01 1.195107580629614e-01 -1.474906988763442e-02
1.025200000000000e+11 1.483828035383505e-01 -4.896500435212985e-02 -3.125143259203905e-01 -9.084364727034421e-01 8.342246248372346e-01 -4.822184225273317e-01 1.197975475945821e-01 -1.517945290139082e-02
1.025680000000000e+11 1.489292053703294e-01 -5.023404382374413e-02 -3.166905175940368e-01 -9.095985352818038e-01 8.365519614985011e-01 -4.741030651407613e-01 1.195429076095485e-01 -1.350972557231977e-02
1.026160000000000e+11 1.506334917354572e-01 -4.785324999965642e-02 -3.292069039730721e-01 -9.056959296803158e-01 8.464060057991984e-01 -4.615869901644561e-01 1.208557369499723e-01 -1.625988107869615e-02
1.026640000000000e+11 1.497495244134885e-01 -5.040949392581170e-02 -3.434045592807221e-01 -9.010486852609367e-01 8.504235340959465e-01 -4.519665289399995e-01 1.195688793414511e-01 -1.425437742846504e-02
1.027120000000000e+11 1.493216893494156e-01 -4.640282880008183e-02 -3.497630850382152e-01 -8.969678413612968e-01 8.539703811716933e-01 -4.476031206847730e-01 1.203349364239115e-01 -1.597912008910699e-02
1.027600000000000e+11 1.507770885758520e-01 -4.853349331310210e-02 -3.474828360985727e-01 -8.982843039141044e-01 8.544515904015468e-01 -4.483964686944433e-01 1.203446613567741e-01 -1.559923148410898e-02
1.028080000000000e+11 1.496115715903051e-01 -5.091865991261914e-02 -3.444226771336120e-01 -9.002321518482435e-01 8.498664674811314e-01 -4.579994331690023e-01 1.186747100799131e-01 -1.696622259856174e-02
1.028560000000000e+11 1.514663965003635e-01 -4.924655611850056e-02 -3.320552135763490e-01 -9.038903834299306e-01 8.446739904483225e-01 -4.627558433677278e-01 1.204197228833523e-01 -1.628271974579573e-02
1.029040000000000e+11 1.510399499589467e-01 -4.921374486261757e-02 -3.252093014529996e-01 -9.055665087043677e-01 8.392486384980907e-01 -4.756057238075433e-01 1.192312831296410e-01 -1.755847782539115e-02
1.029520000000000e+11 1.505973755897710e-01 -5.237303716267146e-02 -3.293926911920027e-01 -9.059882418437371e-01 8.411289579802963e-01 -4.748271978769641e-01 1.183931175723417e-01 -1.721156585218912e-02
1.030000000000000e+11 1.517905704732226e-01 -4.774880601019431e-02 -3.300502687716506e-01 -9.019058500536914e-01 8.437369563014436e-01 -4.680248447247229e-01 1.200431997834098e-01 -1.709705741095650e-02
1.030480000000000e+11 1.508405046779688e-01 -5.087589194296845e-02 -3.470919072640010e-01 -8.995012239666212e-01 8.488495715926906e-01 -4.569126078976417e-01 1.194989503084899e-01 -1.729398523901511e-02
1.030960000000000e+11 1.497327889863982e-01 -5.053240507592985e-02 -3.516245360844209e-01 -9.002394897427572e-01 8.479507028822366e-01 -4.554860694266296e-01 1.196958803314739e-01 -1.824353965975695e-02
1.031440000000000e+11 1.490298807546519e-01 -5.152448670621707e-02 -3.492592826547314e-01 -9.020573321138884e-01 8.466940698799339e-01 -4.578726742822965e-01 1.192122412507076e-01 -1.734925620520525e-02
1.031920000000000e+11 1.481411267576486e-01 -4.907061175219524e-02 -3.435682187296341e-01 -9.025849776107383e-01 8.436285853126393e-01 -4.628125664960613e-01 1.199099049396900e-01 -1.827187407811811e-02
1.032400000000000e+11 1.458387427108352e-01 -5.222565123271843e-02 -3.406577196891596e-01 -9.029772459066392e-01 8.417020678161188e-01 -4.696044066993542e-01 1.182261631212061e-01 -1.712516869298973e-02
1.032880000000000e+11 1.449084538181193e-01 -5.117484125954364e-02 -3.403817433250753e-01 -9.020168473395422e-01 8.398731667153753e-01 -4.736842500334435e-01 1.176183767432006e-01 -1.851959778287153e-02
1.033360000000000e+11 1.454892140378192e-01 -5.361025752610007e-02 -3.438363662358656e-01 -8.999806027710830e-01 8.430426178241779e-01 -4.711199646751142e-01 1.175903117197012e-01 -1.733319407689930e-02
1.033840000000000e+11 1.449562718469622e-01 -5.167000229544575e-02 -3.483409224022780e-01 -8.979235291861373e-01 8.439060248062777e-01 -4.669048415367154e-01 1.175495080872348e-01 -1.815285425817900e-02
1.034320000000000e+11 1.442985296091455e-01 -5.330820256294427e-02 -3.535496547419570e-01 -8.957879027572732e-01 8.455688955695230e-01 -4.622896581659897e-01 1.172915529722344e-01 -1.691560390120313e-02
1.034800000000000e+11 1.446605420533215e-01 -5.252080299740774e-02 -3.548333326555878e-01 -8.967633516719705e-01 8.456893725892402e-01 -4.605812179880111e-01 1.170517679778629e-01 -1.740978220813290e-02
1.035280000000000e+11 1.445842335520102e-01 -5.483372763207901e-02 -3.535457780473404e-01 -8.990884710656836e-01 8.429791494392344e-01 -4.653571952465719e-01 1.160630053632614e-01 -1.701078959391106e-02
1.035760000000000e+11 1.456494234854345e-01 -5.257245493896508e-02 -3.431524067987696e-01 -9.013248924541493e-01 8.401092998153222e-01 -4.720818109341173e-01 1.172135568662720e-01 -1.747030774827235e-02
1.036240000000000e+11 1.455087729138388e-01 -5.446034036509519e-02 -3.412934211108193e-01 -9.021602945917058e-01 8.383436088316369e-01 -4.765299928012219e-01 1.163321987494719e-01 -1.710552101720165e-02
1.036720000000000e+11 1.464384195099834e-01 -5.526930281750184e-02 -3.400135581003204e-01 -9.038406748289207e-01 8.361197357735561e-01 -4.806627189560818e-01 1.157043200903175e-01 -1.732365804361741e-02
1.037200000000000e+11 1.462603122399297e-01 -5.586577988477776e-02 -3.420122897887377e-01 -9.026644438231683e-01 8.373897054113215e-01 -4.794096301838136e-01 1.153979103253398e-01 -1.732129004857868e-02
1.037680000000000e+11 1.472794204590009e-01 -5.637631595843851e-02 -3.465288750108795e-01 -9.010416432866877e-01 8.383436064690899e-01 -4.776127222795278e-01 1.149810999648243e-01 -1.746384449492461e-02
1.038160000000000e+11 1.456166957967164e-01 -5.733299544011382e-02 -3.544723903740336e-01 -8.979081216938647e-01 8.410519715439203e-01 -4.726585957386186e-01 1.139455018241395e-01 -1.742969372830441e-02
1.038640000000000e+11 1.473868561054134e-01 -5.722693716074776e-02 -3.619099978011078e-01 -8.962661098488977e-01 8.461923152063321e-01 -4.646696246773003e-01 1.136473502676425e-01 -1.816702569787317e-02
1.039120000000000e+11 1.440880933830322e-01 -5.585521935246131e-02 -3.667217058856229e-01 -8.911905723969714e-01 8.462789949115048e-01 -4.599326035446543e-01 1.143397018083038e-01 -1.744437230304054e-02
1.039600000000000e+11 1.471664302745894e-01 -5.654723710823477e-02 -3.691984081350632e-01 -8.924240131717424e-01 8.495404802952100e-01 -4.566265031952313e-01 1.152566343534815e-01 -1.857938545968568e-02
1.040080000000000e+11 1.464970993947879e-01 -5.241023919933963e-02 -3.623860028387695e-01 -8.944611636677020e-01 8.482412294716627e-01 -4.580849781744241e-01 1.161719069512287e-01 -1.844027497791578e-02
1.040560000000000e+11 1.450837958904790e-01 -5.885745897032305e-02 -3.657240927233301e-01 -8.951061319916359e-01 8.446825546889521e-01 -4.664122652943573e-01 1.136814714933908e-01 -1.916145051571941e-02
1.041040000000000e+11 1.413668469861327e-01 -5.829246649501055e-02 -3.572722220290649e-01 -8.978735361916682e-01 8.393140461112096e-01 -4.784409468560256e-01 1.117212713260481e-01 -2.031341260980776e-02
1.041520000000000e+11 1.454048180946826e-01 -5.705074172382095e-02 -3.453889526671287e-01 -9.019288344846218e-01 8.347572178556829e-01 -4.863700416561115e-01 1.133326839531660e-01 -1.986177496957256e-02
1.042000000000000e+11 1.418279730366424e-01 -5.829025504805373e-02 -3.455849030521118e-01 -9.049583333631767e-01 8.313289561431951e-01 -4.900733217067025e-01 1.119913401106122e-01 -2.126694593421700e-02
1.042480000000000e+11 1.430536669903686e-01 -5.829013712444409e-02 -3.531276648422791e-01 -9.015140590807827e-01 8.361676135757345e-01 -4.845973946818570e-01 1.114384159637546e-01 -2.264048179869452e-02
1.042960000000000e+11 1.403050816569375e-01 -5.947567999564984e-02 -3.698959746439342e-01 -8.919572038749499e-01 8.423136064523146e-01 -4.732638180234980e-01 1.100136988795812e-01 -2.215398712994846e-02
1.043440000000000e+11 1.405817486199547e-01 -5.971855284734348e-02 -3.871073769713044e-01 -8.833213771201645e-01 8.504420917241348e-01 -4.562744316113905e-01 1.105547460908402e-01 -2.166147456176830e-02
1.043920000000000e+11 1.397935195337902e-01 -5.998484274806083e-02 -3.988639818303852e-01 -8.774694338986825e-01 8.565858362097238e-01 -4.439070283112988e-01 1.111135723139936e-01 -2.126347302736717e-02
1.044400000000000e+11 1.413196162492805e-01 -6.076456212734631e-02 -4.002700048158772e-01 -8.784863599345133e-01 8.578638307900578e-01 -4.424791481111501e-01 1.118347362184285e-01 -2.179966776150826e-02
1.044880000000000e+11 1.410492403196026e-01 -6.215508892081950e-02 -3.889422598808460e-01 -8.852008821369396e-01 8.525726934594856e-01 -4.539627429525724e-01 1.121574475902617e-01 -2.271545467172350e-02
1.045360000000000e+11 1.413579881499982e-01 -6.039390818421521e-02 -3.694990255354527e-01 -8.913972293609015e-01 8.444327242443029e-01 -4.708409481936514e-01 1.127771791959727e-01 -2.292223675619293e-02
1.045840000000000e+11 1.384243113354839e-01 -6.243051887051734e-02 -3.591322635568368e-01 -8.978497946420563e-01 8.329115847252297e-01 -4.879853798160598e-01 1.107426547120851e-01 -2.476843056687087e-02
1.046320000000000e+11 1.409667979910552e-01 -6.007930548314876e-02 -3.509625840905962e-01 -8.998080547411899e-01 8.305281967466868e-01 -4.894765339738822e-01 1.129428000895192e-01 -2.259657447950950e-02
1.046800000000000e+11 1.385030600033949e-01 -6.332302191884642e-02 -3.642413049164859e-01 -8.972272409908809e-01 8.357409376069620e-01 -4.852311178540656e-01 1.118591739787910e-01 -2.607839083374483e-02
1.047280000000000e+11 1.394939115841378e-01 -6.044766204109507e-02 -3.811278391563654e-01 -8.921517457734339e-01 8.413119047964034e-01 -4.688794805046324e-01 1.113950506088351e-01 -2.560144476739036e-02
1.047760000000000e+11 1.388512156435313e-01 -6.227620601133982e-02 -3.984802563378347e-01 -8.834292107783878e-01 8.507963026583728e-01 -4.572806807736469e-01 1.104944621528703e-01 -2.683878866707675e-02
1.048240000000000e+11 1.418018087799200e-01 -6.125038836687939e-02 -4.032748376428951e-01 -8.817218494976146e-01 8.599242129032381e-01 -4.469904841554875e-01 1.133319410076078e-01 -2.751865129029080e-02
1.048720000000000e+11 1.388520265103600e-01 -6.330857236023506e-02 -4.037308324600808e-01 -8.802292242928029e-01 8.575900538454261e-01 -4.520653451798900e-01 1.110484780403479e-01 -2.757048004556420e-02
1.049200000000000e+11 1.407722974570610e-01 -5.889706509064819e-02 -3.912245068550503e-01 -8.799069152750411e-01 8.482773778833735e-01 -4.615047238620839e-01 1.116209094519684e-01 -2.384031906653047e-02
1.049680000000000e+11 1.390246358179136e-01 -6.057402786433820e-02 -3.795092655796118e-01 -8.924705455551318e-01 8.411594131037685e-01 -4.736021619290053e-01 1.113912508308110e-01 -2.771179291632889e-02
1.050160000000000e+11 1.386456108639862e-01 -6.028056405118500e-02 -3.731371426049095e-01 -8.926375225291397e-01 8.369174170477314e-01 -4.824846337369300e-01 1.113382620239622e-01 -2.659587946757730e-02
1.050640000000000e+11 1.388395498762780e-01 -6.134610498671168e-02 -3.748182285911729e-01 -8.938212940744371e-01 8.402063372952197e-01 -4.812436217883850e-01 1.104530160131328e-01 -2.823358004248545e-02
1.051120000000000e+11 1.375621581918037e-01 -5.907775134373017e-02 -3.812789118511448e-01 -8.882226638949505e-01 8.416197872739516e-01 -4.782716117832627e-01 1.093389618864232e-01 -2.764992862503542e-02
1.051600000000000e+11 1.375333239163165e-01 -6.158076080707583e-02 -3.881432312341093e-01 -8.857774546414711e-01 8.441438853695595e-01 -4.732315580189501e-01 1.090789832067290e-01 -2.750096111671660e-02
1.052080000000000e+11 1.372315940923320e-01 -5.980855528543469e-02 -3.912312228261886e-01 -8.848660947194332e-01 8.453558477782038e-01 -4.704202573329589e-01 1.103573647587231e-01 -2.779302583314764e-02
1.052560000000000e+11 1.373765185856872e-01 -6.285236783438657e-02 -3.884342829369294e-01 -8.866130675804784e-01 8.435736100354972e-01 -4.752137585313689e-01 1.098812243900886e-01 -2.825747209727053e-02
1.053040000000000e+11 1.367302358948549e-01 -6.158094266928535e-02 -3.826803351255416e-01 -8.902188722120289e-01 8.393521599439574e-01 -4.810900219680437e-01 1.099190362770049e-01 -2.856860174175063e-02
1.053520000000000e+11 1.367423789944147e-01 -6.334285800503743e-02 -3.788520157042070e-01 -8.912622740885737e-01 8.379811332529001e-01 -4.867452763118839e-01 1.093576542051676e-01 -2.983102511499147e-02
1.054000000000000e+11 1.357942991980907e-01 -6.208916318565597e-02 -3.768843289978911e-01 -8.924563473402979e-01 8.373393373657571e-01 -4.899577466863262e-01 1.094456017124568e-01 -3.027777782379870e-02
1.054480000000000e+11 1.358102245872987e-01 -6.338069760383271e-02 -3.800537784416482e-01 -8.891772680271151e-01 8.366013600739859e-01 -4.886624882384716e-01 1.090292025872190e-01 -3.023833314509941e-02
1.054960000000000e+11 1.357345653270440e-01 -6.106603445012486e-02 -3.833574057494930e-01 -8.861796561936838e-01 8.422368187750204e-01 -4.851820162502098e-01 1.102732405572319e-01 -3.096632857673388e-02
1.055440000000000e+11 1.368029883880568e-01 -6.329608523883734e-02 -3.954265858365483e-01 -8.863056570408220e-01 8.428701923674069e-01 -4.755803755205424e-01 1.097658817201704e-01 -3.184448757192408e-02
1.055920000000000e+11 1.356285156633140e-01 -5.817779735662108e-02 -3.963335433591170e-01 -8.808165628731377e-01 8.425706024638383e-01 -4.718331939494290e-01 1.100189339266382e-01 -2.931648091187984e-02
1.056400000000000e+11 1.360401224715575e-01 -6.166406464494190e-02 -4.015440753314854e-01 -8.842667359013057e-01 8.441797871084835e-01 -4.725102509732803e-01 1.092873026928458e-01 -3.352736663224993e-02
1.056880000000000e+11 1.335478825766218e-01 -6.002001594837460e-02 -3.986567591584461e-01 -8.843217472356819e-01 8.415702888690201e-01 -4.774976492959141e-01 1.091849950525979e-01 -3.353185267977717e-02
1.057360000000000e+11 1.368163964866468e-01 -5.997158585990542e-02 -3.877501894367502e-01 -8.822615859638175e-01 8.367304165548015e-01 -4.857394055694482e-01 1.090723971909672e-01 -2.903209905815933e-02
1.057840000000000e+11 1.335229431668726e-01 -5.879183579010827e-02 -3.789436201305744e-01 -8.921624061586778e-01 8.321276628258834e-01 -4.960018565395594e-01 1.100589142882264e-01 -3.522558427821762e-02
1.058320000000000e+11 1.356828858251238e-01 -5.975796031543613e-02 -3.688633739473699e-01 -8.957886736709152e-01 8.280515858206997e-01 -5.036001662624019e-01 1.092049038767863e-01 -3.378306026274472e-02
1.058800000000000e+11 1.335865226841141e-01 -5.866103301141742e-02 -3.691308060964120e-01 -8.966682566025284e-01 8.242165889197441e-01 -5.072283646603499e-01 1.089281212742192e-01 -3.340640861189872e-02
1.059280000000000e+11 1.344972583292622e-01 -6.120214860170313e-02 -3.768450663724609e-01 -8.941349960716557e-01 8.293096792759954e-01 -5.013505606759350e-01 1.081059864526488e-01 -3.402890267600800e-02
1.059760000000000e+11 1.319245468378418e-01 -6.013012784459456e-02 -3.939986893298732e-01 -8.832576464942179e-01 8.358976134994573e-01 -4.893828362050854e-01 1.075152901959131e-01 -3.329282297894365e-02
1.060240000000000e+11 1.325769569613033e-01 -6.097327036326493e-02 -4.121228239914209e-01 -8.775685515521293e-01 8.456646757742072e-01 -4.718729042353047e-01 1.076226619458036e-01 -3.401040579945374e-02
1.060720000000000e+11 1.307063510694428e-01 -6.186695210522263e-02 -4.271729614137409e-01 -8.714244355970866e-01 8.524355055977777e-01 -4.578777621864257e-01 1.083428991595273e-01 -3.366857971184728e-02
1.061200000000000e+11 1.310249180676676e-01 -6.395534787172080e-02 -4.314148510999202e-01 -8.712337566586990e-01 8.562806441386267e-01 -4.546192772827594e-01 1.098501338467488e-01 -3.507012987776507e-02
1.061680000000000e+11 1.297696918044073e-01 -6.163673490030108e-02 -4.184871820741449e-01 -8.727808837581783e-01 8.479974048546950e-01 -4.669464442651025e-01 1.087933352956423e-01 -3.338441855352060e-02
1.062160000000000e+11 1.314093972673049e-01 -6.295792415355088e-02 -3.948991030467549e-01 -8.881654599553969e-01 8.416377800973649e-01 -4.852893440978690e-01 1.122898697160336e-01 -3.574525958402783e-02
1.062640000000000e+11 1.287730333072829e-01 -6.104819379950707e-02 -3.861295810516249e-01 -8.914426480212164e-01 8.248258352990031e-01 -5.054230603250786e-01 1.071785090457542e-01 -3.826729546955829e-02
1.063120000000000e+11 1.305930873889238e-01 -6.445390221189193e-02 -3.729053951503253e-01 -9.005701865775313e-01 8.234709495542584e-01 -5.165128808214345e-01 1.098553305204230e-01 -3.926469803923695e-02
1.063600000000000e+11 1.290747433024546e-01 -6.098538706077060e-02 -3.803920845500470e-01 -8.906475535174834e-01 8.237327272094295e-01 -5.143903838952720e-01 1.058990245549988e-01 -3.889562786436575e-02
1.064080000000000e+11 1.301928291971525e-01 -6.120948188181575e-02 -4.017965713280945e-01 -8.801466446570523e-01 8.290474689802796e-01 -4.904789642414134e-01 1.067113799203015e-01 -3.439821385870554e-02
1.064560000000000e+11 1.306856428205941e-01 -6.826603948425938e-02 -4.282100039031354e-01 -8.779095388169735e-01 8.603405615129663e-01 -4.643607002405647e-01 1.141036283563057e-01 -4.041592273209040e-02
1.065040000000000e+11 1.248296270508792e-01 -5.857062336572073e-02 -4.528641341139263e-01 -8.468784295816699e-01 8.583703946618413e-01 -4.506748206119711e-01 1.031362307987435e-01 -3.984651357294298e-02
1.065520000000000e+11 1.304095048117507e-01 -6.038500921550929e-02 -4.496909424388094e-01 -8.562572438294972e-01 8.596499809384226e-01 -4.415635459134687e-01 1.099915499418125e-01 -3.663241194536981e-02
1.066000000000000e+11 1.295964842884971e-01 -6.742247093787086e-02 -4.399812630798449e-01 -8.749521535848376e-01 8.537655458758371e-01 -4.576656955985526e-01 1.134147902075763e-01 -3.887483698826297e-02
1.066480000000000e+11 1.287339591309656e-01 -6.407060028529132e-02 -4.119758679732896e-01 -8.719870717563633e-01 8.473555164335640e-01 -4.838284489830894e-01 1.092555389297214e-01 -3.831012344610786e-02
1.066960000000000e+11 1.303926219356253e-01 -5.843929517201753e-02 -3.916117334976744e-01 -8.902775879478592e-01 8.210574918535382e-01 -5.025862106353324e-01 1.073498019620120e-01 -3.484980985619585e-02
1.067440000000000e+11 1.255316432640546e-01 -6.604813853794225e-02 -3.848631813519340e-01 -8.964480167150569e-01 8.227748461373976e-01 -5.147344239144945e-01 1.105523967549835e-01 -4.146292871694227e-02
1.067920000000000e+11 1.254077305044487e-01 -6.025247454707487e-02 -3.851682047079456e-01 -8.883789672541981e-01 8.229981546240395e-01 -5.115320000396176e-01 1.090654149360171e-01 -4.031028488666991e-02
1.068400000000000e+11 1.260052412253681e-01 -6.248648300243896e-02 -4.008161857770669e-01 -8.859851197123459e-01 8.302078850357413e-01 -4.985435300455192e-01 1.099033925399106e-01 -4.036536115881326e-02
1.068880000000000e+11 1.273233727459323e-01 -6.270427533122573e-02 -4.130624361997421e-01 -8.772643658038694e-01 8.395704388309508e-01 -4.889982357868936e-01 1.103019245746410e-01 -4.004482350691385e-02
1.069360000000000e+11 1.256265903684500e-01 -6.138846650799444e-02 -4.244566645233080e-01 -8.676726929384049e-01 8.375873511460113e-01 -4.846403410240868e-01 1.054456911969301e-01 -3.924143112707177e-02
1.069840000000000e+11 1.246682740325188e-01 -6.561416450972596e-02 -4.230786955426549e-01 -8.778602806518990e-01 8.383903344728765e-01 -4.903117323143683e-01 1.093945784485070e-01 -4.187381524038800e-02
1.070320000000000e+11 1.230490246944347e-01 -6.413424201438858e-02 -4.178310795985852e-01 -8.767511200579013e-01 8.332603158991203e-01 -4.989251042179976e-01 1.062844152950407e-01 -4.209831037333731e-02
1.070800000000000e+11 1.254968557329846e-01 -6.313954715963957e-02 -4.066740160114189e-01 -8.793498798349552e-01 8.293007218555752e-01 -5.055127583789633e-01 1.076613685336380e-01 -3.971787123341336e-02
1.071280000000000e+11 1.247788247450598e-01 -6.197989275854223e-02 -4.029186452368417e-01 -8.797246776272353e-01 8.267876202314587e-01 -5.090052179188626e-01 1.075161800739587e-01 -4.010003794570534e-02
1.071760000000000e+11 1.256488821229862e-01 -5.889264228233568e-02 -4.054495027227936e-01 -8.787864288547517e-01 8.275453905144605e-01 -5.038209691838127e-01 1.085139615655236e-01 -4.289735682570544e-02
1.072240000000000e+11 1.261659301559452e-01 -6.223622428241983e-02 -4.090681664662775e-01 -8.803674730564310e-01 8.314436195668062e-01 -5.002858457233894e-01 1.096894510946811e-01 -4.131466987930773e-02
1.072720000000000e+11 1.262222585494335e-01 -6.089756735913519e-02 -4.165376644615010e-01 -8.765337093811896e-01 8.341278269980591e-01 -4.949855867022995e-01 1.098309460977087e-01 -4.319335148201855e-02
1.073200000000000e+11 1.258070339484247e-01 -6.329448920109849e-02 -4.209748128325907e-01 -8.746155705775520e-01 8.382410434234705e-01 -4.922892824620865e-01 1.095272914502424e-01 -4.321993799007889e-02
1.073680000000000e+11 1.263560217217217e-01 -6.278760552147997e-02 -4.201458946835528e-01 -8.726288910032204e-01 8.372282039498700e-01 -4.939845007812794e-01 1.092370672047966e-01 -4.200144519838939e-02
1.074160000000000e+11 1.259135867790908e-01 -6.363401023148441e-02 -4.204986464278254e-01 -8.728079080528791e-01 8.340905714202582e-01 -4.944433929733646e-01 1.084373104444093e-01 -4.212138674164277e-02
1.074640000000000e+11 1.264794150906075e-01 -6.319897649746234e-02 -4.140210274318359e-01 -8.803416971429048e-01 8.295639686142179e-01 -4.971903133401784e-01 1.102074466046695e-01 -4.069062550294662e-02
1.075120000000000e+11 1.234585685049548e-01 -6.601669294672974e-02 -4.090122719099803e-01 -8.841749840887064e-01 8.297507362250429e-01 -5.053540465324378e-01 1.114429511582316e-01 -4.198948714061668e-02
1.075600000000000e+11 1.255378253430209e-01 -6.079493033049061e-02 -4.029819900689731e-01 -8.793798282578331e-01 8.240701603627939e-01 -5.118528394827809e-01 1.093243172335516e-01 -4.371095520453157e-02
1.076080000000000e+11 1.251156196340240e-01 -6.255839698805084e-02 -4.035293691457559e-01 -8.820580079082474e-01 8.243062876921895e-01 -5.111967434987633e-01 1.109419128320067e-01 -4.305606263897720e-02
1.076560000000000e+11 1.270454741440342e-01 -6.166750925574473e-02 -4.087556302212193e-01 -8.797722590503282e-01 8.300322772214677e-01 -4.995026465415983e-01 1.113428066405630e-01 -3.992610650487858e-02
1.077040000000000e+11 1.227777883387931e-01 -6.208117198847564e-02 -4.325071404245332e-01 -8.690157725446072e-01 8.338450650448164e-01 -4.959871811746939e-01 1.088562001378423e-01 -4.754036271951746e-02
1.077520000000000e+11 1.248991523365379e-01 -6.094756595868536e-02 -4.379393887707274e-01 -8.672276999457398e-01 8.408680565972265e-01 -4.818294795005996e-01 1.097083530636269e-01 -4.529033268455797e-02
1.078000000000000e+11 1.234978930597078e-01 -6.206515795352310e-02 -4.530665298126140e-01 -8.614217906863175e-01 8.447968566381846e-01 -4.735069409314859e-01 1.086056003036409e-01 -4.757926422252635e-02
1.078480000000000e+11 1.232954107335104e-01 -6.246941999094865e-02 -4.527350804380009e-01 -8.605957930110470e-01 8.468695550751116e-01 -4.727784671568803e-01 1.083660135628614e-01 -4.607987624337407e-02
1.078960000000000e+11 1.232088697780299e-01 -6.270355592875432e-02 -4.406164834158565e-01 -8.661186471812264e-01 8.403064237592738e-01 -4.861262781037519e-01 1.080806093768641e-01 -4.667331020509233e-02
1.079440000000000e+11 1.242537879498391e-01 -6.165174113266923e-02 -4.145516594885365e-01 -8.698019717552948e-01 8.260276048096987e-01 -5.083294991623292e-01 1.077931285138829e-01 -4.290020512441616e-02
1.079920000000000e+11 1.241701809780362e-01 -6.334234405245118e-02 -3.931852171814011e-01 -8.870247885769657e-01 8.155086640058024e-01 -5.262736903334313e-01 1.104545636982579e-01 -4.426765022810388e-02
1.080400000000000e+11 1.236594077296162e-01 -6.416722263131092e-02 -3.903823214398135e-01 -8.901250605688129e-01 8.131197324267111e-01 -5.309342804001982e-01 1.103895054966662e-01 -4.520960646081452e-02
1.080880000000000e+11 1.225522095357718e-01 -6.066474427714601e-02 -3.947500625807783e-01 -8.820518755022556e-01 8.171713672535909e-01 -5.285061611089752e-01 1.086315483337262e-01 -4.690495069049326e-02
1.081360000000000e+11 1.230682843945380e-01 -6.320652052615694e-02 -4.186673159780098e-01 -8.780743995611873e-01 8.247951995816477e-01 -5.093787188187613e-01 1.106013895162843e-01 -4.768782723014086e-02
1.081840000000000e+11 1.216461684681684e-01 -6.438861815959183e-02 -4.450258058657613e-01 -8.682225179227863e-01 8.406108423434853e-01 -4.841375503194874e-01 1.108145207578249e-01 -4.681032594627599e-02
1.082320000000000e+11 1.226338952010082e-01 -6.463744801635930e-02 -4.626804635192982e-01 -8.571633262642484e-01 8.506283803636910e-01 -4.675192690724941e-01 1.116942402129661e-01 -4.808599187556847e-02
1.082800000000000e+11 1.229998656966786e-01 -6.497690240417371e-02 -4.633947248272913e-01 -8.553824803778444e-01 8.521229605502876e-01 -4.655059263895073e-01 1.108466487542139e-01 -4.654974542323199e-02
1.083280000000000e+11 1.237651134521794e-01 -6.533579503471836e-02 -4.512266346195625e-01 -8.594152450885887e-01 8.450178465719099e-01 -4.757396160500123e-01 1.106495543560320e-01 -4.568269969137554e-02
1.083760000000000e+11 1.243648006305266e-01 -6.476180411506598e-02 -4.284389248602352e-01 -8.709731274766640e-01 8.360940224347809e-01 -4.947110323143234e-01 1.118581845126324e-01 -4.498252318984088e-02
1.084240000000000e+11 1.234653159786765e-01 -6.575943889460231e-02 -4.115884162942759e-01 -8.799353761175962e-01 8.302857214355318e-01 -5.151004427570536e-01 1.113232922928987e-01 -4.639056294895322e-02
1.084720000000000e+11 1.216476480400573e-01 -6.483203724921675e-02 -4.068271955734985e-01 -8.807026443037702e-01 8.186925432322039e-01 -5.324875792224449e-01 1.075295283897849e-01 -5.176492560023842e-02
1.085200000000000e+11 1.212538742581605e-01 -6.403266930465440e-02 -4.093389773315187e-01 -8.771403353687569e-01 8.150632536435923e-01 -5.276031453915594e-01 1.066297877547402e-01 -4.861359655323083e-02
1.085680000000000e+11 1.225815341384798e-01 -6.272662801329916e-02 -4.235640384419297e-01 -8.721408165840105e-01 8.227061410687646e-01 -5.126917602278467e-01 1.074624607266420e-01 -4.910396180453520e-02
1.086160000000000e+11 1.228016730169065e-01 -6.304778677539252e-02 -4.387719473908351e-01 -8.633079047068155e-01 8.322533095599083e-01 -4.968155073115929e-01 1.073624346298042e-01 -4.671595267780101e-02
1.086640000000000e+11 1.237851832747677e-01 -6.431120794697415e-02 -4.466198282989834e-01 -8.627597004020215e-01 8.400108251539049e-01 -4.848215045305451e-01 1.078596487673881e-01 -4.422016796891010e-02
1.087120000000000e+11 1.227870162221247e-01 -6.518095171720049e-02 -4.467870086301727e-01 -8.676951265869217e-01 8.368209459315905e-01 -4.880340512590706e-01 1.087303823425298e-01 -4.564050430949691e-02
1.087600000000000e+11 1.224187010711551e-01 -6.607749734560582e-02 -4.375150787824323e-01 -8.716120998296520e-01 8.337817638064350e-01 -4.980837076928321e-01 1.084640080734720e-01 -4.604272116905024e-02
1.088080000000000e+11 1.215206557397961e-01 -6.773968109887051e-02 -4.291749432707166e-01 -8.752796262720834e-01 8.286908349133799e-01 -5.091285786957573e-01 1.086075475933237e-01 -4.662330468563404e-02
1.088560000000000e+11 1.216203570096449e-01 -6.792210658201539e-02 -4.240584775567248e-01 -8.766796087807590e-01 8.259215476513970e-01 -5.149281058945211e-01 1.087313949779394e-01 -4.670318178042318e-02
1.089040000000000e+11 1.204496477175532e-01 -6.914012742655602e-02 -4.222620430013250e-01 -8.764086677106330e-01 8.260034518615356e-01 -5.185054554189095e-01 1.087377047868354e-01 -4.713698506917480e-02
1.089520000000000e+11 1.201803967084338e-01 -6.809948918586398e-02 -4.249058157654943e-01 -8.740964162752174e-01 8.233830619727248e-01 -5.205784255245929e-01 1.079864234732123e-01 -4.879755738222877e-02
1.090000000000000e+11 1.189715688966586e-01 -6.784722277542143e-02 -4.297249185495124e-01 -8.697668021881764e-01 8.225240709005464e-01 -5.191289642272253e-01 1.078649800345543e-01 -5.046199325153132e-02
1.090480000000000e+11 1.213446370209869e-01 -6.453113097772843e-02 -4.313769467253256e-01 -8.684097628435468e-01 8.201692591816243e-01 -5.151892994954752e-01 1.068735302082142e-01 -5.043135189847194e-02
1.090960000000000e+11 1.213421970562404e-01 -6.465845197991271e-02 -4.336722719681134e-01 -8.684126973014138e-01 8.234474058498901e-01 -5.130773093051511e-01 1.090032031839250e-01 -5.064755809690339e-02
1.091440000000000e+11 1.232341290873488e-01 -6.343779659078175e-02 -4.349084572247058e-01 -8.690654500835120e-01 8.253154206400982e-01 -5.117812128157215e-01 1.090901401442860e-01 -5.039961403049227e-02
1.091920000000000e+11 1.175501054797301e-01 -6.562611816738106e-02 -4.494329025192602e-01 -8.636322519439588e-01 8.255392661818653e-01 -5.127433193174860e-01 1.061885555440252e-01 -5.341512678001662e-02
1.092400000000000e+11 1.179708318426478e-01 -6.765518167272525e-02 -4.406090863798014e-01 -8.686861850834288e-01 8.252495624760453e-01 -5.141720682000370e-01 1.045400106350649e-01 -4.961738267660326e-02
1.092880000000000e+11 1.173068598161188e-01 -6.898727714582711e-02 -4.391533193083600e-01 -8.694513290066708e-01 8.238415238800674e-01 -5.168502976542125e-01 1.034509771369522e-01 -4.871042093490192e-02
1.093360000000000e+11 1.178947450814713e-01 -6.905545140880792e-02 -4.374452323935678e-01 -8.696872423701272e-01 8.225424321185284e-01 -5.186078461838964e-01 1.031165789106340e-01 -4.883828445625844e-02
1.093840000000000e+11 1.172525142793901e-01 -7.063971022204278e-02 -4.360125659700826e-01 -8.729534013414300e-01 8.216423618311605e-01 -5.208283605280761e-01 1.031945745054759e-01 -4.824036780039285e-02
1.094320000000000e+11 1.168128980726225e-01 -7.162421218028749e-02 -4.374618367860432e-01 -8.712009468027764e-01 8.239118955658363e-01 -5.186378357129253e-01 1.035981921664954e-01 -4.777565781121648e-02
1.094800000000000e+11 1.202831465108617e-01 -7.250626162321826e-02 -4.393859671085699e-01 -8.700002732681492e-01 8.329807919664310e-01 -5.022295259156728e-01 1.059760412036977e-01 -4.221486012074230e-02
1.095280000000000e+11 1.173167198314878e-01 -7.321739319104863e-02 -4.532338728081942e-01 -8.614440575468939e-01 8.359736517586522e-01 -4.984171525836824e-01 1.047764626120295e-01 -4.575291594910159e-02
1.095760000000000e+11 1.146597651086794e-01 -6.938635993634150e-02 -4.648839971674210e-01 -8.558308128765522e-01 8.309005116559606e-01 -5.030813536986871e-01 1.048028384583322e-01 -5.279589774927845e-02
1.096240000000000e+11 1.123775747643009e-01 -7.023294079385321e-02 -4.745567403085663e-01 -8.552492836872899e-01 8.356897032240056e-01 -4.993299379434936e-01 1.063145961438157e-01 -5.489208517096824e-02
1.096720000000000e+11 1.141765861033018e-01 -7.060042753971328e-02 -4.701971795992709e-01 -8.556214597914829e-01 8.352468167373643e-01 -5.023071020487969e-01 1.062669016757083e-01 -5.569536110472000e-02
1.097200000000000e+11 1.153280028481577e-01 -6.933908953157231e-02 -4.676627424249724e-01 -8.541320689742716e-01 8.306356339745632e-01 -5.088064769197677e-01 1.079714739973046e-01 -5.709076369175923e-02
1.097680000000000e+11 1.141685135212929e-01 -7.272916260103343e-02 -4.518957930726105e-01 -8.620304901010437e-01 8.263100036628191e-01 -5.199926598223603e-01 1.057090602665231e-01 -5.376573772360035e-02
1.098160000000000e+11 1.145126048781823e-01 -7.193287181188604e-02 -4.453268801918785e-01 -8.617070819867063e-01 8.225242090950324e-01 -5.231931292357993e-01 1.047201284244785e-01 -5.197297235720358e-02
1.098640000000000e+11 1.138874751172509e-01 -7.152911664968398e-02 -4.475561319405111e-01 -8.628170340633657e-01 8.224866940673140e-01 -5.231071270525944e-01 1.053826606416641e-01 -5.232923196660623e-02
1.099120000000000e+11 1.125298579028533e-01 -7.177904472498170e-02 -4.588407661493928e-01 -8.594632773607711e-01 8.286558475338621e-01 -5.139352831137211e-01 1.029136078922565e-01 -5.112956249042352e-02
1.099600000000000e+11 1.123172611738301e-01 -7.036418169292753e-02 -4.685655623351976e-01 -8.500874504336992e-01 8.318521159631583e-01 -5.063183330135614e-01 1.027183061889490e-01 -5.148937368109789e-02
1.100080000000000e+11 1.127780424927417e-01 -7.098702096665548e-02 -4.749317128243248e-01 -8.546668755380620e-01 8.373726777073965e-01 -4.966934588439635e-01 1.014813513876796e-01 -4.917994479719623e-02
1.100560000000000e+11 1.119395685779652e-01 -7.060788356738346e-02 -4.755536188556398e-01 -8.508069811756064e-01 8.338199263104008e-01 -4.999372005534015e-01 1.016581179435784e-01 -5.038185442210424e-02
1.101040000000000e+11 1.122210059029262e-01 -7.127039804811823e-02 -4.659477739586017e-01 -8.587032021974240e-01 8.307614732871013e-01 -5.061206131760072e-01 1.005414792963698e-01 -4.875753442308542e-02
1.101520000000000e+11 1.093627044930675e-01 -7.392490687421753e-02 -4.622627384944337e-01 -8.604919765095295e-01 8.252872266313400e-01 -5.194497575362690e-01 9.935353507410100e-02 -4.895978874646947e-02
1.102000000000000e+11 1.102175650060878e-01 -7.155849303610225e-02 -4.506680522760456e-01 -8.600050459228472e-01 8.188526077023423e-01 -5.254861516293795e-01 1.007361121522026e-01 -4.935112667571402e-02
1.102480000000000e+11 1.083043912420983e-01 -7.410295911476784e-02 -4.442790630338823e-01 -8.670562475565241e-01 8.161956925311686e-01 -5.294722127205723e-01 9.911970850062439e-02 -4.682127889541850e-02
1.102960000000000e+11 1.082581453012716e-01 -7.357284101009234e-02 -4.488943125125299e-01 -8.685339429005203e-01 8.186505849653830e-01 -5.269055001749946e-01 1.005166145154462e-01 -4.812631664921010e-02
1.103440000000000e+11 1.048835590510648e-01 -7.518847713854014e-02 -4.558615983820059e-01 -8.654346011282412e-01 8.194842146746510e-01 -5.259008126855135e-01 9.893393808391134e-02 -4.784866744149983e-02
1.103920000000000e+11 1.070100002432991e-01 -7.325933577623521e-02 -4.604515171092060e-01 -8.626049098716901e-01 8.232535093013529e-01 -5.219792737734258e-01 1.006604873546037e-01 -5.016663637407080e-02
1.104400000000000e+11 1.041629471580081e-01 -7.417991523402521e-02 -4.654232502220451e-01 -8.594631094734280e-01 8.222185540304561e-01 -5.221023511566942e-01 9.933795607359210e-02 -5.039837443413866e-02
1.104880000000000e+11 1.063312885961129e-01 -7.218036167471084e-02 -4.627001402941689e-01 -8.594088755761272e-01 8.227376188490364e-01 -5.214365111642807e-01 1.001170891588820e-01 -5.095210230149084e-02
1.105360000000000e+11 1.061529982506354e-01 -7.204616517121745e-02 -4.562210676892055e-01 -8.602387241841430e-01 8.205749565663165e-01 -5.285713437422844e-01 9.992015516608209e-02 -5.108122604607115e-02
1.105840000000000e+11 1.032014540757026e-01 -7.237547569988897e-02 -4.625035700232464e-01 -8.584666267992263e-01 8.175499759499543e-01 -5.304628106070498e-01 9.975544859111594e-02 -5.303205152196241e-02
1.106320000000000e+11 1.056028837755462e-01 -6.959263786343957e-02 -4.592658589004431e-01 -8.598488866692300e-01 8.182631118635285e-01 -5.318195432532937e-01 9.788282849562426e-02 -5.231171563041345e-02
1.106800000000000e+11 1.039433817282712e-01 -6.920313530686352e-02 -4.566365249611462e-01 -8.604558949233998e-01 8.173093181771567e-01 -5.329917453824523e-01 9.690592120140346e-02 -5.030282440405752e-02
1.107280000000000e+11 1.058100815729678e-01 -6.845502056621965e-02 -4.565408368593503e-01 -8.614532434962957e-01 8.162014671231471e-01 -5.352545637191625e-01 9.629330804906962e-02 -5.096747883752335e-02
1.107760000000000e+11 1.041059044895814e-01 -7.028530498114847e-02 -4.573806153106787e-01 -8.610168030008333e-01 8.150827350291455e-01 -5.354451596041264e-01 9.502440190641188e-02 -4.970793074461657e-02
1.108240000000000e+11 1.043858205913167e-01 -7.046659896027185e-02 -4.568363796753560e-01 -8.604859594554111e-01 8.143986335889023e-01 -5.359888342844018e-01 9.519019167115642e-02 -4.891365804875508e-02
1.108720000000000e+11 1.029926748200934e-01 -7.197551986235770e-02 -4.560945822740164e-01 -8.607736064086633e-01 8.128507773491755e-01 -5.391924865988493e-01 9.486744048728780e-02 -4.867546122304132e-02
1.109200000000000e+11 1.014689834543069e-01 -7.298360752350312e-02 -4.587185476990734e-01 -8.605880675943984e-01 8.093724190537619e-01 -5.426266417866132e-01 9.490092525653655e-02 -4.956095387052626e-02
1.109680000000000e+11 1.011931269951389e-01 -7.301186778654359e-02 -4.550582205198764e-01 -8.623622458182589e-01 8.077102630441206e-01 -5.430102264099195e-01 9.548095762991619e-02 -4.858664491558201e-02
1.110160000000000e+11 1.016413084422653e-01 -7.213002203985788e-02 -4.582775592746790e-01 -8.634728269919043e-01 8.094890566735145e-01 -5.425483134816367e-01 9.652180773074547e-02 -4.932596800367003e-02
1.110640000000000e+11 1.013658119864902e-01 -7.164729569828711e-02 -4.654196262099826e-01 -8.564572296911477e-01 8.132625298768873e-01 -5.370691364359750e-01 9.721074327178539e-02 -5.009822509698786e-02
1.111120000000000e+11 1.003146747746754e-01 -7.226063076566630e-02 -4.742824474545668e-01 -8.504281108992863e-01 8.178284122170436e-01 -5.300990573177121e-01 9.618157364066883e-02 -4.918673721549774e-02
1.111600000000000e+11 1.018970438392592e-01 -7.088150893896351e-02 -4.808969655684479e-01 -8.457392712186514e-01 8.228542635504226e-01 -5.212395564684512e-01 9.733269518564605e-02 -4.941834237578363e-02
1.112080000000000e+11 1.009247045385980e-01 -7.249624111341092e-02 -4.907213367723416e-01 -8.428670637357093e-01 8.262381791887998e-01 -5.140018465472838e-01 9.579163059732020e-02 -4.822533617741328e-02
1.112560000000000e+11 1.003922511405684e-01 -7.180034348493403e-02 -4.957640553865828e-01 -8.395685455140678e-01 8.270422847214692e-01 -5.126852019393834e-01 9.534444759831494e-02 -4.866745859297793e-02
1.113040000000000e+11 9.778711493424577e-02 -7.341329157113380e-02 -4.873262771562719e-01 -8.412269231737270e-01 8.220920096881615e-01 -5.225564061062821e-01 9.301262548208562e-02 -4.695204582719494e-02
1.113520000000000e+11 9.970999220577610e-02 -7.209294354236316e-02 -4.771501381971385e-01 -8.491068744317791e-01 8.140445417715019e-01 -5.315491448476238e-01 9.346474097976297e-02 -4.704950840931342e-02
1.114000000000000e+11 9.833687163997994e-02 -7.213633877455855e-02 -4.648184020286419e-01 -8.538301365659456e-01 8.072349099892053e-01 -5.429003561112614e-01 9.260525046051181e-02 -4.667224275548686e-02
1.114480000000000e+11 9.960924595595455e-02 -7.213145528607494e-02 -4.608073550548613e-01 -8.578062866350109e-01 8.063757791189995e-01 -5.456372400977580e-01 9.210752531332020e-02 -4.709958429506753e-02
1.114960000000000e+11 9.833310931584811e-02 -7.233986246535427e-02 -4.736028847792071e-01 -8.499471873524197e-01 8.118319127562171e-01 -5.380317792054879e-01 9.100154090008861e-02 -4.807285476583633e-02
1.115440000000000e+11 9.879454977680928e-02 -7.218070226402289e-02 -4.912263899818019e-01 -8.405121890072339e-01 8.230030484910742e-01 -5.221222986840578e-01 9.066108524072725e-02 -4.849416979537917e-02
1.115920000000000e+11 9.769101412554601e-02 -7.296931250261483e-02 -5.121842712071127e-01 -8.270135210494507e-01 8.338339787746102e-01 -5.042055051796016e-01 8.993917428482165e-02 -4.920327650877566e-02
1.116400000000000e+11 9.718863344898628e-02 -7.271708749341597e-02 -5.230128521963415e-01 -8.198450245596255e-01 8.417003663033353e-01 -4.922245975350806e-01 9.038097844626669e-02 -5.021385383154920e-02
1.116880000000000e+11 9.719678086264387e-02 -7.368340808322321e-02 -5.213919058801091e-01 -8.218779125360449e-01 8.370711443614637e-01 -4.961981169242362e-01 9.074543511602366e-02 -5.046207583392325e-02
1.117360000000000e+11 9.645001668649732e-02 -7.202907561298340e-02 -5.145531361926549e-01 -8.293442112624598e-01 8.307278737191830e-01 -5.031261573229660e-01 9.095061592068417e-02 -5.147325786314713e-02
1.117840000000000e+11 9.696802995592116e-02 -7.261664305465072e-02 -4.964008027302469e-01 -8.395714434714722e-01 8.201998648006691e-01 -5.231875409211819e-01 9.122059343505343e-02 -5.247915386539684e-02
1.118320000000000e+11 9.693138773612205e-02 -7.313490386082663e-02 -4.778640002772180e-01 -8.504965566311898e-01 8.099917341101787e-01 -5.399717795680162e-01 9.187210944037451e-02 -5.335156605395595e-02
1.118800000000000e+11 9.701872415162963e-02 -7.371924831477662e-02 -4.735903365066995e-01 -8.524633361339464e-01 8.049329085721896e-01 -5.472537780585172e-01 9.179600396487679e-02 -5.404929624705445e-02
1.119280000000000e+11 9.694049113496911e-02 -7.350582809597969e-02 -4.778990687623307e-01 -8.491420467623527e-01 8.089091212800058e-01 -5.429663373291079e-01 9.288945002503263e-02 -5.500186794871851e-02
1.119760000000000e+11 9.766399952757450e-02 -7.305929745984172e-02 -4.907201165456458e-01 -8.415297378454393e-01 8.160015653802204e-01 -5.320492531597323e-01 9.267877056350517e-02 -5.508428242596538e-02
1.120240000000000e+11 9.756200254198166e-02 -7.258634834140544e-02 -5.038637670223011e-01 -8.345087185221964e-01 8.247424867696884e-01 -5.194990515364177e-01 9.298899905443449e-02 -5.699926186511597e-02
1.120720000000000e+11 9.830217209174368e-02 -7.342297717509869e-02 -5.125309560835816e-01 -8.285893823405978e-01 8.288874148727610e-01 -5.118397515879827e-01 9.179281689198966e-02 -5.441960653901547e-02
1.121200000000000e+11 9.807496356592857e-02 -7.292242133173582e-02 -5.118470721867032e-01 -8.286149340026691e-01 8.286714703640766e-01 -5.131895424477484e-01 9.217575637342146e-02 -5.560119224800636e-02
1.121680000000000e+11 1.001499965774560e-01 -7.352275853003851e-02 -5.020011456672725e-01 -8.348828957937657e-01 8.243414426188295e-01 -5.216372193413479e-01 9.244339911720081e-02 -5.450968089916619e-02
1.122160000000000e+11 9.966286579221445e-02 -7.565980586306649e-02 -4.924620882985392e-01 -8.414274450965762e-01 8.168399136380418e-01 -5.352658237789916e-01 9.119586521058147e-02 -5.542983554451775e-02
1.122640000000000e+11 9.928919054705934e-02 -7.732652022132554e-02 -4.796606284386055e-01 -8.458793457376319e-01 8.083718929441620e-01 -5.489661907281949e-01 9.085257265197191e-02 -5.283969680280643e-02
1.123120000000000e+11 9.628104693900269e-02 -6.935409009064933e-02 -4.624969083982561e-01 -8.559579051696370e-01 7.945902999981278e-01 -5.514193004178275e-01 9.581219031249853e-02 -5.209682795430715e-02
1.123600000000000e+11 1.011933451548461e-01 -7.671763407165276e-02 -4.729856007523705e-01 -8.602020711264173e-01 8.000167318444146e-01 -5.536530692633272e-01 9.177931193327311e-02 -5.490436528262609e-02
1.124080000000000e+11 9.657588613079512e-02 -8.033106337626895e-02 -4.837112868713752e-01 -8.474631594418203e-01 8.057878189565404e-01 -5.517112733204633e-01 9.046791006081920e-02 -5.354167897061572e-02
1.124560000000000e+11 9.935870192231672e-02 -7.833156814875841e-02 -4.878699311912612e-01 -8.460883441664832e-01 8.094301168756834e-01 -5.398542637253230e-01 9.252881100639486e-02 -5.237506164380967e-02
1.125040000000000e+11 9.287841376367059e-02 -7.658034198933407e-02 -5.026505147398489e-01 -8.315772529369043e-01 8.153529510426885e-01 -5.294464983326745e-01 9.207078224274609e-02 -5.213636332635928e-02
1.125520000000000e+11 9.645473103330160e-02 -7.518852151756923e-02 -5.075596361240070e-01 -8.289571484541650e-01 8.236927334856878e-01 -5.213461535694421e-01 9.170256164654426e-02 -5.321970737928182e-02
1.126000000000000e+11 9.650159220653919e-02 -7.387394212661527e-02 -5.029826716338078e-01 -8.293952432307522e-01 8.234276775869928e-01 -5.246401097160410e-01 9.152220289347793e-02 -5.273004475846519e-02
1.126480000000000e+11 9.602919335350524e-02 -7.347581024966703e-02 -4.889634808039056e-01 -8.362823499977132e-01 8.125192166822466e-01 -5.379941992594425e-01 9.125264504110966e-02 -5.146425485400867e-02
1.126960000000000e+11 9.389621695581449e-02 -7.038717572604597e-02 -4.723040543712434e-01 -8.521304015633797e-01 7.939855143007579e-01 -5.532115675105358e-01 9.196613188309416e-02 -5.121784285889807e-02
1.127440000000000e+11 9.566211385401008e-02 -7.250258117213818e-02 -4.631170687254069e-01 -8.610768916653915e-01 7.874239908770879e-01 -5.653830857027434e-01 9.045656344687139e-02 -5.296410468523483e-02
1.127920000000000e+11 9.443734954799607e-02 -7.347193240831579e-02 -4.668785916306268e-01 -8.572867397492265e-01 7.866234741717216e-01 -5.697838271116120e-01 8.769809967258597e-02 -5.335987442923207e-02
1.128400000000000e+11 9.360563629276103e-02 -7.565934731199869e-02 -4.857844162248053e-01 -8.455641539673303e-01 7.959118257612259e-01 -5.562723477885132e-01 8.569226679906985e-02 -5.212768649560780e-02
1.128880000000000e+11 9.461201212940459e-02 -7.550482979061668e-02 -5.044871968827312e-01 -8.283922971585493e-01 8.133692843142905e-01 -5.355059628887187e-01 8.583044466738872e-02 -5.199447018743143e-02
1.129360000000000e+11 9.465370053458738e-02 -7.806854225506459e-02 -5.390402089688817e-01 -8.103923000865330e-01 8.315489285117347e-01 -5.045291158390268e-01 8.358977229936208e-02 -5.185056657137536e-02
1.129840000000000e+11 9.526408680394992e-02 -7.617806712619411e-02 -5.523416948395694e-01 -8.016864180058183e-01 8.416939508172609e-01 -4.870854850995671e-01 8.409980606362687e-02 -5.405106697162913e-02
1.130320000000000e+11 9.749440891843861e-02 -7.712681337267215e-02 -5.427619163792997e-01 -8.098820128023507e-01 8.371467209887729e-01 -4.944276016185131e-01 8.516898104237715e-02 -5.409973413278209e-02
1.130800000000000e+11 9.553866536942900e-02 -7.742307349219764e-02 -5.146576549573686e-01 -8.298949231282332e-01 8.183219031050543e-01 -5.243057280189700e-01 8.389579432642405e-02 -5.582092911710434e-02
1.131280000000000e+11 9.545677928762246e-02 -7.982758564914368e-02 -4.761116863609136e-01 -8.514763509322723e-01 7.934718936992691e-01 -5.654285105489867e-01 8.296161724500495e-02 -5.644776496689357e-02
1.131760000000000e+11 9.322236083237181e-02 -8.069538866481067e-02 -4.521850849856975e-01 -8.653600136700341e-01 7.753496993988473e-01 -5.934539388511352e-01 8.065898357770535e-02 -5.825233037716342e-02
1.132240000000000e+11 8.964827355382547e-02 -8.294971918866001e-02 -4.579858868965346e-01 -8.627032789375729e-01 7.713044205954062e-01 -5.931305899037508e-01 7.967522904000690e-02 -5.875849577397444e-02
1.132720000000000e+11 9.136734596438942e-02 -7.856423361676823e-02 -4.881716062518985e-01 -8.478134476778046e-01 7.958671852535542e-01 -5.642098307611002e-01 7.972723216723476e-02 -6.300882150646853e-02
1.133200000000000e+11 8.998500090270677e-02 -8.426471325948917e-02 -5.408202000128535e-01 -8.123640762099746e-01 8.261610309912975e-01 -5.191177504374798e-01 8.008458745001557e-02 -6.068524366374655e-02
1.133680000000000e+11 8.975844295554049e-02 -8.492461065108019e-02 -5.912649182977235e-01 -7.803842160368187e-01 8.600994853113483e-01 -4.635926307641932e-01 8.190341811506376e-02 -6.378518954588651e-02
1.134160000000000e+11 8.768419753580474e-02 -8.729682281725319e-02 -6.182947670647682e-01 -7.566547333406898e-01 8.731975505212410e-01 -4.362542598522602e-01 8.233366994680549e-02 -6.177229811675963e-02
1.134640000000000e+11 8.773123698179450e-02 -8.400431946153172e-02 -6.060178705771292e-01 -7.682909111121160e-01 8.684928126497347e-01 -4.467271736411190e-01 8.310776859066915e-02 -6.530144841060648e-02
1.135120000000000e+11 8.707342125083870e-02 -8.646200228041659e-02 -5.636825861092775e-01 -7.988018899275140e-01 8.390640546024858e-01 -4.979392713058758e-01 8.323119130715341e-02 -6.285203223022040e-02
1.135600000000000e+11 8.879375513247087e-02 -8.200622381622576e-02 -5.033947264113533e-01 -8.378937975714161e-01 8.053003006705413e-01 -5.527768151395298e-01 8.499979538448937e-02 -6.552699244597157e-02
1.136080000000000e+11 8.730019793250049e-02 -8.492178685058664e-02 -4.631757989006881e-01 -8.598747197239718e-01 7.723546669127673e-01 -5.961307207653803e-01 8.448649720503636e-02 -6.409986244850614e-02
1.136560000000000e+11 8.779006622605511e-02 -8.107402125211514e-02 -4.515110198524250e-01 -8.655751240466572e-01 7.658813361423062e-01 -6.065518113428270e-01 8.382634861245437e-02 -6.694581244095354e-02
1.137040000000000e+11 8.708881776084021e-02 -8.237253029569815e-02 -4.751547669947792e-01 -8.532489860976019e-01 7.784599987567322e-01 -5.890721267643922e-01 8.334552986968098e-02 -6.713434795938444e-02
1.137520000000000e+11 8.757239529118381e-02 -8.449861947341847e-02 -5.175106552222311e-01 -8.298461143443808e-01 8.067028067765520e-01 -5.519380296555332e-01 8.319763788598897e-02 -6.655965105100699e-02
1.138000000000000e+11 8.956210125304230e-02 -8.336382697304923e-02 -5.605322865685282e-01 -8.003873145721155e-01 8.358189056922590e-01 -5.059131131063831e-01 8.453766598769920e-02 -6.551838343125653e-02
1.138480000000000e+11 9.002506378789409e-02 -8.427767950615081e-02 -5.930703664001002e-01 -7.775432240605265e-01 8.577575322577021e-01 -4.687229987610619e-01 8.537792887040085e-02 -6.502814501767330e-02
1.138960000000000e+11 8.881201919662420e-02 -8.471890586333555e-02 -5.972982462169083e-01 -7.738129411340191e-01 8.579461749159251e-01 -4.663954271134825e-01 8.575120702394683e-02 -6.367814193228012e-02
1.139440000000000e+11 9.028624764471917e-02 -8.718350615707109e-02 -5.768700853925011e-01 -7.926584149729624e-01 8.470979941532734e-01 -4.880775886234209e-01 8.639640973787922e-02 -6.368152234184998e-02
1.139920000000000e+11 8.705889031598249e-02 -8.677948666311684e-02 -5.412448810195027e-01 -8.170056902937638e-01 8.212901388330185e-01 -5.288277403840121e-01 8.514820230120022e-02 -6.334190936342321e-02
1.140400000000000e+11 8.549873051604205e-02 -8.679993218054602e-02 -5.030115766615050e-01 -8.414807952175681e-01 7.958963936041072e-01 -5.684782101923017e-01 8.419061451205535e-02 -6.468585383435201e-02
1.140880000000000e+11 8.823572264044174e-02 -8.733199832620020e-02 -4.775633964023488e-01 -8.562662624196867e-01 7.792754588632973e-01 -5.919256890300717e-01 8.436753304467305e-02 -6.421473839969262e-02
1.141360000000000e+11 8.511096671839609e-02 -8.688993344118559e-02 -4.729564365716788e-01 -8.585687477150891e-01 7.734576567649329e-01 -5.991094483608143e-01 8.303592921481644e-02 -6.473086186470377e-02
1.141840000000000e+11 8.652746213116672e-02 -8.647162146990395e-02 -4.874250510707315e-01 -8.495029301735845e-01 7.824544159763227e-01 -5.878880370904800e-01 8.269898674186336e-02 -6.512119519757568e-02
1.142320000000000e+11 8.378319152195739e-02 -8.465308950192980e-02 -5.181449284053622e-01 -8.313431222447678e-01 7.986788613685536e-01 -5.639888060845416e-01 8.010225374342227e-02 -6.639995435093297e-02
1.142800000000000e+11 8.584563321205203e-02 -8.413706006329696e-02 -5.452066483373526e-01 -8.117763893999235e-01 8.169920945309507e-01 -5.370544841746919e-01 7.945225147061187e-02 -6.563929025176557e-02
1.143280000000000e+11 8.644297355498350e-02 -8.396407004631193e-02 -5.664799831780530e-01 -7.967581084840014e-01 8.319350769469938e-01 -5.139139729545561e-01 7.940085864153537e-02 -6.504621619700507e-02
1.143760000000000e+11 8.639959077599853e-02 -8.302890724184492e-02 -5.738963427559787e-01 -7.905257276782864e-01 8.355164418029026e-01 -5.062108821868933e-01 7.899200364090692e-02 -6.454554072275036e-02
1.144240000000000e+11 8.709073614183208e-02 -8.545960670833416e-02 -5.624564438794373e-01 -7.995797358924132e-01 8.292189063193057e-01 -5.174628414846300e-01 7.931963387054104e-02 -6.311982197690434e-02
1.144720000000000e+11 8.563829057203787e-02 -8.400727395276986e-02 -5.367984240001502e-01 -8.166141430582584e-01 8.112034589054243e-01 -5.447312607128284e-01 7.807253453632371e-02 -6.393058472049891e-02
1.145200000000000e+11 8.485639209377525e-02 -8.441626261808743e-02 -5.085964814609687e-01 -8.350381631087594e-01 7.919494713600179e-01 -5.724183540538546e-01 7.761368356436886e-02 -6.372080502006844e-02
1.145680000000000e+11 8.339534884190690e-02 -8.439707957244096e-02 -4.925904768769047e-01 -8.446557231024772e-01 7.793035091469214e-01 -5.905525178496411e-01 7.634053415284583e-02 -6.485664713455079e-02
1.146160000000000e+11 8.152136871649181e-02 -8.416537734179820e-02 -4.951446872529244e-01 -8.438494492525840e-01 7.783964806541103e-01 -5.924778557736190e-01 7.473355157316805e-02 -6.648449899970763e-02
1.146640000000000e+11 8.095417232538873e-02 -8.453618168018319e-02 -5.159125502063884e-01 -8.312501202642140e-01 7.900350155649931e-01 -5.769568727438497e-01 7.393533563273841e-02 -6.674831795537965e-02
1.147120000000000e+11 8.126601865226099e-02 -8.465508694579144e-02 -5.435113846589438e-01 -8.134672476941656e-01 8.088894249501212e-01 -5.490178600997118e-01 7.483691577469101e-02 -6.679265614755665e-02
1.147600000000000e+11 8.078601676428551e-02 -8.550541031814206e-02 -5.678923948474408e-01 -7.983259814678978e-01 8.245204661822807e-01 -5.269483063321527e-01 7.531144212518649e-02 -6.848114156512913e-02
1.148080000000000e+11 8.131494570044487e-02 -8.596803573039649e-02 -5.740764266014244e-01 -7.941341963114822e-01 8.291955264946476e-01 -5.194242291880564e-01 7.640034318038479e-02 -6.815971795762746e-02
1.148560000000000e+11 8.160214094653445e-02 -8.545925353439687e-02 -5.584230770602738e-01 -8.057601032982928e-01 8.185479988381323e-01 -5.360307255205110e-01 7.699504755973792e-02 -6.882692322805777e-02
1.149040000000000e+11 8.146440395638174e-02 -8.488354244365416e-02 -5.325861019063587e-01 -8.222573178931653e-01 7.987676571705263e-01 -5.646335002067407e-01 7.685703519750683e-02 -7.039440256982739e-02
1.149520000000000e+11 7.990111310334837e-02 -8.568913202161654e-02 -5.157413217176989e-01 -8.365150134540156e-01 7.844616886060619e-01 -5.866136191132814e-01 7.622725422997137e-02 -7.321154273884826e-02
1.150000000000000e+11 8.106476757749007e-02 -8.354248252974660e-02 -5.092499669854988e-01 -8.367219794590356e-01 7.800540220517720e-01 -5.910083032193866e-01 7.610050277664855e-02 -7.290900025295757e-02
