! Generated by Phase I extraction
# Hz S RI R 50
6.700000000000000e+10 2.608002643016497e-01 -1.189813622627689e-02
6.704800000000000e+10 2.606234324506232e-01 -1.334512609326875e-02
6.709600000000000e+10 2.596883037264748e-01 -6.427223867803632e-04
6.714400000000000e+10 2.559181588591092e-01 -8.655859194687063e-03
6.719200000000000e+10 2.532485476333979e-01 -7.775680759009602e-03
6.724000000000000e+10 2.529452786271586e-01 -7.483717308783569e-03
6.728800000000000e+10 2.529994632172300e-01 -7.828307428946637e-03
6.733600000000000e+10 2.538427808497724e-01 -7.425620975583692e-03
6.738400000000000e+10 2.549355851194024e-01 -7.405056406399485e-03
6.743200000000000e+10 2.559240014669035e-01 -7.274632790230116e-03
6.748000000000000e+10 2.564677137680805e-01 -7.029666761469187e-03
6.752800000000000e+10 2.560591380705086e-01 -6.581010289381070e-03
6.757600000000000e+10 2.554058097973489e-01 -6.978094003600498e-03
6.762400000000000e+10 2.543481038349453e-01 -6.898534775547025e-03
6.767200000000000e+10 2.539201702902246e-01 -6.789971096445449e-03
6.772000000000000e+10 2.535999519226339e-01 -6.476609735590983e-03
6.776800000000000e+10 2.536244822601985e-01 -6.770044233858455e-03
6.781600000000000e+10 2.541892129565466e-01 -6.836089516910676e-03
6.786400000000000e+10 2.541777238567732e-01 -7.155784620430575e-03
6.791200000000000e+10 2.552714997613370e-01 -7.480019481173610e-03
6.796000000000000e+10 2.555286586995005e-01 -7.755599101893468e-03
6.800800000000000e+10 2.565416189147622e-01 -8.057559081839180e-03
6.805600000000000e+10 2.570375909231077e-01 -8.203053078688285e-03
6.810400000000000e+10 2.571971821484388e-01 -8.082596172021402e-03
6.815200000000000e+10 2.573318329389968e-01 -8.185955815108623e-03
6.820000000000000e+10 2.570962039147426e-01 -8.150571766589253e-03
6.824800000000000e+10 2.575546904364562e-01 -7.971211513894651e-03
6.829600000000000e+10 2.577809061494657e-01 -7.789481352573849e-03
6.834400000000000e+10 2.583185129680540e-01 -8.268492496539086e-03
6.839200000000000e+10 2.590491383947494e-01 -8.240638896668760e-03
6.844000000000000e+10 2.584487177226734e-01 -8.419558557619566e-03
6.848800000000000e+10 2.591552510065585e-01 -7.578932882485843e-03
6.853600000000000e+10 2.593377854484595e-01 -7.466491074675312e-03
6.858400000000000e+10 2.602197313670122e-01 -7.412371101719121e-03
6.863200000000000e+10 2.607785336423686e-01 -7.377679584946445e-03
6.868000000000000e+10 2.610164652833341e-01 -7.455539021372241e-03
6.872800000000000e+10 2.612753510902250e-01 -7.734235210888639e-03
6.877600000000000e+10 2.606107821088451e-01 -8.173162636481778e-03
6.882400000000000e+10 2.601887239068258e-01 -8.330229692220116e-03
6.887200000000000e+10 2.594388755997700e-01 -8.101110000936341e-03
6.892000000000000e+10 2.595358449265250e-01 -8.533423667547106e-03
6.896800000000000e+10 2.604046185087328e-01 -8.037527882317467e-03
6.901600000000000e+10 2.617767504275744e-01 -8.395692114672884e-03
6.906400000000000e+10 2.621262113868609e-01 -8.043332543875200e-03
6.911200000000000e+10 2.626385700603662e-01 -8.342759786753393e-03
6.916000000000000e+10 2.619128919078826e-01 -8.072944528387124e-03
6.920800000000000e+10 2.609755280086282e-01 -7.900794148042628e-03
6.925600000000000e+10 2.601747926431035e-01 -8.360918124978715e-03
6.930400000000000e+10 2.592097875023608e-01 -7.845729949486296e-03
6.935200000000000e+10 2.595774817241736e-01 -7.910584718953244e-03
6.940000000000000e+10 2.590046518206603e-01 -7.287940399805741e-03
6.944800000000000e+10 2.594449110058670e-01 -7.567075996356832e-03
6.949600000000000e+10 2.594647657260217e-01 -6.869787630904321e-03
6.954400000000000e+10 2.597388538746684e-01 -6.671134427486960e-03
6.959200000000000e+10 2.598874944938690e-01 -6.255310376283594e-03
6.964000000000000e+10 2.606208402470793e-01 -6.465655658892389e-03
6.968800000000000e+10 2.607319365062813e-01 -6.360568605639221e-03
6.973600000000000e+10 2.606374769699437e-01 -6.500564639732124e-03
6.978400000000000e+10 2.600389642641585e-01 -6.428759766653601e-03
6.983200000000000e+10 2.593410707696912e-01 -6.175389579119415e-03
6.988000000000000e+10 2.591442795237685e-01 -6.199129671698718e-03
6.992800000000000e+10 2.585754039071705e-01 -6.336293447331113e-03
6.997600000000000e+10 2.588364883812134e-01 -6.164683797620894e-03
7.002400000000000e+10 2.614433586286313e-01 -6.821941273000370e-03
7.007200000000000e+10 2.622759872869756e-01 -6.833051100587018e-03
7.012000000000000e+10 2.634147430870422e-01 -7.227151374459109e-03
7.016800000000000e+10 2.636999992978837e-01 -7.072594064642295e-03
7.021600000000000e+10 2.634839868849197e-01 -6.733203221756473e-03
7.026400000000000e+10 2.627239326596673e-01 -6.646562592543651e-03
7.031200000000000e+10 2.618513801260741e-01 -6.931183906795062e-03
7.036000000000000e+10 2.608633118265054e-01 -6.665641310380021e-03
7.040800000000000e+10 2.608845155964654e-01 -6.174656450274606e-03
7.045600000000000e+10 2.601961318663850e-01 -6.416610153340527e-03
7.050400000000000e+10 2.608473090471197e-01 -6.243683191472382e-03
7.055200000000000e+10 2.606054730049563e-01 -6.324434864146296e-03
7.060000000000000e+10 2.614674481037651e-01 -6.278837036043172e-03
7.064800000000000e+10 2.619197247266466e-01 -5.670718822004692e-03
7.069600000000000e+10 2.626536423531890e-01 -6.390131822938673e-03
7.074400000000000e+10 2.629703069433609e-01 -5.668930141562503e-03
7.079200000000000e+10 2.625962385445972e-01 -6.318534989209256e-03
7.084000000000000e+10 2.621589322418849e-01 -5.672535953226305e-03
7.088800000000000e+10 2.611306815184979e-01 -6.749595476090524e-03
7.093600000000000e+10 2.614000202237858e-01 -6.040259145221043e-03
7.098400000000000e+10 2.607136371583955e-01 -6.420565560393447e-03
7.103200000000000e+10 2.608434889186554e-01 -6.407667848544496e-03
7.108000000000000e+10 2.612111929668706e-01 -6.387653204937453e-03
7.112800000000000e+10 2.623328963708959e-01 -6.445588199988103e-03
7.117600000000000e+10 2.621091441780174e-01 -6.185553373440467e-03
7.122400000000000e+10 2.633470965542535e-01 -6.199567220526764e-03
7.127200000000000e+10 2.630776892887260e-01 -5.997072311796622e-03
7.132000000000000e+10 2.625717442740897e-01 -6.544170499424817e-03
7.136800000000000e+10 2.617167717644595e-01 -5.853029798219988e-03
7.141600000000000e+10 2.614041282300349e-01 -6.168750503732669e-03
7.146400000000000e+10 2.610958226244202e-01 -5.712977688703560e-03
7.151200000000000e+10 2.615617753621898e-01 -5.648110920532417e-03
7.156000000000000e+10 2.620867239899781e-01 -5.559226891825028e-03
7.160800000000000e+10 2.627236754149387e-01 -5.455481028442334e-03
7.165600000000000e+10 2.640543961046452e-01 -5.174297194392935e-03
7.170400000000000e+10 2.643269625986071e-01 -5.263215360007614e-03
7.175200000000000e+10 2.641391150511531e-01 -5.551485548562259e-03
7.180000000000000e+10 2.638499406647685e-01 -5.936776781237807e-03
7.184800000000000e+10 2.646964542370296e-01 -5.919995531237897e-03
7.189600000000000e+10 2.649955396505650e-01 -5.869629464563126e-03
7.194400000000000e+10 2.640332649680825e-01 -6.190185770893162e-03
7.199200000000000e+10 2.641411853599258e-01 -6.595662206605605e-03
7.204000000000000e+10 2.640857977831379e-01 -6.427304294081380e-03
7.208800000000000e+10 2.658030928990017e-01 -6.461309796197784e-03
7.213600000000000e+10 2.663168813412130e-01 -5.836901009862837e-03
7.218400000000000e+10 2.664774797315373e-01 -5.643798743226928e-03
7.223200000000000e+10 2.665320979897863e-01 -6.236500676659692e-03
7.228000000000000e+10 2.653875643357776e-01 -6.089921264613654e-03
7.232800000000000e+10 2.649033215746402e-01 -6.246511495305778e-03
7.237600000000000e+10 2.644137319482965e-01 -6.622664891151511e-03
7.242400000000000e+10 2.638429936681927e-01 -6.885780217132575e-03
7.247200000000000e+10 2.628428275742419e-01 -7.103970629710143e-03
7.252000000000000e+10 2.627890294642318e-01 -6.924107522416702e-03
7.256800000000000e+10 2.628737491815470e-01 -7.233883155554154e-03
7.261600000000000e+10 2.637692178943452e-01 -6.709756770165065e-03
7.266400000000000e+10 2.642560367552919e-01 -7.331259042127149e-03
7.271200000000000e+10 2.648412227560416e-01 -7.003847105497418e-03
7.276000000000000e+10 2.650580296698097e-01 -7.059965808382599e-03
7.280800000000000e+10 2.658499360961665e-01 -7.039698117385002e-03
7.285600000000000e+10 2.656510049351079e-01 -7.378988893749738e-03
7.290400000000000e+10 2.660754711321624e-01 -6.970125608520912e-03
7.295200000000000e+10 2.660940299233852e-01 -7.252666688866934e-03
7.300000000000000e+10 2.665742360940428e-01 -6.617023930066676e-03
7.304800000000000e+10 2.665585306970676e-01 -6.717578181324474e-03
7.309600000000000e+10 2.670577428223129e-01 -6.328745759015863e-03
7.314400000000000e+10 2.675111533941384e-01 -6.598830150771869e-03
7.319200000000000e+10 2.674478911071996e-01 -6.308789311680790e-03
7.324000000000000e+10 2.678846877115420e-01 -6.297697366277127e-03
7.328800000000000e+10 2.679118820237152e-01 -6.375774134513098e-03
7.333600000000000e+10 2.684851567129222e-01 -5.778614623739284e-03
7.338400000000000e+10 2.690894699295733e-01 -5.843735987094996e-03
7.343200000000000e+10 2.696926369024106e-01 -5.521778176533628e-03
7.348000000000000e+10 2.694635718209131e-01 -5.483322710392212e-03
7.352800000000000e+10 2.696458621650807e-01 -5.497499793362681e-03
7.357600000000000e+10 2.697084506574846e-01 -5.546276783001874e-03
7.362400000000000e+10 2.692726977366385e-01 -5.783372970968381e-03
7.367200000000000e+10 2.693378401548067e-01 -5.949318087851896e-03
7.372000000000000e+10 2.700290679585222e-01 -6.255570248394510e-03
7.376800000000000e+10 2.702823349535531e-01 -6.217679847460174e-03
7.381600000000000e+10 2.709859005707965e-01 -6.207507396882128e-03
7.386400000000000e+10 2.720559027461836e-01 -6.509234898951007e-03
7.391200000000000e+10 2.729359051218687e-01 -6.194213308055785e-03
7.396000000000000e+10 2.736535271068070e-01 -6.134016176005606e-03
7.400800000000000e+10 2.739875876145177e-01 -6.361649484172957e-03
7.405600000000000e+10 2.741458508590899e-01 -6.801781888632547e-03
7.410400000000000e+10 2.740296137906912e-01 -6.742651715111532e-03
7.415200000000000e+10 2.740845442534564e-01 -6.502428282352345e-03
7.420000000000000e+10 2.740068062947776e-01 -6.292625990910627e-03
7.424800000000000e+10 2.739615984385022e-01 -6.240447980630299e-03
7.429600000000000e+10 2.741563640329631e-01 -5.880376687718255e-03
7.434400000000000e+10 2.745406428885677e-01 -5.841332933501867e-03
7.439200000000000e+10 2.749515925696790e-01 -5.668017418278941e-03
7.444000000000000e+10 2.753045827539971e-01 -5.609071070058209e-03
7.448800000000000e+10 2.758526301898921e-01 -4.948670342555453e-03
7.453600000000000e+10 2.760181252754230e-01 -4.924041344856665e-03
7.458400000000000e+10 2.763378446649733e-01 -4.800345631353026e-03
7.463200000000000e+10 2.763340362712746e-01 -4.805939516293290e-03
7.468000000000000e+10 2.761464609555697e-01 -4.522176606778258e-03
7.472800000000000e+10 2.761815920166329e-01 -4.560407890518899e-03
7.477600000000000e+10 2.762412005811192e-01 -4.433239587907510e-03
7.482400000000000e+10 2.766361466160733e-01 -4.416206617016898e-03
7.487200000000000e+10 2.767069374969476e-01 -4.247140432500571e-03
7.492000000000000e+10 2.773868596247981e-01 -4.126510097905690e-03
7.496800000000000e+10 2.779106036047392e-01 -3.945573989777742e-03
7.501600000000000e+10 2.786088708150485e-01 -3.661328580317312e-03
7.506400000000000e+10 2.788099726922106e-01 -3.931836876540040e-03
7.511200000000000e+10 2.792964451939306e-01 -3.968144457430135e-03
7.516000000000000e+10 2.792541119352148e-01 -4.022355090186437e-03
7.520800000000000e+10 2.795363292370297e-01 -4.071438672741299e-03
7.525600000000000e+10 2.796246156354012e-01 -3.979511418955561e-03
7.530400000000000e+10 2.795901694782101e-01 -4.178607133312109e-03
7.535200000000000e+10 2.798690292695389e-01 -4.027335495385041e-03
7.540000000000000e+10 2.798144633232580e-01 -3.739797881204328e-03
7.544800000000000e+10 2.801081337106720e-01 -3.681102928387781e-03
7.549600000000000e+10 2.805913992455503e-01 -3.587183786877053e-03
7.554400000000000e+10 2.808027810570790e-01 -3.357874501641231e-03
7.559200000000000e+10 2.807132003439335e-01 -3.273340165767248e-03
7.564000000000000e+10 2.811601781993023e-01 -3.335345329017670e-03
7.568800000000000e+10 2.809238246833134e-01 -3.357918406656851e-03
7.573600000000000e+10 2.807979035285257e-01 -3.156895877303410e-03
7.578400000000000e+10 2.809856218819300e-01 -3.129565076388444e-03
7.583200000000000e+10 2.812384797546296e-01 -3.061204483349195e-03
7.588000000000000e+10 2.810957875721654e-01 -2.839518102350541e-03
7.592800000000000e+10 2.815346657813967e-01 -2.762067107211574e-03
7.597600000000000e+10 2.818124238408429e-01 -3.025316634888988e-03
7.602400000000000e+10 2.819689017918228e-01 -2.949250527501739e-03
7.607200000000000e+10 2.820654245461544e-01 -2.854454024621454e-03
7.612000000000000e+10 2.823650608604494e-01 -2.977716319771280e-03
7.616800000000000e+10 2.824062383313554e-01 -3.025171123895109e-03
7.621600000000000e+10 2.826005505212843e-01 -3.220601120030095e-03
7.626400000000000e+10 2.829068801424810e-01 -3.462996337159681e-03
7.631200000000000e+10 2.831708867455147e-01 -3.422029610729588e-03
7.636000000000000e+10 2.830595411186630e-01 -3.215128058508938e-03
7.640800000000000e+10 2.831342472307307e-01 -3.559085677103748e-03
7.645600000000000e+10 2.832313662919518e-01 -3.446612236874120e-03
7.650400000000000e+10 2.831342788860164e-01 -3.314097758162019e-03
7.655200000000000e+10 2.830350363226022e-01 -3.491126170176550e-03
7.660000000000000e+10 2.832700271516934e-01 -3.353437489170654e-03
7.664800000000000e+10 2.832049318926865e-01 -3.193304358655829e-03
7.669600000000000e+10 2.832603277703853e-01 -3.418275230028238e-03
7.674400000000000e+10 2.834443025690452e-01 -3.547057135775501e-03
7.679200000000000e+10 2.834602523666154e-01 -3.856468311038526e-03
7.684000000000000e+10 2.830662085048517e-01 -3.931536003308334e-03
7.688800000000000e+10 2.834152685779954e-01 -3.435650894358647e-03
7.693600000000000e+10 2.831108609687799e-01 -3.727757205184492e-03
7.698400000000000e+10 2.831600034912802e-01 -3.597363443744185e-03
7.703200000000000e+10 2.828926475556239e-01 -3.222893310677988e-03
7.708000000000000e+10 2.828124229456445e-01 -3.200313335261918e-03
7.712800000000000e+10 2.824966107693239e-01 -3.135845217558396e-03
7.717600000000000e+10 2.824628443430268e-01 -3.196377593000391e-03
7.722400000000000e+10 2.821168149384783e-01 -3.215750876873558e-03
7.727200000000000e+10 2.825810580835867e-01 -3.266488520483504e-03
7.732000000000000e+10 2.825361991862249e-01 -2.737760368358595e-03
7.736800000000000e+10 2.829398007893434e-01 -3.487103267203383e-03
7.741600000000000e+10 2.829228380583199e-01 -3.247781723548879e-03
7.746400000000000e+10 2.829862560476768e-01 -3.297263474436212e-03
7.751200000000000e+10 2.832278587669230e-01 -3.235681614373753e-03
7.756000000000000e+10 2.830658558656704e-01 -3.197024523800509e-03
7.760800000000000e+10 2.831866807613843e-01 -2.843200917203989e-03
7.765600000000000e+10 2.828019881331726e-01 -2.841588855233716e-03
7.770400000000000e+10 2.831691068546700e-01 -2.584971891249719e-03
7.775200000000000e+10 2.833555249588934e-01 -2.844423514992402e-03
7.780000000000000e+10 2.830280134913231e-01 -2.894704990433066e-03
7.784800000000000e+10 2.831767883760007e-01 -2.760884551531510e-03
7.789600000000000e+10 2.831067716474230e-01 -2.544784765023159e-03
7.794400000000000e+10 2.835257721732404e-01 -2.409528325226041e-03
7.799200000000000e+10 2.837803991216586e-01 -2.450322624555250e-03
7.804000000000000e+10 2.839843119531284e-01 -2.474751200783469e-03
7.808800000000000e+10 2.838927563225156e-01 -2.735496091683999e-03
7.813600000000000e+10 2.837996677182465e-01 -2.402756288118917e-03
7.818400000000000e+10 2.836505548818279e-01 -2.368981053307287e-03
7.823200000000000e+10 2.833783602906705e-01 -2.440261740129776e-03
7.828000000000000e+10 2.833655172642061e-01 -2.912608342813513e-03
7.832800000000000e+10 2.832932712545898e-01 -2.690318634728468e-03
7.837600000000000e+10 2.829971131438887e-01 -2.833011179222575e-03
7.842400000000000e+10 2.825519158277370e-01 -2.948584153126309e-03
7.847200000000000e+10 2.825672017492073e-01 -2.785688327528065e-03
7.852000000000000e+10 2.825882041800079e-01 -2.874397968685928e-03
7.856800000000000e+10 2.827054527229733e-01 -2.722292247447894e-03
7.861600000000000e+10 2.826377359254202e-01 -2.528945771400028e-03
7.866400000000000e+10 2.827812350347864e-01 -2.496541996353342e-03
7.871200000000000e+10 2.828297729377080e-01 -2.300466042160896e-03
7.876000000000000e+10 2.832823563595900e-01 -2.036787928119668e-03
7.880800000000000e+10 2.833424096320328e-01 -2.186554595387268e-03
7.885600000000000e+10 2.832924174401330e-01 -2.129763960369154e-03
7.890400000000000e+10 2.830578353024216e-01 -2.048637712138796e-03
7.895200000000000e+10 2.829234445447691e-01 -2.147120558017986e-03
7.900000000000000e+10 2.824677075769308e-01 -2.338106970180043e-03
7.904800000000000e+10 2.821837137307951e-01 -2.491413839274525e-03
7.909600000000000e+10 2.821948390623641e-01 -2.548332755398062e-03
7.914400000000000e+10 2.819080953415303e-01 -2.533360993739997e-03
7.919200000000000e+10 2.818394181106772e-01 -2.268017965197774e-03
7.924000000000000e+10 2.823057315361041e-01 -2.080577358128183e-03
7.928800000000000e+10 2.827834282885089e-01 -2.090028475408910e-03
7.933600000000000e+10 2.834402013314994e-01 -2.087612827510133e-03
7.938400000000000e+10 2.837717509876685e-01 -1.937287816750307e-03
7.943200000000000e+10 2.838500711714526e-01 -1.792154460611319e-03
7.948000000000000e+10 2.839751027003137e-01 -1.702882559370732e-03
7.952800000000000e+10 2.838956637325305e-01 -1.964624610793239e-03
7.957600000000000e+10 2.832362889738141e-01 -2.033046664341313e-03
7.962400000000000e+10 2.828258289359118e-01 -2.604565472988755e-03
7.967200000000000e+10 2.820666793308735e-01 -2.796045718220223e-03
7.972000000000000e+10 2.818207131142104e-01 -3.136027630076483e-03
7.976800000000000e+10 2.815365041459135e-01 -2.946776122392382e-03
7.981600000000000e+10 2.813392984464060e-01 -2.463131552576817e-03
7.986400000000000e+10 2.823089281498614e-01 -2.481015677180708e-03
7.991200000000000e+10 2.829728470341436e-01 -2.643921673730601e-03
7.996000000000000e+10 2.836468174229659e-01 -2.421376734769068e-03
8.000800000000000e+10 2.842585510026989e-01 -2.478640045515553e-03
8.005600000000000e+10 2.846829573827064e-01 -2.456715604971667e-03
8.010400000000000e+10 2.849090942341324e-01 -2.441244396181460e-03
8.015200000000000e+10 2.851962406001418e-01 -2.237615479019507e-03
8.020000000000000e+10 2.848482288351517e-01 -2.490185924945043e-03
8.024800000000000e+10 2.845386637576842e-01 -2.621632925038573e-03
8.029600000000000e+10 2.842931119689176e-01 -2.646412565208378e-03
8.034400000000000e+10 2.839170239846167e-01 -3.030271285041309e-03
8.039200000000000e+10 2.841489310758070e-01 -3.160018494519094e-03
8.044000000000000e+10 2.844221906321300e-01 -3.458563905678414e-03
8.048800000000000e+10 2.847968156596791e-01 -3.503991440599646e-03
8.053600000000000e+10 2.849888008871835e-01 -3.497165843458611e-03
8.058400000000000e+10 2.858855967642894e-01 -3.414845186627208e-03
8.063200000000000e+10 2.861274639958175e-01 -3.280602483520407e-03
8.068000000000000e+10 2.864037569968950e-01 -2.867788746222932e-03
8.072800000000000e+10 2.862861322999907e-01 -2.875582877047388e-03
8.077600000000000e+10 2.857035826803973e-01 -3.044069390105124e-03
8.082400000000000e+10 2.848679677107316e-01 -3.153786385558842e-03
8.087200000000000e+10 2.844636303462796e-01 -3.141371426987832e-03
8.092000000000000e+10 2.836185087855417e-01 -3.121535970326466e-03
8.096800000000000e+10 2.832871062793528e-01 -3.135857450144698e-03
8.101600000000000e+10 2.828601859219116e-01 -3.001092591327074e-03
8.106400000000000e+10 2.836238850213229e-01 -2.911488785235520e-03
8.111200000000000e+10 2.845122928968916e-01 -2.569248173708107e-03
8.116000000000000e+10 2.852514071105300e-01 -2.812045881685436e-03
8.120800000000000e+10 2.857978370054732e-01 -3.008165824512207e-03
8.125600000000000e+10 2.859844453690268e-01 -2.442324222101112e-03
8.130400000000000e+10 2.858632234251583e-01 -2.291017624033043e-03
8.135200000000000e+10 2.856493192820063e-01 -2.403977408229179e-03
8.140000000000000e+10 2.853060837271270e-01 -3.003699698824548e-03
8.144800000000000e+10 2.842385833012366e-01 -3.056659749348138e-03
8.149600000000000e+10 2.831362970953276e-01 -3.060658828340017e-03
8.154400000000000e+10 2.831533552598620e-01 -2.575301727169779e-03
8.159200000000000e+10 2.834878038148431e-01 -2.536563840396336e-03
8.164000000000000e+10 2.830965566199818e-01 -1.897383436816508e-03
8.168800000000000e+10 2.835136098230151e-01 -1.507047753981583e-03
8.173600000000000e+10 2.846900594097128e-01 -1.839142742419300e-03
8.178400000000000e+10 2.855779124920481e-01 -1.565092048582190e-03
8.183200000000000e+10 2.862921327758827e-01 -1.561042697594063e-03
8.188000000000000e+10 2.864377311431112e-01 -1.092412312503670e-03
8.192800000000000e+10 2.866578854802487e-01 -1.334786529049506e-03
8.197600000000000e+10 2.863325798857744e-01 -1.410803789002675e-03
8.202400000000000e+10 2.860424461439405e-01 -1.429468402226236e-03
8.207200000000000e+10 2.855987372955942e-01 -1.937543631986198e-03
8.212000000000000e+10 2.855405564310318e-01 -1.967536061875473e-03
8.216800000000000e+10 2.855417616844918e-01 -1.764875000860142e-03
8.221600000000000e+10 2.857393924115699e-01 -1.372206257524869e-03
8.226400000000000e+10 2.862169812068214e-01 -1.360011772790564e-03
8.231200000000000e+10 2.869139092434182e-01 -1.402024675244155e-03
8.236000000000000e+10 2.877973289957633e-01 -1.137209228121956e-03
8.240800000000000e+10 2.882545953348131e-01 -1.264453308139603e-03
8.245600000000000e+10 2.889136246909179e-01 -8.529812254550843e-04
8.250400000000000e+10 2.887562302573489e-01 -8.735868100990518e-04
8.255200000000000e+10 2.886725021803146e-01 -7.858978671021154e-04
8.260000000000000e+10 2.876770738900146e-01 -1.022585425697394e-03
8.264800000000000e+10 2.872131645457394e-01 -7.238131251074321e-04
8.269600000000000e+10 2.866963593843073e-01 -6.748403654180559e-04
8.274400000000000e+10 2.862623907084357e-01 -6.605238433611181e-04
8.279200000000000e+10 2.861775158049789e-01 -4.963360962442074e-04
8.284000000000000e+10 2.862635200164872e-01 9.996010063160629e-05
8.288800000000000e+10 2.868312498098347e-01 2.788598905981649e-04
8.293600000000000e+10 2.874946554089245e-01 5.952875638757855e-04
8.298400000000000e+10 2.880924827007719e-01 5.392721678322241e-04
8.303200000000000e+10 2.887654390018885e-01 5.693073435510893e-04
8.308000000000000e+10 2.891909092934265e-01 6.383312503273146e-04
8.312800000000000e+10 2.894717768118408e-01 5.041670674115304e-04
8.317600000000000e+10 2.893345700322100e-01 -3.571838145124255e-05
8.322400000000000e+10 2.893992857586365e-01 -2.306828374180284e-04
8.327200000000000e+10 2.889654396750272e-01 -3.034029214269390e-04
8.332000000000000e+10 2.882208704879953e-01 -4.142476242545893e-04
8.336800000000000e+10 2.886387524644170e-01 2.413710396456128e-05
8.341600000000000e+10 2.891013166788957e-01 3.954673908661062e-04
8.346400000000000e+10 2.894546505797186e-01 1.109464559350982e-04
8.351200000000000e+10 2.896096116404610e-01 3.675692876265516e-04
8.356000000000000e+10 2.902741790823241e-01 6.808586905014835e-04
8.360800000000000e+10 2.908496600500024e-01 1.090194565575626e-03
8.365600000000000e+10 2.916121035284257e-01 1.392539414505909e-03
8.370400000000000e+10 2.918166132728531e-01 1.389313360768209e-03
8.375200000000000e+10 2.918891154816404e-01 1.321909764063342e-03
8.380000000000000e+10 2.919126973792629e-01 1.054871476547210e-03
8.384800000000000e+10 2.915231042527983e-01 7.273161702603895e-04
8.389600000000000e+10 2.909609617426241e-01 5.652212695575258e-04
8.394400000000000e+10 2.906648888908226e-01 4.578014987587448e-04
8.399200000000000e+10 2.904319178597924e-01 6.461436923712271e-04
8.404000000000000e+10 2.902873179461959e-01 8.883001031222732e-04
8.408800000000000e+10 2.902286222500679e-01 9.861377034207665e-04
8.413600000000000e+10 2.903747203917459e-01 1.081819396572028e-03
8.418400000000000e+10 2.906766827400490e-01 1.486266465277722e-03
8.423200000000000e+10 2.911289132823936e-01 1.473563392830886e-03
8.428000000000000e+10 2.913509062543851e-01 1.757560259842640e-03
8.432800000000000e+10 2.916909583518641e-01 1.768547496164033e-03
8.437600000000000e+10 2.920038910486072e-01 1.413244230799076e-03
8.442400000000000e+10 2.919523166677940e-01 1.583661584523576e-03
8.447200000000000e+10 2.914561349922185e-01 7.922744279056842e-04
8.452000000000000e+10 2.912731192992543e-01 6.929983311139263e-04
8.456800000000000e+10 2.912512338260260e-01 8.343075030670976e-04
8.461600000000000e+10 2.908462826097795e-01 7.963961273487575e-04
8.466400000000000e+10 2.908918579120611e-01 6.754990779303779e-04
8.471200000000000e+10 2.914270528317822e-01 1.074452862236153e-03
8.476000000000000e+10 2.914045564159120e-01 1.266083311698046e-03
8.480800000000000e+10 2.920193637746906e-01 1.509025625272144e-03
8.485600000000000e+10 2.927160352821888e-01 1.727159827396606e-03
8.490400000000000e+10 2.934328669181577e-01 1.727661269399701e-03
8.495200000000000e+10 2.938883108480540e-01 1.954398291623235e-03
8.500000000000000e+10 2.941733849401699e-01 2.171805068163242e-03
8.504800000000000e+10 2.940355550138625e-01 1.914701845512380e-03
8.509600000000000e+10 2.934695472738949e-01 2.207240863064017e-03
8.514400000000000e+10 2.925648762410211e-01 1.855350201185464e-03
8.519200000000000e+10 2.927837808655336e-01 2.288051217794520e-03
8.524000000000000e+10 2.924604644821683e-01 2.002635030130053e-03
8.528800000000000e+10 2.921929384527877e-01 2.656842543716623e-03
8.533600000000000e+10 2.921711032432326e-01 2.715912113140660e-03
8.538400000000000e+10 2.922903212498941e-01 1.957550514614905e-03
8.543200000000000e+10 2.925390437830045e-01 1.957752520891488e-03
8.548000000000000e+10 2.933351696875629e-01 2.148459378865290e-03
8.552800000000000e+10 2.934590698122744e-01 1.833798378063270e-03
8.557600000000000e+10 2.941956037080325e-01 2.039076032202960e-03
8.562400000000000e+10 2.945000055847414e-01 2.222936556474882e-03
8.567200000000000e+10 2.946602831277884e-01 2.174773218921058e-03
8.572000000000000e+10 2.942627458359993e-01 1.934204152535900e-03
8.576800000000000e+10 2.939401811522278e-01 1.597663237739156e-03
8.581600000000000e+10 2.930537345078289e-01 1.371231647873070e-03
8.586400000000000e+10 2.929125685590593e-01 1.601632445173362e-03
8.591200000000000e+10 2.922272356893308e-01 1.308296254145935e-03
8.596000000000000e+10 2.920091503367520e-01 1.573228372160428e-03
8.600800000000000e+10 2.916589837802081e-01 1.535199687674007e-03
8.605600000000000e+10 2.916360469516402e-01 1.633087311497480e-03
8.610400000000000e+10 2.918583694333693e-01 1.790932423147652e-03
8.615200000000000e+10 2.924162050894457e-01 1.800068555982980e-03
8.620000000000000e+10 2.927196650604394e-01 1.591941350623674e-03
8.624800000000000e+10 2.934638047934389e-01 2.082892907895510e-03
8.629600000000000e+10 2.941249487585738e-01 2.736460825494506e-03
8.634400000000000e+10 2.930723390155220e-01 2.873460866907936e-03
8.639200000000000e+10 2.945266196493971e-01 2.911261278206908e-03
8.644000000000000e+10 2.934808938998568e-01 1.722945405916172e-03
8.648800000000000e+10 2.936923896070140e-01 2.463083460307473e-03
8.653600000000000e+10 2.932689199698880e-01 2.069304264842042e-03
8.658400000000000e+10 2.929260337502704e-01 2.644745647953524e-03
8.663200000000000e+10 2.930569977624077e-01 2.145286417259298e-03
8.668000000000000e+10 2.937117346278055e-01 2.300133514417217e-03
8.672800000000000e+10 2.936435700437740e-01 2.812203355892523e-03
8.677600000000000e+10 2.932649136923901e-01 3.016773732241864e-03
8.682400000000000e+10 2.941285078926580e-01 3.176880911411364e-03
8.687200000000000e+10 2.945363779789520e-01 3.225647873258766e-03
8.692000000000000e+10 2.955147453739303e-01 3.465816395755477e-03
8.696800000000000e+10 2.965475059397928e-01 3.143324232211852e-03
8.701600000000000e+10 2.971016016007498e-01 3.622170047021919e-03
8.706400000000000e+10 2.970920022963048e-01 3.261298244524243e-03
8.711200000000000e+10 2.966421023039596e-01 3.825268489437953e-03
8.716000000000000e+10 2.956961463501370e-01 2.893247190252977e-03
8.720800000000000e+10 2.948002352338110e-01 3.260439822144533e-03
8.725600000000000e+10 2.944101620480543e-01 3.110937198989664e-03
8.730400000000000e+10 2.935889215736409e-01 2.888037280315036e-03
8.735200000000000e+10 2.936655012641718e-01 2.419299638074275e-03
8.740000000000000e+10 2.940913094175971e-01 2.459126151123776e-03
8.744800000000000e+10 2.941518484496248e-01 2.508027869847794e-03
8.749600000000000e+10 2.944581291383864e-01 2.894795908876417e-03
8.754400000000000e+10 2.945452836470892e-01 3.098579615208285e-03
8.759200000000000e+10 2.950787205921825e-01 2.925781402704471e-03
8.764000000000000e+10 2.953614078123475e-01 3.157795401228214e-03
8.768800000000000e+10 2.957452899006432e-01 2.837717691550258e-03
8.773600000000000e+10 2.955499376632575e-01 3.160885714547593e-03
8.778400000000000e+10 2.951062702327189e-01 2.911326927281601e-03
8.783200000000000e+10 2.946316601735182e-01 2.701922998210854e-03
8.788000000000000e+10 2.944847472475915e-01 2.671346581167050e-03
8.792800000000000e+10 2.940951394701127e-01 2.614902529650079e-03
8.797600000000000e+10 2.939145945824696e-01 2.555834491496339e-03
8.802400000000000e+10 2.942208525234236e-01 3.167356406126815e-03
8.807200000000000e+10 2.947620099598394e-01 3.053736203630798e-03
8.812000000000000e+10 2.948960318142480e-01 3.883845412393835e-03
8.816800000000000e+10 2.956528695642371e-01 2.983288301990926e-03
8.821600000000000e+10 2.967255188210616e-01 3.258556029387760e-03
8.826400000000000e+10 2.971603695528779e-01 3.684112116276958e-03
8.831200000000000e+10 2.976260429722112e-01 4.118815727989258e-03
8.836000000000000e+10 2.978974658602858e-01 3.593037324888341e-03
8.840800000000000e+10 2.976530351527393e-01 3.651287513462258e-03
8.845600000000000e+10 2.976322162915737e-01 3.463644454355545e-03
8.850400000000000e+10 2.972632112344332e-01 3.747558696614869e-03
8.855200000000000e+10 2.972887510090253e-01 3.562190949547269e-03
8.860000000000000e+10 2.953888859577541e-01 3.819414838212472e-03
8.864800000000000e+10 2.929810302383645e-01 6.504022229928222e-03
8.869600000000000e+10 2.958574938654739e-01 4.475604777570460e-03
8.874400000000000e+10 2.968650978406009e-01 3.443248691803876e-03
8.879200000000000e+10 2.975356211277979e-01 3.381311586461206e-03
8.884000000000000e+10 2.981751163933116e-01 4.154294200284145e-03
8.888800000000000e+10 2.964021120076116e-01 5.821435933879168e-03
8.893600000000000e+10 2.987214822836552e-01 4.921201105136992e-03
8.898400000000000e+10 2.995521252598364e-01 3.969546540865124e-03
8.903200000000000e+10 2.998036507607975e-01 3.728609015950660e-03
8.908000000000000e+10 2.999553411056193e-01 3.753569931101692e-03
8.912800000000000e+10 2.997181142264772e-01 3.332483144603407e-03
8.917600000000000e+10 2.993603151541754e-01 3.232320104966647e-03
8.922400000000000e+10 2.992983931266869e-01 3.621002583511400e-03
8.927200000000000e+10 2.988039748881772e-01 3.713956524250974e-03
8.932000000000000e+10 2.988543372432529e-01 3.756291603045806e-03
8.936800000000000e+10 2.992050997538240e-01 3.813842804428334e-03
8.941600000000000e+10 3.000699173233535e-01 4.156900520972982e-03
8.946400000000000e+10 3.001470283577220e-01 3.846108711779524e-03
8.951200000000000e+10 3.008530750914208e-01 4.049738175751011e-03
8.956000000000000e+10 3.016956107327963e-01 4.074748074891462e-03
8.960800000000000e+10 3.019667126068848e-01 4.020231883018556e-03
8.965600000000000e+10 3.026979308517445e-01 3.848406928407473e-03
8.970400000000000e+10 3.024033434121969e-01 3.857469158955223e-03
8.975200000000000e+10 3.025829644156056e-01 3.538402083106612e-03
8.980000000000000e+10 3.025022134673345e-01 3.545444965748158e-03
8.984800000000000e+10 3.023185315979270e-01 3.559914164728946e-03
8.989600000000000e+10 3.029627256244162e-01 3.192033555432051e-03
8.994400000000000e+10 3.021455000380201e-01 3.356626626146238e-03
8.999200000000000e+10 3.022103964535687e-01 3.933567073012334e-03
9.004000000000000e+10 3.021645545496816e-01 4.301809451039873e-03
9.008800000000000e+10 3.033651422059849e-01 4.625989525636697e-03
9.013600000000000e+10 3.045442539940424e-01 4.800509147155076e-03
9.018400000000000e+10 3.048721059927121e-01 4.755480789484187e-03
9.023200000000000e+10 3.051988997428104e-01 4.752177373665537e-03
9.028000000000000e+10 3.055583003324747e-01 4.328070660823339e-03
9.032800000000000e+10 3.055363881190367e-01 4.258593824180579e-03
9.037600000000000e+10 3.055774552236930e-01 3.908609158938232e-03
9.042400000000000e+10 3.055275734527582e-01 4.029493501074470e-03
9.047200000000000e+10 3.053451460253139e-01 3.878542979596110e-03
9.052000000000000e+10 3.047983494300077e-01 3.767984260494573e-03
9.056800000000000e+10 3.039609310766904e-01 3.863411470345305e-03
9.061600000000000e+10 3.044597038257630e-01 3.742527762074348e-03
9.066400000000000e+10 3.039535749763372e-01 4.010573310187493e-03
9.071200000000000e+10 3.040610001642269e-01 4.283003788298743e-03
9.076000000000000e+10 3.045641833466657e-01 4.545864469410564e-03
9.080800000000000e+10 3.048600481284218e-01 4.771975613864316e-03
9.085600000000000e+10 3.051880721317393e-01 4.576121555594086e-03
9.090400000000000e+10 3.056385425845076e-01 4.152640757484921e-03
9.095200000000000e+10 3.056911057052323e-01 4.202174860305261e-03
9.100000000000000e+10 3.057427670302817e-01 3.756353709089948e-03
9.104800000000000e+10 3.054919239919622e-01 3.675752857867540e-03
9.109600000000000e+10 3.049765330412449e-01 3.524585930486595e-03
9.114400000000000e+10 3.045003711453306e-01 3.221166884551737e-03
9.119200000000000e+10 3.044878263388940e-01 3.628268646609320e-03
9.124000000000000e+10 3.037261812038091e-01 3.420051518622019e-03
9.128800000000000e+10 3.039730718634314e-01 3.857146498351547e-03
9.133600000000000e+10 3.037894952723385e-01 3.790027557551975e-03
9.138400000000000e+10 3.044376405975572e-01 4.142470581787597e-03
9.143200000000000e+10 3.048591361902967e-01 4.538521854926303e-03
9.148000000000000e+10 3.054049317088395e-01 4.571712842449161e-03
9.152800000000000e+10 3.063300229669385e-01 4.447797052133769e-03
9.157600000000000e+10 3.068106133302235e-01 4.560139525687140e-03
9.162400000000000e+10 3.072111734026108e-01 4.474330351360850e-03
9.167200000000000e+10 3.071210717318796e-01 4.074369080433820e-03
9.172000000000000e+10 3.067101389202170e-01 3.546854730874429e-03
9.176800000000000e+10 3.060885084826799e-01 3.042169798354631e-03
9.181600000000000e+10 3.056906276624453e-01 2.882716878599749e-03
9.186400000000000e+10 3.049668987295515e-01 2.564804035926845e-03
9.191200000000000e+10 3.047211077826401e-01 2.568711441952561e-03
9.196000000000000e+10 3.044381773072615e-01 2.620625055106245e-03
9.200800000000000e+10 3.044884960163467e-01 2.765687835994561e-03
9.205600000000000e+10 3.044051146992444e-01 2.750393802869469e-03
9.210400000000000e+10 3.050688870080386e-01 3.172171888065686e-03
9.215200000000000e+10 3.055245479823376e-01 3.368577137459259e-03
9.220000000000000e+10 3.062303266320556e-01 3.399428520248726e-03
9.224800000000000e+10 3.063636047658327e-01 3.212052598374806e-03
9.229600000000000e+10 3.066385854398392e-01 3.338891617116725e-03
9.234400000000000e+10 3.065252290869957e-01 3.065382984083992e-03
9.239200000000000e+10 3.063493760171909e-01 3.289448599271109e-03
9.244000000000000e+10 3.055452312886796e-01 3.037461191545663e-03
9.248800000000000e+10 3.043735167137981e-01 2.817138354454127e-03
9.253600000000000e+10 3.037445938013779e-01 2.948870351405338e-03
9.258400000000000e+10 3.031018594022676e-01 2.910674777840504e-03
9.263200000000000e+10 3.027434941387331e-01 3.024638393788670e-03
9.268000000000000e+10 3.023922308604293e-01 3.118713854025123e-03
9.272800000000000e+10 3.026708290034251e-01 3.548406318024464e-03
9.277600000000000e+10 3.031685095045790e-01 4.113419083366654e-03
9.282400000000000e+10 3.036815439210496e-01 4.254040323098574e-03
9.287200000000000e+10 3.040392579860542e-01 4.394073846831569e-03
9.292000000000000e+10 3.045111240844544e-01 4.447132483137779e-03
9.296800000000000e+10 3.046947942587948e-01 4.404306256184748e-03
9.301600000000000e+10 3.045814584575176e-01 4.491621749704634e-03
9.306400000000000e+10 3.046798501125175e-01 5.067205778717481e-03
9.311200000000000e+10 3.036408621277326e-01 4.708524025101815e-03
9.316000000000000e+10 3.035471035929689e-01 4.859369573156034e-03
9.320800000000000e+10 3.025421259268252e-01 4.940246013106335e-03
9.325600000000000e+10 3.022422462735983e-01 5.037373291770356e-03
9.330400000000000e+10 3.018256992887461e-01 5.019968202432248e-03
9.335200000000000e+10 3.018993404154011e-01 5.234863175347610e-03
9.340000000000000e+10 3.019265117694252e-01 5.410539244748028e-03
9.344800000000000e+10 3.023807980979989e-01 6.211523318418366e-03
9.349600000000000e+10 3.027276458425502e-01 6.126273767277854e-03
9.354400000000000e+10 3.037559301739834e-01 6.831689350843956e-03
9.359200000000000e+10 3.044189365853375e-01 7.042359615981257e-03
9.364000000000000e+10 3.048979052232206e-01 7.094249953716199e-03
9.368800000000000e+10 3.053800486924737e-01 7.127575257296062e-03
9.373600000000000e+10 3.055024821512938e-01 7.060396969127936e-03
9.378400000000000e+10 3.050981209481006e-01 6.706840701535416e-03
9.383200000000000e+10 3.047921547368213e-01 6.835124221074977e-03
9.388000000000000e+10 3.043006425923585e-01 6.905434516330882e-03
9.392800000000000e+10 3.038650440029121e-01 7.130533289579872e-03
9.397600000000000e+10 3.032810672152368e-01 6.924014069362698e-03
9.402400000000000e+10 3.032225928733742e-01 6.925094641174764e-03
9.407200000000000e+10 3.033501800540710e-01 7.253371041850767e-03
9.412000000000000e+10 3.036981730958850e-01 7.308141122585646e-03
9.416800000000000e+10 3.037773166600182e-01 7.354002737865115e-03
9.421600000000000e+10 3.041488077418691e-01 7.147471784686007e-03
9.426400000000000e+10 3.047566711343781e-01 7.292487557672651e-03
9.431200000000000e+10 3.050324229007855e-01 7.037580317375921e-03
9.436000000000000e+10 3.054790315302935e-01 7.222669665082200e-03
9.440800000000000e+10 3.057874211783458e-01 7.035119581093087e-03
9.445600000000000e+10 3.054385882927945e-01 7.113842210591290e-03
9.450400000000000e+10 3.050920261791896e-01 6.706447712807393e-03
9.455200000000000e+10 3.040947211880159e-01 6.691540190455592e-03
9.460000000000000e+10 3.037698643937609e-01 6.688843476044260e-03
9.464800000000000e+10 3.030631146544762e-01 6.601767198034803e-03
9.469600000000000e+10 3.027565525404946e-01 6.788776541749017e-03
9.474400000000000e+10 3.024186908218955e-01 6.958319208673682e-03
9.479200000000000e+10 3.025974982398740e-01 6.894056380824266e-03
9.484000000000000e+10 3.027873589069000e-01 7.380089035440155e-03
9.488800000000000e+10 3.030720736644398e-01 7.670763980715387e-03
9.493600000000000e+10 3.031372816358151e-01 7.810958361636958e-03
9.498400000000000e+10 3.035199106271709e-01 8.136445240935940e-03
9.503200000000000e+10 3.035319220222238e-01 8.459610474590304e-03
9.508000000000000e+10 3.046269142739491e-01 7.647479749311121e-03
9.512800000000000e+10 3.047538526321566e-01 7.509403426136553e-03
9.517600000000000e+10 3.044506126057618e-01 7.067905011515540e-03
9.522400000000000e+10 3.045711432868255e-01 6.939313842518913e-03
9.527200000000000e+10 3.044729950993837e-01 6.814637269267904e-03
9.532000000000000e+10 3.041245256429914e-01 6.696663777516220e-03
9.536800000000000e+10 3.039225774896788e-01 6.631172194290413e-03
9.541600000000000e+10 3.040050556089058e-01 6.753391807475972e-03
9.546400000000000e+10 3.039446958700218e-01 6.865387223912008e-03
9.551200000000000e+10 3.039207676408023e-01 6.813152246482494e-03
9.556000000000000e+10 3.042413044920901e-01 7.029426918194547e-03
9.560800000000000e+10 3.047140979722830e-01 7.027295378446487e-03
9.565600000000000e+10 3.051496918311766e-01 6.906025524598822e-03
9.570400000000000e+10 3.059273575399376e-01 7.429225675140220e-03
9.575200000000000e+10 3.064497871048149e-01 7.579953933222297e-03
9.580000000000000e+10 3.069567714928489e-01 7.616978689134789e-03
9.584800000000000e+10 3.068239593533847e-01 7.198491799937176e-03
9.589600000000000e+10 3.073144134469218e-01 7.559348373937659e-03
9.594400000000000e+10 3.071320437405493e-01 7.420564892968917e-03
9.599200000000000e+10 3.070600649641589e-01 7.451180117815999e-03
9.604000000000000e+10 3.070467479173329e-01 7.736827505287297e-03
9.608800000000000e+10 3.066898000822556e-01 7.538483066102048e-03
9.613600000000000e+10 3.068941939037043e-01 8.040558250912004e-03
9.618400000000000e+10 3.066055668502415e-01 8.196781911999986e-03
9.623200000000000e+10 3.067873685591273e-01 8.049442802684761e-03
9.628000000000000e+10 3.069609812826052e-01 8.260467744490791e-03
9.632800000000000e+10 3.075283710640899e-01 8.116010998760685e-03
9.637600000000000e+10 3.078541958319915e-01 8.178578581835627e-03
9.642400000000000e+10 3.084978827765599e-01 8.030359365213156e-03
9.647200000000000e+10 3.087594606294940e-01 7.960192264097807e-03
9.652000000000000e+10 3.092010279964306e-01 7.643417495012454e-03
9.656800000000000e+10 3.087681475962488e-01 7.932333466555691e-03
9.661600000000000e+10 3.099725473809593e-01 7.808187692456362e-03
9.666400000000000e+10 3.088489519371740e-01 7.275579939898821e-03
9.671200000000000e+10 3.086295481862358e-01 7.075902246336750e-03
9.676000000000000e+10 3.083424143388127e-01 6.870036511575844e-03
9.680800000000000e+10 3.081794822681455e-01 6.899493843049597e-03
9.685600000000000e+10 3.080419822296870e-01 7.316477126210540e-03
9.690400000000000e+10 3.079604285403993e-01 7.243752174422444e-03
9.695200000000000e+10 3.083121441277558e-01 7.581315580351616e-03
9.700000000000000e+10 3.087968645217652e-01 7.672088223605472e-03
9.704800000000000e+10 3.090963143496141e-01 7.613527954664879e-03
9.709600000000000e+10 3.093257619614690e-01 8.018069680422615e-03
9.714400000000000e+10 3.097983856115563e-01 7.979063377990725e-03
9.719200000000000e+10 3.101781710910677e-01 8.456041488233318e-03
9.724000000000000e+10 3.109019730501431e-01 8.396627394099025e-03
9.728800000000000e+10 3.104590613390198e-01 8.242901026236933e-03
9.733600000000000e+10 3.108425910209019e-01 8.580955013856639e-03
9.738400000000000e+10 3.107170931348407e-01 8.449230043904823e-03
9.743200000000000e+10 3.107144692583973e-01 8.521744828470908e-03
9.748000000000000e+10 3.105133230888734e-01 8.452706038424275e-03
9.752800000000000e+10 3.101789018998899e-01 8.218639983596327e-03
9.757600000000000e+10 3.105806888046988e-01 8.122632277860498e-03
9.762400000000000e+10 3.102308448653806e-01 7.960266711312225e-03
9.767200000000000e+10 3.105116844022501e-01 8.163233214990904e-03
9.772000000000000e+10 3.106716763951745e-01 7.879112000380342e-03
9.776800000000000e+10 3.111826316541876e-01 7.541397778980489e-03
9.781600000000000e+10 3.107463761318910e-01 7.142046422578935e-03
9.786400000000000e+10 3.108607805472532e-01 7.436494036846456e-03
9.791200000000000e+10 3.107896066730830e-01 7.747683169949936e-03
9.796000000000000e+10 3.116926424642247e-01 8.016057803767893e-03
9.800800000000000e+10 3.118843184994880e-01 7.609627699511848e-03
9.805600000000000e+10 3.118421819435343e-01 7.411578320556863e-03
9.810400000000000e+10 3.115024301531139e-01 7.178360718256087e-03
9.815200000000000e+10 3.115223505986277e-01 7.192666443197536e-03
9.820000000000000e+10 3.109083357249470e-01 6.982358313805846e-03
9.824800000000000e+10 3.109565731656078e-01 7.650081306374869e-03
9.829600000000000e+10 3.106732135440853e-01 7.511495157363970e-03
9.834400000000000e+10 3.108269293931490e-01 7.795996979660035e-03
9.839200000000000e+10 3.108981801132369e-01 7.336675160196370e-03
9.844000000000000e+10 3.110643199062311e-01 7.131380869602184e-03
9.848800000000000e+10 3.106728677050032e-01 7.589214557367494e-03
9.853600000000000e+10 3.105291809686513e-01 7.740010814663542e-03
9.858400000000000e+10 3.109070054236112e-01 6.979355809375586e-03
9.863200000000000e+10 3.116220183316183e-01 7.756667526808727e-03
9.868000000000000e+10 3.122629630448090e-01 7.663029492289701e-03
9.872800000000000e+10 3.124730012715608e-01 7.471171951551323e-03
9.877600000000000e+10 3.124790483766597e-01 7.330123522751358e-03
9.882400000000000e+10 3.130789570638733e-01 6.397227869094756e-03
9.887200000000000e+10 3.127920402892628e-01 7.114401384718787e-03
9.892000000000000e+10 3.131950728537483e-01 6.943905406237356e-03
9.896800000000000e+10 3.134974358164475e-01 6.812541856452590e-03
9.901600000000000e+10 3.136776688040658e-01 6.767150747407233e-03
9.906400000000000e+10 3.134069525422691e-01 6.596762987359627e-03
9.911200000000000e+10 3.134166484331389e-01 5.544095948051228e-03
9.916000000000000e+10 3.135386583245456e-01 6.446827280590966e-03
9.920800000000000e+10 3.140744488821479e-01 6.551969533921598e-03
9.925600000000000e+10 3.140077927031777e-01 6.345124602508174e-03
9.930400000000000e+10 3.141643328354427e-01 6.329410105151114e-03
9.935200000000000e+10 3.142279281711293e-01 6.448209823626380e-03
9.940000000000000e+10 3.141849883844102e-01 6.600674314426240e-03
9.944800000000000e+10 3.139711007596451e-01 5.920997169585111e-03
9.949600000000000e+10 3.139955908922450e-01 6.279746226944505e-03
9.954400000000000e+10 3.136014546738988e-01 6.114632039359157e-03
9.959200000000000e+10 3.135027856175926e-01 6.105655133871682e-03
9.964000000000000e+10 3.130856047837158e-01 6.451071326746104e-03
9.968800000000000e+10 3.129389687994302e-01 6.752874691998086e-03
9.973600000000000e+10 3.126845295041660e-01 6.385252574100710e-03
9.978400000000000e+10 3.128888144421642e-01 6.367642790786177e-03
9.983200000000000e+10 3.126624113854158e-01 6.924623885107376e-03
9.988000000000000e+10 3.127336363897060e-01 6.779789988184579e-03
9.992800000000000e+10 3.131850838874690e-01 7.073083286836469e-03
9.997600000000000e+10 3.132616378723107e-01 7.455689547718327e-03
1.000240000000000e+11 3.130112257688012e-01 7.237644669835209e-03
1.000720000000000e+11 3.133120298062710e-01 7.627510754370678e-03
1.001200000000000e+11 3.133025669240675e-01 7.376742546283253e-03
1.001680000000000e+11 3.127385961796365e-01 7.138171586314029e-03
1.002160000000000e+11 3.125835693183809e-01 7.034395974164692e-03
1.002640000000000e+11 3.125735176664070e-01 6.817926193493391e-03
1.003120000000000e+11 3.127763441702684e-01 6.785898611898840e-03
1.003600000000000e+11 3.119076822185463e-01 6.829585458407420e-03
1.004080000000000e+11 3.128344729926812e-01 7.290094709417088e-03
1.004560000000000e+11 3.129337485853307e-01 6.927327260634537e-03
1.005040000000000e+11 3.124715763388374e-01 7.366320596615396e-03
1.005520000000000e+11 3.128551153335699e-01 6.852308119570668e-03
1.006000000000000e+11 3.132643178754818e-01 7.468846589888761e-03
1.006480000000000e+11 3.135246441147118e-01 6.824209715054885e-03
1.006960000000000e+11 3.148000595993030e-01 7.664698858138510e-03
1.007440000000000e+11 3.136020320715728e-01 7.674502025879341e-03
1.007920000000000e+11 3.139803549716644e-01 7.466106372732987e-03
1.008400000000000e+11 3.139027229652695e-01 7.396858575160816e-03
1.008880000000000e+11 3.140920222008012e-01 7.711154511261063e-03
1.009360000000000e+11 3.135512369997049e-01 7.388747982002631e-03
1.009840000000000e+11 3.134510039524216e-01 7.597800976042401e-03
1.010320000000000e+11 3.131572010781563e-01 7.078960779861572e-03
1.010800000000000e+11 3.127073562603911e-01 7.111952298611157e-03
1.011280000000000e+11 3.123572642376272e-01 7.216837274234350e-03
1.011760000000000e+11 3.116755152548563e-01 6.752260104829440e-03
1.012240000000000e+11 3.120729910076608e-01 7.230156523710879e-03
1.012720000000000e+11 3.120651921939367e-01 7.087396411221617e-03
1.013200000000000e+11 3.122526798229797e-01 7.228092571201351e-03
1.013680000000000e+11 3.128536222265010e-01 7.286837684897724e-03
1.014160000000000e+11 3.124949443202994e-01 7.446437160892827e-03
1.014640000000000e+11 3.125775051405372e-01 7.208070456055238e-03
1.015120000000000e+11 3.122497879614800e-01 7.274944091728492e-03
1.015600000000000e+11 3.123957192105257e-01 6.530943596238810e-03
1.016080000000000e+11 3.114912330177705e-01 6.293786210665024e-03
1.016560000000000e+11 3.106049542155459e-01 6.281146535661176e-03
1.017040000000000e+11 3.110826231533706e-01 7.211205903977650e-03
1.017520000000000e+11 3.106524553885688e-01 6.824005457070187e-03
1.018000000000000e+11 3.106415414972455e-01 7.702235990039408e-03
1.018480000000000e+11 3.103718577955424e-01 8.196706230814792e-03
1.018960000000000e+11 3.104725862935458e-01 8.153410434464459e-03
1.019440000000000e+11 3.110302208272278e-01 7.707615624806510e-03
1.019920000000000e+11 3.107428804902608e-01 8.997234216890564e-03
1.020400000000000e+11 3.115943908402398e-01 9.355274598868847e-03
1.020880000000000e+11 3.122315140075426e-01 8.281231771051804e-03
1.021360000000000e+11 3.118913171808900e-01 8.633730540623335e-03
1.021840000000000e+11 3.123288007160878e-01 9.085584309068024e-03
1.022320000000000e+11 3.128352650189181e-01 8.862477659989737e-03
1.022800000000000e+11 3.135156004150200e-01 9.623702965589929e-03
1.023280000000000e+11 3.142505857874975e-01 1.136124173857408e-02
1.023760000000000e+11 3.133171431773967e-01 9.762070394218341e-03
1.024240000000000e+11 3.130876664971044e-01 9.732946507912121e-03
1.024720000000000e+11 3.128972101884349e-01 9.981300148906065e-03
1.025200000000000e+11 3.122325722028580e-01 9.145426641306282e-03
1.025680000000000e+11 3.125753345522350e-01 9.797769768574523e-03
1.026160000000000e+11 3.120270005274294e-01 8.411359353947882e-03
1.026640000000000e+11 3.121502748761939e-01 9.270900104176928e-03
1.027120000000000e+11 3.124622389148218e-01 9.060356224834573e-03
1.027600000000000e+11 3.127173129273425e-01 9.418081639189795e-03
1.028080000000000e+11 3.129351123699855e-01 9.266899697681168e-03
1.028560000000000e+11 3.133624337086322e-01 9.144927604966942e-03
1.029040000000000e+11 3.138120033364640e-01 9.197428736795677e-03
1.029520000000000e+11 3.143817250420712e-01 9.371417273933228e-03
1.030000000000000e+11 3.145169037180010e-01 8.643016466622633e-03
1.030480000000000e+11 3.147937579165477e-01 8.812409119210697e-03
1.030960000000000e+11 3.143040167179308e-01 8.438060177388927e-03
1.031440000000000e+11 3.146006630277214e-01 9.068970044308206e-03
1.031920000000000e+11 3.139332972437217e-01 9.306715402428164e-03
1.032400000000000e+11 3.141044544619471e-01 9.658400569195634e-03
1.032880000000000e+11 3.128496918488684e-01 9.008441557538870e-03
1.033360000000000e+11 3.127618070116873e-01 9.096124133283668e-03
1.033840000000000e+11 3.119477555441874e-01 9.124046508672500e-03
1.034320000000000e+11 3.125318373827705e-01 9.673725287980234e-03
1.034800000000000e+11 3.117111168409052e-01 9.383004739167771e-03
1.035280000000000e+11 3.122793384296468e-01 9.711211027747371e-03
1.035760000000000e+11 3.127878185101300e-01 9.893914411933602e-03
1.036240000000000e+11 3.131791947862799e-01 1.013069110754362e-02
1.036720000000000e+11 3.134955798225850e-01 9.140448716515814e-03
1.037200000000000e+11 3.139536512609380e-01 8.851212874054557e-03
1.037680000000000e+11 3.146913191341186e-01 9.534586947434495e-03
1.038160000000000e+11 3.146998603230086e-01 8.453946488488981e-03
1.038640000000000e+11 3.135669882587216e-01 4.342307896900728e-03
1.039120000000000e+11 3.146021903070811e-01 9.579969056296827e-03
1.039600000000000e+11 3.139853435194707e-01 9.255003970336864e-03
1.040080000000000e+11 3.134022373171264e-01 9.632131795697631e-03
1.040560000000000e+11 3.128218304619263e-01 9.291881426169598e-03
1.041040000000000e+11 3.120123802095621e-01 8.427080546260861e-03
1.041520000000000e+11 3.119723108507833e-01 8.121683742301366e-03
1.042000000000000e+11 3.115559671299026e-01 8.438772330994330e-03
1.042480000000000e+11 3.121862826478162e-01 8.757049562580299e-03
1.042960000000000e+11 3.126176753423227e-01 8.482057619074484e-03
1.043440000000000e+11 3.129560948754556e-01 8.157598780606901e-03
1.043920000000000e+11 3.136549147472749e-01 8.162468257988298e-03
1.044400000000000e+11 3.144154993336045e-01 9.066271980627665e-03
1.044880000000000e+11 3.146244134629873e-01 9.485870571827594e-03
1.045360000000000e+11 3.151191729928292e-01 9.568520786179910e-03
1.045840000000000e+11 3.151680792940350e-01 9.811657685521506e-03
1.046320000000000e+11 3.148583601613907e-01 9.411431327872970e-03
1.046800000000000e+11 3.146580468437872e-01 9.591412031840921e-03
1.047280000000000e+11 3.141213298050783e-01 9.730995512584903e-03
1.047760000000000e+11 3.134664843916233e-01 1.017699193261020e-02
1.048240000000000e+11 3.128248742906855e-01 1.012448799527956e-02
1.048720000000000e+11 3.125804316820259e-01 1.096824045470624e-02
1.049200000000000e+11 3.125372436874780e-01 1.050051263053055e-02
1.049680000000000e+11 3.123509591911866e-01 1.221503157832366e-02
1.050160000000000e+11 3.125334969672878e-01 1.213569077493160e-02
1.050640000000000e+11 3.126274272117777e-01 1.142622104786280e-02
1.051120000000000e+11 3.136548246487778e-01 1.074255276388152e-02
1.051600000000000e+11 3.142317527456687e-01 1.086884576776079e-02
1.052080000000000e+11 3.146391774288027e-01 9.862608055296080e-03
1.052560000000000e+11 3.153950510636087e-01 1.014945941067719e-02
1.053040000000000e+11 3.155654437685263e-01 1.048394589003512e-02
1.053520000000000e+11 3.151280203562775e-01 1.012360740418606e-02
1.054000000000000e+11 3.147935803698718e-01 1.018599633539124e-02
1.054480000000000e+11 3.145966873907906e-01 1.036713637257013e-02
1.054960000000000e+11 3.137851810934059e-01 9.977778252010487e-03
1.055440000000000e+11 3.129861280229716e-01 1.027817269047421e-02
1.055920000000000e+11 3.133148275312767e-01 9.712173456210678e-03
1.056400000000000e+11 3.124212413456768e-01 1.026553590970174e-02
1.056880000000000e+11 3.126748077847064e-01 1.013662508524065e-02
1.057360000000000e+11 3.135490739163140e-01 1.026104786999367e-02
1.057840000000000e+11 3.133302595541582e-01 1.041459870666404e-02
1.058320000000000e+11 3.142111456647172e-01 1.140375401788746e-02
1.058800000000000e+11 3.148303969858839e-01 1.082915549593649e-02
1.059280000000000e+11 3.152650426041683e-01 1.082193036965461e-02
1.059760000000000e+11 3.156991406022915e-01 1.033034387930279e-02
1.060240000000000e+11 3.157001328408237e-01 1.050935369184336e-02
1.060720000000000e+11 3.155269574475654e-01 1.077836023045121e-02
1.061200000000000e+11 3.145412842047197e-01 1.024865513455121e-02
1.061680000000000e+11 3.147424362246387e-01 1.041737372764182e-02
1.062160000000000e+11 3.134987076656589e-01 1.047728631199972e-02
1.062640000000000e+11 3.137804330155786e-01 1.058388629561695e-02
1.063120000000000e+11 3.134007241265441e-01 1.092289299587703e-02
1.063600000000000e+11 3.136969101496621e-01 1.093610387353995e-02
1.064080000000000e+11 3.144770224679138e-01 1.070700754624294e-02
1.064560000000000e+11 3.127108130860378e-01 1.068220662403059e-02
1.065040000000000e+11 3.138450049918941e-01 1.103937919400302e-02
1.065520000000000e+11 3.151972085277819e-01 1.032138043624838e-02
1.066000000000000e+11 3.138891192806518e-01 1.034779436053211e-02
1.066480000000000e+11 3.136258776500217e-01 1.054822578328693e-02
1.066960000000000e+11 3.145871415532011e-01 9.527405621083061e-03
1.067440000000000e+11 3.145845678347802e-01 1.032996883696562e-02
1.067920000000000e+11 3.143710762558539e-01 9.565806491088779e-03
1.068400000000000e+11 3.138022651001000e-01 9.367311288024984e-03
1.068880000000000e+11 3.132976019279252e-01 8.836915608291123e-03
1.069360000000000e+11 3.136181223583623e-01 9.596244717314703e-03
1.069840000000000e+11 3.118776747617429e-01 9.941444284689231e-03
1.070320000000000e+11 3.119282886486186e-01 1.013685037878628e-02
1.070800000000000e+11 3.123509194166975e-01 9.837877983352080e-03
1.071280000000000e+11 3.126535115085982e-01 1.020755523777610e-02
1.071760000000000e+11 3.129062603612282e-01 9.525592955797052e-03
1.072240000000000e+11 3.134276894080878e-01 9.746085555079448e-03
1.072720000000000e+11 3.135839354885753e-01 9.604347261911225e-03
1.073200000000000e+11 3.137265665095570e-01 9.518615029535575e-03
1.073680000000000e+11 3.146630693219999e-01 9.274479344394300e-03
1.074160000000000e+11 3.144403889399995e-01 9.013900191012678e-03
1.074640000000000e+11 3.140980885151385e-01 8.499176731884989e-03
1.075120000000000e+11 3.131088127466803e-01 8.546683118392953e-03
1.075600000000000e+11 3.128400845167508e-01 8.596856345322042e-03
1.076080000000000e+11 3.124032889435488e-01 8.454995577514548e-03
1.076560000000000e+11 3.126462473409933e-01 9.283014315670879e-03
1.077040000000000e+11 3.122508991513755e-01 9.103985995653487e-03
1.077520000000000e+11 3.119368872804449e-01 1.009316129763825e-02
1.078000000000000e+11 3.123297138937213e-01 1.084022573834892e-02
1.078480000000000e+11 3.128124290472771e-01 1.084414731264400e-02
1.078960000000000e+11 3.130333988095776e-01 1.069581982385135e-02
1.079440000000000e+11 3.137836460684560e-01 1.064392133753935e-02
1.079920000000000e+11 3.139029414584150e-01 1.031624696628510e-02
1.080400000000000e+11 3.138215426881361e-01 1.010578699382451e-02
1.080880000000000e+11 3.139538592737233e-01 9.684709341920762e-03
1.081360000000000e+11 3.137803747728189e-01 8.780168068624869e-03
1.081840000000000e+11 3.133391439870474e-01 9.542533921057531e-03
1.082320000000000e+11 3.125825978157215e-01 8.833941431443892e-03
1.082800000000000e+11 3.126239230310527e-01 9.489666413303677e-03
1.083280000000000e+11 3.121644420701279e-01 8.972555827845690e-03
1.083760000000000e+11 3.124763370568672e-01 9.934650028378596e-03
1.084240000000000e+11 3.113612075650095e-01 1.056156230340311e-02
1.084720000000000e+11 3.112557211455602e-01 1.131539750117477e-02
1.085200000000000e+11 3.120903307299748e-01 1.106335558812100e-02
1.085680000000000e+11 3.127775955846233e-01 1.167676051612393e-02
1.086160000000000e+11 3.132602767607251e-01 1.163543175692000e-02
1.086640000000000e+11 3.136404723122924e-01 1.149836501688373e-02
1.087120000000000e+11 3.138314290818950e-01 1.136917258342374e-02
1.087600000000000e+11 3.141456390832342e-01 1.174709822080826e-02
1.088080000000000e+11 3.139387657936265e-01 1.141359743028361e-02
1.088560000000000e+11 3.138079495307627e-01 1.103496074944515e-02
1.089040000000000e+11 3.133339081303135e-01 1.075137511208900e-02
1.089520000000000e+11 3.128775722392871e-01 1.122216136057882e-02
1.090000000000000e+11 3.121718488512113e-01 1.074954494447632e-02
1.090480000000000e+11 3.126196287372352e-01 1.192268426003920e-02
1.090960000000000e+11 3.127335008437856e-01 1.141701990942606e-02
1.091440000000000e+11 3.133181407718836e-01 1.113719343991277e-02
1.091920000000000e+11 3.136421725618075e-01 1.072972487680520e-02
1.092400000000000e+11 3.137898400205411e-01 1.138018829509008e-02
1.092880000000000e+11 3.144372460371992e-01 1.167263334768237e-02
1.093360000000000e+11 3.155073905914176e-01 1.253398710240865e-02
1.093840000000000e+11 3.160094785847086e-01 1.243867631227973e-02
1.094320000000000e+11 3.160978849955328e-01 1.161268328344681e-02
1.094800000000000e+11 3.163670785062156e-01 1.055319406599986e-02
1.095280000000000e+11 3.160712848907118e-01 1.009654011583312e-02
1.095760000000000e+11 3.161556148550500e-01 1.009178480957217e-02
1.096240000000000e+11 3.151698147514030e-01 1.046299151777367e-02
1.096720000000000e+11 3.143634843936710e-01 1.022051135924079e-02
1.097200000000000e+11 3.136913830235190e-01 1.074488710163087e-02
1.097680000000000e+11 3.142398023808629e-01 1.081852240611589e-02
1.098160000000000e+11 3.145166586504562e-01 1.134992236622964e-02
1.098640000000000e+11 3.143048811636320e-01 1.143292362767892e-02
1.099120000000000e+11 3.146494300959621e-01 1.244325700457513e-02
1.099600000000000e+11 3.153151917918216e-01 1.320834057106669e-02
1.100080000000000e+11 3.152359371195830e-01 1.288765375943981e-02
1.100560000000000e+11 3.157249304243968e-01 1.323648920686759e-02
1.101040000000000e+11 3.161185323053068e-01 1.350963429854442e-02
1.101520000000000e+11 3.163111718948758e-01 1.385734928557516e-02
1.102000000000000e+11 3.163726664301916e-01 1.301399460699513e-02
1.102480000000000e+11 3.159846289960149e-01 1.332693433014403e-02
1.102960000000000e+11 3.147212617717508e-01 1.193971967380119e-02
1.103440000000000e+11 3.141183271795974e-01 1.269231337667229e-02
1.103920000000000e+11 3.127870070168516e-01 1.200091719275224e-02
1.104400000000000e+11 3.120064143268874e-01 1.216718840172151e-02
1.104880000000000e+11 3.109652278411776e-01 1.152279515581914e-02
1.105360000000000e+11 3.104819477961789e-01 1.150641272258178e-02
1.105840000000000e+11 3.107373767432701e-01 1.157033727468388e-02
1.106320000000000e+11 3.107579181341036e-01 1.295086635106236e-02
1.106800000000000e+11 3.118538791049997e-01 1.317509063237996e-02
1.107280000000000e+11 3.124262681099079e-01 1.318254187606604e-02
1.107760000000000e+11 3.135397641510359e-01 1.400933947167728e-02
1.108240000000000e+11 3.141764545522297e-01 1.398384950451827e-02
1.108720000000000e+11 3.150151738674642e-01 1.369389962283775e-02
1.109200000000000e+11 3.151271848357325e-01 1.325490703714316e-02
1.109680000000000e+11 3.154369832979648e-01 1.286302409756007e-02
1.110160000000000e+11 3.153547170538878e-01 1.273572482972007e-02
1.110640000000000e+11 3.150744233924645e-01 1.264707202304643e-02
1.111120000000000e+11 3.150273502008619e-01 1.260917778408116e-02
1.111600000000000e+11 3.143940627636168e-01 1.256342996496917e-02
1.112080000000000e+11 3.145350579208472e-01 1.293020552985508e-02
1.112560000000000e+11 3.144358113576718e-01 1.323366595205399e-02
1.113040000000000e+11 3.144390363764173e-01 1.394130896484454e-02
1.113520000000000e+11 3.150220996305622e-01 1.459211100934532e-02
1.114000000000000e+11 3.155314156620941e-01 1.478035373579305e-02
1.114480000000000e+11 3.160955334090319e-01 1.528790118705074e-02
1.114960000000000e+11 3.164019067497628e-01 1.512790542028351e-02
1.115440000000000e+11 3.171730169040421e-01 1.552446994531936e-02
1.115920000000000e+11 3.175573309266868e-01 1.526504096262055e-02
1.116400000000000e+11 3.179677010896608e-01 1.475660034918629e-02
1.116880000000000e+11 3.187491830280025e-01 1.438455124765319e-02
1.117360000000000e+11 3.188944961359025e-01 1.449230599911496e-02
1.117840000000000e+11 3.185271690901880e-01 1.406521302617091e-02
1.118320000000000e+11 3.175648541353397e-01 1.394328531758951e-02
1.118800000000000e+11 3.167337430807918e-01 1.399869243274182e-02
1.119280000000000e+11 3.155895505780038e-01 1.357724109419135e-02
1.119760000000000e+11 3.152149295141662e-01 1.421125516418849e-02
1.120240000000000e+11 3.123342455701527e-01 1.270048280527689e-02
1.120720000000000e+11 3.115152562592245e-01 1.483704953790085e-02
1.121200000000000e+11 3.112529983645250e-01 1.493133841718929e-02
1.121680000000000e+11 3.115086772895139e-01 1.510622351641014e-02
1.122160000000000e+11 3.116984724541664e-01 1.493455113392630e-02
1.122640000000000e+11 3.127114466879463e-01 1.549004562547257e-02
1.123120000000000e+11 3.144727035696742e-01 1.549575312279395e-02
1.123600000000000e+11 3.130647083621794e-01 1.559506583927345e-02
1.124080000000000e+11 3.145453882171444e-01 1.607760468017633e-02
1.124560000000000e+11 3.149929489286163e-01 1.553880793815139e-02
1.125040000000000e+11 3.158367586178421e-01 1.660431189208369e-02
1.125520000000000e+11 3.152798100131676e-01 1.632231263148641e-02
1.126000000000000e+11 3.153318654161371e-01 1.603720672755325e-02
1.126480000000000e+11 3.156581505096643e-01 1.712873521657888e-02
1.126960000000000e+11 3.159664312938227e-01 1.637377905202899e-02
1.127440000000000e+11 3.163150429014697e-01 1.629066387973047e-02
1.127920000000000e+11 3.165007514003182e-01 1.630410711016278e-02
1.128400000000000e+11 3.173352512796401e-01 1.669805871754685e-02
1.128880000000000e+11 3.175237439348078e-01 1.710165009588814e-02
1.129360000000000e+11 3.179949111407858e-01 1.751194570665728e-02
1.129840000000000e+11 3.175299411480371e-01 1.724953687680439e-02
1.130320000000000e+11 3.184533583744269e-01 1.743897324981489e-02
1.130800000000000e+11 3.183956297734016e-01 1.744276407114083e-02
1.131280000000000e+11 3.190618353547863e-01 1.735875237389396e-02
1.131760000000000e+11 3.189934597984097e-01 1.720539650167578e-02
1.132240000000000e+11 3.198050025555009e-01 1.731718241690589e-02
1.132720000000000e+11 3.197434209209739e-01 1.687449310808721e-02
1.133200000000000e+11 3.197675672975908e-01 1.657317043772168e-02
1.133680000000000e+11 3.183211591491514e-01 1.610018727443411e-02
1.134160000000000e+11 3.183718893515500e-01 1.651802545225419e-02
1.134640000000000e+11 3.169817997159060e-01 1.656948746137717e-02
1.135120000000000e+11 3.169255828791173e-01 1.659860426284835e-02
1.135600000000000e+11 3.161516591287016e-01 1.671125643244446e-02
1.136080000000000e+11 3.158164800537229e-01 1.671011677488557e-02
1.136560000000000e+11 3.153606846329061e-01 1.682657082795722e-02
1.137040000000000e+11 3.158869228946680e-01 1.725550502061712e-02
1.137520000000000e+11 3.154288238513694e-01 1.727392759330046e-02
1.138000000000000e+11 3.158067283156683e-01 1.756487949872398e-02
1.138480000000000e+11 3.160099300465514e-01 1.748908168563013e-02
1.138960000000000e+11 3.164630042886751e-01 1.822224708482669e-02
1.139440000000000e+11 3.163580895414591e-01 1.807860756970932e-02
1.139920000000000e+11 3.164065876154588e-01 1.771005449103123e-02
1.140400000000000e+11 3.160609063698283e-01 1.756346668694930e-02
1.140880000000000e+11 3.162979185388446e-01 1.760959972149216e-02
1.141360000000000e+11 3.149863539202459e-01 1.695980983053043e-02
1.141840000000000e+11 3.151209209643387e-01 1.716266825188982e-02
1.142320000000000e+11 3.141015412157037e-01 1.739763004503721e-02
1.142800000000000e+11 3.136025626725005e-01 1.749659755908609e-02
1.143280000000000e+11 3.134294196546464e-01 1.794906556735480e-02
1.143760000000000e+11 3.132792903055146e-01 1.810386080185432e-02
1.144240000000000e+11 3.131204451814930e-01 1.832870832153925e-02
1.144720000000000e+11 3.130026161548843e-01 1.860798198440398e-02
1.145200000000000e+11 3.133514375542193e-01 1.872756142495551e-02
1.145680000000000e+11 3.135256466738635e-01 1.884762641884986e-02
1.146160000000000e+11 3.135845848132743e-01 1.827830849698226e-02
1.146640000000000e+11 3.139848173616873e-01 1.853649190377107e-02
1.147120000000000e+11 3.143791660754365e-01 1.833303238594668e-02
1.147600000000000e+11 3.140957238141590e-01 1.804388264356343e-02
1.148080000000000e+11 3.141090816980207e-01 1.755701233048635e-02
1.148560000000000e+11 3.142344126561338e-01 1.810417349521824e-02
1.149040000000000e+11 3.141365444786300e-01 1.816633243442827e-02
1.149520000000000e+11 3.136051198953311e-01 1.841375774932572e-02
1.150000000000000e+11 3.137415630398367e-01 1.770564575225513e-02
