! Generated by Phase I extraction
# Hz S RI R 50
1.000000000000000e+07 -2.112856378966330e-02 -1.676600133557252e-02 9.975559594092761e-01 -5.818306643470080e-03 9.942144698754651e-01 1.214083247128839e-02 1.419784623443198e-02 -2.252752499950185e-03
5.186875000000000e+07 -3.795356725283125e-03 -1.641761676067399e-02 9.891185324923932e-01 -1.339497552032257e-02 9.903839581188261e-01 5.383998787827857e-03 1.674130906940682e-02 -8.005243729047451e-03
9.373750000000000e+07 -6.594349214590491e-03 -1.501309296453483e-02 9.919031783229179e-01 -1.309764301712133e-02 9.926660255168650e-01 7.085874888016216e-03 2.274189423994945e-03 -9.804532946268672e-03
1.356062500000000e+08 -7.507742833653787e-03 -1.550437280717908e-02 9.972811403290474e-01 -6.333013115544665e-03 9.984580721818083e-01 8.589361479682695e-03 2.048835472794692e-03 -1.181636551415908e-02
1.774750000000000e+08 -9.562542366459746e-04 -1.166467977363506e-02 9.938759280662856e-01 -7.334388103723714e-03 9.923681493410191e-01 3.066741733480262e-03 1.263199446397082e-03 -7.676793304141985e-03
2.193437500000000e+08 1.470083507480711e-04 -8.291587893727158e-03 9.898760417820488e-01 -8.058809145162129e-03 9.909405545803804e-01 1.241380166732998e-04 6.137355665722758e-04 -8.835146211506897e-03
2.612125000000000e+08 -3.042172812246454e-04 -5.063374191462034e-03 9.932708188165233e-01 -8.022777022144920e-03 9.933925725958642e-01 5.429693293001371e-04 3.648774685921557e-04 -6.785335821604820e-03
3.030812500000000e+08 -2.272696209858559e-03 -6.284114232573149e-03 9.931602840327168e-01 -8.009308537921032e-03 9.928415036813626e-01 -8.451407554552734e-05 3.044387382758912e-04 -6.683830756104940e-03
3.449500000000000e+08 -3.831925609951611e-03 -5.217768582939351e-03 9.963214588859066e-01 -9.003902402401105e-03 9.968182592556951e-01 -1.297598784303891e-03 -1.296253528811633e-03 -4.242756365943360e-03
3.868187500000000e+08 -5.149560888877454e-04 -5.224345305273934e-03 9.934655983072159e-01 -9.837260890834020e-03 9.929760114399782e-01 -1.047326073871588e-03 2.151041250992146e-04 -4.934757741146588e-03
4.286875000000000e+08 -2.257100429980345e-03 -1.589384838007396e-03 9.977279483014199e-01 -1.082903989084194e-02 9.971276113573955e-01 -8.811815749624845e-04 -2.166311594281147e-03 -4.045170153256789e-03
4.705562500000000e+08 -6.052688757028685e-03 -2.070589946993869e-03 9.979661127071559e-01 -1.166201122228339e-02 9.976311636291286e-01 -1.279134053964432e-03 -4.377791919371953e-03 -3.207987243624854e-03
5.124250000000000e+08 -4.558945623133465e-03 -2.323064562263428e-03 9.961539821392381e-01 -1.263106823658726e-02 9.965014979312254e-01 -1.469076132517304e-03 -2.495872344145254e-03 -3.718221379102582e-03
5.542937500000000e+08 -6.717187724779915e-03 -3.011253815132430e-03 9.973051946068594e-01 -1.357999215634109e-02 9.973560862669492e-01 -1.615836538519613e-03 -3.706873312698131e-03 -3.937389994139221e-03
5.961625000000000e+08 -6.476086811684449e-03 -3.503467807474595e-03 9.978344003303411e-01 -1.442129748596773e-02 9.977471428380761e-01 -1.638404667462847e-03 -4.690025337054163e-03 -4.639804159094259e-03
6.380312500000000e+08 -6.405615551708536e-03 -3.984191110470641e-03 9.976788658135213e-01 -1.529191538590680e-02 9.978551989813547e-01 -2.053537314511852e-03 -4.579838749792764e-03 -4.056953058745079e-03
6.799000000000000e+08 -4.492759989659442e-03 -4.474635160765990e-03 9.960824590390707e-01 -1.624350490244283e-02 9.966511442505386e-01 -2.010676369318845e-03 -3.244702143066840e-03 -4.447402991212814e-03
7.217687500000000e+08 -4.894048126982957e-03 -4.372338899699866e-03 9.961344114940468e-01 -1.721790163533394e-02 9.965412993799977e-01 -2.483071201431046e-03 -3.457101727570976e-03 -4.132578369962295e-03
7.636375000000000e+08 -5.594847501617702e-03 -4.826178950940120e-03 9.968731380996473e-01 -1.800440812650587e-02 9.971179029712607e-01 -2.392599467984224e-03 -4.000272628981250e-03 -4.359666810264067e-03
8.055062500000000e+08 -6.397707409804628e-03 -4.541348407297450e-03 9.973484341293959e-01 -1.885445904485955e-02 9.976790408214261e-01 -2.721534397702948e-03 -4.734006720920298e-03 -4.569700972148603e-03
8.473750000000000e+08 -7.778305820832734e-03 -4.551602900583341e-03 9.983673498305186e-01 -1.977035143951252e-02 9.987515513217520e-01 -2.855972021474343e-03 -5.780370138599373e-03 -4.394789279142783e-03
8.892437500000000e+08 -6.184718740758071e-03 -4.939569673850261e-03 9.969853370421190e-01 -2.054876973093088e-02 9.974839698199383e-01 -2.776339863898008e-03 -4.252089151480754e-03 -4.647135680302298e-03
9.311125000000000e+08 -3.997382655274636e-03 -4.931537966000643e-03 9.950579521081782e-01 -2.140496874130953e-02 9.956571948292131e-01 -3.263843424595131e-03 -2.506320805013602e-03 -4.944258068901280e-03
9.729812500000000e+08 -6.388083234452034e-03 -4.286083931796516e-03 9.971326606269552e-01 -2.220519579750939e-02 9.977970047655859e-01 -3.414771485673228e-03 -4.976751788951226e-03 -4.852874955409374e-03
1.014850000000000e+09 -5.244143602591136e-03 -4.634371544144279e-03 9.961296784876738e-01 -2.302872944108428e-02 9.965852482950140e-01 -3.596195762398842e-03 -3.769542721593795e-03 -5.220465285871304e-03
1.056718750000000e+09 -4.770010773637903e-03 -4.868959813368240e-03 9.959957321422621e-01 -2.388978572917323e-02 9.964296642543137e-01 -3.606688608411777e-03 -3.712081044940827e-03 -4.749881605580612e-03
1.098587500000000e+09 -3.480019794520946e-03 -5.208964379246030e-03 9.946593040502598e-01 -2.464919905416894e-02 9.949893569367734e-01 -3.910457148097467e-03 -2.230667953577372e-03 -4.950654581674153e-03
1.140456250000000e+09 -5.504314870971905e-03 -5.220908009356410e-03 9.962148038814741e-01 -2.541568353511938e-02 9.965249520749310e-01 -4.094529729975169e-03 -4.388585193011387e-03 -4.579838508906745e-03
1.182325000000000e+09 -5.608633640908573e-03 -4.986808971392630e-03 9.964393987354404e-01 -2.620441112203170e-02 9.961582563633558e-01 -4.438851091735565e-03 -2.778674038518918e-03 -4.959643326285553e-03
1.224193750000000e+09 -4.521187615428314e-03 -6.316351841880318e-03 9.954493610837962e-01 -2.646889198567376e-02 9.963919881976642e-01 -5.022823388747663e-03 -2.551998302691857e-03 -2.616361337602748e-03
1.266062500000000e+09 -6.770363387667045e-03 -8.342691643769887e-03 9.968596459086368e-01 -2.432473910323510e-02 9.958564042121355e-01 -8.202756723603100e-03 -6.686942910046018e-03 -8.921694882172487e-03
1.307931250000000e+09 -8.194163860496231e-03 -6.401723110773993e-03 9.977204868713464e-01 -1.086869971289537e-02 9.947401872796076e-01 -3.704915639455101e-03 5.666770266477062e-04 -2.184972411483543e-03
1.349800000000000e+09 -6.588946623873336e-03 -6.237356282014554e-03 9.966845780415650e-01 -3.779073160505372e-03 9.971695542583220e-01 -3.223655537578316e-03 -2.162993002576247e-03 -4.007961307709080e-03
1.391668750000000e+09 -8.250283319107486e-03 -6.129815729939000e-03 9.980754206656104e-01 -3.874687836157227e-03 9.973452440649136e-01 -3.168276028112710e-03 -4.301543065093161e-03 -4.261489480229311e-03
1.433537500000000e+09 -7.574419102304027e-03 -6.321924095238376e-03 9.979777071058344e-01 -3.832661517343293e-03 9.980596401804368e-01 -3.739486515520135e-03 -5.696131817615478e-03 -4.582072247845544e-03
1.475406250000000e+09 -7.193756789184593e-03 -6.539125542403657e-03 9.976986117569444e-01 -3.944989513377183e-03 9.979672778016757e-01 -3.901739102990985e-03 -5.604183666573023e-03 -4.796768997368335e-03
1.517275000000000e+09 -6.501562724857936e-03 -6.794985188643717e-03 9.970955505267113e-01 -3.996127370393922e-03 9.973224905475045e-01 -4.058072821374444e-03 -5.050902079934489e-03 -4.956544012992694e-03
1.559143750000000e+09 -5.822200026292623e-03 -7.008339652855792e-03 9.965389370096844e-01 -4.109175804373957e-03 9.967775034729575e-01 -4.233659469586066e-03 -4.431842564060801e-03 -5.209956822488800e-03
1.601012500000000e+09 -6.097127260674452e-03 -7.073847286464276e-03 9.968089856398599e-01 -4.210787778860011e-03 9.970461268469967e-01 -4.327590504662760e-03 -4.675164612691341e-03 -5.466541232579860e-03
1.642881250000000e+09 -8.031658281617291e-03 -7.323295184534902e-03 9.978363594622763e-01 -4.191265528657050e-03 9.983163243076894e-01 -4.210656625660594e-03 -5.853839902011649e-03 -5.790856720426315e-03
1.684750000000000e+09 -7.244222275344733e-03 -7.507329426788877e-03 9.977638476080735e-01 -4.601038422775637e-03 9.980313055194771e-01 -4.488064283678422e-03 -5.566186227815136e-03 -5.928242404477903e-03
1.726618750000000e+09 -6.211077270752272e-03 -7.858572547518549e-03 9.968632609292802e-01 -4.670808998739046e-03 9.970990070133073e-01 -4.674578106082135e-03 -4.711316444887829e-03 -6.112158862059452e-03
1.768487500000000e+09 -6.624111401988081e-03 -8.080938576930204e-03 9.969530656856881e-01 -5.027210949223450e-03 9.972519626952098e-01 -4.927832433267222e-03 -5.121206135051811e-03 -6.364325681302412e-03
1.810356250000000e+09 -6.797304458223669e-03 -8.259694630180451e-03 9.969264735225984e-01 -5.059598701995356e-03 9.975341985651948e-01 -5.133771987594274e-03 -5.303706505649537e-03 -6.558559877683146e-03
1.852225000000000e+09 -6.656228228813654e-03 -8.384589197902326e-03 9.969074769664928e-01 -5.129132053056572e-03 9.971514601587167e-01 -5.292811801650509e-03 -5.121681041874678e-03 -6.688075857347449e-03
1.894093750000000e+09 -5.466655815297970e-03 -8.731924694808687e-03 9.962940343133740e-01 -5.306985363437361e-03 9.964586141011996e-01 -5.277022078868413e-03 -4.255877360598973e-03 -6.836390176179660e-03
1.935962500000000e+09 -6.624902923980057e-03 -8.990179471269290e-03 9.967804490252985e-01 -5.571132705571519e-03 9.971529679331566e-01 -5.497901110109346e-03 -5.288588525391697e-03 -7.224417034149705e-03
1.977831250000000e+09 -7.180799073148125e-03 -9.092405536515240e-03 9.969119631128033e-01 -5.684454818409532e-03 9.975268115954868e-01 -5.691243241314595e-03 -5.599049641017117e-03 -7.252245306248735e-03
2.019700000000000e+09 -6.546623388120746e-03 -9.356201815027864e-03 9.966872775505753e-01 -5.756158856163014e-03 9.970687732684841e-01 -5.754287537805232e-03 -4.943411447492078e-03 -7.318206070023896e-03
2.061568750000000e+09 -5.709330480278943e-03 -9.655540035243373e-03 9.961486657221289e-01 -5.790318068177511e-03 9.965687695636462e-01 -5.755783578423785e-03 -4.511936254720294e-03 -7.585451591934308e-03
2.103437500000000e+09 -6.606490493547537e-03 -9.698852418697050e-03 9.962959419663789e-01 -6.028359610617804e-03 9.966329748582574e-01 -6.142889222890122e-03 -4.953672514152414e-03 -6.777671092853398e-03
2.145306250000000e+09 -6.292541763410828e-03 -9.991701296346059e-03 9.963471376101197e-01 -6.051475983930274e-03 9.965958216826830e-01 -6.073676492315334e-03 -4.855981006901162e-03 -6.890218123933894e-03
2.187175000000000e+09 -6.140071706140848e-03 -1.021786926967903e-02 9.961577286062954e-01 -6.155802964973647e-03 9.964761009120534e-01 -6.196911094865126e-03 -4.711083578029823e-03 -7.081502414547134e-03
2.229043750000000e+09 -6.365127811541325e-03 -1.040691178801222e-02 9.962962993089507e-01 -6.380678411556729e-03 9.967623656591864e-01 -6.343040726423625e-03 -5.104945472464673e-03 -6.867439470336527e-03
2.270912500000000e+09 -6.938369831259904e-03 -1.071872627494039e-02 9.966337893813295e-01 -6.375765452302657e-03 9.970401154166705e-01 -6.304349294566605e-03 -5.341900172472365e-03 -7.115666832088387e-03
2.312781250000000e+09 -6.487305735981482e-03 -1.110187983243393e-02 9.962938612690568e-01 -6.418770994541553e-03 9.966495320227047e-01 -6.406925196963375e-03 -5.070449158634382e-03 -7.160596415868335e-03
2.354650000000000e+09 -5.692772874874118e-03 -1.133610737447593e-02 9.956340063678927e-01 -6.486883489333045e-03 9.959534436377478e-01 -6.483729630717548e-03 -4.359480904079290e-03 -7.266112210953851e-03
2.396518750000000e+09 -5.801564906041434e-03 -1.162277139561368e-02 9.954521059144427e-01 -6.694062357937179e-03 9.959965970361210e-01 -6.716545326226550e-03 -4.435546865925022e-03 -7.375766837317053e-03
2.438387500000000e+09 -6.896317832337157e-03 -1.183710266473712e-02 9.961366593355820e-01 -6.769709281224893e-03 9.965519643144737e-01 -6.850183202538823e-03 -5.095018980654563e-03 -7.233722134761365e-03
2.480256250000000e+09 -6.029878923767993e-03 -1.218808079154321e-02 9.955524638561055e-01 -6.817232206938055e-03 9.960157820815959e-01 -6.922193683684779e-03 -4.424093540049282e-03 -7.436669592411188e-03
2.522125000000000e+09 -6.575790587245414e-03 -1.237033897856146e-02 9.959496293396031e-01 -7.027164487345213e-03 9.962551511083351e-01 -7.024388351430459e-03 -4.882761533605136e-03 -7.497448180445529e-03
2.563993750000000e+09 -6.712289332817318e-03 -1.265514112261812e-02 9.961624000038216e-01 -7.090320877063291e-03 9.964384906251841e-01 -6.980704756728546e-03 -5.217934611128641e-03 -7.487549568608372e-03
2.605862500000000e+09 -6.903011909570714e-03 -1.285704716410648e-02 9.959720249025418e-01 -7.191379772932660e-03 9.963305135190912e-01 -7.243555864809336e-03 -5.094837961535461e-03 -7.496124937728104e-03
2.647731250000000e+09 -6.576568281416685e-03 -1.299335552459625e-02 9.957436568873058e-01 -7.285085313278069e-03 9.961030699084163e-01 -7.335512797876301e-03 -4.763904248558546e-03 -7.513502927164815e-03
2.689600000000000e+09 -7.319830739105238e-03 -1.351836185315599e-02 9.961665438701851e-01 -7.223979548835399e-03 9.966112697478758e-01 -7.304820465254409e-03 -5.402371014483758e-03 -7.817526335633578e-03
2.731468750000000e+09 -8.095794784118412e-03 -1.354213394120881e-02 9.967592089167614e-01 -7.493884220724661e-03 9.970228590546386e-01 -7.547848075165733e-03 -5.971693554673424e-03 -7.780558312900835e-03
2.773337500000000e+09 -7.443364596361864e-03 -1.384986385298935e-02 9.964260969549268e-01 -7.586517754751309e-03 9.967434132850989e-01 -7.656064357758939e-03 -5.557417438562646e-03 -7.935676270420890e-03
2.815206250000000e+09 -7.820384996404119e-03 -1.405919667192753e-02 9.966120871007427e-01 -7.770887409636805e-03 9.969423851509368e-01 -7.813997856389240e-03 -5.929135216254630e-03 -7.919810855857894e-03
2.857075000000000e+09 -7.153715717216956e-03 -1.446857378834759e-02 9.960432384886705e-01 -7.680766836794477e-03 9.963959471465846e-01 -7.793082082113127e-03 -5.393708377819442e-03 -8.082813155005806e-03
2.898943750000000e+09 -7.631442821382240e-03 -1.487119845741960e-02 9.963309190770122e-01 -7.855748877981348e-03 9.966167050000700e-01 -7.849976118977227e-03 -5.810677694481054e-03 -8.322494948862924e-03
2.940812500000000e+09 -6.958427867757361e-03 -1.490109467775231e-02 9.957510985333535e-01 -8.056537622590246e-03 9.960905695200537e-01 -8.138172707791533e-03 -5.172875307465372e-03 -8.045791842599232e-03
2.982681250000000e+09 -6.634544213028447e-03 -1.542391919271185e-02 9.954307494392900e-01 -8.012030307724537e-03 9.957556423240983e-01 -8.167716717420044e-03 -4.887268368476519e-03 -8.253803542120337e-03
3.024550000000000e+09 -7.295977384799817e-03 -1.560852573413121e-02 9.957557645353418e-01 -8.068635579703302e-03 9.960423772452504e-01 -8.297241627917189e-03 -5.512752950902694e-03 -8.156789311422361e-03
3.066418750000000e+09 -7.955162596540864e-03 -1.591608380909997e-02 9.964033229142422e-01 -8.252365016135785e-03 9.968531690831923e-01 -8.376301931005772e-03 -6.057607148593862e-03 -8.581592345931761e-03
3.108287500000000e+09 -7.983478830318864e-03 -1.618523459576373e-02 9.962858331908853e-01 -8.401189167092270e-03 9.966716986222226e-01 -8.520919359416455e-03 -5.983088620358431e-03 -8.469640976657308e-03
3.150156250000000e+09 -7.354146815552085e-03 -1.635782676738561e-02 9.958153161828656e-01 -8.482096844559183e-03 9.961849196449002e-01 -8.600668996232673e-03 -5.421785965624143e-03 -8.581552690607458e-03
3.192025000000000e+09 -7.263067711993154e-03 -1.671824881228860e-02 9.955847042242639e-01 -8.565979410389900e-03 9.958799699115627e-01 -8.708981860973984e-03 -5.398013822037450e-03 -8.602886839958154e-03
3.233893750000000e+09 -7.394532341292234e-03 -1.698643413679694e-02 9.958339812472561e-01 -8.598853173302832e-03 9.960113342964124e-01 -8.836266645420856e-03 -5.635604872435115e-03 -8.678393013126829e-03
3.275762500000000e+09 -7.921703086282549e-03 -1.744645157023257e-02 9.961138320569053e-01 -8.738099474000352e-03 9.964073149634519e-01 -8.978536799589895e-03 -6.008925297313413e-03 -8.947271912399583e-03
3.317631250000000e+09 -8.148313877429508e-03 -1.753839181017643e-02 9.962351062189458e-01 -8.879355233023049e-03 9.965338834400245e-01 -9.096968328526522e-03 -6.119454137931499e-03 -8.844001879416292e-03
3.359500000000000e+09 -7.216439497016890e-03 -1.777508264453473e-02 9.955115208771935e-01 -8.933234059936814e-03 9.957333299090482e-01 -8.918624674791742e-03 -5.311197722516110e-03 -8.844165460292061e-03
3.401368750000000e+09 -6.923826536215688e-03 -1.802682005009860e-02 9.949794933163364e-01 -9.137148737493602e-03 9.952500982521306e-01 -9.233405685754079e-03 -4.964526291974963e-03 -9.012223558869329e-03
3.443237500000000e+09 -7.123323961862198e-03 -1.830648036923247e-02 9.953545991739120e-01 -9.165529503181039e-03 9.955575217117638e-01 -9.254226997005198e-03 -5.375302672455194e-03 -9.152147847108657e-03
3.485106250000000e+09 -8.061961357946219e-03 -1.870751264947126e-02 9.959909142959208e-01 -9.276274104810548e-03 9.962268544586528e-01 -9.524920114663530e-03 -6.315457200800189e-03 -9.402310845062444e-03
3.526975000000000e+09 -7.828715315226640e-03 -1.884883727955834e-02 9.957780351925027e-01 -9.362156957251011e-03 9.960219454647726e-01 -9.491564623022005e-03 -5.943310049867262e-03 -9.363699909720620e-03
3.568843750000000e+09 -7.051051646715285e-03 -1.919194746199630e-02 9.949984889135782e-01 -9.465273783658947e-03 9.952008038795225e-01 -9.561922044653968e-03 -5.252859420309631e-03 -9.518633983473447e-03
3.610712500000000e+09 -7.277145916294979e-03 -1.947632686821854e-02 9.951440362605033e-01 -9.554527678870193e-03 9.953899966836472e-01 -9.674099493042643e-03 -5.519405131750440e-03 -9.490827811580430e-03
3.652581250000000e+09 -7.664838128554966e-03 -1.986589723830448e-02 9.956651824054937e-01 -9.602424503928540e-03 9.958308769065549e-01 -9.742541554523703e-03 -6.052160214068341e-03 -9.685669573572482e-03
3.694450000000000e+09 -8.272433776407644e-03 -2.013221465955594e-02 9.960225701384887e-01 -9.863644174228978e-03 9.962482879614488e-01 -1.002739458742098e-02 -6.524983406789467e-03 -9.714675684710405e-03
3.736318750000000e+09 -7.897338193802119e-03 -2.051785630793359e-02 9.957473608540456e-01 -9.821629080563282e-03 9.960481536115481e-01 -9.949595981652631e-03 -6.253549366585346e-03 -9.813480930029709e-03
3.778187500000000e+09 -7.877492701239728e-03 -2.080542139927433e-02 9.955932571733168e-01 -9.998420616958287e-03 9.959368842926547e-01 -1.017987373681032e-02 -6.284752610562338e-03 -9.947849233441896e-03
3.820056250000000e+09 -7.529762071717412e-03 -2.102959618118681e-02 9.952381692072096e-01 -9.989113621772917e-03 9.955819297333772e-01 -1.010387959988154e-02 -5.892281459092329e-03 -9.769525899054296e-03
3.861925000000000e+09 -7.066688066228083e-03 -2.145318208785888e-02 9.947760290106367e-01 -1.009578405602142e-02 9.950665204344117e-01 -1.025914977410279e-02 -5.562200373199331e-03 -1.004211865750141e-02
3.903793750000000e+09 -7.920165393513937e-03 -2.152751612448690e-02 9.952786810252349e-01 -1.033896029967515e-02 9.955880126762229e-01 -1.052529370286417e-02 -6.262058264932070e-03 -1.003254989215647e-02
3.945662500000000e+09 -7.897734238560859e-03 -2.206469309881147e-02 9.955091568591405e-01 -1.031987848482206e-02 9.957689606852773e-01 -1.047359796053713e-02 -6.336895319734675e-03 -1.034591150248631e-02
3.987531250000000e+09 -7.440047054603631e-03 -2.215447650524748e-02 9.948498534072003e-01 -1.048202039860133e-02 9.950947820350029e-01 -1.067138328688465e-02 -5.735723967059909e-03 -1.024978671767761e-02
4.029400000000000e+09 -7.287137085109302e-03 -2.240419922701204e-02 9.947441467560981e-01 -1.050192664271218e-02 9.950116920238760e-01 -1.066354469984553e-02 -5.728001125746179e-03 -1.029203573237605e-02
4.071268750000000e+09 -7.506835243736865e-03 -2.281947065956872e-02 9.947521250050010e-01 -1.065752346571036e-02 9.949804986587553e-01 -1.087585949865685e-02 -5.840631041661820e-03 -1.051858969950690e-02
4.113137500000000e+09 -7.362603543395419e-03 -2.290823991799577e-02 9.946053817433542e-01 -1.075458584489319e-02 9.948438673601464e-01 -1.097884618354880e-02 -5.712556160458173e-03 -1.038558406982323e-02
4.155006250000000e+09 -7.782471637350884e-03 -2.343131576690654e-02 9.950342884401815e-01 -1.083045387899591e-02 9.953239337744604e-01 -1.101886027001948e-02 -6.246993676420075e-03 -1.071562688975152e-02
4.196875000000000e+09 -8.327207613566276e-03 -2.369661542742036e-02 9.952311914330501e-01 -1.093201897665174e-02 9.955277218070556e-01 -1.111408171835121e-02 -6.515607542510516e-03 -1.054745483568407e-02
4.238743750000000e+09 -7.054221088228196e-03 -2.391017311204823e-02 9.942743006537035e-01 -1.096944925751302e-02 9.943873743420445e-01 -1.103894869133836e-02 -5.488099433670362e-03 -1.059202082841480e-02
4.280612500000000e+09 -7.119171572560039e-03 -2.417922721693000e-02 9.940479453408151e-01 -1.119681967931811e-02 9.942496687645273e-01 -1.138497408155124e-02 -5.528809975187350e-03 -1.087526411517950e-02
4.322481250000000e+09 -7.520554117822945e-03 -2.446275066035719e-02 9.944870383183319e-01 -1.118795967484169e-02 9.947068187033269e-01 -1.137257345801165e-02 -6.036905502230959e-03 -1.081940068905034e-02
4.364350000000000e+09 -7.709810847637625e-03 -2.490833666649829e-02 9.946540064563447e-01 -1.137316014828497e-02 9.949015876792980e-01 -1.165580085851039e-02 -6.227749320470052e-03 -1.101124077567973e-02
4.406218750000000e+09 -7.697621664677504e-03 -2.511122528463242e-02 9.945167153423168e-01 -1.142274411020569e-02 9.947762448131736e-01 -1.164026182278751e-02 -6.096081721570962e-03 -1.093416741249113e-02
4.448087500000000e+09 -6.862909020198921e-03 -2.546902744170192e-02 9.937581379230280e-01 -1.148143448997889e-02 9.940874149687107e-01 -1.172012536614608e-02 -5.431404002244164e-03 -1.110390097295813e-02
4.489956250000000e+09 -7.202041606706014e-03 -2.565080424249432e-02 9.938463888463103e-01 -1.166235689327884e-02 9.941448765846980e-01 -1.189302853153585e-02 -5.603734581198728e-03 -1.108722049641083e-02
4.531825000000000e+09 -7.109285404658130e-03 -2.601287241791374e-02 9.939537298740877e-01 -1.163299506835417e-02 9.941736328805355e-01 -1.183440649894587e-02 -5.666932029708325e-03 -1.120763752955535e-02
4.573693750000000e+09 -7.358049865823683e-03 -2.636418586442796e-02 9.940316824233542e-01 -1.179161069941610e-02 9.942969154892015e-01 -1.204392930358345e-02 -5.982868706641746e-03 -1.141958874384384e-02
4.615562500000000e+09 -7.572250118048366e-03 -2.655341079857241e-02 9.942268265174773e-01 -1.188075904676975e-02 9.944770883912742e-01 -1.205576356599843e-02 -6.086143370556389e-03 -1.131775851514030e-02
4.657431250000000e+09 -7.011697376527894e-03 -2.694381226729136e-02 9.935532961243121e-01 -1.192397584493896e-02 9.937803490307032e-01 -1.217236309347947e-02 -5.475772867662460e-03 -1.139552167675426e-02
4.699300000000000e+09 -7.399208825207238e-03 -2.708348818510972e-02 9.937501970561690e-01 -1.206876597987211e-02 9.939331775219010e-01 -1.228914830021777e-02 -5.846178060889350e-03 -1.146762965290622e-02
4.741168750000000e+09 -7.513770658618938e-03 -2.733500312239918e-02 9.939717792693726e-01 -1.223753926555190e-02 9.941976510558782e-01 -1.244591567591309e-02 -6.008601933268408e-03 -1.173455711379772e-02
4.783037500000000e+09 -7.377805961498225e-03 -2.777979372794392e-02 9.937054342328616e-01 -1.221176929169489e-02 9.939590918495343e-01 -1.244411526975174e-02 -5.855618376762772e-03 -1.175144504372410e-02
4.824906250000000e+09 -7.092355225788524e-03 -2.789629926163517e-02 9.935526830319342e-01 -1.236061306372353e-02 9.938389465837235e-01 -1.256636376417275e-02 -5.687072515180438e-03 -1.171272626504622e-02
4.866775000000000e+09 -7.375279620084190e-03 -2.827376675822081e-02 9.936503235364745e-01 -1.259390074519003e-02 9.939250636344802e-01 -1.277799309326052e-02 -5.901940576827834e-03 -1.188179589782530e-02
4.908643750000000e+09 -7.403957689350327e-03 -2.861459573765249e-02 9.936165350975337e-01 -1.243551935652150e-02 9.938826021700665e-01 -1.259836241923638e-02 -5.936046059983556e-03 -1.185615101922285e-02
4.950512500000000e+09 -7.134824916089105e-03 -2.892202983507263e-02 9.933830195315960e-01 -1.265929414488525e-02 9.936473976191434e-01 -1.293124483612372e-02 -5.787362862768953e-03 -1.202606720555397e-02
4.992381250000000e+09 -7.781502108111682e-03 -2.919416619942591e-02 9.938027834217459e-01 -1.275153579564439e-02 9.941072166791611e-01 -1.306104352424728e-02 -6.298651037064433e-03 -1.210142920057292e-02
5.034250000000000e+09 -7.067400947164955e-03 -2.948745115067618e-02 9.934444487165076e-01 -1.287854878054720e-02 9.935479323160545e-01 -1.312693760467974e-02 -5.776777766262499e-03 -1.218057172336278e-02
5.076118750000000e+09 -7.265658544010021e-03 -2.968138965792031e-02 9.933099159885103e-01 -1.309101451378849e-02 9.935654286221509e-01 -1.332456670592366e-02 -5.843004178214186e-03 -1.220152676125558e-02
5.117987500000000e+09 -6.870645649954734e-03 -3.006913219791870e-02 9.929444407219131e-01 -1.301633660384440e-02 9.931918927721927e-01 -1.324003774977268e-02 -5.603613408747549e-03 -1.219020773002391e-02
5.159856250000000e+09 -7.177794665594819e-03 -3.040213983525676e-02 9.930977755337071e-01 -1.326244528137106e-02 9.933058823306886e-01 -1.352990965802370e-02 -5.860989026901116e-03 -1.249600987517327e-02
5.201725000000000e+09 -7.269283775128513e-03 -3.055296882311324e-02 9.931113331921171e-01 -1.333167694033776e-02 9.932959691749461e-01 -1.357174322382512e-02 -5.819966039860211e-03 -1.236670311619063e-02
5.243593750000000e+09 -6.950494922810878e-03 -3.083185009901815e-02 9.928437362846753e-01 -1.340908977856168e-02 9.930981692208130e-01 -1.367285305816994e-02 -5.511999537291875e-03 -1.259826848217715e-02
5.285462500000000e+09 -7.314904531293997e-03 -3.107141738841163e-02 9.929764028933145e-01 -1.352574694314094e-02 9.931741125468927e-01 -1.378072178576498e-02 -5.989757065630404e-03 -1.254586398920393e-02
5.327331250000000e+09 -6.846243342208011e-03 -3.140571096046844e-02 9.927070680707598e-01 -1.357086374875270e-02 9.928377710117124e-01 -1.379249381118841e-02 -5.557560529616564e-03 -1.262854889057189e-02
5.369200000000000e+09 -7.107262033160329e-03 -3.176021335789341e-02 9.926589260044228e-01 -1.370965931219214e-02 9.928402728743639e-01 -1.391171764978720e-02 -5.811040958232198e-03 -1.275170490193958e-02
5.411068750000000e+09 -6.820856393373128e-03 -3.193720844805145e-02 9.924486251944103e-01 -1.379241172687261e-02 9.926436044265630e-01 -1.397747840017260e-02 -5.510673780749251e-03 -1.267163737565308e-02
5.452937500000000e+09 -6.912573159148719e-03 -3.228421497816476e-02 9.924531930225166e-01 -1.391388501000773e-02 9.926645203303072e-01 -1.411782500718869e-02 -5.545712864245874e-03 -1.292652114859478e-02
5.494806250000000e+09 -7.268856096652196e-03 -3.257105678035968e-02 9.925936271951057e-01 -1.392809415476300e-02 9.927831621632596e-01 -1.415843452065603e-02 -5.693951998437258e-03 -1.281150351403458e-02
5.536675000000000e+09 -6.919606765152524e-03 -3.282852305092467e-02 9.924299156940564e-01 -1.406881803760963e-02 9.926634697807587e-01 -1.430940830213883e-02 -5.540194321834978e-03 -1.283723901804473e-02
5.578543750000000e+09 -7.443414344020396e-03 -3.316107115774164e-02 9.926808186541821e-01 -1.418124814056746e-02 9.928474942554885e-01 -1.440767781136702e-02 -6.039615078664651e-03 -1.294267624895400e-02
5.620412500000000e+09 -6.942176789173578e-03 -3.340378141430658e-02 9.924088564667967e-01 -1.420634934855935e-02 9.925357280062188e-01 -1.445840715797869e-02 -5.515993651836771e-03 -1.309148932741895e-02
5.662281250000000e+09 -7.425050888254579e-03 -3.354705010162255e-02 9.925855127367015e-01 -1.445873038296316e-02 9.927153292767654e-01 -1.463778942290355e-02 -5.826842139232157e-03 -1.319531558596651e-02
5.704150000000000e+09 -7.291228237728919e-03 -3.381781657696147e-02 9.924758440702611e-01 -1.443645317222418e-02 9.926310006661360e-01 -1.459098429090222e-02 -5.701179755549526e-03 -1.322019307510624e-02
5.746018750000000e+09 -7.260297082358072e-03 -3.425205652938416e-02 9.924101843127315e-01 -1.455209318497200e-02 9.925398237166726e-01 -1.474968696554104e-02 -5.677353133083593e-03 -1.341015094246397e-02
5.787887500000000e+09 -7.804133275426382e-03 -3.435258785981855e-02 9.927588248343980e-01 -1.470298202000441e-02 9.928774623767420e-01 -1.493321086517694e-02 -6.065698150935408e-03 -1.338531606579296e-02
5.829756250000000e+09 -7.796449537617224e-03 -3.465158121785848e-02 9.929055131109658e-01 -1.475966084446117e-02 9.930057959462290e-01 -1.491782668314080e-02 -6.160390159875755e-03 -1.365318907635029e-02
5.871625000000000e+09 -8.148227964647528e-03 -3.496905395114519e-02 9.929191078818272e-01 -1.500544078952118e-02 9.930260552993776e-01 -1.514533887809616e-02 -6.355102868466647e-03 -1.374304718378768e-02
5.913493750000000e+09 -8.150962444939130e-03 -3.516347291311228e-02 9.932341422592763e-01 -1.502258724500876e-02 9.933391844917637e-01 -1.519389205335119e-02 -6.586647661377825e-03 -1.383085757375359e-02
5.955362500000000e+09 -8.268243336529500e-03 -3.569263581645488e-02 9.932088323220275e-01 -1.513137393265020e-02 9.932889804156632e-01 -1.530936677115536e-02 -6.794266114684300e-03 -1.407865635945854e-02
5.997231250000000e+09 -8.308066156101489e-03 -3.573764213077608e-02 9.931828799738402e-01 -1.527782825215116e-02 9.932583546167377e-01 -1.550043706710630e-02 -6.822072032349085e-03 -1.399369073730685e-02
6.039100000000000e+09 -8.477516663038172e-03 -3.613887801910763e-02 9.933418245110374e-01 -1.538408557713345e-02 9.935209200989038e-01 -1.554518925298952e-02 -7.034454061660718e-03 -1.425201017612528e-02
6.080968750000000e+09 -8.708336136148786e-03 -3.649042035781230e-02 9.933298163896555e-01 -1.547620544801043e-02 9.934445828993652e-01 -1.566174460674952e-02 -7.174250950089776e-03 -1.434165328446301e-02
6.122837500000000e+09 -8.601566612937449e-03 -3.666160018549085e-02 9.932765351088308e-01 -1.564751776138623e-02 9.934570756569613e-01 -1.583171740241365e-02 -7.138982794490700e-03 -1.436000136849628e-02
6.164706250000000e+09 -8.720681046344601e-03 -3.698976475808523e-02 9.931402979434188e-01 -1.574857027112642e-02 9.932294728461823e-01 -1.594089649829299e-02 -7.317997156901882e-03 -1.439635050732247e-02
6.206575000000000e+09 -8.466904014871223e-03 -3.719371390446051e-02 9.929381473186821e-01 -1.579460128572616e-02 9.930323991625077e-01 -1.593381675100286e-02 -7.046803522981220e-03 -1.443910352243524e-02
6.248443750000000e+09 -8.625196586323604e-03 -3.752006906006394e-02 9.929579223315268e-01 -1.596074226313984e-02 9.930180688357618e-01 -1.613362824175362e-02 -7.369937780563845e-03 -1.454391856629288e-02
6.290312500000000e+09 -8.885572904996888e-03 -3.767871314331648e-02 9.930824796775019e-01 -1.607699112451474e-02 9.931599211098294e-01 -1.619758017085380e-02 -7.469452125203654e-03 -1.459217231683525e-02
6.332181250000000e+09 -8.438665465164386e-03 -3.815542552136308e-02 9.928028923182094e-01 -1.604586992138855e-02 9.929107809069915e-01 -1.628342333899433e-02 -7.186494423237182e-03 -1.475429934226273e-02
6.374050000000000e+09 -8.758523405749147e-03 -3.827519655958420e-02 9.928013253155996e-01 -1.624185712526872e-02 9.929406934301513e-01 -1.634240868644879e-02 -7.417104743787165e-03 -1.464625809257411e-02
6.415918750000000e+09 -9.018668828759744e-03 -3.861262842276327e-02 9.930887641181005e-01 -1.631690071729669e-02 9.932542187717281e-01 -1.646579976322792e-02 -7.697897417686716e-03 -1.489087884420262e-02
6.457787500000000e+09 -8.906792030049472e-03 -3.897432004530858e-02 9.928674342815178e-01 -1.642777555164766e-02 9.929689380309067e-01 -1.654306304539755e-02 -7.560354509701475e-03 -1.495609920453409e-02
6.499656250000000e+09 -9.061569403828740e-03 -3.908867228734779e-02 9.930442966594599e-01 -1.649240164720932e-02 9.931768382709023e-01 -1.663871186416256e-02 -7.857906068414964e-03 -1.494072994420336e-02
6.541525000000000e+09 -8.915616252224043e-03 -3.953485344098522e-02 9.928972712005522e-01 -1.660520651334281e-02 9.930397859417838e-01 -1.669855905456816e-02 -7.777452728957100e-03 -1.515573141446130e-02
6.583393750000000e+09 -8.994533938383781e-03 -3.972887754568091e-02 9.927041967723990e-01 -1.674854317194888e-02 9.929058952001150e-01 -1.685919317466885e-02 -7.681311405365780e-03 -1.504662306783005e-02
6.625262500000000e+09 -8.944014875079514e-03 -4.007061374451334e-02 9.928627396816284e-01 -1.679204056980102e-02 9.930883102251342e-01 -1.693531403375010e-02 -7.880364890961363e-03 -1.520642837798718e-02
6.667131250000000e+09 -9.227949247781113e-03 -4.036504152181032e-02 9.929011675519241e-01 -1.690342069491261e-02 9.930542275774802e-01 -1.704680033906054e-02 -8.152435480102147e-03 -1.529512074289847e-02
6.709000000000000e+09 -9.021701379447744e-03 -4.051162440923071e-02 9.927433340850429e-01 -1.705111189846404e-02 9.929287503029194e-01 -1.719541985888505e-02 -7.841243647943230e-03 -1.528375235069286e-02
6.750868750000000e+09 -9.052643502833572e-03 -4.089438646896835e-02 9.925395040510602e-01 -1.717796934095599e-02 9.927465897940579e-01 -1.734536411850666e-02 -7.942438873929284e-03 -1.547129776912156e-02
6.792737500000000e+09 -9.155481272721333e-03 -4.110120276718332e-02 9.925552851884970e-01 -1.718753150196320e-02 9.927050880513686e-01 -1.732782428384416e-02 -7.909928525460656e-03 -1.554536972418747e-02
6.834606250000000e+09 -9.269537073963885e-03 -4.135890208184451e-02 9.926129889517077e-01 -1.734529163590759e-02 9.927962090515519e-01 -1.751953624651516e-02 -8.170223648708985e-03 -1.562562424005465e-02
6.876475000000000e+09 -9.562877264687734e-03 -4.158072265063564e-02 9.927525092100483e-01 -1.737069738822902e-02 9.929857822042699e-01 -1.755688090845690e-02 -8.452566496519489e-03 -1.576277143518169e-02
6.918343750000000e+09 -9.343343756526014e-03 -4.189598628249535e-02 9.927654512974704e-01 -1.735943371865534e-02 9.928804293879149e-01 -1.755999492541547e-02 -8.258651011242341e-03 -1.584120834457857e-02
6.960212500000000e+09 -9.313158680549695e-03 -4.217000238047872e-02 9.925055184825372e-01 -1.758037906495941e-02 9.926741952204269e-01 -1.779420309531577e-02 -8.360836141404229e-03 -1.589361944677258e-02
7.002081250000000e+09 -9.078286130172026e-03 -4.244422216185025e-02 9.922995308042526e-01 -1.750560150313020e-02 9.925366191842936e-01 -1.772533013348370e-02 -8.118886780902624e-03 -1.593649535069428e-02
7.043950000000000e+09 -8.875112183203358e-03 -4.276144734237715e-02 9.921912311391681e-01 -1.771048941664742e-02 9.922993924504765e-01 -1.792479873297991e-02 -8.197182841436104e-03 -1.610023172671100e-02
7.085818750000000e+09 -9.022163908127321e-03 -4.300788857085393e-02 9.922028325496698e-01 -1.786149385803479e-02 9.923828275358002e-01 -1.803223707452373e-02 -8.283368260539711e-03 -1.608731796973523e-02
7.127687500000000e+09 -8.621526059312511e-03 -4.343540961194321e-02 9.918870676917563e-01 -1.787089259616126e-02 9.921184154051169e-01 -1.801934401648532e-02 -7.951279244174223e-03 -1.621832785075484e-02
7.169556250000000e+09 -8.499914393578686e-03 -4.359605991834253e-02 9.915631117027695e-01 -1.807224878303755e-02 9.917297403238063e-01 -1.825403575634293e-02 -7.750324533582047e-03 -1.623051819552823e-02
7.211425000000000e+09 -8.244900493964990e-03 -4.393825121656672e-02 9.914562636805690e-01 -1.804965069738569e-02 9.915910601741242e-01 -1.821349211390505e-02 -7.702189349198437e-03 -1.638204454249962e-02
7.253293750000000e+09 -8.394954337481258e-03 -4.429609494847443e-02 9.913734995960520e-01 -1.822482462257789e-02 9.915011730959856e-01 -1.844314364596764e-02 -7.989627682741566e-03 -1.645002949606459e-02
7.295162500000000e+09 -7.780330936541974e-03 -4.453872646262304e-02 9.908154785846514e-01 -1.827507056745550e-02 9.907101684417442e-01 -1.858025073791309e-02 -7.141016113529973e-03 -1.623622350474111e-02
7.337031250000000e+09 -7.631770261546947e-03 -4.483897748667105e-02 9.903896141575023e-01 -1.843307581368118e-02 9.904420928860376e-01 -1.867386830016169e-02 -7.019474218698228e-03 -1.642054109686123e-02
7.378900000000000e+09 -7.539044822678974e-03 -4.504926909827212e-02 9.900621858224778e-01 -1.850483794911032e-02 9.902676809218016e-01 -1.874052298439812e-02 -6.808206822602403e-03 -1.641086325639258e-02
7.420768750000000e+09 -7.340355471650108e-03 -4.537822036594859e-02 9.898787380253365e-01 -1.854131636197191e-02 9.900978238329563e-01 -1.872861980520670e-02 -6.511344024140614e-03 -1.644739453763340e-02
7.462637500000000e+09 -7.946703220986414e-03 -4.572449598702905e-02 9.901417422053713e-01 -1.861876430950967e-02 9.903238768183981e-01 -1.879894914594039e-02 -6.900902682677111e-03 -1.666042393614327e-02
7.504506250000000e+09 -8.133498558613778e-03 -4.600983809632501e-02 9.903804949763548e-01 -1.860911956994019e-02 9.905649422322294e-01 -1.882465314387211e-02 -7.022025660395012e-03 -1.668570539297444e-02
7.546375000000000e+09 -8.534581446360257e-03 -4.628360119772851e-02 9.905883828169810e-01 -1.876461682859551e-02 9.908032503493418e-01 -1.899171505295552e-02 -7.366448329487720e-03 -1.684805458353586e-02
7.588243750000000e+09 -9.248613011567394e-03 -4.655004089440589e-02 9.913984453857826e-01 -1.880258243460593e-02 9.915104025326114e-01 -1.896839649642603e-02 -8.067333028676914e-03 -1.691410530796810e-02
7.630112500000000e+09 -9.047183883300123e-03 -4.700965123692406e-02 9.913028130586090e-01 -1.890643654580000e-02 9.914444886474757e-01 -1.906396685866795e-02 -8.185873980912530e-03 -1.722995480771722e-02
7.671981250000000e+09 -8.842695170682972e-03 -4.718997442228859e-02 9.910007538187559e-01 -1.898392759012906e-02 9.911673014789438e-01 -1.918154046651033e-02 -7.946123863792655e-03 -1.707162026538359e-02
7.713850000000000e+09 -8.839390250814611e-03 -4.738252820366257e-02 9.909239109122262e-01 -1.893780744759538e-02 9.910992722087757e-01 -1.924932874814488e-02 -7.898120311178066e-03 -1.722722318093775e-02
7.755718750000000e+09 -9.328414326969849e-03 -4.764663450679248e-02 9.911010542074162e-01 -1.917974870706647e-02 9.913192837642275e-01 -1.951121638311546e-02 -8.240644889662557e-03 -1.734710697783041e-02
7.797587500000000e+09 -8.850744334450942e-03 -4.779491954054331e-02 9.908552889220184e-01 -1.916443745454192e-02 9.910550598158456e-01 -1.943201496304238e-02 -7.907454695116828e-03 -1.736627461417488e-02
7.839456250000000e+09 -9.076583702230216e-03 -4.813355959731818e-02 9.909079881479519e-01 -1.925563986425817e-02 9.910408627740267e-01 -1.961657721762332e-02 -8.043342930473648e-03 -1.751977203182731e-02
7.881325000000000e+09 -8.961326116171849e-03 -4.842271013445592e-02 9.907343020990390e-01 -1.933673621432779e-02 9.908445991753294e-01 -1.963689419065270e-02 -7.966494222194483e-03 -1.766950801519436e-02
7.923193750000000e+09 -9.134823159917699e-03 -4.864764771358727e-02 9.908421422001558e-01 -1.944022575739898e-02 9.910346315301037e-01 -1.977600404760707e-02 -8.028753212133859e-03 -1.795218632847336e-02
7.965062500000000e+09 -9.351111637085081e-03 -4.896667049526510e-02 9.908612417070393e-01 -1.962115124820642e-02 9.910208658300301e-01 -1.992583447007306e-02 -8.282601849538671e-03 -1.794486010632167e-02
8.006931250000000e+09 -9.078449212977558e-03 -4.923161616961948e-02 9.908183910436007e-01 -1.956531077496338e-02 9.909937248717809e-01 -1.994092877635608e-02 -8.099235892024242e-03 -1.806906964606596e-02
8.048800000000000e+09 -9.392024515509302e-03 -4.961164179952596e-02 9.909743505106237e-01 -1.981719140715203e-02 9.910819770045440e-01 -2.023217813415975e-02 -8.571997675489397e-03 -1.802617617165319e-02
8.090668750000000e+09 -9.535679063461261e-03 -4.986226236040955e-02 9.910587961374911e-01 -1.986518098853712e-02 9.911672671945408e-01 -2.018303444848467e-02 -8.536989461038681e-03 -1.816014084089899e-02
8.132537500000000e+09 -9.636496335376514e-03 -5.021362578094311e-02 9.910006704897508e-01 -2.008123955824954e-02 9.911020776038494e-01 -2.032087184552165e-02 -8.760874658417914e-03 -1.823393026888787e-02
8.174406250000000e+09 -9.760295346334867e-03 -5.039870554403043e-02 9.910358109192369e-01 -2.007265580211389e-02 9.911533320016873e-01 -2.032378175697509e-02 -8.950290840183325e-03 -1.820401273863653e-02
8.216275000000000e+09 -9.529722622118531e-03 -5.077340381694972e-02 9.909247943549748e-01 -2.002584208326689e-02 9.909472887232146e-01 -2.040367624124982e-02 -8.667814817081702e-03 -1.846105231920905e-02
8.258143750000000e+09 -9.451921301794385e-03 -5.091310796636780e-02 9.905569518848906e-01 -2.021656642788282e-02 9.906864445208017e-01 -2.057461945294480e-02 -8.677881437983807e-03 -1.838530234477797e-02
8.300012500000000e+09 -9.626464543652326e-03 -5.112136687348079e-02 9.908707846301731e-01 -2.020455737575076e-02 9.910364953143266e-01 -2.050313355375096e-02 -8.842264215330933e-03 -1.858922688852621e-02
8.341881250000000e+09 -9.770181984601178e-03 -5.150489616829251e-02 9.907176981538413e-01 -2.040903863934933e-02 9.909101637081897e-01 -2.070804170052111e-02 -9.085114098743314e-03 -1.872154470541359e-02
8.383750000000000e+09 -9.709539011957910e-03 -5.161532054483491e-02 9.908907499019762e-01 -2.035772412314915e-02 9.909745629375153e-01 -2.065768317790054e-02 -9.113401651237718e-03 -1.871669549625489e-02
8.425618750000000e+09 -9.974698040117040e-03 -5.204313708662393e-02 9.910601777044742e-01 -2.055735695891635e-02 9.911047294897842e-01 -2.083951738420677e-02 -9.438290284968473e-03 -1.899639957773451e-02
8.467487500000000e+09 -9.783241711221182e-03 -5.226470944732057e-02 9.907550901534272e-01 -2.057928898847959e-02 9.907796929873202e-01 -2.091335360766410e-02 -9.227015117963613e-03 -1.882984904814531e-02
8.509356250000000e+09 -9.846163957956951e-03 -5.250441246444743e-02 9.908740607895197e-01 -2.073776212277865e-02 9.909767060275400e-01 -2.106048117871830e-02 -9.397793288196198e-03 -1.904208622617868e-02
8.551225000000000e+09 -9.985670530096653e-03 -5.286002365473610e-02 9.907036192590909e-01 -2.084419496942561e-02 9.907465210054569e-01 -2.117831271392606e-02 -9.533872727149022e-03 -1.906894335310564e-02
8.593093750000000e+09 -9.564974867092565e-03 -5.306586683792473e-02 9.904940880559880e-01 -2.084618297347338e-02 9.905874338054017e-01 -2.118584562124592e-02 -9.406699037773572e-03 -1.907528673028710e-02
8.634962500000000e+09 -9.615124363587017e-03 -5.339398154561443e-02 9.903666213550005e-01 -2.104648491336560e-02 9.903959962017714e-01 -2.139224104601433e-02 -9.503580085234697e-03 -1.909944347948276e-02
8.676831250000000e+09 -9.596226242679735e-03 -5.363764273695133e-02 9.901565520295305e-01 -2.099531755027051e-02 9.902233122617412e-01 -2.129368638700716e-02 -9.160652770932427e-03 -1.911602841178141e-02
8.718700000000000e+09 -9.510167068778871e-03 -5.385503151259761e-02 9.900301713510675e-01 -2.123377477904714e-02 9.900663608047926e-01 -2.151924647960561e-02 -9.204910469796396e-03 -1.931805171399369e-02
8.760568750000000e+09 -9.753530161851379e-03 -5.410207497846041e-02 9.901437092412185e-01 -2.128962655110544e-02 9.901676570906404e-01 -2.156583391089216e-02 -9.440973487521636e-03 -1.913535961194197e-02
8.802437500000000e+09 -9.773365431005406e-03 -5.439447012381447e-02 9.902413759316838e-01 -2.126301586964166e-02 9.903662596136071e-01 -2.149332136834096e-02 -9.553078177808110e-03 -1.929925362484084e-02
8.844306250000000e+09 -9.645156155942053e-03 -5.476059327178188e-02 9.900049566427792e-01 -2.134114827330661e-02 9.901188618888520e-01 -2.159934207256938e-02 -9.416006039151945e-03 -1.917210869133446e-02
8.886175000000000e+09 -9.599499695939612e-03 -5.492235950856070e-02 9.900497665778125e-01 -2.142841213492728e-02 9.902797710371709e-01 -2.162129364040582e-02 -9.274198069139419e-03 -1.930896560509272e-02
8.928043750000000e+09 -9.751860330043449e-03 -5.535011023378239e-02 9.900289866144543e-01 -2.161567603328722e-02 9.902885588098186e-01 -2.186046309131327e-02 -9.484890478390342e-03 -1.940402468272023e-02
8.969912500000000e+09 -9.871449480820197e-03 -5.557507184109070e-02 9.903042287455580e-01 -2.158430896985674e-02 9.904780107914585e-01 -2.183104338044793e-02 -9.677505820976220e-03 -1.947664366979176e-02
9.011781250000000e+09 -9.638549221850484e-03 -5.581774277680342e-02 9.901120921836903e-01 -2.183732341397628e-02 9.903232644609364e-01 -2.207025426846499e-02 -9.534804091078618e-03 -1.966223850948502e-02
9.053650000000000e+09 -1.000048710687506e-02 -5.623582793365681e-02 9.901615170065372e-01 -2.179373752984445e-02 9.903449835111425e-01 -2.207159457194027e-02 -9.842528360036703e-03 -1.989194133873184e-02
9.095518750000000e+09 -9.575820250959198e-03 -5.631693700034739e-02 9.899477785312265e-01 -2.192519241190866e-02 9.901608448412756e-01 -2.223049864113111e-02 -9.623996193523441e-03 -2.006031665888810e-02
9.137387500000000e+09 -9.400279173792599e-03 -5.659110181350255e-02 9.895276433647507e-01 -2.208042983607376e-02 9.897553754276471e-01 -2.235736500862890e-02 -9.610538698841230e-03 -2.009035268840522e-02
9.179256250000000e+09 -9.490153280986537e-03 -5.689763374032005e-02 9.895719870373786e-01 -2.206126886632933e-02 9.897298933730647e-01 -2.237303805083968e-02 -9.643059014686923e-03 -2.017163882007060e-02
9.221125000000000e+09 -9.215021998020805e-03 -5.717725841865681e-02 9.892837755393817e-01 -2.228747076778551e-02 9.893928062787634e-01 -2.253556322635900e-02 -9.458860076921722e-03 -2.037952115122522e-02
9.262993750000000e+09 -9.303805504959147e-03 -5.744249284366033e-02 9.891564549342124e-01 -2.224544105516889e-02 9.893256045392124e-01 -2.252828257442211e-02 -9.432464269679454e-03 -2.025195247181034e-02
9.304862500000000e+09 -8.707774535990687e-03 -5.769236235369542e-02 9.885175166998628e-01 -2.227660411626584e-02 9.887184984943697e-01 -2.251311590384586e-02 -8.971379852979119e-03 -2.026398182496470e-02
9.346731250000000e+09 -8.792029724262955e-03 -5.790381029029805e-02 9.884201390313750e-01 -2.245576384509182e-02 9.886267383198805e-01 -2.270285645928397e-02 -9.143378855019681e-03 -2.026253234647703e-02
9.388600000000000e+09 -8.867685675176692e-03 -5.825633347125994e-02 9.884870393892815e-01 -2.253433895707279e-02 9.886797203410502e-01 -2.280997793970131e-02 -9.074217173892066e-03 -2.019109887442134e-02
9.430468750000000e+09 -8.326714952246688e-03 -5.850963096703705e-02 9.878713746391395e-01 -2.272226911945091e-02 9.879943915437811e-01 -2.288472583903164e-02 -8.791238599698839e-03 -2.040133092094807e-02
9.472337500000000e+09 -8.921057744893136e-03 -5.858076053568039e-02 9.881823479776138e-01 -2.274120347729775e-02 9.882719184522476e-01 -2.291409560368824e-02 -8.934462215268387e-03 -2.054251163592017e-02
9.514206250000000e+09 -8.975654189562339e-03 -5.896437832927896e-02 9.881065511101306e-01 -2.281239181746965e-02 9.882539735203200e-01 -2.305291733536452e-02 -8.883635242900851e-03 -2.069037480701202e-02
9.556075000000000e+09 -9.026434800217951e-03 -5.909090145604171e-02 9.879169891060546e-01 -2.286846257060135e-02 9.880397708810614e-01 -2.306244113689476e-02 -9.171731043968234e-03 -2.051986778711402e-02
9.597943750000000e+09 -8.560404239893963e-03 -5.924368831079150e-02 9.876220373454920e-01 -2.280051160711266e-02 9.877282468461839e-01 -2.302215100879591e-02 -8.712878983525758e-03 -2.039711922680661e-02
9.639812500000000e+09 -8.794103543113878e-03 -5.967217649994929e-02 9.875742802358850e-01 -2.289146226265998e-02 9.877609425936715e-01 -2.316323097842905e-02 -8.592170452979971e-03 -2.062657165967204e-02
9.681681250000000e+09 -8.995721532336709e-03 -5.976082757148564e-02 9.879089673679424e-01 -2.294896441766346e-02 9.881139066774017e-01 -2.314705872179942e-02 -8.833431853527945e-03 -2.079533177487292e-02
9.723550000000000e+09 -9.308761504544931e-03 -6.020423914136886e-02 9.881874430129653e-01 -2.316417815931021e-02 9.882868644720680e-01 -2.334963186620842e-02 -9.231881710306630e-03 -2.097532932938152e-02
9.765418750000000e+09 -9.504371450082224e-03 -6.047592089915215e-02 9.881647247265004e-01 -2.322279809822184e-02 9.883378372279725e-01 -2.345829327982344e-02 -9.349688583112753e-03 -2.103508653935544e-02
9.807287500000000e+09 -9.413890587366140e-03 -6.076735133335417e-02 9.881004851850489e-01 -2.325237881969390e-02 9.882954988948307e-01 -2.358335528748564e-02 -9.595049145186434e-03 -2.115589881973120e-02
9.849156250000000e+09 -9.866992018099898e-03 -6.096197355697373e-02 9.882684624355694e-01 -2.344857580867720e-02 9.884242812259403e-01 -2.364057913124375e-02 -1.028291290548177e-02 -2.110783178561192e-02
9.891025000000000e+09 -9.758518600221122e-03 -6.120933862785440e-02 9.881726181062990e-01 -2.332101285934090e-02 9.882986875826135e-01 -2.357030697039572e-02 -1.015075714930184e-02 -2.096870652229584e-02
9.932893750000000e+09 -9.713601471407091e-03 -6.137945550882787e-02 9.881051621529825e-01 -2.338744168244779e-02 9.882753075822130e-01 -2.365590758090673e-02 -1.024441197908523e-02 -2.107907924235277e-02
9.974762500000000e+09 -9.554110835276852e-03 -6.136469150750272e-02 9.881861336253593e-01 -2.337444359689092e-02 9.882455193617973e-01 -2.354883957434628e-02 -1.010104350269836e-02 -2.079531299051094e-02
1.001663125000000e+10 -8.943351616742505e-03 -6.178046627537054e-02 9.877246772013367e-01 -2.343745640586759e-02 9.878435949156007e-01 -2.358444348694326e-02 -9.490725747747843e-03 -2.095002445746941e-02
1.005850000000000e+10 -9.309437540977622e-03 -6.179680349101677e-02 9.880780593068529e-01 -2.348622181828063e-02 9.882415152679908e-01 -2.370766013354901e-02 -9.817843231846281e-03 -2.085011908162453e-02
1.010036875000000e+10 -9.015925506064506e-03 -6.249742671485480e-02 9.880435183933508e-01 -2.352528378382899e-02 9.881784082769207e-01 -2.367261863831747e-02 -9.564666338091247e-03 -2.083415844003591e-02
1.014223750000000e+10 -8.642658517038155e-03 -6.314670295765129e-02 9.878615480268691e-01 -2.366827984051967e-02 9.879546944364654e-01 -2.388597119647022e-02 -9.548903163833640e-03 -2.076216375025895e-02
1.018410625000000e+10 -8.626820000646792e-03 -6.343962226993151e-02 9.879990793460571e-01 -2.390965907789375e-02 9.881010173914644e-01 -2.413561790261996e-02 -9.206220186771698e-03 -2.083918707872513e-02
1.022597500000000e+10 -8.820056366568223e-03 -6.417043600785963e-02 9.878897854735496e-01 -2.409923875565278e-02 9.880012037398749e-01 -2.416796170288520e-02 -8.978538962137170e-03 -2.115805374660879e-02
1.026784375000000e+10 -9.050487076067969e-03 -6.416159048728554e-02 9.880943097515313e-01 -2.410079157740463e-02 9.882404471817129e-01 -2.437639866465996e-02 -9.179115848284293e-03 -2.134492930378839e-02
1.030971250000000e+10 -9.666089460303059e-03 -6.469333937851533e-02 9.886497750372848e-01 -2.437663292713006e-02 9.888602856242048e-01 -2.466640891093888e-02 -9.668076164847666e-03 -2.181843508606295e-02
1.035158125000000e+10 -1.028145570881828e-02 -6.506411768526646e-02 9.890501259489576e-01 -2.452235524552544e-02 9.892587855356179e-01 -2.488559822215114e-02 -1.040854114457871e-02 -2.200576131462185e-02
1.039345000000000e+10 -9.881685639936653e-03 -6.526377418917655e-02 9.888303806201340e-01 -2.477598105089020e-02 9.889409422197665e-01 -2.508887072013659e-02 -1.031140121297183e-02 -2.222068878193890e-02
1.043531875000000e+10 -1.003048781570124e-02 -6.552669557663911e-02 9.885613484020480e-01 -2.502088926546460e-02 9.888257652985196e-01 -2.523670956628836e-02 -1.044049031287655e-02 -2.246051553650478e-02
1.047718750000000e+10 -9.790251479167598e-03 -6.563463001956583e-02 9.882439910953082e-01 -2.498789362498013e-02 9.883761765925937e-01 -2.517583430720319e-02 -1.024695906144668e-02 -2.255525164753918e-02
1.051905625000000e+10 -1.027060416241537e-02 -6.579563753037115e-02 9.883575991068683e-01 -2.516473520200206e-02 9.886554800971225e-01 -2.542054428576396e-02 -1.091967849916736e-02 -2.286156207312567e-02
1.056092500000000e+10 -1.021549745471436e-02 -6.589636017161263e-02 9.880868285152458e-01 -2.523634248135704e-02 9.882683825824726e-01 -2.546355580033309e-02 -1.074433047344299e-02 -2.274714871789968e-02
1.060279375000000e+10 -1.001925632303924e-02 -6.633649077035209e-02 9.878116735396986e-01 -2.528318787571909e-02 9.879674676418859e-01 -2.557126416940976e-02 -1.058255701706803e-02 -2.298607525115551e-02
1.064466250000000e+10 -1.034635035851855e-02 -6.634585162548516e-02 9.879521266432034e-01 -2.545911201982259e-02 9.880712759337232e-01 -2.580622235422942e-02 -1.110695584577731e-02 -2.288124066496651e-02
1.068653125000000e+10 -1.003026027107099e-02 -6.685115935976191e-02 9.877781420642497e-01 -2.537910992421247e-02 9.878115970966460e-01 -2.567533881667468e-02 -1.081219508874946e-02 -2.299332400513451e-02
1.072840000000000e+10 -1.037634267507657e-02 -6.721623807793332e-02 9.874888821243979e-01 -2.551297341492970e-02 9.876617299500445e-01 -2.584752368273836e-02 -1.122069894596860e-02 -2.300321416753337e-02
1.077026875000000e+10 -1.030835004307207e-02 -6.732302045560259e-02 9.877957733041814e-01 -2.547552546947661e-02 9.879412293726458e-01 -2.579618720762526e-02 -1.136818200766961e-02 -2.284604960954401e-02
1.081213750000000e+10 -1.011594940855577e-02 -6.781639938430108e-02 9.876503157475954e-01 -2.548829589347798e-02 9.877555701621529e-01 -2.581617038665784e-02 -1.133246366008558e-02 -2.302169768687965e-02
1.085400625000000e+10 -9.491499857764556e-03 -6.783474910022884e-02 9.868989625495099e-01 -2.548063199021477e-02 9.870761137153855e-01 -2.592416610444673e-02 -1.086736267230624e-02 -2.293065403336471e-02
1.089587500000000e+10 -9.421758186760363e-03 -6.823409896451854e-02 9.867027085089185e-01 -2.576960568080084e-02 9.868135465750951e-01 -2.615589529501985e-02 -1.074299934072971e-02 -2.301984655456835e-02
1.093774375000000e+10 -9.839234238744370e-03 -6.841615071565135e-02 9.865703296194145e-01 -2.590410066979023e-02 9.865951742907113e-01 -2.617220514357243e-02 -1.087973575178952e-02 -2.310506146882902e-02
1.097961250000000e+10 -9.603102671353808e-03 -6.849811688614194e-02 9.860884752607482e-01 -2.584708326076084e-02 9.861715046192753e-01 -2.618449552157064e-02 -1.043649995936858e-02 -2.312171885109812e-02
1.102148125000000e+10 -1.002737731913741e-02 -6.857635655497465e-02 9.860116900273066e-01 -2.595344576873389e-02 9.859632880744608e-01 -2.621540164059612e-02 -1.039341383408948e-02 -2.308148154065375e-02
1.106335000000000e+10 -1.034191191953142e-02 -6.875821605699263e-02 9.862365095114581e-01 -2.576991929937289e-02 9.862475885288486e-01 -2.596868815237037e-02 -1.063245093831738e-02 -2.321019883725458e-02
1.110521875000000e+10 -1.068456734807420e-02 -6.885921204025140e-02 9.863968584278526e-01 -2.601593393225818e-02 9.865137059885052e-01 -2.620500168999316e-02 -1.110375310763362e-02 -2.323302787591442e-02
1.114708750000000e+10 -1.075622911676874e-02 -6.887777529545441e-02 9.864983542007119e-01 -2.591255300599743e-02 9.865050061902465e-01 -2.621301161337381e-02 -1.120292287565581e-02 -2.321058494022257e-02
1.118895625000000e+10 -1.063894810013157e-02 -6.919472737220782e-02 9.865004944001590e-01 -2.585494878654657e-02 9.865287651633842e-01 -2.611805383377678e-02 -1.125954697432801e-02 -2.340475536785840e-02
1.123082500000000e+10 -1.074838161885619e-02 -6.932999048263526e-02 9.864586218800064e-01 -2.598783256508584e-02 9.864946301953184e-01 -2.626841698858854e-02 -1.132649075852549e-02 -2.321993054207321e-02
1.127269375000000e+10 -1.054028353401928e-02 -6.980622708556536e-02 9.865671729330224e-01 -2.579087557366775e-02 9.866307486620091e-01 -2.609225536673779e-02 -1.133789238266683e-02 -2.339569643968690e-02
1.131456250000000e+10 -1.055730320287350e-02 -7.013974590012184e-02 9.866369845756362e-01 -2.593490770384041e-02 9.866712131127356e-01 -2.623448363458411e-02 -1.174002815181785e-02 -2.346025570768453e-02
1.135643125000000e+10 -9.936789472202175e-03 -7.026154493504244e-02 9.862955360116501e-01 -2.593738396020811e-02 9.863595897553056e-01 -2.631588935022663e-02 -1.138857571034192e-02 -2.351383825119558e-02
1.139830000000000e+10 -9.788889176451552e-03 -7.072541835100357e-02 9.861632513666422e-01 -2.603332576318119e-02 9.862303406836563e-01 -2.620544566721125e-02 -1.101701706261490e-02 -2.368511394115986e-02
1.144016875000000e+10 -1.009979320404760e-02 -7.093520551900971e-02 9.863295593700361e-01 -2.616636990253824e-02 9.863776534910306e-01 -2.640186099670598e-02 -1.117031748303606e-02 -2.353933566755742e-02
1.148203750000000e+10 -1.036365178932661e-02 -7.133361233006900e-02 9.868571372569913e-01 -2.629979685746797e-02 9.868321672828737e-01 -2.652010411659249e-02 -1.139316629242679e-02 -2.353054572321807e-02
1.152390625000000e+10 -1.023791231786528e-02 -7.180453350520549e-02 9.867219368015685e-01 -2.652712993362688e-02 9.866982019782825e-01 -2.677984560910580e-02 -1.141159037644458e-02 -2.382415736259549e-02
1.156577500000000e+10 -1.016479742763149e-02 -7.189643737191574e-02 9.865896795152721e-01 -2.670863268024982e-02 9.865773230373404e-01 -2.696788811169950e-02 -1.108965870731787e-02 -2.425767500013741e-02
1.160764375000000e+10 -1.049044889926668e-02 -7.181342102007569e-02 9.862130251931628e-01 -2.687092126203911e-02 9.861990577539067e-01 -2.709835106505827e-02 -1.112352617674126e-02 -2.441878907124054e-02
1.164951250000000e+10 -1.082864191119228e-02 -7.217944434949006e-02 9.861934127655121e-01 -2.680649625906838e-02 9.861605235088524e-01 -2.712796079844574e-02 -1.173418536170357e-02 -2.440915120982149e-02
1.169138125000000e+10 -1.059005329772150e-02 -7.238315700137805e-02 9.862889689295993e-01 -2.705381441893460e-02 9.862461976297198e-01 -2.727279883016260e-02 -1.180318610997328e-02 -2.421300309803194e-02
1.173325000000000e+10 -9.713957891731085e-03 -7.248753854900945e-02 9.852606510151288e-01 -2.701981237509198e-02 9.853555555213369e-01 -2.728859757923804e-02 -1.102904032857453e-02 -2.387116620622940e-02
1.177511875000000e+10 -9.803458725028651e-03 -7.272393145780408e-02 9.852571592732281e-01 -2.716951517208131e-02 9.853575930103388e-01 -2.746570013447074e-02 -1.080936854585503e-02 -2.444757628024215e-02
1.181698750000000e+10 -1.005932664305062e-02 -7.276861957707143e-02 9.852771350255045e-01 -2.743818921476282e-02 9.853630138406195e-01 -2.753884530103820e-02 -1.097935796652703e-02 -2.451120145734379e-02
1.185885625000000e+10 -1.011264398894179e-02 -7.305833932844510e-02 9.853385940585482e-01 -2.730379944924476e-02 9.854270796260066e-01 -2.749671896295653e-02 -1.118088712078179e-02 -2.462827720472915e-02
1.190072500000000e+10 -9.825914135034216e-03 -7.330698779141850e-02 9.849187802296225e-01 -2.751654379987738e-02 9.850342050163606e-01 -2.783977408687286e-02 -1.102757153272515e-02 -2.483928918854710e-02
1.194259375000000e+10 -1.014817083746718e-02 -7.367843434533342e-02 9.847889731135006e-01 -2.760764374255585e-02 9.849395425508084e-01 -2.785472021967259e-02 -1.091967058304056e-02 -2.454554670882186e-02
1.198446250000000e+10 -1.010783749399575e-02 -7.398914802215928e-02 9.849475852189931e-01 -2.755835838164289e-02 9.850470185217549e-01 -2.785757911636115e-02 -1.117701615938482e-02 -2.465672221024436e-02
1.202633125000000e+10 -9.202568105590747e-03 -7.435237263717526e-02 9.842498967952972e-01 -2.770627183099518e-02 9.842155984392322e-01 -2.807404784381242e-02 -1.064716961381864e-02 -2.461107239787916e-02
1.206820000000000e+10 -8.688875469417908e-03 -7.439824619040789e-02 9.833308139539888e-01 -2.767301215771262e-02 9.838420882294444e-01 -2.801385120328774e-02 -9.909148723346911e-03 -2.459467559814525e-02
1.211006875000000e+10 -9.058875641557192e-03 -7.483722370404564e-02 9.833259152062003e-01 -2.781238626907158e-02 9.834853872172685e-01 -2.807742192184679e-02 -9.358552308974900e-03 -2.506652321357978e-02
1.215193750000000e+10 -1.081500345318427e-02 -7.538244891152289e-02 9.846913100309838e-01 -2.781013030245971e-02 9.850531317120619e-01 -2.814345384429187e-02 -1.102640774035908e-02 -2.505873059305780e-02
1.219380625000000e+10 -1.169560240304002e-02 -7.557411359203074e-02 9.858426630847400e-01 -2.788467515881171e-02 9.859733354131389e-01 -2.809893285704248e-02 -1.228053501781176e-02 -2.543152516155050e-02
1.223567500000000e+10 -1.184170369086612e-02 -7.604380716052377e-02 9.860398313083117e-01 -2.776713527189092e-02 9.860978841885389e-01 -2.804474257489078e-02 -1.312612071026105e-02 -2.566211527943369e-02
1.227754375000000e+10 -1.135575030292819e-02 -7.603802931474259e-02 9.859289029989847e-01 -2.789981603101398e-02 9.860347109744004e-01 -2.830444334878733e-02 -1.305124091639026e-02 -2.528380254285383e-02
1.231941250000000e+10 -1.113985511581192e-02 -7.642519907659470e-02 9.857999846513525e-01 -2.776833131753286e-02 9.858021287875677e-01 -2.809355420118919e-02 -1.300437996563887e-02 -2.545609008669584e-02
1.236128125000000e+10 -1.079535980939484e-02 -7.660901831966666e-02 9.854244804305332e-01 -2.784386958830820e-02 9.855153183269483e-01 -2.818591775414547e-02 -1.280043191131507e-02 -2.537535397692444e-02
1.240315000000000e+10 -1.044091538415257e-02 -7.692355813983556e-02 9.852302972594587e-01 -2.798304698764153e-02 9.852650572449738e-01 -2.837100279008774e-02 -1.276722548013364e-02 -2.540667930489570e-02
1.244501875000000e+10 -1.009445212494286e-02 -7.724822591953689e-02 9.848011285416246e-01 -2.787707183248715e-02 9.847340494726412e-01 -2.820287150219055e-02 -1.231836076418976e-02 -2.538636328615094e-02
1.248688750000000e+10 -9.751721478647142e-03 -7.738755072826158e-02 9.844145985572855e-01 -2.818454215685034e-02 9.843217030253471e-01 -2.845216411630742e-02 -1.164460527001048e-02 -2.526634997733506e-02
1.252875625000000e+10 -9.915934965216609e-03 -7.795902323956952e-02 9.842963405143078e-01 -2.815139179505072e-02 9.843303431514259e-01 -2.849387683107000e-02 -1.168981876500539e-02 -2.540831767804874e-02
1.257062500000000e+10 -9.615148583613941e-03 -7.813095875102112e-02 9.841854303632120e-01 -2.818207425325236e-02 9.842062449331174e-01 -2.858361528662885e-02 -1.152310805096851e-02 -2.529542177692954e-02
1.261249375000000e+10 -9.404986380453416e-03 -7.880255063778549e-02 9.839294260982758e-01 -2.841183070709530e-02 9.839893767290627e-01 -2.883521919885003e-02 -1.089054932263646e-02 -2.545502566805441e-02
1.265436250000000e+10 -9.610867413226818e-03 -7.898959127570790e-02 9.837448287966486e-01 -2.885074058825336e-02 9.838390724013920e-01 -2.925594757701235e-02 -1.071204334331868e-02 -2.579394666353661e-02
1.269623125000000e+10 -1.025313568785968e-02 -7.939869113468284e-02 9.839073685284924e-01 -2.903056656451488e-02 9.838854973840842e-01 -2.955910043493357e-02 -1.079623199014003e-02 -2.659210740521672e-02
1.273810000000000e+10 -1.181931578435464e-02 -7.976488865729653e-02 9.843789642603820e-01 -2.949957906074991e-02 9.849081290163232e-01 -2.966560423845955e-02 -1.187074201371309e-02 -2.727899543004100e-02
1.277996875000000e+10 -1.285217697160453e-02 -7.989659336498652e-02 9.850517984027618e-01 -2.969207989104073e-02 9.851987023661574e-01 -3.022437823785894e-02 -1.296993468414432e-02 -2.754021453418087e-02
1.282183750000000e+10 -1.256538174209234e-02 -8.025782433139807e-02 9.851406409273777e-01 -2.939492767093827e-02 9.852272351074464e-01 -2.999817923710268e-02 -1.442176422389960e-02 -2.757557204764529e-02
1.286370625000000e+10 -1.211196674239114e-02 -7.977698149129524e-02 9.849229158757093e-01 -2.928568872143126e-02 9.849557942228091e-01 -2.983045196435241e-02 -1.441890405350710e-02 -2.702106446612580e-02
1.290557500000000e+10 -1.197006129177335e-02 -7.999761385653048e-02 9.849640299464594e-01 -2.910169431884524e-02 9.850286551903285e-01 -2.952144217433270e-02 -1.455613731409245e-02 -2.731047399814412e-02
1.294744375000000e+10 -1.198418585049635e-02 -7.967361243343571e-02 9.851061444385041e-01 -2.921538013833888e-02 9.850552032586078e-01 -2.961793040714573e-02 -1.506846671358790e-02 -2.723630546168829e-02
1.298931250000000e+10 -1.161256767334436e-02 -7.969079591173094e-02 9.847374823217174e-01 -2.955380599318862e-02 9.848138588871967e-01 -2.996956488253945e-02 -1.519470980104138e-02 -2.713804065619848e-02
1.303118125000000e+10 -1.155384453247239e-02 -7.963301730889627e-02 9.833009773536914e-01 -2.951995883506199e-02 9.834399271298347e-01 -2.990129995002247e-02 -1.469544189596875e-02 -2.695329414109597e-02
1.307305000000000e+10 -1.099901805548480e-02 -7.952522931476766e-02 9.828321227140081e-01 -2.928854396388796e-02 9.827710460725876e-01 -2.976144035624414e-02 -1.350423277378467e-02 -2.623251364143065e-02
1.311491875000000e+10 -1.061408323871153e-02 -7.967612569362126e-02 9.818994958228778e-01 -2.912615548731314e-02 9.818819023492513e-01 -2.982175537889626e-02 -1.246658319196343e-02 -2.627642204778064e-02
1.315678750000000e+10 -9.236876119486460e-03 -7.937601076557425e-02 9.811818127731082e-01 -2.892059305209654e-02 9.811149105048272e-01 -2.912250491432894e-02 -1.192905453195510e-02 -2.633971035235293e-02
1.319865625000000e+10 -9.696857489666427e-03 -7.979059482501734e-02 9.810568059230906e-01 -2.889860282919884e-02 9.810362330161095e-01 -2.932109756214939e-02 -1.134784001926493e-02 -2.671565387170981e-02
1.324052500000000e+10 -1.002511125943115e-02 -7.971048082413910e-02 9.812929584412963e-01 -2.891614929146177e-02 9.812661440443838e-01 -2.938839303358040e-02 -1.150746894413853e-02 -2.648199426618767e-02
1.328239375000000e+10 -9.942696221400127e-03 -8.008414535935655e-02 9.814329866965873e-01 -2.875290417460272e-02 9.813766153988652e-01 -2.915243530160826e-02 -1.128658383318169e-02 -2.690826110210332e-02
1.332426250000000e+10 -1.088316787001694e-02 -8.072327917738034e-02 9.821840852141064e-01 -2.883590913726539e-02 9.821896913192990e-01 -2.927065953756539e-02 -1.240519950887981e-02 -2.695199900415756e-02
1.336613125000000e+10 -1.041626958068005e-02 -8.097187917724714e-02 9.822311287497224e-01 -2.870076276781757e-02 9.822930608989620e-01 -2.904729824971827e-02 -1.242791109771400e-02 -2.667784188670249e-02
1.340800000000000e+10 -1.090469081714595e-02 -8.162966905141007e-02 9.826511238359191e-01 -2.871513511237569e-02 9.827262110235792e-01 -2.901586597068987e-02 -1.269654656940564e-02 -2.696898336796906e-02
1.344986875000000e+10 -1.118063526249562e-02 -8.180778356739446e-02 9.832439423657412e-01 -2.872458483116327e-02 9.832490163837529e-01 -2.903531257902130e-02 -1.318358015992254e-02 -2.695194835710403e-02
1.349173750000000e+10 -1.079167468251331e-02 -8.228562599837139e-02 9.831830785698341e-01 -2.886631840432648e-02 9.831743428175491e-01 -2.915651624827309e-02 -1.337923279018190e-02 -2.749306408678685e-02
1.353360625000000e+10 -1.130608323976045e-02 -8.237307762115509e-02 9.834485110665568e-01 -2.893640941659311e-02 9.834211822193243e-01 -2.924968724813949e-02 -1.398699941457945e-02 -2.730107596318204e-02
1.357547500000000e+10 -1.057663671873462e-02 -8.297208362885095e-02 9.834131113595030e-01 -2.872483388584978e-02 9.834052534132824e-01 -2.906164525902562e-02 -1.416997562183412e-02 -2.729873492612641e-02
1.361734375000000e+10 -9.469066069962657e-03 -8.307465299403609e-02 9.821819676318413e-01 -2.877596456563972e-02 9.825379314147504e-01 -2.925114137968201e-02 -1.380411087229116e-02 -2.714672880974374e-02
1.365921250000000e+10 -9.659624050231564e-03 -8.343792779159771e-02 9.823501350733778e-01 -2.915114820313137e-02 9.824770091283105e-01 -2.941050717336054e-02 -1.290815685329972e-02 -2.721704429345264e-02
1.370108125000000e+10 -1.060224461900085e-02 -8.431802525082689e-02 9.830632706810523e-01 -2.950438605050935e-02 9.831682654298508e-01 -2.963943164517585e-02 -1.370674797837519e-02 -2.753986307411772e-02
1.374295000000000e+10 -1.138656222611289e-02 -8.455245563197081e-02 9.837998428215882e-01 -2.959298234319953e-02 9.840712561765954e-01 -3.000556222451469e-02 -1.452204244694497e-02 -2.746318448904323e-02
1.378481875000000e+10 -1.025990288482609e-02 -8.530105872203718e-02 9.828580902106451e-01 -2.991977640144009e-02 9.828765389997264e-01 -3.022296447614866e-02 -1.424207279461891e-02 -2.738120395728105e-02
1.382668750000000e+10 -9.731767552313687e-03 -8.530547703727601e-02 9.819088910074653e-01 -2.999211548459036e-02 9.818343082462493e-01 -3.018461415858143e-02 -1.349440954323677e-02 -2.677042549261392e-02
1.386855625000000e+10 -9.692711302762658e-03 -8.571339116636555e-02 9.816986743626261e-01 -2.991695763543332e-02 9.818098028605898e-01 -3.009142243372090e-02 -1.272078326384974e-02 -2.710419756124809e-02
1.391042500000000e+10 -1.064237047867545e-02 -8.599196900058646e-02 9.821355220115054e-01 -2.998982578159461e-02 9.822813389556457e-01 -3.026310478595573e-02 -1.310344463065292e-02 -2.742801875667440e-02
1.395229375000000e+10 -1.139690362161993e-02 -8.610252251054576e-02 9.830575531931433e-01 -2.999336031950971e-02 9.830436241392754e-01 -3.013318438592047e-02 -1.376499322071343e-02 -2.785666654965318e-02
1.399416250000000e+10 -1.123970254313400e-02 -8.653705492889685e-02 9.830943913021417e-01 -3.019345305291622e-02 9.830603472091464e-01 -3.034738069692435e-02 -1.438459944295147e-02 -2.818617448532780e-02
1.403603125000000e+10 -1.014156338329903e-02 -8.648583962833579e-02 9.818005309459268e-01 -3.038425796688686e-02 9.819159397888134e-01 -3.074662140165369e-02 -1.332867483652536e-02 -2.791065739317525e-02
1.407790000000000e+10 -9.717856255982546e-03 -8.675567584071005e-02 9.806994589717307e-01 -3.083067913138824e-02 9.808560594958435e-01 -3.114628260229086e-02 -1.233815500617040e-02 -2.796594165433093e-02
1.411976875000000e+10 -1.062554443972185e-02 -8.689397066253746e-02 9.807663646516814e-01 -3.095033864145027e-02 9.808479501394962e-01 -3.118852946056794e-02 -1.277983127663225e-02 -2.766722461188201e-02
1.416163750000000e+10 -1.089606352962092e-02 -8.731110823014353e-02 9.808280783920175e-01 -3.088751481086474e-02 9.808974716852479e-01 -3.106446918041572e-02 -1.289413027566378e-02 -2.772512008984692e-02
1.420350625000000e+10 -1.123606881762326e-02 -8.728648107542158e-02 9.806337387144443e-01 -3.085223669327777e-02 9.807034691017352e-01 -3.101426374482015e-02 -1.274624488231067e-02 -2.765478373784784e-02
1.424537500000000e+10 -1.224594008299444e-02 -8.745200542394946e-02 9.814519021554600e-01 -3.075565525476527e-02 9.814092573316235e-01 -3.090161610382002e-02 -1.344325334391544e-02 -2.774480696327138e-02
1.428724375000000e+10 -1.298073819089721e-02 -8.762600748288213e-02 9.825304535081169e-01 -3.021445782803094e-02 9.829945077164911e-01 -3.056141713486459e-02 -1.458677488295407e-02 -2.774385129087440e-02
1.432911250000000e+10 -1.266616750562101e-02 -8.748427401660498e-02 9.827218228650837e-01 -3.045239952822506e-02 9.827216447609767e-01 -3.064383754967367e-02 -1.546607243669378e-02 -2.802332010017701e-02
1.437098125000000e+10 -1.182737017560885e-02 -8.769347004353581e-02 9.820918830870718e-01 -3.032473862028184e-02 9.821141657734084e-01 -3.056433182172333e-02 -1.495463550832161e-02 -2.810823666392347e-02
1.441285000000000e+10 -1.195604110633990e-02 -8.784233988465397e-02 9.818717854079918e-01 -3.033368002042774e-02 9.820808270274803e-01 -3.039649360040132e-02 -1.498871548119963e-02 -2.790435863174791e-02
1.445471875000000e+10 -1.196592788659117e-02 -8.828359181589775e-02 9.825505094577872e-01 -2.987891145248528e-02 9.826817164674581e-01 -2.992801933749008e-02 -1.525178015632302e-02 -2.777332747362555e-02
1.449658750000000e+10 -1.253283565755747e-02 -8.887496620132777e-02 9.835157943547830e-01 -2.971245763445250e-02 9.835666742982564e-01 -3.002836558653178e-02 -1.586205740518242e-02 -2.775211991433306e-02
1.453845625000000e+10 -1.123538877086131e-02 -8.955303606253159e-02 9.836014570560886e-01 -2.974052118298470e-02 9.836610407284220e-01 -2.997310811980953e-02 -1.595710296489580e-02 -2.785841421644421e-02
1.458032500000000e+10 -1.020409783183788e-02 -9.014355443885549e-02 9.828867368303342e-01 -3.039501153385573e-02 9.830105103480121e-01 -3.061885818794691e-02 -1.554692543849171e-02 -2.831668834225163e-02
1.462219375000000e+10 -1.014154748872008e-02 -9.070262161135145e-02 9.821069864078213e-01 -3.055396387977077e-02 9.824188345918534e-01 -3.076442321998061e-02 -1.464881240036099e-02 -2.860080156946525e-02
1.466406250000000e+10 -1.095522966945233e-02 -9.108712967722409e-02 9.828633299866679e-01 -3.098258921843826e-02 9.829725012927372e-01 -3.119960050250314e-02 -1.508708801738245e-02 -2.906690622617501e-02
1.470593125000000e+10 -1.136101554861835e-02 -9.141106548513445e-02 9.830805932495952e-01 -3.148279597698696e-02 9.831329316322139e-01 -3.169800201783986e-02 -1.575764307699689e-02 -2.926080886964579e-02
1.474780000000000e+10 -1.137741529568454e-02 -9.171546587172189e-02 9.826886965992170e-01 -3.165179467370842e-02 9.829152879869058e-01 -3.195140833688440e-02 -1.604183609014502e-02 -2.949460628233721e-02
1.478966875000000e+10 -1.131963346675826e-02 -9.145355136591517e-02 9.821279574551928e-01 -3.205747895849312e-02 9.818328672444931e-01 -3.232052472147565e-02 -1.524451130232573e-02 -2.951828209353081e-02
1.483153750000000e+10 -1.130489920839239e-02 -9.155680234887623e-02 9.815600665437670e-01 -3.204306850910569e-02 9.814160010768146e-01 -3.233454521393930e-02 -1.462480831714135e-02 -2.959804706886960e-02
1.487340625000000e+10 -1.177326551439418e-02 -9.149386005357429e-02 9.815922543775594e-01 -3.213510102808310e-02 9.816978832825907e-01 -3.242756003650387e-02 -1.523617951277920e-02 -2.976171308946486e-02
1.491527500000000e+10 -1.195501806337284e-02 -9.137277760640573e-02 9.817280140724131e-01 -3.224699129292606e-02 9.817713728375868e-01 -3.253107235695266e-02 -1.589637757112517e-02 -2.976650764322163e-02
1.495714375000000e+10 -1.184701906668681e-02 -9.132785737969643e-02 9.814641947527069e-01 -3.228276237663871e-02 9.815328564143109e-01 -3.252826459633872e-02 -1.560736511182515e-02 -2.961695064511104e-02
1.499901250000000e+10 -1.138636301305221e-02 -9.124393800948770e-02 9.806875292181424e-01 -3.240386039565824e-02 9.808491917697268e-01 -3.261455005391321e-02 -1.496160434882546e-02 -2.958949688155422e-02
1.504088125000000e+10 -1.101578710427063e-02 -9.098965840091412e-02 9.802185401183258e-01 -3.254493024397177e-02 9.803359300292239e-01 -3.281637390106245e-02 -1.424457127681508e-02 -2.949679138255099e-02
1.508275000000000e+10 -1.090371375083745e-02 -9.108991795024703e-02 9.801151579044088e-01 -3.279246732840213e-02 9.801321378059351e-01 -3.293156025562535e-02 -1.416401367757097e-02 -2.967248979893835e-02
1.512461875000000e+10 -1.036303051323421e-02 -9.149897181204242e-02 9.797006030993238e-01 -3.277011723132930e-02 9.796094681160560e-01 -3.301550447516447e-02 -1.399285093132329e-02 -2.980990388535273e-02
1.516648750000000e+10 -1.017709331774972e-02 -9.195365215081512e-02 9.794954420385787e-01 -3.318417519817215e-02 9.795591981321878e-01 -3.345793599260135e-02 -1.388654835556577e-02 -2.982302153564379e-02
1.520835625000000e+10 -1.013667688046408e-02 -9.285420680766293e-02 9.791399961855023e-01 -3.337933622102619e-02 9.792938897885662e-01 -3.342166386977794e-02 -1.376620924675970e-02 -2.980745719121588e-02
1.525022500000000e+10 -1.016032267858643e-02 -9.340842082832969e-02 9.789905381765965e-01 -3.358381504188973e-02 9.791889251050127e-01 -3.375992855543096e-02 -1.379812934614605e-02 -3.005411793564209e-02
1.529209375000000e+10 -1.067221524302775e-02 -9.389078289212416e-02 9.787712874150221e-01 -3.432351471369848e-02 9.788161543417321e-01 -3.443287582332544e-02 -1.397676981724881e-02 -3.063391630198165e-02
1.533396250000000e+10 -1.166584876148620e-02 -9.433441258846612e-02 9.786366556183962e-01 -3.413086720161841e-02 9.786864065414883e-01 -3.439881481052832e-02 -1.426792644511772e-02 -3.046716664022357e-02
1.537583125000000e+10 -1.223411117449550e-02 -9.412289491395930e-02 9.785555261520834e-01 -3.407797346147625e-02 9.786366110267596e-01 -3.440359484556253e-02 -1.437465647644978e-02 -3.023887718137046e-02
1.541770000000000e+10 -1.282301718172478e-02 -9.409727780522117e-02 9.784983324673604e-01 -3.386615946118429e-02 9.785163221623289e-01 -3.406981889280732e-02 -1.447825005567327e-02 -2.997787566576944e-02
1.545956875000000e+10 -1.326882464696307e-02 -9.373727574131198e-02 9.788655715039637e-01 -3.349318530493947e-02 9.789659191939194e-01 -3.389269560577701e-02 -1.472775709559533e-02 -2.989460461970725e-02
1.550143750000000e+10 -1.429727047941858e-02 -9.369512055312357e-02 9.799396400837336e-01 -3.351239015591165e-02 9.797115596887581e-01 -3.379090155311669e-02 -1.580649079487549e-02 -3.020354071933293e-02
1.554330625000000e+10 -1.576562010604471e-02 -9.376021228765398e-02 9.810458462848968e-01 -3.329088161505909e-02 9.811212741547167e-01 -3.334372357678616e-02 -1.656913367238597e-02 -2.995190020489589e-02
1.558517500000000e+10 -1.629179676575251e-02 -9.393246608122947e-02 9.820503340627111e-01 -3.279733452223055e-02 9.817304892930668e-01 -3.297965423682863e-02 -1.736277017490952e-02 -3.021409653176386e-02
1.562704375000000e+10 -1.572966100481048e-02 -9.405050534069041e-02 9.829499763319659e-01 -3.258857122431496e-02 9.828913050907161e-01 -3.292783995382040e-02 -1.824954465505405e-02 -3.028260647997540e-02
1.566891250000000e+10 -1.459613159894911e-02 -9.409719373996193e-02 9.826752123941118e-01 -3.297536863741545e-02 9.827138677005892e-01 -3.331119812864421e-02 -1.810409122836924e-02 -3.080394345817528e-02
1.571078125000000e+10 -1.370849204145125e-02 -9.444895748776563e-02 9.813522809479990e-01 -3.332799855875753e-02 9.813231303252544e-01 -3.388629415472644e-02 -1.713722761409252e-02 -3.105354533116438e-02
1.575265000000000e+10 -1.354804720697218e-02 -9.449962555294418e-02 9.811133224145762e-01 -3.372088425954056e-02 9.811474218491933e-01 -3.402051347885948e-02 -1.714779914111892e-02 -3.099637833755044e-02
1.579451875000000e+10 -1.300478733591500e-02 -9.540247870051687e-02 9.808922574099433e-01 -3.358817864596037e-02 9.809105283126680e-01 -3.388770537460685e-02 -1.712842954546217e-02 -3.127956526527988e-02
1.583638750000000e+10 -1.287829596708663e-02 -9.562834142221473e-02 9.809076147728275e-01 -3.387016699629640e-02 9.808836891275242e-01 -3.422938263121873e-02 -1.696958413138188e-02 -3.161467499349701e-02
1.587825625000000e+10 -1.291316343149011e-02 -9.632863718433590e-02 9.811081814865731e-01 -3.433683846004683e-02 9.811502628895853e-01 -3.458002967555411e-02 -1.741377842648940e-02 -3.252090448379054e-02
1.592012500000000e+10 -1.286088524681789e-02 -9.692013453586004e-02 9.805811503194436e-01 -3.488124101710810e-02 9.806167329312431e-01 -3.535736054952811e-02 -1.780258543313177e-02 -3.293970743069592e-02
1.596199375000000e+10 -1.281924063159890e-02 -9.691132845617752e-02 9.791110863792420e-01 -3.557416926223882e-02 9.794036244171411e-01 -3.593616557651946e-02 -1.777214415522379e-02 -3.278573857820523e-02
1.600386250000000e+10 -1.294345029756087e-02 -9.726145423280844e-02 9.784516669736557e-01 -3.528819030562718e-02 9.785767553248036e-01 -3.568110281233187e-02 -1.763023803708346e-02 -3.270909532479074e-02
1.604573125000000e+10 -1.342879860906452e-02 -9.723731882436579e-02 9.787151960722114e-01 -3.484619245969535e-02 9.787666859961278e-01 -3.537819104709542e-02 -1.802216766557709e-02 -3.218978096964787e-02
1.608760000000000e+10 -1.337529826869779e-02 -9.747086529655988e-02 9.784489928769045e-01 -3.458581315493292e-02 9.784820982098315e-01 -3.519568032426079e-02 -1.816306889897067e-02 -3.194787593721586e-02
1.612946875000000e+10 -1.337984219442820e-02 -9.779055179042305e-02 9.786208619951224e-01 -3.428168444035359e-02 9.786001719172236e-01 -3.472151879346432e-02 -1.830696782227998e-02 -3.147897415498236e-02
1.617133750000000e+10 -1.368044770399264e-02 -9.835916921888807e-02 9.786801207787895e-01 -3.433667165606449e-02 9.786830858305715e-01 -3.492444856003118e-02 -1.811562108651044e-02 -3.168418307132557e-02
1.621320625000000e+10 -1.473405467080829e-02 -9.872223134042349e-02 9.795159154470938e-01 -3.442804828521551e-02 9.793887379181405e-01 -3.505408290395567e-02 -1.906324656235159e-02 -3.152185814275393e-02
1.625507500000000e+10 -1.459463816108462e-02 -9.881688988031730e-02 9.793755493229244e-01 -3.429820619647651e-02 9.794369850104470e-01 -3.481212895340180e-02 -1.980885228818051e-02 -3.129520651262734e-02
1.629694375000000e+10 -1.359836817473146e-02 -9.909708033870977e-02 9.786844374445968e-01 -3.386216704948143e-02 9.786813900041083e-01 -3.440661840984136e-02 -1.955671275247854e-02 -3.082322131573345e-02
1.633881250000000e+10 -1.330429715151595e-02 -9.861085550729411e-02 9.787493565727955e-01 -3.402529713170006e-02 9.783964557714477e-01 -3.435524329054186e-02 -1.813519417441851e-02 -3.089986561678934e-02
1.638068125000000e+10 -1.435881889922300e-02 -9.905396378412004e-02 9.792627813347690e-01 -3.402950124390459e-02 9.792265724020454e-01 -3.442868832674196e-02 -1.858713720962248e-02 -3.191543881765026e-02
1.642255000000000e+10 -1.489513221140304e-02 -9.890970900762441e-02 9.794813101411823e-01 -3.424554745304154e-02 9.794084206926714e-01 -3.475356243911925e-02 -1.979660158400437e-02 -3.153270411196141e-02
1.646441875000000e+10 -1.431478523120626e-02 -9.894503992146124e-02 9.791710149266826e-01 -3.414328693823605e-02 9.791448916425699e-01 -3.469318377352177e-02 -1.977241630727004e-02 -3.133935273655315e-02
1.650628750000000e+10 -1.470107565562511e-02 -9.935602855898694e-02 9.789451762571098e-01 -3.406919601115444e-02 9.789032936073283e-01 -3.462190293191508e-02 -1.978816250981283e-02 -3.119834811439451e-02
1.654815625000000e+10 -1.447603251229977e-02 -9.924117525458426e-02 9.790641794348615e-01 -3.365618324539033e-02 9.790439891823355e-01 -3.434113084775806e-02 -1.980286592602809e-02 -3.060176649529939e-02
1.659002500000000e+10 -1.424318056339801e-02 -9.955449549868228e-02 9.794735239367246e-01 -3.358735408401475e-02 9.793997690335614e-01 -3.414080804775643e-02 -2.056500190459990e-02 -3.067476745553411e-02
1.663189375000000e+10 -1.366445793976023e-02 -9.938917288812048e-02 9.784126820443346e-01 -3.369846784259177e-02 9.783045436468479e-01 -3.394307799524509e-02 -1.895403606425430e-02 -3.075103478114815e-02
1.667376250000000e+10 -1.287800300526962e-02 -9.954760333541385e-02 9.778912031448932e-01 -3.358479760503897e-02 9.778669572280531e-01 -3.410973821655543e-02 -1.874523370417720e-02 -3.068189116900498e-02
1.671563125000000e+10 -1.328452700991897e-02 -9.980199907084250e-02 9.782312392711682e-01 -3.355443407392050e-02 9.783199219688798e-01 -3.395216971755242e-02 -1.933209186993628e-02 -3.007495192730402e-02
1.675750000000000e+10 -1.231117824475638e-02 -1.000505257504115e-01 9.776715228169819e-01 -3.357429698137517e-02 9.777641761270833e-01 -3.394600960938794e-02 -1.862278742125655e-02 -2.993185561261644e-02
1.679936875000000e+10 -1.128654650163870e-02 -1.002994269375102e-01 9.770895443489264e-01 -3.371691637265171e-02 9.772034082117319e-01 -3.383272842887634e-02 -1.833831611067792e-02 -2.958832249088181e-02
1.684123750000000e+10 -1.110622559963704e-02 -1.003329100589783e-01 9.757120899653626e-01 -3.374275067726133e-02 9.761260731034503e-01 -3.433800997291861e-02 -1.680635425590211e-02 -2.964364430957097e-02
1.688310625000000e+10 -1.091562392719276e-02 -1.007161940157566e-01 9.757076201031963e-01 -3.341869545700402e-02 9.758836339574148e-01 -3.390208144193027e-02 -1.655572961742589e-02 -2.972986656289291e-02
1.692497500000000e+10 -9.623338843092631e-03 -1.003222084874034e-01 9.750505397642348e-01 -3.354871893884111e-02 9.749784315274437e-01 -3.363615349246616e-02 -1.501569693478550e-02 -2.931495917627079e-02
1.696684375000000e+10 -9.965966620989293e-03 -1.005850176463369e-01 9.737794381472257e-01 -3.369121427504505e-02 9.733116505982113e-01 -3.407210364525209e-02 -1.286322504248056e-02 -2.967522387583209e-02
1.700871250000000e+10 -9.552351686469540e-03 -1.002297737091669e-01 9.730342655559016e-01 -3.377001646887565e-02 9.731633572592330e-01 -3.423002487662678e-02 -1.228162051182112e-02 -3.046414459593794e-02
1.705058125000000e+10 -1.006732556969024e-02 -1.004066421604524e-01 9.749275564218965e-01 -3.320734446504697e-02 9.753089390110289e-01 -3.379259526669642e-02 -1.267870172145953e-02 -3.015283529215330e-02
1.709245000000000e+10 -1.065883545842295e-02 -1.007406763953891e-01 9.778049274482796e-01 -3.403412888328097e-02 9.778952520961735e-01 -3.402955777132846e-02 -1.280914055453521e-02 -3.114975342432619e-02
1.713431875000000e+10 -1.255742289810232e-02 -1.006695825865987e-01 9.794197025141782e-01 -3.501523194257308e-02 9.787100005292090e-01 -3.404409167240017e-02 -1.448330589065204e-02 -3.336235659326402e-02
1.717618750000000e+10 -1.473543956961042e-02 -1.009327818864375e-01 9.785841868762000e-01 -3.378651066818469e-02 9.794838882298021e-01 -3.439113038336712e-02 -1.873754346818608e-02 -3.271712473580277e-02
1.721805625000000e+10 -1.303443095597642e-02 -1.005088979687318e-01 9.769606365742939e-01 -3.435792902883453e-02 9.774754363752355e-01 -3.380234700294988e-02 -1.822477753365196e-02 -3.288798241924785e-02
1.725992500000000e+10 -1.273072680372057e-02 -1.005555979662221e-01 9.767058844195045e-01 -3.438574962548920e-02 9.762574934175666e-01 -3.453547974494629e-02 -1.674138160598759e-02 -3.272733170238876e-02
1.730179375000000e+10 -1.179601468596319e-02 -1.006320425310343e-01 9.764497163947059e-01 -3.420089343551746e-02 9.765708179299938e-01 -3.445301358191261e-02 -1.755774305077011e-02 -3.219572618493965e-02
1.734366250000000e+10 -1.107459248543636e-02 -1.007757662282822e-01 9.760171949177422e-01 -3.372236462043546e-02 9.759578299267911e-01 -3.411821009061748e-02 -1.670006806816600e-02 -3.149476328859363e-02
1.738553125000000e+10 -9.585841893557257e-03 -1.009384489564696e-01 9.757225877132962e-01 -3.373457522803758e-02 9.752195885683210e-01 -3.410651596281362e-02 -1.628486186866324e-02 -3.169945872655548e-02
1.742740000000000e+10 -9.827599847327510e-03 -1.010653301475708e-01 9.757182939425258e-01 -3.399456826451379e-02 9.758143680184070e-01 -3.446966031570435e-02 -1.542657442811282e-02 -3.246917035671257e-02
1.746926875000000e+10 -1.111449546957926e-02 -1.015188068389301e-01 9.763445554000443e-01 -3.470710223831914e-02 9.769975741806994e-01 -3.525447729604612e-02 -1.605491825148333e-02 -3.263874957074137e-02
1.751113750000000e+10 -1.045748869636189e-02 -1.015199922141867e-01 9.758127352836685e-01 -3.536620312019330e-02 9.755269823719327e-01 -3.526130753910017e-02 -1.570746757967429e-02 -3.218535364740054e-02
1.755300625000000e+10 -1.043813506607437e-02 -1.017831218689486e-01 9.758631790347300e-01 -3.523456701377589e-02 9.758113759144437e-01 -3.544664283072346e-02 -1.524107445732711e-02 -3.335657887795968e-02
1.759487500000000e+10 -1.136891864853919e-02 -1.022540975141051e-01 9.760607969122953e-01 -3.585654429877223e-02 9.759438793386590e-01 -3.625737931366314e-02 -1.549696490926553e-02 -3.373842994374351e-02
1.763674375000000e+10 -1.320729549196129e-02 -1.029693299062875e-01 9.772151131469622e-01 -3.634016792617358e-02 9.768919782883804e-01 -3.648884764505486e-02 -1.671306692162155e-02 -3.401791678262927e-02
1.767861250000000e+10 -1.269699439557761e-02 -1.034997144905143e-01 9.770094411953172e-01 -3.656304495126741e-02 9.770555764853679e-01 -3.674796088605621e-02 -1.778918089588127e-02 -3.402520168635217e-02
1.772048125000000e+10 -1.163861626726723e-02 -1.039018983386851e-01 9.764846424811723e-01 -3.666519852912675e-02 9.765692711660259e-01 -3.685929781415171e-02 -1.729675748630338e-02 -3.408539077111125e-02
1.776235000000000e+10 -1.184795835143378e-02 -1.042507810074655e-01 9.755567813350103e-01 -3.714980637779074e-02 9.754806599850427e-01 -3.748554199956459e-02 -1.739989330000737e-02 -3.455543358275981e-02
1.780421875000000e+10 -1.172371577404237e-02 -1.045626415123082e-01 9.740688916150745e-01 -3.729459821204408e-02 9.741988974884043e-01 -3.744197121799577e-02 -1.688307257726786e-02 -3.427347006980087e-02
1.784608750000000e+10 -1.267762287854335e-02 -1.048258665948332e-01 9.748898978168666e-01 -3.726642843774087e-02 9.748578991792368e-01 -3.761815638731289e-02 -1.741519869078955e-02 -3.396857019629312e-02
1.788795625000000e+10 -1.248978295518007e-02 -1.048094701172077e-01 9.743873090953262e-01 -3.708017938743826e-02 9.743828071667187e-01 -3.720311360558658e-02 -1.755665638802753e-02 -3.372387596026213e-02
1.792982500000000e+10 -1.233167550220089e-02 -1.046248611213583e-01 9.732611438783909e-01 -3.660829233264729e-02 9.736485349096982e-01 -3.726488368079672e-02 -1.713016019012395e-02 -3.400553550680224e-02
1.797169375000000e+10 -1.312221241660640e-02 -1.047133941276927e-01 9.738527873164744e-01 -3.631557919989845e-02 9.740823059617966e-01 -3.629969451952875e-02 -1.749077533042495e-02 -3.310403608368707e-02
1.801356250000000e+10 -1.332626923384011e-02 -1.051003939054106e-01 9.753646267318803e-01 -3.566292620360798e-02 9.753968668810757e-01 -3.581106205242097e-02 -1.770866030481992e-02 -3.303595513470784e-02
1.805543125000000e+10 -1.487905008799583e-02 -1.055946887340166e-01 9.772185380189288e-01 -3.480788893970944e-02 9.769049403030140e-01 -3.638213992245094e-02 -1.818672024993379e-02 -3.317015450312016e-02
1.809730000000000e+10 -1.354880709043632e-02 -1.059196009613873e-01 9.764241726582613e-01 -3.579620952217998e-02 9.764631558625592e-01 -3.619678869423045e-02 -1.907701289292422e-02 -3.310751732151329e-02
1.813916875000000e+10 -1.188361387374613e-02 -1.060793576774670e-01 9.750601783099271e-01 -3.594889194097769e-02 9.751651786146973e-01 -3.551179725300938e-02 -1.857307004623403e-02 -3.311287908239619e-02
1.818103750000000e+10 -1.175553620590535e-02 -1.067223998620576e-01 9.747949840911234e-01 -3.558987885484390e-02 9.746451000510201e-01 -3.580290435718059e-02 -1.734561800373974e-02 -3.297746550572515e-02
1.822290625000000e+10 -1.233267583991772e-02 -1.073972168224426e-01 9.753959613544707e-01 -3.568028577300481e-02 9.755282353232768e-01 -3.576866896847443e-02 -1.745208601097795e-02 -3.334801448919271e-02
1.826477500000000e+10 -1.310284256384753e-02 -1.080790327228196e-01 9.755796236666600e-01 -3.603671100635489e-02 9.758986427433753e-01 -3.614638467874994e-02 -1.777674586865989e-02 -3.376848449116544e-02
1.830664375000000e+10 -1.418515515995547e-02 -1.092361374114626e-01 9.773433789715452e-01 -3.558437196989709e-02 9.771955036140312e-01 -3.652514213988956e-02 -1.845222667706380e-02 -3.391137231137351e-02
1.834851250000000e+10 -1.488054239469122e-02 -1.098553752371467e-01 9.775130869497433e-01 -3.634057332688084e-02 9.777064556990966e-01 -3.649876102247710e-02 -1.965005757577355e-02 -3.463219039009984e-02
1.839038125000000e+10 -1.422960258777067e-02 -1.104886429678096e-01 9.770513162649900e-01 -3.638919716379388e-02 9.771676118789178e-01 -3.667540008774633e-02 -1.971777124676842e-02 -3.475121024419368e-02
1.843225000000000e+10 -1.457306334900155e-02 -1.106927346150244e-01 9.769437534415920e-01 -3.702939490608282e-02 9.770252012928229e-01 -3.720223188638621e-02 -2.000257582061738e-02 -3.542025043341199e-02
1.847411875000000e+10 -1.563662233299184e-02 -1.108667052415993e-01 9.762984989718015e-01 -3.758430985678086e-02 9.763491624536160e-01 -3.769968816087617e-02 -1.988797015104312e-02 -3.573256207886126e-02
1.851598750000000e+10 -1.712219676199948e-02 -1.107815420459246e-01 9.772684317015969e-01 -3.736399555902264e-02 9.772721605939577e-01 -3.765247004816601e-02 -2.101598196036911e-02 -3.577120472114678e-02
1.855785625000000e+10 -1.704315209820608e-02 -1.104387248216328e-01 9.770665161756993e-01 -3.738462829603222e-02 9.771965880296715e-01 -3.762789980706481e-02 -2.168445782579273e-02 -3.588532242776044e-02
1.859972500000000e+10 -1.800748784177979e-02 -1.105738809383609e-01 9.779225760121710e-01 -3.741362941809744e-02 9.782267110683477e-01 -3.766447105672197e-02 -2.310170672210100e-02 -3.591524104635040e-02
1.864159375000000e+10 -1.752440369994047e-02 -1.101852958633153e-01 9.782872885652405e-01 -3.723681800908378e-02 9.784194077514786e-01 -3.758040336424761e-02 -2.436924020409156e-02 -3.596117003703075e-02
1.868346250000000e+10 -1.634992853406570e-02 -1.102568780653398e-01 9.766232104760619e-01 -3.716716676074006e-02 9.772547809512167e-01 -3.768916435129804e-02 -2.370913666812640e-02 -3.518561144737364e-02
1.872533125000000e+10 -1.592345846994402e-02 -1.099638377551286e-01 9.765182116969009e-01 -3.704828667277430e-02 9.767336550089415e-01 -3.721234389576045e-02 -2.380634208224912e-02 -3.538935772102030e-02
1.876720000000000e+10 -1.519533415282469e-02 -1.100908635398763e-01 9.757610467271879e-01 -3.675895968992140e-02 9.756383674966465e-01 -3.713278026763096e-02 -2.355373407047146e-02 -3.497019423278634e-02
1.880906875000000e+10 -1.547811520348107e-02 -1.100605926582679e-01 9.745080938561415e-01 -3.672940942768668e-02 9.748733231465674e-01 -3.657520341586951e-02 -2.198905882550849e-02 -3.410348748946927e-02
1.885093750000000e+10 -1.359802330350181e-02 -1.095934492376784e-01 9.735807914310558e-01 -3.672607669295798e-02 9.737816198568573e-01 -3.674594440478659e-02 -2.070587985066371e-02 -3.381053112874796e-02
1.889280625000000e+10 -1.408543018539735e-02 -1.099404475158716e-01 9.739350523175390e-01 -3.651456254107419e-02 9.738348632445245e-01 -3.673570157978468e-02 -2.081825651245788e-02 -3.399436812929341e-02
1.893467500000000e+10 -1.460587610833483e-02 -1.095947820948082e-01 9.748591407150370e-01 -3.655551128288622e-02 9.747969271749608e-01 -3.670701017370498e-02 -2.148295950345348e-02 -3.467696878452212e-02
1.897654375000000e+10 -1.485952620259367e-02 -1.096930568175349e-01 9.764385228101659e-01 -3.678230785987939e-02 9.760904928821934e-01 -3.687559420173371e-02 -2.229799741491473e-02 -3.557880690190329e-02
1.901841250000000e+10 -1.546807351211851e-02 -1.092996321523405e-01 9.754768789725135e-01 -3.657377725391146e-02 9.756564864623836e-01 -3.681960110527524e-02 -2.423855133893456e-02 -3.522401068095032e-02
1.906028125000000e+10 -1.461547029468301e-02 -1.090341366794710e-01 9.752384782270145e-01 -3.622692076314224e-02 9.752628022372147e-01 -3.644411075134779e-02 -2.441725995012587e-02 -3.451315894105178e-02
1.910215000000000e+10 -1.390672501426521e-02 -1.089564976567591e-01 9.746023351510230e-01 -3.584400111800135e-02 9.746693687813592e-01 -3.627835313963097e-02 -2.364932075840353e-02 -3.354736773523544e-02
1.914401875000000e+10 -1.300945709307572e-02 -1.086768086083316e-01 9.734828909883498e-01 -3.605792743362580e-02 9.733859541650354e-01 -3.619889352632544e-02 -2.304292401828830e-02 -3.316030245314303e-02
1.918588750000000e+10 -1.217697039083427e-02 -1.090627588891687e-01 9.730568668277264e-01 -3.514724194610308e-02 9.730953385598489e-01 -3.520544517885490e-02 -2.209097986289710e-02 -3.293805679504915e-02
1.922775625000000e+10 -1.009228471048077e-02 -1.086043652554539e-01 9.717872995663982e-01 -3.587298808131178e-02 9.724100657961104e-01 -3.519930229149053e-02 -2.143575545277701e-02 -3.265700552816222e-02
1.926962500000000e+10 -9.539800612910911e-03 -1.095314150119495e-01 9.733366994924980e-01 -3.497240295530619e-02 9.729063609469331e-01 -3.499814748691859e-02 -2.126222773943266e-02 -3.257113276110248e-02
1.931149375000000e+10 -9.827298468047280e-03 -1.099948814934810e-01 9.730541444390320e-01 -3.470085547432627e-02 9.732107732757134e-01 -3.494410373136935e-02 -2.137051987149906e-02 -3.239125200223451e-02
1.935336250000000e+10 -9.475388399941203e-03 -1.105989189815463e-01 9.714689702676396e-01 -3.472276000723579e-02 9.715807951784611e-01 -3.504523299671645e-02 -2.009634743332684e-02 -3.232286937149680e-02
1.939523125000000e+10 -9.436425959635212e-03 -1.113032288580578e-01 9.716266570305955e-01 -3.465547339186908e-02 9.720592015727025e-01 -3.503478449951636e-02 -1.872034917255793e-02 -3.266730687585029e-02
1.943710000000000e+10 -8.764252724312813e-03 -1.113441452928600e-01 9.718060423389927e-01 -3.469252086543703e-02 9.716934718928607e-01 -3.505168711830461e-02 -1.806794492881918e-02 -3.207559620178501e-02
1.947896875000000e+10 -8.591076780281029e-03 -1.124033132295761e-01 9.712591898394518e-01 -3.516715010795533e-02 9.713953051616119e-01 -3.508876939111799e-02 -1.670410832177520e-02 -3.242201882616265e-02
1.952083750000000e+10 -8.976594377484649e-03 -1.124573409735316e-01 9.715563546363086e-01 -3.556469189056749e-02 9.718742808282466e-01 -3.572865649221341e-02 -1.670259618258185e-02 -3.319271911137212e-02
1.956270625000000e+10 -9.381537554500077e-03 -1.136320744539497e-01 9.721696804694394e-01 -3.578765051316908e-02 9.722533704762980e-01 -3.597688339943733e-02 -1.662122461434805e-02 -3.322341684783291e-02
1.960457500000000e+10 -1.053456135674003e-02 -1.141568312704089e-01 9.733671640355073e-01 -3.497045570561253e-02 9.731813086849369e-01 -3.544635702702485e-02 -1.738777777813309e-02 -3.284860775382693e-02
1.964644375000000e+10 -1.084162198928088e-02 -1.145420118835034e-01 9.738824728408182e-01 -3.518794801590417e-02 9.744269635248591e-01 -3.562209107407781e-02 -1.740640288840509e-02 -3.374956222470238e-02
1.968831250000000e+10 -1.218799151894481e-02 -1.150030154291374e-01 9.759222798148778e-01 -3.635215185905674e-02 9.756915407129166e-01 -3.648324208412747e-02 -1.793708711652175e-02 -3.409266613185689e-02
1.973018125000000e+10 -1.284594716514283e-02 -1.150733123516575e-01 9.755096997411395e-01 -3.670968150387022e-02 9.755412646608372e-01 -3.618308063784014e-02 -1.875639625150246e-02 -3.456862826889968e-02
1.977205000000000e+10 -1.180113077735980e-02 -1.155122208676010e-01 9.747329006410969e-01 -3.618923112016132e-02 9.742364431970444e-01 -3.621121369148240e-02 -1.922451384398910e-02 -3.505971623432590e-02
1.981391875000000e+10 -1.111083806848570e-02 -1.149398095710581e-01 9.732544141248766e-01 -3.648034946004258e-02 9.740885759676863e-01 -3.683878284889350e-02 -1.891067388121799e-02 -3.465460833863197e-02
1.985578750000000e+10 -1.043047274530646e-02 -1.160055682188882e-01 9.739989876174241e-01 -3.664567600021480e-02 9.742093879927062e-01 -3.700830072009782e-02 -1.770526129776897e-02 -3.467974690584593e-02
1.989765625000000e+10 -9.414074338558205e-03 -1.159464867808365e-01 9.722269422126841e-01 -3.744954245485307e-02 9.738170538347747e-01 -3.801747253616804e-02 -1.717899867023190e-02 -3.507469719155754e-02
1.993952500000000e+10 -9.673365204561257e-03 -1.165996821107524e-01 9.719931712349423e-01 -3.862249054790087e-02 9.727793676713765e-01 -3.860597791788823e-02 -1.589863717444193e-02 -3.667550739545553e-02
1.998139375000000e+10 -1.085959273649444e-02 -1.173391001917568e-01 9.730784656545384e-01 -3.898557913941683e-02 9.734966028319043e-01 -3.913762434842250e-02 -1.658678732887225e-02 -3.736285172378208e-02
2.002326250000000e+10 -1.107453236325445e-02 -1.173655962913184e-01 9.754586228351627e-01 -3.912756627338026e-02 9.754783505573764e-01 -3.946617836481110e-02 -1.648070745036154e-02 -3.749876411090849e-02
2.006513125000000e+10 -1.581954051965285e-02 -1.185955728881894e-01 9.765438946916545e-01 -4.000480673329770e-02 9.758590498591317e-01 -4.152343729679123e-02 -1.860543331061019e-02 -3.728850899376658e-02
2.010700000000000e+10 -1.727154536525176e-02 -1.181942933862151e-01 9.761910391641527e-01 -3.934470283866768e-02 9.758069968208157e-01 -4.006596628174901e-02 -1.941876988999027e-02 -3.785336472009010e-02
2.014886875000000e+10 -1.498719948349449e-02 -1.183862062341244e-01 9.750950932299415e-01 -3.982862201813753e-02 9.752613645527045e-01 -3.984304260909343e-02 -2.073236129037176e-02 -3.914168118295374e-02
2.019073750000000e+10 -1.578347928071631e-02 -1.185396179186618e-01 9.761712583231430e-01 -4.013747917062524e-02 9.760805422286678e-01 -4.046418231797820e-02 -2.188888337615946e-02 -3.916318355705759e-02
2.023260625000000e+10 -1.526133879325439e-02 -1.188140688890992e-01 9.754313737991368e-01 -4.049708185132294e-02 9.755203837044882e-01 -4.094629676565621e-02 -2.305221287145953e-02 -3.977708023984958e-02
2.027447500000000e+10 -1.434983795325783e-02 -1.191055326728180e-01 9.739118214561675e-01 -4.086950858102512e-02 9.743477860733033e-01 -4.134999284533188e-02 -2.407272729948660e-02 -3.912047102851131e-02
2.031634375000000e+10 -1.398741317665553e-02 -1.192491920773578e-01 9.729462379151859e-01 -4.067560301323386e-02 9.729024628376148e-01 -4.074631641459184e-02 -2.204956309722220e-02 -3.882717283112416e-02
2.035821250000000e+10 -1.425826019430106e-02 -1.203258346418390e-01 9.720861838354717e-01 -3.978654543858298e-02 9.727449670367352e-01 -4.016424580115503e-02 -2.240505155616667e-02 -3.832506026572818e-02
2.040008125000000e+10 -1.304366936267296e-02 -1.201137805738328e-01 9.725451658812790e-01 -3.983044088971097e-02 9.722608698819454e-01 -3.968309131338112e-02 -2.149139220670608e-02 -3.785093010428923e-02
2.044195000000000e+10 -1.328849208000950e-02 -1.211475200806542e-01 9.726451579210942e-01 -4.027575032669752e-02 9.726634898095391e-01 -4.092958749216320e-02 -2.178591738101941e-02 -3.906892036322430e-02
2.048381875000000e+10 -1.358004994669988e-02 -1.204732577303682e-01 9.717083529299437e-01 -4.062253649384213e-02 9.711114864455325e-01 -4.182182831483008e-02 -2.084395720695077e-02 -3.940467167058534e-02
2.052568750000000e+10 -1.388887325121290e-02 -1.205469904088079e-01 9.713235598712816e-01 -4.054684621717575e-02 9.712766195346114e-01 -4.102235007353907e-02 -2.094983498964293e-02 -3.920938286225008e-02
2.056755625000000e+10 -1.442293680976835e-02 -1.205163283522448e-01 9.708235825304565e-01 -4.032272651094759e-02 9.708439350305287e-01 -4.098017259723094e-02 -2.154119529953287e-02 -3.850743608837528e-02
2.060942500000000e+10 -1.429517146832345e-02 -1.197378457455403e-01 9.696229556987147e-01 -3.974753654498103e-02 9.701676297472601e-01 -4.041987427068122e-02 -2.094308643843809e-02 -3.740382166207867e-02
2.065129375000000e+10 -1.483764001263029e-02 -1.203603117525935e-01 9.704860431613551e-01 -3.943186487343536e-02 9.704825259453560e-01 -4.025154260198466e-02 -2.077586280867206e-02 -3.869419431266631e-02
2.069316250000000e+10 -1.479944009629458e-02 -1.200472024358024e-01 9.717825516148305e-01 -3.940504661223350e-02 9.718340931227322e-01 -4.000359608315075e-02 -2.063723022942134e-02 -3.904879992806724e-02
2.073503125000000e+10 -1.543945606956214e-02 -1.205628538864598e-01 9.727453661300587e-01 -3.904303675053087e-02 9.736247389783205e-01 -3.911643756004034e-02 -2.138276176321260e-02 -3.825029718131547e-02
2.077690000000000e+10 -1.572410167916552e-02 -1.202928394632466e-01 9.725541556498261e-01 -3.902933332992743e-02 9.725590879404900e-01 -3.954228812567136e-02 -2.214725293310279e-02 -3.809989898606729e-02
2.081876875000000e+10 -1.536427848374787e-02 -1.201877785706993e-01 9.713329176700819e-01 -3.870129918364783e-02 9.718036437948826e-01 -3.964474270407214e-02 -2.206134743540371e-02 -3.918152084446029e-02
2.086063750000000e+10 -1.579140071405116e-02 -1.199767050375914e-01 9.719723262055185e-01 -3.933277010394839e-02 9.719020535873021e-01 -4.009184670287358e-02 -2.185362088325699e-02 -3.964106673289137e-02
2.090250625000000e+10 -1.576920189623321e-02 -1.199013084186995e-01 9.732243636495286e-01 -3.941570085061909e-02 9.733871405583355e-01 -3.968861015858817e-02 -2.206567188990375e-02 -3.993310157381953e-02
2.094437500000000e+10 -1.719107188759520e-02 -1.200626200371748e-01 9.741759875930277e-01 -3.972447397662512e-02 9.750486751485486e-01 -3.934484007313033e-02 -2.296086880038366e-02 -4.141629906143759e-02
2.098624375000000e+10 -1.727359122597736e-02 -1.197636927465190e-01 9.741837425916783e-01 -3.951821437319648e-02 9.742873760210804e-01 -3.979028493712419e-02 -2.320183037296376e-02 -3.924946259240056e-02
2.102811250000000e+10 -1.778199980426794e-02 -1.202395803078641e-01 9.745490221844072e-01 -3.944498564117652e-02 9.750482985948845e-01 -3.998579843896360e-02 -2.428309018104809e-02 -3.903138064032258e-02
2.106998125000000e+10 -1.623390541927703e-02 -1.198941838914696e-01 9.742096004146715e-01 -3.957044454205225e-02 9.741388856769605e-01 -3.985163469418102e-02 -2.459919750949529e-02 -3.900520008511953e-02
2.111185000000000e+10 -1.596648604480143e-02 -1.203929604755677e-01 9.742091448603574e-01 -3.964612528294700e-02 9.742416380572644e-01 -4.000076946969751e-02 -2.507996455285942e-02 -3.957767221125399e-02
2.115371875000000e+10 -1.595216325011357e-02 -1.206218252613239e-01 9.742214664490971e-01 -3.959588260627199e-02 9.742463594208842e-01 -4.003207448106832e-02 -2.561030463766962e-02 -3.916905530868053e-02
2.119558750000000e+10 -1.492116573758611e-02 -1.208993872784277e-01 9.745651196960659e-01 -3.969253082896414e-02 9.745843334253687e-01 -4.014808557755962e-02 -2.600536040666980e-02 -3.861244057106550e-02
2.123745625000000e+10 -1.431377459568276e-02 -1.212915540860308e-01 9.723922868104480e-01 -3.964084161703539e-02 9.734307338943959e-01 -3.907277618410917e-02 -2.497421195981193e-02 -3.907274973882085e-02
2.127932500000000e+10 -1.256010884574459e-02 -1.215743556174222e-01 9.715134219169461e-01 -4.090736583236022e-02 9.714964787919831e-01 -3.901535321532126e-02 -2.063470127382092e-02 -3.990574097902563e-02
2.132119375000000e+10 -1.318531926895735e-02 -1.219911368964111e-01 9.710166275838092e-01 -4.210798901466215e-02 9.710141139170948e-01 -4.241818146895881e-02 -2.067539728940578e-02 -4.094417796331127e-02
2.136306250000000e+10 -1.336370664895587e-02 -1.224995664426639e-01 9.705280351592673e-01 -4.296499823227470e-02 9.705804847524399e-01 -4.345039917029449e-02 -2.062845150754045e-02 -4.151148975983397e-02
2.140493125000000e+10 -1.451895367981784e-02 -1.229807758331667e-01 9.703367385238852e-01 -4.369529210405339e-02 9.705049161311826e-01 -4.451425952180906e-02 -2.083580493015256e-02 -4.210365753818057e-02
2.144680000000000e+10 -1.500328028531052e-02 -1.231151147305900e-01 9.700210804150047e-01 -4.404016354920196e-02 9.700448617812414e-01 -4.448604213280722e-02 -2.107127760900391e-02 -4.234587573507660e-02
2.148866875000000e+10 -1.580768974997819e-02 -1.239037390811973e-01 9.699855165117818e-01 -4.337511639832369e-02 9.704186920870952e-01 -4.337246936881189e-02 -2.188411555463222e-02 -4.212546338611409e-02
2.153053750000000e+10 -1.578777956432524e-02 -1.240300360163304e-01 9.693210414422357e-01 -4.303468826985427e-02 9.693760277209161e-01 -4.365562920814060e-02 -2.246525462571019e-02 -4.110971888586627e-02
2.157240625000000e+10 -1.535267757840051e-02 -1.248997325801982e-01 9.687269937981312e-01 -4.279853548176794e-02 9.684325749363925e-01 -4.338734241532323e-02 -2.320202036305342e-02 -4.010418390054410e-02
2.161427500000000e+10 -1.554057227566494e-02 -1.255350419706986e-01 9.685548014592147e-01 -4.223706076563848e-02 9.686448922899521e-01 -4.255674481881905e-02 -2.365327320434614e-02 -4.003799999904415e-02
2.165614375000000e+10 -1.579404116628122e-02 -1.263336335385072e-01 9.694056815743054e-01 -4.221693280973859e-02 9.694896280391393e-01 -4.263360565431282e-02 -2.382510031137230e-02 -4.012506931115353e-02
2.169801250000000e+10 -1.718793131153630e-02 -1.268132858487819e-01 9.706935405783665e-01 -4.241437531538761e-02 9.707858507679129e-01 -4.284935504523740e-02 -2.431071576343686e-02 -3.989488996095620e-02
2.173988125000000e+10 -1.752969566393589e-02 -1.269961415629722e-01 9.698919044945253e-01 -4.184019500750078e-02 9.699541152287965e-01 -4.275795549366981e-02 -2.433307054943372e-02 -3.949429868647914e-02
2.178175000000000e+10 -1.684705169703679e-02 -1.266848602864765e-01 9.686188750101108e-01 -4.059867091774161e-02 9.678857695513128e-01 -4.161101705551822e-02 -2.505048047251738e-02 -3.770229252560699e-02
2.182361875000000e+10 -1.629443069016843e-02 -1.261539582604652e-01 9.682803039669162e-01 -4.001232642482580e-02 9.682332919021100e-01 -4.040051177411041e-02 -2.543806379571342e-02 -3.835376997835616e-02
2.186548750000000e+10 -1.620892712784678e-02 -1.259394236799451e-01 9.686548026917490e-01 -4.076310466335498e-02 9.684778792082672e-01 -4.098918459891643e-02 -2.607632225756220e-02 -3.873570863603347e-02
2.190735625000000e+10 -1.560788311589320e-02 -1.256407274969259e-01 9.685768764126971e-01 -4.202609675615872e-02 9.695371138881959e-01 -4.214414879422176e-02 -2.600045693347793e-02 -4.041924362816097e-02
2.194922500000000e+10 -1.528015982309850e-02 -1.257695538673103e-01 9.664939656815426e-01 -4.149818601052345e-02 9.666653771245107e-01 -4.138812215155341e-02 -2.567439898671498e-02 -4.088777842415691e-02
2.199109375000000e+10 -1.574892713946118e-02 -1.260700273404008e-01 9.662829906455270e-01 -4.150444546615178e-02 9.659557407197505e-01 -4.339320681198734e-02 -2.515928234277470e-02 -4.070095850904693e-02
2.203296250000000e+10 -1.595139666247212e-02 -1.258624414740986e-01 9.662174444938098e-01 -4.207926791750088e-02 9.663861103199942e-01 -4.263989440274248e-02 -2.486778299562720e-02 -4.011568030272707e-02
2.207483125000000e+10 -1.646554247897348e-02 -1.267131666780714e-01 9.674169766347990e-01 -4.089158518731573e-02 9.674648401141205e-01 -4.130320397095338e-02 -2.509188872835765e-02 -3.906209697026867e-02
2.211670000000000e+10 -1.680632468359532e-02 -1.258047329235686e-01 9.683838649833538e-01 -4.055335963130442e-02 9.685133965095444e-01 -4.099133006160272e-02 -2.473193558581220e-02 -3.803459211246159e-02
2.215856875000000e+10 -1.682792072356429e-02 -1.262175002859664e-01 9.688762179886119e-01 -4.071950975079913e-02 9.688605111580659e-01 -4.129730391677599e-02 -2.481875237947889e-02 -3.867786582888545e-02
2.220043750000000e+10 -1.735704650940446e-02 -1.254316498374808e-01 9.685145430491090e-01 -4.081199048477005e-02 9.683547708436963e-01 -4.132829724397741e-02 -2.484951563965149e-02 -3.967257394740143e-02
2.224230625000000e+10 -1.634427336599985e-02 -1.253638226731168e-01 9.671861532254418e-01 -4.114452621137040e-02 9.670947148549085e-01 -4.155167291143628e-02 -2.456447501055811e-02 -4.102866509988279e-02
2.228417500000000e+10 -1.705328034190799e-02 -1.254669640477989e-01 9.672362469312362e-01 -4.125230788630910e-02 9.674124610221014e-01 -4.159458682181621e-02 -2.547622883314025e-02 -4.095602481305550e-02
2.232604375000000e+10 -1.625345096914557e-02 -1.255815883858734e-01 9.672118111997452e-01 -4.120055091465169e-02 9.675672816894264e-01 -4.179784143783604e-02 -2.545912935146638e-02 -4.125672853310187e-02
2.236791250000000e+10 -1.688751373467582e-02 -1.267564201623520e-01 9.686401910172715e-01 -4.149700483567907e-02 9.688766639447318e-01 -4.204607714898614e-02 -2.663596213466999e-02 -4.111840953758921e-02
2.240978125000000e+10 -1.704143011102009e-02 -1.266018816115065e-01 9.697139317476420e-01 -4.139200075599311e-02 9.699841556280809e-01 -4.180815450272513e-02 -2.699355152841049e-02 -4.070525722451693e-02
2.245165000000000e+10 -1.720699650317626e-02 -1.273186985073596e-01 9.678367104515392e-01 -4.193329148813278e-02 9.678383000339202e-01 -4.036770650909234e-02 -2.730454400976850e-02 -4.257166383295601e-02
2.249351875000000e+10 -1.863723940337736e-02 -1.261489549704689e-01 9.675578254934469e-01 -4.018749554977327e-02 9.664742000544372e-01 -4.491894006995215e-02 -2.778104980378101e-02 -4.116507522543141e-02
2.253538750000000e+10 -1.871904726932120e-02 -1.260346894919034e-01 9.677563596882042e-01 -4.263218533316526e-02 9.669655448078437e-01 -4.309151879297726e-02 -2.783018559109738e-02 -4.196668685919579e-02
2.257725625000000e+10 -1.997787545407525e-02 -1.233148351759919e-01 9.624691405378279e-01 -4.446403065161584e-02 9.706628239490548e-01 -3.842300692376704e-02 -2.802076532304582e-02 -4.330845589967135e-02
2.261912500000000e+10 -2.014671963244747e-02 -1.195862222279858e-01 9.664460783300614e-01 -4.384905180273729e-02 9.729223001387961e-01 -4.703062323833960e-02 -2.777267810403323e-02 -4.151702579735567e-02
2.266099375000000e+10 -2.053017138326401e-02 -1.128954352961430e-01 9.783673942057249e-01 -3.868569395384525e-02 9.634395460070743e-01 -3.844555005487089e-02 -2.941492397925091e-02 -3.427657453632180e-02
2.270286250000000e+10 -2.432641409721765e-02 -8.070422029806389e-02 9.655330547659855e-01 -2.999521087830861e-02 9.704095881813825e-01 -5.352188899984790e-02 -2.900641412680251e-02 -3.246498051582460e-02
2.274473125000000e+10 -2.781052418527497e-02 -4.815278990235759e-02 9.802122398297355e-01 -4.431086638247506e-02 9.615570010027568e-01 -4.125800499247101e-02 -2.849612681415760e-02 -3.885815311113358e-02
2.278660000000000e+10 -2.898936076761593e-02 -3.959416490004959e-02 9.677655404965824e-01 -4.208842364243726e-02 9.667320925963584e-01 -4.196672971217568e-02 -2.800441085366999e-02 -4.315392007679605e-02
2.282846875000000e+10 -2.784442196363671e-02 -4.068087600607376e-02 9.686488773504635e-01 -4.152712363874013e-02 9.685863714146570e-01 -4.177138719831593e-02 -2.731535537710994e-02 -4.428806685308209e-02
2.287033750000000e+10 -2.808279965337154e-02 -4.222982057516538e-02 9.678963943253469e-01 -4.120496096941630e-02 9.678488239143246e-01 -4.146408161505293e-02 -2.784308169478683e-02 -4.277298299540867e-02
2.291220625000000e+10 -2.665267012159249e-02 -4.200847471818648e-02 9.691282615446696e-01 -4.118075877508234e-02 9.690925530279034e-01 -4.139450072570504e-02 -2.694006905047821e-02 -4.265929410126817e-02
2.295407500000000e+10 -2.688525217643458e-02 -4.271639688368614e-02 9.699895753151124e-01 -4.151856458759803e-02 9.701045089944996e-01 -4.184467855906775e-02 -2.733943220315297e-02 -4.291162628411668e-02
2.299594375000000e+10 -2.616653233094377e-02 -4.334527200804923e-02 9.696844681178239e-01 -4.241888964837848e-02 9.696057362699154e-01 -4.238002493739931e-02 -2.650914875766495e-02 -4.348657587095754e-02
2.303781250000000e+10 -2.542203879084680e-02 -4.428360598837974e-02 9.699242481340740e-01 -4.290694815089315e-02 9.699213051819059e-01 -4.302811096151277e-02 -2.627594109636875e-02 -4.490937704450611e-02
2.307968125000000e+10 -2.548005509532227e-02 -4.478044694395554e-02 9.694816065719384e-01 -4.373145108111953e-02 9.697315563425822e-01 -4.391083080724070e-02 -2.584137693143350e-02 -4.534035749272221e-02
2.312155000000000e+10 -2.396845061291192e-02 -4.533889770686082e-02 9.712709478350630e-01 -4.428675164394570e-02 9.713887101282414e-01 -4.456816290927536e-02 -2.516926921054469e-02 -4.703927968542694e-02
2.316341875000000e+10 -2.503928149696822e-02 -4.540241779957992e-02 9.723589647930704e-01 -4.460651422755050e-02 9.724433066818743e-01 -4.496808466844548e-02 -2.525737656212879e-02 -4.698173420491882e-02
2.320528750000000e+10 -2.384286889519791e-02 -4.715059916883468e-02 9.718161927526501e-01 -4.472974599757543e-02 9.718730406009838e-01 -4.520230722224308e-02 -2.426835021938888e-02 -4.748772835853519e-02
2.324715625000000e+10 -2.443090542926099e-02 -4.893803369298645e-02 9.708425747770346e-01 -4.521543872553788e-02 9.709458796199907e-01 -4.558302372805600e-02 -2.453146395135222e-02 -4.815138074287184e-02
2.328902500000000e+10 -2.435251349412994e-02 -5.003167462952290e-02 9.691431304977781e-01 -4.558449330518791e-02 9.690941223873862e-01 -4.588966870569176e-02 -2.386493475717634e-02 -4.815672356507219e-02
2.333089375000000e+10 -2.434705713456014e-02 -5.114663174724379e-02 9.673514152612501e-01 -4.547331488775721e-02 9.673204554135438e-01 -4.583366417621428e-02 -2.431563386799887e-02 -4.830515202600780e-02
2.337276250000000e+10 -2.472204770910174e-02 -5.070157193636798e-02 9.657916682568268e-01 -4.534555798517943e-02 9.658184919779761e-01 -4.563513507269401e-02 -2.465526874659472e-02 -4.735266786168821e-02
2.341463125000000e+10 -2.434122938738126e-02 -5.041731712390662e-02 9.671976775553816e-01 -4.518736082611598e-02 9.672297264505511e-01 -4.543711173276997e-02 -2.464020657841937e-02 -4.797333221519459e-02
2.345650000000000e+10 -2.518648978392733e-02 -5.029291444033583e-02 9.673583241493169e-01 -4.531428090693696e-02 9.673495083687601e-01 -4.557875555959227e-02 -2.526576501103245e-02 -4.760794044993085e-02
2.349836875000000e+10 -2.442956283147235e-02 -5.096506135500969e-02 9.669562927755855e-01 -4.571800161028608e-02 9.670378677920684e-01 -4.597533040230549e-02 -2.474659285902000e-02 -4.820538814285650e-02
2.354023750000000e+10 -2.511154519722297e-02 -5.201555696659647e-02 9.674878276768781e-01 -4.592192866742940e-02 9.675477613252874e-01 -4.632427538598152e-02 -2.506601313602271e-02 -4.898738998957678e-02
2.358210625000000e+10 -2.504634746354370e-02 -5.335399039153220e-02 9.673651940203910e-01 -4.691306695023115e-02 9.673206938738762e-01 -4.729606359530737e-02 -2.424206022332477e-02 -5.020742457692086e-02
2.362397500000000e+10 -2.521317558324413e-02 -5.370369093534204e-02 9.677566857424493e-01 -4.710016306139823e-02 9.677607374253573e-01 -4.756965875772939e-02 -2.417629672001174e-02 -5.156890638091886e-02
2.366584375000000e+10 -2.605137805371184e-02 -5.280734241308053e-02 9.680421275282273e-01 -4.773395056148407e-02 9.679869449660436e-01 -4.817827094371769e-02 -2.430592554986293e-02 -5.125059993972678e-02
2.370771250000000e+10 -2.541779382368935e-02 -5.367922402681596e-02 9.678487950397600e-01 -4.795772003944022e-02 9.677928842814869e-01 -4.842162356538331e-02 -2.403174540850583e-02 -5.258894607321301e-02
2.374958125000000e+10 -2.617510426038152e-02 -5.338492383355832e-02 9.674091314660616e-01 -4.809174520508926e-02 9.673380433826929e-01 -4.839949645614688e-02 -2.439968111702755e-02 -5.250373655858475e-02
2.379145000000000e+10 -2.549750689526587e-02 -5.278067762106101e-02 9.684844106479957e-01 -4.788077257424788e-02 9.684622967769440e-01 -4.817898461312725e-02 -2.453887839848262e-02 -5.304989889656379e-02
2.383331875000000e+10 -2.598648112178874e-02 -5.317573365759196e-02 9.692224311867633e-01 -4.814130074518257e-02 9.691820662764146e-01 -4.847698491200729e-02 -2.508932278052321e-02 -5.351018903159347e-02
2.387518750000000e+10 -2.566841966757876e-02 -5.240850473717442e-02 9.708715550206711e-01 -4.832408382477681e-02 9.709183763116579e-01 -4.868617098501302e-02 -2.501016867801994e-02 -5.397086349117017e-02
2.391705625000000e+10 -2.550296319396368e-02 -5.418508642079095e-02 9.714451340732257e-01 -4.908228991035812e-02 9.714111385377673e-01 -4.959764373653171e-02 -2.517596268003704e-02 -5.574837947552518e-02
2.395892500000000e+10 -2.551179673043255e-02 -5.601742957367738e-02 9.695749250394611e-01 -4.965525967916541e-02 9.695024830176239e-01 -5.006039916689382e-02 -2.538576469109045e-02 -5.549682580567114e-02
2.400079375000000e+10 -2.528522931988843e-02 -5.765361813674704e-02 9.668628530450526e-01 -5.011888942512680e-02 9.668622430886681e-01 -5.064745037853018e-02 -2.539539887011878e-02 -5.490315014635153e-02
2.404266250000000e+10 -2.619681830669634e-02 -5.788375971616094e-02 9.656509991680604e-01 -5.175795536209286e-02 9.656834653080888e-01 -5.226519554252920e-02 -2.640998214983981e-02 -5.439660779077961e-02
2.408453125000000e+10 -2.671586577795474e-02 -5.724426663902643e-02 9.647648340257776e-01 -5.132773549233422e-02 9.647836776435624e-01 -5.207326753902543e-02 -2.635937075476208e-02 -5.425071811886291e-02
2.412640000000000e+10 -2.776537786566264e-02 -5.791011530469681e-02 9.631818418887812e-01 -5.065240965280237e-02 9.632522621318362e-01 -5.129988563237787e-02 -2.704426883136034e-02 -5.432379164995614e-02
2.416826875000000e+10 -2.865038127777069e-02 -5.727093096659043e-02 9.640876257052060e-01 -4.977929018039490e-02 9.641188851101509e-01 -5.049885145904458e-02 -2.699425863172177e-02 -5.450473930566541e-02
2.421013750000000e+10 -2.937441215825141e-02 -5.619055579745336e-02 9.642855823680073e-01 -4.919654233135672e-02 9.643258518996661e-01 -4.988714408090617e-02 -2.738005697560247e-02 -5.423775766999973e-02
2.425200625000000e+10 -3.020854063487056e-02 -5.467761171023396e-02 9.646034415062749e-01 -4.814560610294347e-02 9.646746757161884e-01 -4.877448042014602e-02 -2.746317497061958e-02 -5.315812800443055e-02
2.429387500000000e+10 -3.015818385381778e-02 -5.433674229453701e-02 9.659600534660693e-01 -4.709291080630758e-02 9.660203447672084e-01 -4.761961140479984e-02 -2.763137272061393e-02 -5.328792629835475e-02
2.433574375000000e+10 -3.049583397486345e-02 -5.491883431351504e-02 9.660930135641453e-01 -4.749485204176174e-02 9.661340741939927e-01 -4.808518320088403e-02 -2.765994754283926e-02 -5.347819960849609e-02
2.437761250000000e+10 -3.048193905467829e-02 -5.401340860320190e-02 9.668524310910669e-01 -4.772481733050975e-02 9.669012656646294e-01 -4.826652061589307e-02 -2.776918793546938e-02 -5.356929437624518e-02
2.441948125000000e+10 -3.088673737427555e-02 -5.398723281681364e-02 9.674096947494238e-01 -4.842333752333403e-02 9.674573627121842e-01 -4.908586046094814e-02 -2.805777290623422e-02 -5.430853584923978e-02
2.446135000000000e+10 -3.074048585853366e-02 -5.394312943237838e-02 9.658525660614782e-01 -4.885204499933509e-02 9.659910276435746e-01 -4.957028348658798e-02 -2.815276564439130e-02 -5.418651292263469e-02
2.450321875000000e+10 -3.086866315983389e-02 -5.198999008176226e-02 9.663181888390675e-01 -4.770514735276852e-02 9.663958230354560e-01 -4.834926820730838e-02 -2.870410955923229e-02 -5.293377358530869e-02
2.454508750000000e+10 -3.041608530218220e-02 -5.104806650630952e-02 9.649902218028112e-01 -4.644911227770394e-02 9.650469103309944e-01 -4.703947178072152e-02 -2.909484783662076e-02 -5.163951484038384e-02
2.458695625000000e+10 -3.019066370170867e-02 -5.141257839277245e-02 9.658242367299411e-01 -4.653237030485334e-02 9.658880430178198e-01 -4.718826384462931e-02 -2.935634942762082e-02 -5.202193489794764e-02
2.462882500000000e+10 -2.978957742145665e-02 -5.077745418950467e-02 9.649315983176286e-01 -4.581943536826012e-02 9.648890153564464e-01 -4.650606657968330e-02 -2.980243557487800e-02 -5.086170619676382e-02
2.467069375000000e+10 -2.974760831528287e-02 -5.151374517354879e-02 9.642007600393318e-01 -4.498828222762832e-02 9.641102701154213e-01 -4.564687066945883e-02 -2.996302211781565e-02 -5.045029663286973e-02
2.471256250000000e+10 -2.916798764861543e-02 -5.235754999667275e-02 9.638522201798714e-01 -4.552799912839611e-02 9.639994983234897e-01 -4.612570917074642e-02 -2.991526645791598e-02 -5.041082472188566e-02
2.475443125000000e+10 -2.941399988058444e-02 -5.403068288433385e-02 9.624715152004883e-01 -4.604268899142083e-02 9.627858858926205e-01 -4.642963191918167e-02 -2.966680151442664e-02 -5.099322083060958e-02
2.479630000000000e+10 -2.932609348005911e-02 -5.452480767333841e-02 9.617475259681821e-01 -4.563064511326523e-02 9.616062513003925e-01 -4.624276366857417e-02 -2.918622790000823e-02 -5.073298236987248e-02
2.483816875000000e+10 -2.972339693550951e-02 -5.427241536813222e-02 9.610195934630149e-01 -4.537273222273635e-02 9.612929638747751e-01 -4.599988177766333e-02 -2.893024599244139e-02 -5.018066085931614e-02
2.488003750000000e+10 -3.009240546676014e-02 -5.405271830185646e-02 9.621589435167071e-01 -4.585967480827394e-02 9.623133225601019e-01 -4.659410627005528e-02 -2.842731007710289e-02 -5.065002010010117e-02
2.492190625000000e+10 -2.985122300833465e-02 -5.235146695062191e-02 9.615187730028762e-01 -4.535840935880808e-02 9.620124859424398e-01 -4.597679902700479e-02 -2.791204632464706e-02 -5.063949461304903e-02
2.496377500000000e+10 -2.866331494141122e-02 -5.259505096441608e-02 9.618191783329568e-01 -4.563206108397159e-02 9.617881378129477e-01 -4.720414391595600e-02 -2.745320922790511e-02 -5.036497510059459e-02
2.500564375000000e+10 -2.812276332209864e-02 -5.260812366359462e-02 9.631496025394423e-01 -4.520920343055054e-02 9.633559825825307e-01 -4.603961729274942e-02 -2.674082122394674e-02 -5.144921053348404e-02
2.504751250000000e+10 -2.809270382462642e-02 -5.258553148492419e-02 9.649591473558782e-01 -4.534264187804807e-02 9.647724144345952e-01 -4.587512532591251e-02 -2.637221718444534e-02 -5.309935979453497e-02
2.508938125000000e+10 -2.782151925225202e-02 -5.192271469682959e-02 9.659880699552860e-01 -4.565348254559453e-02 9.662817384742582e-01 -4.652342537835210e-02 -2.604202282527624e-02 -5.382334302933279e-02
2.513125000000000e+10 -2.746904241242627e-02 -5.110315646468983e-02 9.682258299332630e-01 -4.637049091735611e-02 9.682772122512574e-01 -4.724212413170086e-02 -2.595220143294403e-02 -5.509872584161669e-02
2.517311875000000e+10 -2.789806129472043e-02 -5.135072024078895e-02 9.688652757531796e-01 -4.673930989561573e-02 9.686433400509136e-01 -4.784920203865749e-02 -2.617990543401089e-02 -5.581896413992184e-02
2.521498750000000e+10 -2.735988129528716e-02 -5.067133748018728e-02 9.695458587692145e-01 -4.673041443255338e-02 9.695887192053545e-01 -4.860772680267826e-02 -2.654646934929617e-02 -5.694543410818236e-02
2.525685625000000e+10 -2.831047469215062e-02 -4.988083972873745e-02 9.693585384663992e-01 -4.639565898105742e-02 9.691104938584582e-01 -4.724569526670351e-02 -2.731903162570849e-02 -5.531100015613537e-02
2.529872500000000e+10 -2.764127777792613e-02 -4.903035985682048e-02 9.702443209884173e-01 -4.664686223719817e-02 9.701536458172669e-01 -4.750675213703365e-02 -2.777151422651366e-02 -5.468417373311923e-02
2.534059375000000e+10 -2.744674416983218e-02 -5.028091014322678e-02 9.696469730412798e-01 -4.690486359150638e-02 9.696612650267386e-01 -4.772388181218456e-02 -2.834560887315701e-02 -5.520872520042803e-02
2.538246250000000e+10 -2.758167746495980e-02 -5.096357060884976e-02 9.695961717488220e-01 -4.714720264460545e-02 9.696691888416853e-01 -4.821195714470958e-02 -2.857683075101414e-02 -5.513989761257750e-02
2.542433125000000e+10 -2.714462517536254e-02 -5.257362806044531e-02 9.672176469325459e-01 -4.675218994510223e-02 9.672537437597590e-01 -4.784738050060652e-02 -2.882894627603237e-02 -5.481966576676104e-02
2.546620000000000e+10 -2.737020223143770e-02 -5.354894754334509e-02 9.651817308821340e-01 -4.532459418807791e-02 9.654753278525545e-01 -4.617327713905196e-02 -2.949691618656167e-02 -5.373400501658990e-02
2.550806875000000e+10 -2.610728603096505e-02 -5.482822460718027e-02 9.666923564761676e-01 -4.671861935115183e-02 9.663639672734142e-01 -4.661339228807752e-02 -2.887881179576363e-02 -5.603496681316432e-02
2.554993750000000e+10 -2.614564427721642e-02 -5.692738456407106e-02 9.649637742653587e-01 -4.661454408545378e-02 9.648113542895850e-01 -4.746310508357363e-02 -2.984036480030233e-02 -5.576824323497147e-02
2.559180625000000e+10 -2.127549963309893e-02 -5.537437006582060e-02 9.655549561047218e-01 -4.664816143980303e-02 9.646714200830239e-01 -4.723461321206245e-02 -2.993354333628958e-02 -5.617025781899270e-02
2.563367500000000e+10 -2.130149514225274e-02 -5.595886387136766e-02 9.648223690492980e-01 -4.746712427677446e-02 9.647634417966860e-01 -4.832485598256417e-02 -3.061948365009293e-02 -5.706129741890104e-02
2.567554375000000e+10 -2.296426571605690e-02 -5.446314366757525e-02 9.657306995869051e-01 -4.686261317883963e-02 9.659498014153800e-01 -4.811614950771902e-02 -3.080599838032970e-02 -5.642819773284790e-02
2.571741250000000e+10 -2.254127031315579e-02 -5.494947220127417e-02 9.654364901393649e-01 -4.658605746147512e-02 9.654987139068116e-01 -4.746692631652008e-02 -3.110088527858064e-02 -5.600084034431659e-02
2.575928125000000e+10 -2.263597830922083e-02 -5.518921045852642e-02 9.653967647823624e-01 -4.635980826789438e-02 9.653319877307738e-01 -4.700653055592754e-02 -3.138283495482119e-02 -5.528629805860801e-02
2.580115000000000e+10 -2.143416354182627e-02 -5.557476655295119e-02 9.656768507212222e-01 -4.648523595815739e-02 9.656417874787437e-01 -4.718839638000043e-02 -3.070309615802680e-02 -5.585745659192359e-02
2.584301875000000e+10 -2.191528768710897e-02 -5.618923032299551e-02 9.666040624142772e-01 -4.697663630296351e-02 9.665924342140659e-01 -4.768535215292394e-02 -3.089130184689556e-02 -5.673157896281960e-02
2.588488750000000e+10 -2.162338006175806e-02 -5.650104194240422e-02 9.674679836114757e-01 -4.718290140535451e-02 9.675982862372106e-01 -4.798136530279001e-02 -3.016630879684661e-02 -5.745561197420439e-02
2.592675625000000e+10 -2.243905809207456e-02 -5.768130011401569e-02 9.680964625646986e-01 -4.828653078027918e-02 9.687329676192042e-01 -4.858804777077352e-02 -3.007800252597191e-02 -5.839901822664222e-02
2.596862500000000e+10 -2.255475323005956e-02 -5.802388439349557e-02 9.674626684123453e-01 -4.809912099615617e-02 9.675148001648898e-01 -4.908108561575108e-02 -2.968360645127561e-02 -5.705317862602431e-02
2.601049375000000e+10 -2.115903991018539e-02 -6.022012414071468e-02 9.657405349682257e-01 -4.792313860891047e-02 9.657875751433699e-01 -4.885908124672009e-02 -2.940210730733812e-02 -5.673555326327981e-02
2.605236250000000e+10 -2.087760610360922e-02 -6.143287924674602e-02 9.649393934311029e-01 -4.935473478752127e-02 9.647158409730164e-01 -4.987022865054051e-02 -2.951770129346030e-02 -5.694414405718314e-02
2.609423125000000e+10 -2.003776320454302e-02 -6.167734525791652e-02 9.639713752333507e-01 -4.969284226623628e-02 9.639542266575123e-01 -5.035053598911687e-02 -2.892269751016212e-02 -5.690710979747746e-02
2.613610000000000e+10 -2.144111289630118e-02 -6.187504804657086e-02 9.634018864698521e-01 -4.989574308273007e-02 9.633501048381284e-01 -5.053558620332980e-02 -2.932090122741013e-02 -5.648684818340403e-02
2.617796875000000e+10 -2.150731104641914e-02 -6.104385059558234e-02 9.630117792314471e-01 -4.990057553182303e-02 9.629659489741954e-01 -5.057058328262014e-02 -2.884709811274415e-02 -5.569666824456324e-02
2.621983750000000e+10 -2.100583934625544e-02 -6.302681411949414e-02 9.626892729671443e-01 -5.007920638359761e-02 9.627122711552346e-01 -5.070378477606265e-02 -2.905828067607581e-02 -5.662300876903186e-02
2.626170625000000e+10 -2.286258854138468e-02 -6.271165846098051e-02 9.619682973348604e-01 -5.093243816366359e-02 9.618405999361751e-01 -5.175335906598912e-02 -2.923731617106736e-02 -5.586819143021631e-02
2.630357500000000e+10 -2.351063670066337e-02 -6.134089145935166e-02 9.609707261274324e-01 -5.067060260713144e-02 9.610257645961457e-01 -5.136559145143924e-02 -2.938854438797108e-02 -5.461425052191143e-02
2.634544375000000e+10 -2.385912575526594e-02 -5.907162834916622e-02 9.607513874971123e-01 -5.032390047949573e-02 9.610388932148417e-01 -5.064621847245265e-02 -3.018361181226986e-02 -5.350124521550906e-02
2.638731250000000e+10 -2.292365793664482e-02 -5.985063501078810e-02 9.607893228482834e-01 -5.017989419890646e-02 9.607229492479894e-01 -5.109341135181347e-02 -2.960618562893808e-02 -5.452395067379047e-02
2.642918125000000e+10 -2.519420196093143e-02 -5.856783143094377e-02 9.626283341823767e-01 -5.077566047351351e-02 9.625710882634519e-01 -5.127643583996046e-02 -3.033069854959058e-02 -5.486036279335204e-02
2.647105000000000e+10 -2.556855061211786e-02 -5.726703369211456e-02 9.638557367804520e-01 -5.060607342288717e-02 9.638055728339125e-01 -5.097556877359478e-02 -2.978280798766227e-02 -5.506449982800904e-02
2.651291875000000e+10 -2.615450895754930e-02 -5.863987552166177e-02 9.639925870393741e-01 -5.151903663411603e-02 9.639297598806368e-01 -5.275358731335963e-02 -3.007542081639209e-02 -5.700233400163432e-02
2.655478750000000e+10 -2.755644251404156e-02 -5.791653252872571e-02 9.628314433384207e-01 -5.213888256126590e-02 9.627944046117035e-01 -5.270085537283299e-02 -2.990676246649409e-02 -5.575299015159277e-02
2.659665625000000e+10 -2.871560386356053e-02 -5.696972600604600e-02 9.629287325652164e-01 -5.193124303751823e-02 9.628505427017096e-01 -5.254153648561000e-02 -2.976204198358053e-02 -5.622824839246762e-02
2.663852500000000e+10 -2.960745250407881e-02 -5.544915182982570e-02 9.620949439416154e-01 -5.167615973809293e-02 9.621041842674306e-01 -5.222336172193048e-02 -3.049047775997705e-02 -5.479266239120054e-02
2.668039375000000e+10 -2.851851151881168e-02 -5.413386641790630e-02 9.609953366022324e-01 -5.079437810884062e-02 9.609398534412787e-01 -5.130273764967423e-02 -3.014184511244122e-02 -5.471398558597652e-02
2.672226250000000e+10 -3.012657500420314e-02 -5.281555748956637e-02 9.617387244863369e-01 -5.069415636721215e-02 9.616211900848531e-01 -5.058770653846999e-02 -3.079497353071077e-02 -5.433848409018541e-02
2.676413125000000e+10 -3.014293762620061e-02 -4.971244452280116e-02 9.635160217067410e-01 -4.989349358628863e-02 9.635244213270173e-01 -4.992193549822389e-02 -3.124946168532713e-02 -5.298465779857284e-02
2.680600000000000e+10 -3.070841859042150e-02 -4.791721216189147e-02 9.648532477215046e-01 -4.913533692709227e-02 9.649953753525582e-01 -5.035929290330980e-02 -3.174521488649422e-02 -5.278593451732640e-02
2.684786875000000e+10 -3.130235619286972e-02 -4.623173703040902e-02 9.655135616493437e-01 -4.847041251409242e-02 9.655804537124620e-01 -4.877605733432002e-02 -3.233738645131703e-02 -5.088361131846401e-02
2.688973750000000e+10 -2.947515778017682e-02 -4.619525137205014e-02 9.658495959271365e-01 -4.785176076034826e-02 9.659818310956469e-01 -4.779496786410573e-02 -3.251814889346854e-02 -5.092252788172020e-02
2.693160625000000e+10 -2.750155371074010e-02 -4.635579141950910e-02 9.658108487947110e-01 -4.774014212823250e-02 9.651636829823476e-01 -4.766349606359695e-02 -3.387557242987065e-02 -5.000570091884472e-02
2.697347500000000e+10 -2.479476054051333e-02 -4.596298546123032e-02 9.659772367798095e-01 -4.731790514267339e-02 9.656138601979291e-01 -4.766520102712877e-02 -3.306063784478292e-02 -5.055106185903870e-02
2.701534375000000e+10 -2.561464059334197e-02 -4.556639411755623e-02 9.666968491795874e-01 -4.784536679326322e-02 9.669826293631957e-01 -4.779575359158968e-02 -3.424131587577697e-02 -5.135701430115024e-02
2.705721250000000e+10 -2.571940839098693e-02 -4.481737195491721e-02 9.691399927881592e-01 -4.805699801806026e-02 9.694689081481656e-01 -4.794398574698847e-02 -3.402207327944417e-02 -5.155464471472182e-02
2.709908125000000e+10 -2.620605092546994e-02 -4.647588144495494e-02 9.696681995161592e-01 -4.941796182951735e-02 9.695838944652658e-01 -4.942788244733137e-02 -3.428440449796840e-02 -5.350966314648477e-02
2.714095000000000e+10 -2.666860594326188e-02 -4.648717646618305e-02 9.686411141102865e-01 -5.001337059709356e-02 9.687981553610058e-01 -5.029199477851445e-02 -3.496293629513055e-02 -5.270084530706415e-02
2.718281875000000e+10 -2.638638872127692e-02 -4.677347879020088e-02 9.673138298106105e-01 -4.971300941927397e-02 9.674882698724637e-01 -4.997742715726886e-02 -3.435074549702249e-02 -5.168428673343638e-02
2.722468750000000e+10 -2.713844636903209e-02 -4.636626454269499e-02 9.657371661717636e-01 -4.897667914235383e-02 9.658690486744084e-01 -4.913506362741876e-02 -3.572521483656369e-02 -4.926735597187566e-02
2.726655625000000e+10 -2.594960078249280e-02 -4.566779912205546e-02 9.658080026049032e-01 -4.796258576020264e-02 9.659322491482308e-01 -4.793161902252879e-02 -3.496924422688634e-02 -4.887165470714062e-02
2.730842500000000e+10 -2.482457704969026e-02 -4.465329689272915e-02 9.647549807545674e-01 -4.743745367836584e-02 9.650991943305569e-01 -4.754898957669882e-02 -3.648976435835968e-02 -4.728902519131032e-02
2.735029375000000e+10 -2.224186003917198e-02 -4.356034447965366e-02 9.649619726072919e-01 -4.679416352935242e-02 9.648982616533281e-01 -4.649560567083670e-02 -3.693190783637258e-02 -4.617299646998380e-02
2.739216250000000e+10 -2.164502546274252e-02 -4.452854540382501e-02 9.657008160502859e-01 -4.684273764356449e-02 9.658403222611692e-01 -4.676125899178327e-02 -3.711281054004487e-02 -4.767269726831641e-02
2.743403125000000e+10 -2.149045912446337e-02 -4.493639455302476e-02 9.646676204882469e-01 -4.727807029274399e-02 9.646460606048068e-01 -4.724276081167458e-02 -3.761902890386375e-02 -4.759105766501440e-02
2.747590000000000e+10 -2.259260988008951e-02 -4.432563586501152e-02 9.651834423712089e-01 -4.723101553565381e-02 9.649189478655242e-01 -4.733770583254008e-02 -3.698348731001956e-02 -4.801920278660020e-02
2.751776875000000e+10 -2.376233290717302e-02 -4.334860629422499e-02 9.666736365379455e-01 -4.733520035301449e-02 9.667725042488819e-01 -4.734268487484471e-02 -3.774073592070987e-02 -4.755533740591032e-02
2.755963750000000e+10 -2.372469370130374e-02 -4.395091842021587e-02 9.658404749535214e-01 -4.777239151183914e-02 9.658143209129256e-01 -4.778228355507931e-02 -3.664531672600255e-02 -4.757255370391980e-02
2.760150625000000e+10 -2.463242547241830e-02 -4.311021726866503e-02 9.647378458328227e-01 -4.747683372998727e-02 9.648012575486868e-01 -4.765752357544285e-02 -3.759707296950236e-02 -4.613630452031808e-02
2.764337500000000e+10 -2.423536884357753e-02 -4.113425910105660e-02 9.650265377350148e-01 -4.665615040539410e-02 9.650684891382747e-01 -4.654238096023365e-02 -3.718755813107216e-02 -4.494894034921288e-02
2.768524375000000e+10 -2.440135587483416e-02 -4.065018444825667e-02 9.642056846211314e-01 -4.551410769831498e-02 9.642933593506866e-01 -4.545050105102905e-02 -3.728518744613236e-02 -4.373562818913767e-02
2.772711250000000e+10 -2.158423169055963e-02 -3.920474444587593e-02 9.636208915828377e-01 -4.363851603232646e-02 9.632393040715923e-01 -4.397737465647045e-02 -3.712698637721731e-02 -4.239609910622206e-02
2.776898125000000e+10 -1.820599316266209e-02 -3.971291428512178e-02 9.641358202208302e-01 -4.315445599946294e-02 9.640574749640186e-01 -4.333820470298034e-02 -3.688904877113371e-02 -4.276358104318474e-02
2.781085000000000e+10 -1.819895055431143e-02 -4.008626545664501e-02 9.644098448957733e-01 -4.377969575442540e-02 9.643797918719458e-01 -4.391122447212455e-02 -3.700497302976846e-02 -4.317530494649090e-02
2.785271875000000e+10 -1.834492070773974e-02 -3.956608357280609e-02 9.655206304984713e-01 -4.342367426357894e-02 9.654317712815809e-01 -4.335674576276214e-02 -3.628661268638158e-02 -4.336551661217956e-02
2.789458750000000e+10 -1.694092245008829e-02 -4.000626246745439e-02 9.659894606375351e-01 -4.405933725257721e-02 9.659463748569832e-01 -4.397724684016460e-02 -3.663982135553279e-02 -4.317366319089213e-02
2.793645625000000e+10 -1.546439802431238e-02 -4.006790310099506e-02 9.658173209114933e-01 -4.491860803061721e-02 9.658565128871257e-01 -4.465919074186386e-02 -3.633716564530640e-02 -4.358811056519958e-02
2.797832500000000e+10 -1.658129293567499e-02 -4.079793378138696e-02 9.674527460389210e-01 -4.564311756550553e-02 9.673189805148686e-01 -4.572328904603785e-02 -3.667043082606956e-02 -4.432237174291352e-02
2.802019375000000e+10 -1.570014532485016e-02 -4.084813718748400e-02 9.666652920579195e-01 -4.640946099265251e-02 9.667828461478079e-01 -4.633101320471140e-02 -3.705325070367048e-02 -4.384013890650649e-02
2.806206250000000e+10 -1.562682525943667e-02 -4.213661732913058e-02 9.662970379935035e-01 -4.658903600459702e-02 9.663228148314318e-01 -4.663185387550224e-02 -3.672648214055035e-02 -4.429065250653392e-02
2.810393125000000e+10 -1.449977594374377e-02 -4.279352771840220e-02 9.649038216259895e-01 -4.715090791519110e-02 9.652034754579195e-01 -4.711140090867332e-02 -3.715257302364711e-02 -4.452119006970236e-02
2.814580000000000e+10 -1.543435709950165e-02 -4.329042423386368e-02 9.665778496752634e-01 -4.723425968171308e-02 9.665606551183314e-01 -4.753739339805418e-02 -3.681870100376929e-02 -4.640550527973171e-02
2.818766875000000e+10 -1.683582339045687e-02 -4.372784206149142e-02 9.666476049795431e-01 -4.780689440967207e-02 9.665936122428513e-01 -4.804031351882121e-02 -3.730532882635753e-02 -4.648305354404310e-02
2.822953750000000e+10 -1.603900699796799e-02 -4.447238765258996e-02 9.662529065391912e-01 -4.825836575116749e-02 9.662996168708472e-01 -4.850803265834844e-02 -3.681533337786139e-02 -4.735432519810560e-02
2.827140625000000e+10 -1.806813257936558e-02 -4.495405391305396e-02 9.662394342557503e-01 -4.893949999584409e-02 9.661395199473943e-01 -4.916285392147017e-02 -3.749802316327584e-02 -4.750100026993048e-02
2.831327500000000e+10 -1.790007220124998e-02 -4.465919484997539e-02 9.654745021401732e-01 -4.866592184534770e-02 9.654359202829119e-01 -4.901364295884059e-02 -3.728446121631798e-02 -4.655090308000260e-02
2.835514375000000e+10 -1.770028756241198e-02 -4.509215549347410e-02 9.644338592654403e-01 -4.835306503027926e-02 9.644457399006428e-01 -4.866504528336260e-02 -3.768312219563338e-02 -4.572196947376633e-02
2.839701250000000e+10 -1.660460311930046e-02 -4.411916305371220e-02 9.645040330611409e-01 -4.751329734174235e-02 9.642538611360957e-01 -4.783493850597556e-02 -3.776043992246739e-02 -4.488689887510373e-02
2.843888125000000e+10 -1.478518576359505e-02 -4.517970615952455e-02 9.651192614293624e-01 -4.820103743531280e-02 9.650899169657400e-01 -4.834597188164983e-02 -3.738445596809455e-02 -4.645414560147168e-02
2.848075000000000e+10 -1.616441780376577e-02 -4.653532401537294e-02 9.656676335021008e-01 -5.003646864924935e-02 9.657582250001882e-01 -5.003963787566189e-02 -3.746366392613495e-02 -4.780375962358871e-02
2.852261875000000e+10 -1.819814267857082e-02 -4.729264096718740e-02 9.654437850771077e-01 -5.127609980388090e-02 9.653885296814775e-01 -5.140255327777651e-02 -3.714276836250117e-02 -4.815652351084705e-02
2.856448750000000e+10 -2.021661329305167e-02 -4.719605739035856e-02 9.644610024301130e-01 -5.182417304891362e-02 9.644630741209489e-01 -5.201135781838472e-02 -3.790897528582791e-02 -4.744070863468793e-02
2.860635625000000e+10 -1.991187085764224e-02 -4.726642362167156e-02 9.622325579016620e-01 -5.146449948815802e-02 9.621839785108400e-01 -5.182342149955579e-02 -3.754392614947187e-02 -4.655522077198721e-02
2.864822500000000e+10 -2.087660286585055e-02 -4.598227722326326e-02 9.616522967809175e-01 -5.030379416596817e-02 9.616738563704024e-01 -5.069310719551868e-02 -3.830646716643836e-02 -4.597725396396388e-02
2.869009375000000e+10 -2.057879809501826e-02 -4.472838864427867e-02 9.617616199544969e-01 -4.984681242213080e-02 9.620619873742087e-01 -5.010631979209548e-02 -3.850584277121773e-02 -4.509679334314663e-02
2.873196250000000e+10 -2.102902143819027e-02 -4.506630511367125e-02 9.626186954787632e-01 -4.956507301716861e-02 9.626885722199698e-01 -5.005753307162201e-02 -3.861007387408261e-02 -4.571856997970519e-02
2.877383125000000e+10 -2.149427984163983e-02 -4.506897860899488e-02 9.626989386296461e-01 -4.928927235262079e-02 9.626771056692308e-01 -4.961500997314239e-02 -3.832349414569126e-02 -4.527679076557009e-02
2.881570000000000e+10 -2.162522766141452e-02 -4.554077398410773e-02 9.623617387811170e-01 -4.941134412714896e-02 9.623867452435396e-01 -4.985716555858638e-02 -3.803666280204941e-02 -4.528673200599417e-02
2.885756875000000e+10 -2.119689455715756e-02 -4.425029632439319e-02 9.618189237520538e-01 -4.914501877563704e-02 9.618027247280500e-01 -4.936941605172158e-02 -3.797045899996875e-02 -4.412101950865659e-02
2.889943750000000e+10 -2.162209981219431e-02 -4.432602859961083e-02 9.620229564651919e-01 -4.921937927079954e-02 9.620909595679830e-01 -4.969676285303214e-02 -3.741325167766105e-02 -4.480175514512202e-02
2.894130625000000e+10 -2.239262920930691e-02 -4.306912716597626e-02 9.633248161813047e-01 -4.888896890514567e-02 9.632205127300685e-01 -4.958578359948369e-02 -3.774950073015742e-02 -4.466710151718929e-02
2.898317500000000e+10 -2.170522291347605e-02 -4.333746247664628e-02 9.630184615693593e-01 -4.942822216135939e-02 9.630948404762260e-01 -5.021329384930498e-02 -3.702964358231571e-02 -4.552668929602530e-02
2.902504375000000e+10 -2.265685380676677e-02 -4.305033623295387e-02 9.630687625500354e-01 -4.906205508486947e-02 9.629514616050366e-01 -4.993504301633463e-02 -3.728774570361265e-02 -4.529850292248286e-02
2.906691250000000e+10 -2.184898657129089e-02 -4.213267962100262e-02 9.626576485463335e-01 -4.909402500314517e-02 9.625846635176175e-01 -4.989744076655538e-02 -3.730334697366299e-02 -4.526207346892320e-02
2.910878125000000e+10 -2.159006817135483e-02 -4.267961572703173e-02 9.623622386558013e-01 -4.894630762466631e-02 9.622302389549494e-01 -4.952304205973770e-02 -3.734460254501250e-02 -4.617426522939485e-02
2.915065000000000e+10 -2.204882425253757e-02 -4.214957218107474e-02 9.619317262742784e-01 -4.898752912657588e-02 9.619579158424868e-01 -4.954750579829123e-02 -3.797388946076476e-02 -4.611560804169631e-02
2.919251875000000e+10 -2.305151724624871e-02 -4.113154406016157e-02 9.633361969320985e-01 -4.840196094108595e-02 9.630020452733546e-01 -4.914207630238868e-02 -3.722040758678326e-02 -4.634027801885753e-02
2.923438750000000e+10 -2.269181155202384e-02 -4.064262813673019e-02 9.635877953221843e-01 -4.813345933028861e-02 9.635478354346194e-01 -4.874058990396046e-02 -3.815672880376346e-02 -4.560539631057675e-02
2.927625625000000e+10 -2.216733304026469e-02 -4.034691363396910e-02 9.644228371713855e-01 -4.809393122557901e-02 9.644582493121160e-01 -4.883538659174631e-02 -3.717427627044442e-02 -4.695670364605848e-02
2.931812500000000e+10 -2.286189417930044e-02 -4.095110320538204e-02 9.658045480408028e-01 -4.815488038220072e-02 9.658748437846942e-01 -4.876180298857036e-02 -3.754757580769164e-02 -4.770716950065772e-02
2.935999375000000e+10 -2.258931392354279e-02 -4.113555724976767e-02 9.660072311912644e-01 -4.924705772416695e-02 9.660372826100188e-01 -4.990766130460108e-02 -3.729133775600103e-02 -4.881076846976135e-02
2.940186250000000e+10 -2.281016613562211e-02 -4.240889716348604e-02 9.647015798750419e-01 -4.928642037093187e-02 9.644948866226167e-01 -5.025026497576719e-02 -3.736416996348847e-02 -4.950805860926730e-02
2.944373125000000e+10 -2.313205388045102e-02 -4.074388848602651e-02 9.637657975154773e-01 -4.968685692472863e-02 9.637474724159463e-01 -5.057764998597939e-02 -3.804580973147940e-02 -4.856910939823163e-02
2.948560000000000e+10 -2.373891443914857e-02 -4.035099859352708e-02 9.637403994318310e-01 -4.937084705793988e-02 9.637371990289977e-01 -5.015543470356195e-02 -3.810895487183803e-02 -4.905563247735325e-02
2.952746875000000e+10 -2.478952576512560e-02 -3.884833302392580e-02 9.646019335962794e-01 -4.808816455146493e-02 9.645617407514121e-01 -4.878058218215076e-02 -3.967928487982601e-02 -4.862522870585115e-02
2.956933750000000e+10 -2.238434740602005e-02 -3.928077223271019e-02 9.652917678711781e-01 -4.713348354841237e-02 9.652605318445786e-01 -4.811312124813018e-02 -3.863905701641238e-02 -4.905412061803000e-02
2.961120625000000e+10 -2.163695488496217e-02 -4.050359802671367e-02 9.657533799340863e-01 -4.823795948238799e-02 9.656801851303014e-01 -4.912041446678771e-02 -4.028154781407565e-02 -5.034241630446913e-02
2.965307500000000e+10 -2.169206197895969e-02 -3.994823445412688e-02 9.649405344974956e-01 -4.870707866710174e-02 9.650359591159452e-01 -4.961016757904201e-02 -3.967226085235002e-02 -4.949709963210211e-02
2.969494375000000e+10 -2.165565250292262e-02 -4.018909847719147e-02 9.659050305784497e-01 -4.856730754946532e-02 9.659095120416908e-01 -4.936126224138919e-02 -4.034048449309445e-02 -5.008563447631470e-02
2.973681250000000e+10 -2.080859223645471e-02 -4.039519849225686e-02 9.650859589054889e-01 -4.929050525291298e-02 9.651047831848144e-01 -5.015532349531172e-02 -4.067947145823964e-02 -4.969657676355333e-02
2.977868125000000e+10 -1.987744085935276e-02 -4.104942487876352e-02 9.634476910867688e-01 -4.904396121488509e-02 9.635152344560948e-01 -5.004572257813552e-02 -4.007434560390361e-02 -4.989347816330395e-02
2.982055000000000e+10 -2.120261614469431e-02 -4.032203828545922e-02 9.646909589314496e-01 -4.854392542402801e-02 9.646763332648535e-01 -4.929046716163583e-02 -4.125024958801685e-02 -4.922722268450853e-02
2.986241875000000e+10 -1.805378636393368e-02 -4.154910337609735e-02 9.641190226390194e-01 -4.839542975190019e-02 9.639612547351137e-01 -4.881290087741937e-02 -4.012310859548976e-02 -5.009236274680891e-02
2.990428750000000e+10 -1.841462737794981e-02 -4.330864855742694e-02 9.632745631324151e-01 -4.959993865864921e-02 9.632622524503066e-01 -5.037597747695629e-02 -4.105788583193443e-02 -5.154274284518274e-02
2.994615625000000e+10 -2.050506846338394e-02 -4.267952858797191e-02 9.635354497715775e-01 -4.936566610022219e-02 9.634131916007250e-01 -5.031565953377965e-02 -4.069559397535672e-02 -5.149624830208771e-02
2.998802500000000e+10 -2.238342701810942e-02 -4.330780027087520e-02 9.645178019089345e-01 -4.915227690179322e-02 9.640897766504893e-01 -4.995559403117729e-02 -4.112635538876778e-02 -5.140654359580021e-02
3.002989375000000e+10 -2.245820889681495e-02 -4.157709338233406e-02 9.637436959557016e-01 -4.958706826916885e-02 9.636965117247881e-01 -5.020057123773063e-02 -4.200610963931265e-02 -4.919927899329329e-02
3.007176250000000e+10 -2.078349016973497e-02 -4.171802065043378e-02 9.627843856409196e-01 -4.935882641915529e-02 9.628868503240169e-01 -5.013817184263756e-02 -4.235267396949222e-02 -4.899881467420304e-02
3.011363125000000e+10 -1.932845309660946e-02 -4.158002287416972e-02 9.616449665358795e-01 -4.928393953896874e-02 9.614312065744349e-01 -5.036063144650842e-02 -4.284115638184648e-02 -4.852855225340403e-02
3.015550000000000e+10 -1.978564109569975e-02 -4.174972925896037e-02 9.624333289355312e-01 -5.013994727070115e-02 9.622686496551480e-01 -5.112496378584108e-02 -4.202957955036338e-02 -5.016120235419576e-02
3.019736875000000e+10 -2.252219255639800e-02 -4.043747359718474e-02 9.625420041386290e-01 -4.985740974704755e-02 9.620566124696113e-01 -5.055667105033337e-02 -4.344252177807893e-02 -4.948573369765923e-02
3.023923750000000e+10 -2.240022303173695e-02 -3.862421490040442e-02 9.642497060299192e-01 -4.830861238212188e-02 9.642296055994637e-01 -4.896452566988035e-02 -4.318095141790663e-02 -4.912832548667478e-02
3.028110625000000e+10 -2.090788232611551e-02 -4.102145047426384e-02 9.653377384382973e-01 -4.913140730269264e-02 9.655018280825811e-01 -4.956162680255271e-02 -4.356675016536311e-02 -5.039581900051663e-02
3.032297500000000e+10 -1.902901168003049e-02 -4.172028446153889e-02 9.637605610784221e-01 -4.914038088325068e-02 9.632500499584855e-01 -4.954595408796439e-02 -4.372183044250817e-02 -4.987948250969691e-02
3.036484375000000e+10 -1.902466098446457e-02 -4.361377619568602e-02 9.633808687712809e-01 -4.938477598707216e-02 9.632846261629039e-01 -4.981586196330052e-02 -4.370751253257209e-02 -5.087735832406621e-02
3.040671250000000e+10 -1.944701469167032e-02 -4.366696157107976e-02 9.620486933048243e-01 -4.979901737004948e-02 9.620730566667275e-01 -5.044124479723024e-02 -4.486728684020629e-02 -5.054436818286443e-02
3.044858125000000e+10 -2.059638471419631e-02 -4.290018932914571e-02 9.622001555492313e-01 -4.949942590770096e-02 9.622523292598039e-01 -5.034133631009390e-02 -4.449129155946109e-02 -5.064439782202773e-02
3.049045000000000e+10 -2.084650516205144e-02 -4.201787708724274e-02 9.619411817315064e-01 -4.956893325918155e-02 9.619620191152539e-01 -5.003294884593201e-02 -4.606707449074415e-02 -4.980418363155781e-02
3.053231875000000e+10 -1.967184405933945e-02 -4.194254362186355e-02 9.619851072824793e-01 -4.915925549904859e-02 9.620244215698984e-01 -4.981557322728290e-02 -4.602255350134150e-02 -4.981850936070634e-02
3.057418750000000e+10 -1.879119276697967e-02 -4.263278164672962e-02 9.599684887309780e-01 -4.944490625076585e-02 9.601897822046743e-01 -4.982662429175772e-02 -4.621360744181802e-02 -4.943635507860247e-02
3.061605625000000e+10 -1.874516321984444e-02 -4.170032461821935e-02 9.600586799783896e-01 -4.844936223662254e-02 9.601647113499980e-01 -4.883405085934987e-02 -4.682966590445982e-02 -4.889124993823814e-02
3.065792500000000e+10 -1.823392860803909e-02 -4.200726254925063e-02 9.604203790505607e-01 -4.793989214510586e-02 9.604429952880142e-01 -4.822985588500921e-02 -4.592217403318716e-02 -4.876360762111823e-02
3.069979375000000e+10 -1.727910312094670e-02 -4.132666115813498e-02 9.598227589771182e-01 -4.808237423176263e-02 9.599740580407804e-01 -4.835145421576390e-02 -4.701141048429850e-02 -4.797888779842892e-02
3.074166250000000e+10 -1.716420851126546e-02 -4.138166019769750e-02 9.601662865029393e-01 -4.834011400762717e-02 9.600995172622667e-01 -4.843171808714311e-02 -4.566537733508388e-02 -4.843136607187744e-02
3.078353125000000e+10 -1.639397755852125e-02 -4.180142902088375e-02 9.596674565365068e-01 -4.745815578144865e-02 9.597836328177622e-01 -4.753034899573687e-02 -4.674183932300201e-02 -4.787455505988674e-02
3.082540000000000e+10 -1.600627004766689e-02 -4.147963610673972e-02 9.602944428970385e-01 -4.727545623499178e-02 9.605714899062682e-01 -4.743904796906692e-02 -4.528830097563447e-02 -4.826946780025669e-02
3.086726875000000e+10 -1.704657005378956e-02 -4.231721703221980e-02 9.609886003769781e-01 -4.832757190687781e-02 9.608906753152165e-01 -4.850749749063082e-02 -4.572907671669838e-02 -4.873712905162729e-02
3.090913750000000e+10 -1.740437484135852e-02 -4.060161075241323e-02 9.606406595317498e-01 -4.806611703507374e-02 9.606270182628139e-01 -4.815071681021078e-02 -4.471002647342624e-02 -4.800774603082509e-02
3.095100625000000e+10 -1.591749337011090e-02 -4.116571188839151e-02 9.610381955069253e-01 -4.756708236757367e-02 9.609895325718958e-01 -4.769539999829106e-02 -4.350928527604889e-02 -4.804547349554751e-02
3.099287500000000e+10 -1.660172115333400e-02 -4.136459899576479e-02 9.625961114886888e-01 -4.803077707118466e-02 9.624121389531953e-01 -4.810831520788832e-02 -4.377137408958184e-02 -4.894666980076023e-02
3.103474375000000e+10 -1.772690555837762e-02 -4.294625948268955e-02 9.626871645703744e-01 -4.841899293147031e-02 9.627233077085432e-01 -4.886494978249391e-02 -4.266053464073971e-02 -5.022451805582757e-02
3.107661250000000e+10 -1.873194813612774e-02 -4.237284913133427e-02 9.616688361308470e-01 -4.815742894609541e-02 9.617420947925218e-01 -4.853136269153013e-02 -4.347164901722995e-02 -4.935288094956151e-02
3.111848125000000e+10 -1.780613722397804e-02 -4.129845515323731e-02 9.625907345505241e-01 -4.732061166856025e-02 9.625105403295133e-01 -4.756074056029760e-02 -4.274541389375770e-02 -4.829071360607712e-02
3.116035000000000e+10 -1.545618684536496e-02 -4.234576402113745e-02 9.627772455637228e-01 -4.837108546130541e-02 9.628936686441573e-01 -4.873210158805424e-02 -4.274592033682770e-02 -4.971263699179956e-02
3.120221875000000e+10 -1.728341779735923e-02 -4.276526537600349e-02 9.627667773158822e-01 -4.965540063153863e-02 9.629486931469853e-01 -4.974196796012577e-02 -4.315472006731126e-02 -5.052542012088968e-02
3.124408750000000e+10 -1.775757022662614e-02 -4.252961797737591e-02 9.626171188578697e-01 -4.913620563757107e-02 9.626949431885322e-01 -4.947430393469017e-02 -4.331993865529016e-02 -5.103264855483574e-02
3.128595625000000e+10 -1.714395115002627e-02 -4.141489440822585e-02 9.617265027426990e-01 -4.887454475587955e-02 9.618968296217907e-01 -4.920057975071360e-02 -4.369444845983318e-02 -5.048366216764048e-02
3.132782500000000e+10 -1.761614239100060e-02 -4.131406621834821e-02 9.629112286635904e-01 -4.896952677107719e-02 9.629210066894526e-01 -4.926229583571263e-02 -4.361094127596041e-02 -5.115490754933112e-02
3.136969375000000e+10 -1.775978517383131e-02 -4.158058398288746e-02 9.633275853002272e-01 -4.922274411170236e-02 9.632307736954094e-01 -4.937709239666501e-02 -4.401387742084042e-02 -5.122449795477268e-02
3.141156250000000e+10 -1.805492752466840e-02 -4.053465278643619e-02 9.632096272117218e-01 -4.855648490683986e-02 9.633273590736577e-01 -4.868961893453257e-02 -4.443551275979540e-02 -5.044224755741108e-02
3.145343125000000e+10 -1.798345134013099e-02 -4.058387848832794e-02 9.641768798365334e-01 -4.849046517628208e-02 9.642331994267821e-01 -4.858229035561308e-02 -4.468845272859271e-02 -5.021034397570918e-02
3.149530000000000e+10 -1.372593463555352e-02 -4.111331553413489e-02 9.637430170794128e-01 -4.848896179160680e-02 9.636360194105994e-01 -4.877338710698378e-02 -4.391497171529075e-02 -5.088556373170319e-02
3.153716875000000e+10 -1.461058792790532e-02 -4.183673838686705e-02 9.644125130112405e-01 -5.009936417831858e-02 9.644477315994565e-01 -5.038963418253600e-02 -4.417434124484452e-02 -5.252964117289608e-02
3.157903750000000e+10 -1.533282678925238e-02 -4.274528836377697e-02 9.643759735760379e-01 -5.062728341470756e-02 9.645323794243246e-01 -5.100503634260346e-02 -4.420741640327498e-02 -5.351718368098678e-02
3.162090625000000e+10 -1.608460780220168e-02 -4.418328056504697e-02 9.641775586075737e-01 -5.147439866555539e-02 9.641136272620754e-01 -5.170700186876832e-02 -4.382112999434119e-02 -5.461198151956314e-02
3.166277500000000e+10 -1.757197639020725e-02 -4.427263581933569e-02 9.639469164281247e-01 -5.201258866157490e-02 9.640294056099087e-01 -5.207435547981339e-02 -4.460135039994973e-02 -5.420958981841739e-02
3.170464375000000e+10 -1.718542514729974e-02 -4.370432390671600e-02 9.638509327462189e-01 -5.205680313412984e-02 9.638985635110118e-01 -5.218408866733302e-02 -4.532030696738651e-02 -5.365800278746127e-02
3.174651250000000e+10 -1.659151524148872e-02 -4.390124201907392e-02 9.631274797670849e-01 -5.253463854289470e-02 9.630899273720436e-01 -5.257954954966133e-02 -4.502101775665435e-02 -5.381087143529380e-02
3.178838125000000e+10 -1.573740741691084e-02 -4.572439334091514e-02 9.615216709005807e-01 -5.343029706761065e-02 9.614701075295998e-01 -5.363016822092560e-02 -4.595963291756898e-02 -5.492406668312837e-02
3.183025000000000e+10 -1.824923791134451e-02 -4.547047676616491e-02 9.602547365854023e-01 -5.343313607732524e-02 9.603235786720130e-01 -5.367440622366785e-02 -4.635180077365710e-02 -5.503180950499414e-02
3.187211875000000e+10 -2.018899790228611e-02 -4.364480848932592e-02 9.614085389574910e-01 -5.236345282387608e-02 9.616277219602335e-01 -5.241332929209848e-02 -4.663689807476962e-02 -5.375228313316975e-02
3.191398750000000e+10 -1.908583572060787e-02 -4.405036062676227e-02 9.622901450837686e-01 -5.189301134340291e-02 9.622879579852567e-01 -5.227482347749535e-02 -4.754309460328985e-02 -5.374692015608191e-02
3.195585625000000e+10 -1.853836507416089e-02 -4.400134054167885e-02 9.630228109747416e-01 -5.264793850609227e-02 9.630556150587399e-01 -5.305276299884612e-02 -4.740644984646812e-02 -5.434937084416437e-02
3.199772500000000e+10 -1.922279546080364e-02 -4.512826468571422e-02 9.622799576026070e-01 -5.286756581357756e-02 9.623280160352944e-01 -5.345267791114348e-02 -4.815235323479299e-02 -5.441124180726101e-02
3.203959375000000e+10 -1.844482192615714e-02 -4.532982420813523e-02 9.612998048831290e-01 -5.224966667803927e-02 9.613787133147433e-01 -5.302404914625317e-02 -4.845878306834023e-02 -5.417547682465248e-02
3.208146250000000e+10 -1.754564878849996e-02 -4.649196478405205e-02 9.604547264080681e-01 -5.213918142320928e-02 9.606020391666613e-01 -5.295935351509884e-02 -4.861600496975807e-02 -5.457059070399858e-02
3.212333125000000e+10 -1.933942980923480e-02 -4.604133154600269e-02 9.600574651347591e-01 -5.199068749575080e-02 9.601354070944726e-01 -5.264516284855976e-02 -4.964229638117316e-02 -5.380834941242573e-02
3.216520000000000e+10 -1.835569003185886e-02 -4.611793161806108e-02 9.587608239085927e-01 -5.112841159696752e-02 9.586466578479399e-01 -5.165780740891918e-02 -4.884405911081856e-02 -5.217920025688439e-02
3.220706875000000e+10 -1.759158280505624e-02 -4.484476954144351e-02 9.589354927589886e-01 -5.031795763909473e-02 9.588783609985555e-01 -5.071123035752646e-02 -4.993967769037044e-02 -5.119344698373596e-02
3.224893750000000e+10 -1.622346099773980e-02 -4.426714672896050e-02 9.600936171723340e-01 -4.994305035151180e-02 9.600980616298184e-01 -5.018145357517777e-02 -5.007019175093210e-02 -5.062934937263935e-02
3.229080625000000e+10 -1.505114258732479e-02 -4.555576785746424e-02 9.604264689745866e-01 -5.042430627267720e-02 9.605543978233048e-01 -5.082051438644509e-02 -5.000266878266935e-02 -5.204676269796577e-02
3.233267500000000e+10 -1.583583550313095e-02 -4.613168779251144e-02 9.598760102173521e-01 -5.157897217292454e-02 9.600311039344350e-01 -5.190850312929556e-02 -4.939428666125388e-02 -5.195176795143107e-02
3.237454375000000e+10 -1.516301938495385e-02 -4.801682434135397e-02 9.586039087128526e-01 -5.164138573897076e-02 9.587126618355034e-01 -5.254906254480918e-02 -4.889492499584011e-02 -5.290632400041585e-02
3.241641250000000e+10 -1.615157520189516e-02 -4.770146741818633e-02 9.585011154357470e-01 -5.246868097252812e-02 9.583383506805607e-01 -5.325910110020102e-02 -4.848162618836641e-02 -5.269972793273298e-02
3.245828125000000e+10 -1.830925601038955e-02 -4.653184473928541e-02 9.575560174473796e-01 -5.232506101740754e-02 9.573781528715403e-01 -5.322303930453861e-02 -4.781414446935668e-02 -5.238075710354982e-02
3.250015000000000e+10 -1.999630368800977e-02 -4.515724563223723e-02 9.586991476679523e-01 -5.205105840794655e-02 9.583939174062142e-01 -5.267742301627586e-02 -4.816424183497325e-02 -5.170075223545836e-02
3.254201875000000e+10 -1.943149620194066e-02 -4.465851104865300e-02 9.586765641535576e-01 -5.143441812985151e-02 9.585322960817461e-01 -5.227355295981793e-02 -4.708125499844814e-02 -5.148336079474199e-02
3.258388750000000e+10 -1.953353452450688e-02 -4.451297917615989e-02 9.583551185613410e-01 -5.076350555127324e-02 9.584117493622819e-01 -5.146567980267294e-02 -4.757477099802682e-02 -5.121901757823855e-02
3.262575625000000e+10 -1.948130865679320e-02 -4.395007632155404e-02 9.601669258162215e-01 -5.092820057823750e-02 9.600791425922821e-01 -5.165325852475618e-02 -4.694835123914937e-02 -5.160350416553283e-02
3.266762500000000e+10 -1.864905700531805e-02 -4.406898136684808e-02 9.603147042890822e-01 -5.062217086368285e-02 9.602424318808146e-01 -5.147792001079247e-02 -4.693894274527553e-02 -5.179473532796798e-02
3.270949375000000e+10 -1.846226507403731e-02 -4.423180062807194e-02 9.616411950990128e-01 -5.053780916392360e-02 9.616535770747994e-01 -5.154774817358643e-02 -4.735377373347076e-02 -5.223233686890962e-02
3.275136250000000e+10 -1.741807548982972e-02 -4.589439481871414e-02 9.617581782021138e-01 -5.125900148869082e-02 9.618234065475425e-01 -5.252416725219915e-02 -4.578813309859028e-02 -5.335995251285856e-02
3.279323125000000e+10 -1.683768531874967e-02 -4.693677559885759e-02 9.601616226742575e-01 -5.238621715696457e-02 9.601045195600754e-01 -5.360049346582373e-02 -4.775741179182424e-02 -5.369819881619935e-02
3.283510000000000e+10 -1.858279250503058e-02 -4.700156585279663e-02 9.605638265821095e-01 -5.222727358783454e-02 9.604310168076056e-01 -5.330305696481170e-02 -4.653577116985150e-02 -5.359272830465910e-02
3.287696875000000e+10 -1.843694794210928e-02 -4.711599725526396e-02 9.597156217498386e-01 -5.267835959745592e-02 9.595746296015835e-01 -5.400681182227818e-02 -4.759015084497774e-02 -5.324502315580896e-02
3.291883750000000e+10 -1.869653127410876e-02 -4.620517154452224e-02 9.575605309693219e-01 -5.328298074790293e-02 9.574955814141280e-01 -5.441695719285979e-02 -4.723803380536241e-02 -5.164067428708889e-02
3.296070625000000e+10 -1.840907535046965e-02 -4.535255064385452e-02 9.564808815001515e-01 -5.248992659147377e-02 9.564780433700671e-01 -5.362902428564825e-02 -4.772889651592761e-02 -5.165858942502728e-02
3.300257500000000e+10 -1.830825997628768e-02 -4.488163923950170e-02 9.558639261632846e-01 -5.237765792978195e-02 9.558360124676303e-01 -5.322588803924273e-02 -4.786046968784219e-02 -5.168447045427606e-02
3.304444375000000e+10 -1.922470752377044e-02 -4.396903179924167e-02 9.556679655318068e-01 -5.172184180538140e-02 9.556543114348537e-01 -5.270149233989912e-02 -4.824982125103749e-02 -5.211660512741523e-02
3.308631250000000e+10 -1.754426796774294e-02 -4.460512710469886e-02 9.550097800518031e-01 -5.006500227642267e-02 9.544446503742645e-01 -5.093634405610539e-02 -4.941513914053284e-02 -5.217845984575861e-02
3.312818125000000e+10 -1.786888415757888e-02 -4.365517149679741e-02 9.565347150647101e-01 -4.932333344607426e-02 9.566251995703826e-01 -4.990831589379145e-02 -4.934240324476284e-02 -5.318443668841953e-02
3.317005000000000e+10 -1.637939077238631e-02 -4.424499210097983e-02 9.572711894179642e-01 -4.853764547208009e-02 9.573550177127083e-01 -4.931354865327403e-02 -5.018259913100943e-02 -5.325525154274693e-02
3.321191875000000e+10 -1.835542858103818e-02 -4.303822613363411e-02 9.591447650649455e-01 -4.855539238711962e-02 9.592828642207679e-01 -4.910888875055490e-02 -5.108615269815791e-02 -5.314274550611874e-02
3.325378750000000e+10 -1.573287783032412e-02 -4.329283632053432e-02 9.606339250875990e-01 -4.805490232962573e-02 9.604815972196791e-01 -4.867515553010853e-02 -5.087280464562174e-02 -5.315319059332079e-02
3.329565625000000e+10 -1.477687758597569e-02 -4.447294526440652e-02 9.601949312934553e-01 -5.028308226120962e-02 9.599778937464021e-01 -5.093291107304099e-02 -5.206804833942789e-02 -5.431107944382887e-02
3.333752500000000e+10 -1.611702506357969e-02 -4.526325560709711e-02 9.590329922741608e-01 -5.139598024316652e-02 9.591398997053202e-01 -5.223670557754242e-02 -5.159635141813720e-02 -5.517169292810731e-02
3.337939375000000e+10 -1.844604380350098e-02 -4.407717573747896e-02 9.584645858210443e-01 -5.143873966456577e-02 9.584477789454722e-01 -5.233890855991845e-02 -5.241227862583876e-02 -5.413275446326971e-02
3.342126250000000e+10 -1.652945223476031e-02 -4.205162419941215e-02 9.592095227882014e-01 -5.068776359958944e-02 9.594172495984333e-01 -5.173065882681863e-02 -5.313318245995793e-02 -5.313879083271709e-02
3.346313125000000e+10 -1.575886892421635e-02 -4.380717214890784e-02 9.591151387591936e-01 -5.116381043143861e-02 9.592046283081986e-01 -5.211206163137631e-02 -5.319729124645180e-02 -5.464380514216664e-02
3.350500000000000e+10 -1.636915044138590e-02 -4.379732516475980e-02 9.593667018795824e-01 -5.077652468505304e-02 9.594818447442275e-01 -5.161408905139989e-02 -5.333787579013625e-02 -5.485257570749769e-02
3.354686875000000e+10 -1.590796383983623e-02 -4.407533045319905e-02 9.597873672406827e-01 -5.136088338712250e-02 9.598798143400213e-01 -5.223838214687208e-02 -5.319910669602639e-02 -5.501841994352900e-02
3.358873750000000e+10 -1.778741066766507e-02 -4.576952101523571e-02 9.595534494971356e-01 -5.232692423829383e-02 9.595115024011999e-01 -5.339348330602444e-02 -5.319692214690903e-02 -5.666139085825314e-02
3.363060625000000e+10 -2.003544590211525e-02 -4.448342889944918e-02 9.603001727000646e-01 -5.241549044939024e-02 9.600820629115471e-01 -5.311572884738387e-02 -5.186169635403294e-02 -5.534372293788221e-02
3.367247500000000e+10 -2.168742883846756e-02 -4.311802929495499e-02 9.602776467509401e-01 -5.229796962474983e-02 9.601266675114041e-01 -5.313371671012174e-02 -5.273084944183547e-02 -5.423027742580921e-02
3.371434375000000e+10 -2.045265655449073e-02 -4.212795831425732e-02 9.598618040058586e-01 -5.194508402391781e-02 9.597692349709748e-01 -5.284222088926043e-02 -5.291231785439165e-02 -5.226809593779138e-02
3.375621250000000e+10 -1.822102705586052e-02 -4.172988711235859e-02 9.594176971464103e-01 -5.120705491285770e-02 9.594419541444396e-01 -5.237945426224443e-02 -5.259223022678081e-02 -5.264976781350003e-02
3.379808125000000e+10 -1.657785946799491e-02 -4.023146254947454e-02 9.589604204026205e-01 -5.008286240708582e-02 9.590740828801506e-01 -5.129180466929768e-02 -5.329568296690453e-02 -5.174210835200424e-02
3.383995000000000e+10 -1.504969651018990e-02 -4.059155349130100e-02 9.599957563043625e-01 -4.947736620206020e-02 9.601530237008689e-01 -5.036226609823601e-02 -5.271468082843064e-02 -5.292406096498687e-02
3.388181875000000e+10 -1.396420854805955e-02 -4.106753473549154e-02 9.602876402773233e-01 -4.919592796278063e-02 9.602020739814257e-01 -4.995375573211862e-02 -5.287511545650380e-02 -5.325766994898654e-02
3.392368750000000e+10 -1.164445911905555e-02 -4.126765452102659e-02 9.604734469928820e-01 -4.965735425034105e-02 9.603975630350964e-01 -5.025480745000589e-02 -5.223724477066678e-02 -5.364165891337768e-02
3.396555625000000e+10 -1.171160651609201e-02 -4.232440333732408e-02 9.612169113557438e-01 -5.094415498099766e-02 9.612383047753256e-01 -5.149145102931157e-02 -5.225894472230926e-02 -5.577573776994482e-02
3.400742500000000e+10 -1.187457380710704e-02 -4.308814446860380e-02 9.623633317494844e-01 -5.183187846107446e-02 9.618932610256358e-01 -5.264255068178038e-02 -5.229881851235558e-02 -5.680056081206273e-02
3.404929375000000e+10 -1.435878121747274e-02 -4.390859869232545e-02 9.634593711811610e-01 -5.283700979872341e-02 9.634240288044148e-01 -5.362664723455025e-02 -5.153067014712352e-02 -5.771214432907609e-02
3.409116250000000e+10 -1.430306986372906e-02 -4.385550235001467e-02 9.618157618833550e-01 -5.284776266302429e-02 9.618480459078729e-01 -5.351644696216508e-02 -5.246560864083472e-02 -5.607732728777576e-02
3.413303125000000e+10 -1.134276476287632e-02 -4.514201075722732e-02 9.624230938362233e-01 -5.295343119877873e-02 9.624016428528054e-01 -5.392062696285426e-02 -5.184432510832893e-02 -5.784293358566140e-02
3.417490000000000e+10 -1.210893025927655e-02 -4.716562409036604e-02 9.620150795912072e-01 -5.432967520763958e-02 9.618089563555920e-01 -5.536829645020026e-02 -5.230064936978096e-02 -5.905160157806078e-02
3.421676875000000e+10 -1.268520238075263e-02 -4.769928192753985e-02 9.609272272080189e-01 -5.453772853482485e-02 9.610734293371035e-01 -5.547251808282472e-02 -5.208407372229530e-02 -5.856062663859371e-02
3.425863750000000e+10 -1.368900088175024e-02 -4.728008174456898e-02 9.616299405239869e-01 -5.487175476513490e-02 9.616358556303878e-01 -5.581466238261620e-02 -5.314879034856985e-02 -5.883420996998817e-02
3.430050625000000e+10 -1.447947868832773e-02 -4.735950369622200e-02 9.620477036800043e-01 -5.521407415601839e-02 9.619668356879658e-01 -5.602515995541328e-02 -5.385747866428367e-02 -5.795439880888181e-02
3.434237500000000e+10 -1.398873202917367e-02 -4.844280113143248e-02 9.619367609301793e-01 -5.588197392602398e-02 9.618986848935028e-01 -5.695910032582873e-02 -5.292722624784189e-02 -5.874246159420150e-02
3.438424375000000e+10 -1.313082829833686e-02 -5.060709781245961e-02 9.596072825162363e-01 -5.721089402638432e-02 9.594506493924950e-01 -5.788751088130341e-02 -5.453966319994002e-02 -5.831537604159025e-02
3.442611250000000e+10 -1.424724043391684e-02 -5.040317170085402e-02 9.588180874517160e-01 -5.739262422727090e-02 9.585940731441902e-01 -5.841676025923069e-02 -5.376412107128931e-02 -5.882625688649398e-02
3.446798125000000e+10 -1.548508746944991e-02 -5.045088740227857e-02 9.583036876148852e-01 -5.706680011715487e-02 9.580825066888153e-01 -5.798216434810056e-02 -5.460249451632208e-02 -5.871333667841029e-02
3.450985000000000e+10 -1.487611422421875e-02 -5.110660936106286e-02 9.574644399302877e-01 -5.744449925598210e-02 9.574417804341230e-01 -5.829466024192569e-02 -5.438557973115613e-02 -5.808964296870232e-02
3.455171875000000e+10 -1.696326103324325e-02 -5.187437285395744e-02 9.560891444832046e-01 -5.801308774880036e-02 9.559515584325687e-01 -5.888945912636015e-02 -5.453396478102575e-02 -5.885218413490270e-02
3.459358750000000e+10 -1.806250437973033e-02 -5.058399079482079e-02 9.557403775885084e-01 -5.730662178744599e-02 9.556014526032496e-01 -5.783679117291573e-02 -5.482754301244828e-02 -5.722570127315396e-02
3.463545625000000e+10 -1.891236819244445e-02 -4.878680672854571e-02 9.568185932319564e-01 -5.620267927748071e-02 9.568324867169432e-01 -5.677063732240977e-02 -5.477828704743851e-02 -5.683694919422745e-02
3.467732500000000e+10 -1.736317141539729e-02 -4.896313956000227e-02 9.565533132979191e-01 -5.560261997695407e-02 9.564686496022377e-01 -5.615697856068356e-02 -5.625609769664437e-02 -5.593226586333314e-02
3.471919375000000e+10 -1.611772550095407e-02 -4.916199184244263e-02 9.556932863844918e-01 -5.521132743243524e-02 9.553954047409013e-01 -5.590108415922408e-02 -5.487176757310414e-02 -5.635442316705920e-02
3.476106250000000e+10 -1.597785788132083e-02 -4.921160802681111e-02 9.551212930928086e-01 -5.494995420248387e-02 9.551126794238085e-01 -5.558783561596978e-02 -5.553889513992908e-02 -5.668357360382684e-02
3.480293125000000e+10 -1.486388907972789e-02 -4.838020797247887e-02 9.563064606443091e-01 -5.476702020061356e-02 9.563029369350464e-01 -5.507415507235230e-02 -5.642839408448349e-02 -5.684722232732568e-02
3.484480000000000e+10 -1.498646223900940e-02 -5.005792981163868e-02 9.562863476359605e-01 -5.556602582754152e-02 9.562570847190655e-01 -5.622254825483122e-02 -5.671992699232010e-02 -5.843640759276596e-02
3.488666875000000e+10 -1.665761765994637e-02 -5.016390056677459e-02 9.559804301891616e-01 -5.652299697097531e-02 9.558093134669547e-01 -5.721953502055671e-02 -5.741734075890675e-02 -5.866732883912563e-02
3.492853750000000e+10 -1.865265225171431e-02 -4.868190082175777e-02 9.559581796775302e-01 -5.665748334823562e-02 9.559657570877147e-01 -5.723068240207643e-02 -5.752392804596105e-02 -5.886420678798392e-02
3.497040625000000e+10 -1.818289990843037e-02 -4.951933245914478e-02 9.546449311286827e-01 -5.676162822338122e-02 9.546087756252697e-01 -5.715074497647844e-02 -5.853752755552791e-02 -5.821559726802285e-02
3.501227500000000e+10 -1.766698023356627e-02 -4.768095392547560e-02 9.537236696803566e-01 -5.617505058327431e-02 9.536160437438125e-01 -5.659687912005525e-02 -5.835427251782527e-02 -5.780845283936779e-02
3.505414375000000e+10 -1.675488520187897e-02 -4.752397000995403e-02 9.542287280642355e-01 -5.571483300908599e-02 9.541971459107944e-01 -5.620074766045224e-02 -5.863067296612390e-02 -5.805967613270505e-02
3.509601250000000e+10 -1.614574763309518e-02 -4.740104620065391e-02 9.546209458382955e-01 -5.575365752878508e-02 9.547136078266825e-01 -5.640665481285269e-02 -5.885415551835544e-02 -5.850625748945730e-02
3.513788125000000e+10 -1.710507901520738e-02 -4.841014000209794e-02 9.547051816656652e-01 -5.723107687839343e-02 9.547504577724076e-01 -5.809873387245437e-02 -5.787044274190931e-02 -6.032089419268889e-02
3.517975000000000e+10 -2.024493746039630e-02 -4.728516905772475e-02 9.542224088336471e-01 -5.762932853451024e-02 9.542116265277247e-01 -5.821959089380636e-02 -5.832828761762810e-02 -5.974070558929221e-02
3.522161875000000e+10 -2.113308170655388e-02 -4.643861980365000e-02 9.542429922690752e-01 -5.666402381463905e-02 9.542288427779826e-01 -5.795932121041179e-02 -5.798830666253901e-02 -5.900047210472481e-02
3.526348750000000e+10 -2.041300106083538e-02 -4.553547461559596e-02 9.550235118258754e-01 -5.680198678047272e-02 9.550445539482305e-01 -5.784149295590410e-02 -5.855908965932397e-02 -5.841501224728782e-02
3.530535625000000e+10 -2.027229531417582e-02 -4.518436235007502e-02 9.548907461458496e-01 -5.736395002692392e-02 9.548674148120606e-01 -5.812300209047697e-02 -5.841192961536502e-02 -5.830232168617890e-02
3.534722500000000e+10 -2.003181991180817e-02 -4.503890947396205e-02 9.534922037958889e-01 -5.684215567034063e-02 9.536100052413268e-01 -5.742452210370583e-02 -5.842545113944898e-02 -5.764113203864673e-02
3.538909375000000e+10 -1.994910817324093e-02 -4.530893696890484e-02 9.528515165983783e-01 -5.664622425327112e-02 9.528944590038205e-01 -5.712765321913513e-02 -5.832791739643378e-02 -5.684260664720581e-02
3.543096250000000e+10 -1.820243114529230e-02 -4.463119797158699e-02 9.528917073633066e-01 -5.510551968383531e-02 9.527468472285057e-01 -5.559976835195051e-02 -5.846217614535576e-02 -5.735782984248289e-02
3.547283125000000e+10 -1.781904273249177e-02 -4.539074692501864e-02 9.532858451773418e-01 -5.448858226051977e-02 9.533292009228956e-01 -5.492890050162022e-02 -5.929300102432707e-02 -5.743456701395699e-02
3.551470000000000e+10 -1.808158401199248e-02 -4.587492494148509e-02 9.541304582568125e-01 -5.569527978555931e-02 9.538975070214076e-01 -5.591383833143401e-02 -5.959596311991688e-02 -5.866348621827293e-02
3.555656875000000e+10 -2.027089395226592e-02 -4.555037128347662e-02 9.532445264888431e-01 -5.516027323699730e-02 9.531859617725843e-01 -5.567317450882957e-02 -6.002718872955350e-02 -5.729264547789772e-02
3.559843750000000e+10 -1.809699614310353e-02 -4.431399901920802e-02 9.525663456766048e-01 -5.357912193416769e-02 9.526200940617071e-01 -5.389480339171522e-02 -6.012091774757802e-02 -5.621545891495573e-02
3.564030625000000e+10 -1.677992760834777e-02 -4.511538771984459e-02 9.528855322487275e-01 -5.387167750302108e-02 9.528713101129355e-01 -5.429266986276327e-02 -6.041582345827907e-02 -5.702408092711683e-02
3.568217500000000e+10 -1.614216099424618e-02 -4.475924256401223e-02 9.519890719255477e-01 -5.355924233190869e-02 9.519669025740850e-01 -5.393668588704727e-02 -6.092433507909672e-02 -5.648127665491873e-02
3.572404375000000e+10 -1.544652638092322e-02 -4.527979649252620e-02 9.525154668046765e-01 -5.315581196694256e-02 9.524395229847372e-01 -5.346217938198192e-02 -6.066200211041348e-02 -5.725225747497725e-02
3.576591250000000e+10 -1.568839220553695e-02 -4.675687254680365e-02 9.522612664112976e-01 -5.313462848669741e-02 9.522866237945479e-01 -5.346681218832616e-02 -6.134935287086965e-02 -5.803561332228869e-02
3.580778125000000e+10 -1.617476355431851e-02 -4.660568138948976e-02 9.527192279182914e-01 -5.291316569696745e-02 9.528580659232908e-01 -5.334122199968791e-02 -6.040508467457483e-02 -5.844732069282283e-02
3.584965000000000e+10 -1.619675748709642e-02 -4.701546347354771e-02 9.524855395755120e-01 -5.297091062918669e-02 9.525478333935371e-01 -5.358940493664924e-02 -6.119120841162369e-02 -5.860509985061876e-02
3.589151875000000e+10 -1.490570753157162e-02 -4.694979526878671e-02 9.528291412140417e-01 -5.323363177757621e-02 9.528274281828815e-01 -5.398591976233032e-02 -6.116080054011817e-02 -5.883243390882649e-02
3.593338750000000e+10 -1.566792484845273e-02 -4.775894151772245e-02 9.513676663375881e-01 -5.338019870648419e-02 9.514104725393863e-01 -5.412278930091662e-02 -6.140959437211609e-02 -5.917272074328561e-02
3.597525625000000e+10 -1.509714212194643e-02 -4.728170903096027e-02 9.510868962380510e-01 -5.282036499342448e-02 9.512303160870061e-01 -5.340199234865835e-02 -6.194774269284061e-02 -5.887549620245988e-02
3.601712500000000e+10 -1.763444423973136e-02 -4.802100949995376e-02 9.523976732795186e-01 -5.344554668588583e-02 9.522123690696678e-01 -5.434593268964855e-02 -6.159570124499120e-02 -6.014294868251768e-02
3.605899375000000e+10 -1.945009327432706e-02 -4.775660802487370e-02 9.509696552691026e-01 -5.241487114424439e-02 9.508511830082157e-01 -5.297237236486161e-02 -6.215968738795294e-02 -5.889976404692396e-02
3.610086250000000e+10 -1.970668226434474e-02 -4.545347455877144e-02 9.518861408414797e-01 -5.155130363509626e-02 9.518642974841104e-01 -5.194212927785857e-02 -6.294589081241871e-02 -5.755789870140737e-02
3.614273125000000e+10 -1.794084069786649e-02 -4.437755958092204e-02 9.518816863919249e-01 -5.005382293574737e-02 9.520014999237254e-01 -5.038682910107023e-02 -6.285207553184738e-02 -5.666304796443377e-02
3.618460000000000e+10 -1.539869016907421e-02 -4.331413028821638e-02 9.519619697262339e-01 -4.849639438980969e-02 9.521605710988329e-01 -4.871289830092265e-02 -6.345698621497703e-02 -5.618280644245705e-02
3.622646875000000e+10 -1.332446933312795e-02 -4.440130735300198e-02 9.549400531571191e-01 -4.920951017378177e-02 9.549933459726915e-01 -4.918680987820755e-02 -6.233972564302422e-02 -5.798648054081872e-02
3.626833750000000e+10 -1.390458968667367e-02 -4.642705218352011e-02 9.540354785102430e-01 -5.095380746933851e-02 9.540238078936488e-01 -5.104895938105146e-02 -6.239842050604089e-02 -5.931650892898457e-02
3.631020625000000e+10 -1.493666786343047e-02 -4.629103366539932e-02 9.557866855166978e-01 -5.126258178866736e-02 9.559486421621523e-01 -5.153354149729809e-02 -6.175481455471545e-02 -5.975674197409857e-02
3.635207500000000e+10 -1.540802757775998e-02 -4.790555823400456e-02 9.559927949268405e-01 -5.240124394635919e-02 9.558775365902554e-01 -5.286731906550932e-02 -6.153972798665884e-02 -6.068963860245291e-02
3.639394375000000e+10 -1.637582773229544e-02 -4.753650850960319e-02 9.541498658388031e-01 -5.261506429711313e-02 9.541063132042182e-01 -5.321526270540613e-02 -6.192437392207779e-02 -5.905584328903939e-02
3.643581250000000e+10 -1.570013619814549e-02 -4.858124931062699e-02 9.533259335654540e-01 -5.286435477648816e-02 9.532455611976274e-01 -5.347737739198254e-02 -6.118517864760902e-02 -5.931102073575403e-02
3.647768125000000e+10 -1.598126626888252e-02 -4.768328472990607e-02 9.523109203429782e-01 -5.232708182799865e-02 9.523019569172554e-01 -5.289767429279483e-02 -6.235986412625288e-02 -5.818058971447112e-02
3.651955000000000e+10 -1.451050613068006e-02 -4.690514017434398e-02 9.523939488131824e-01 -5.212262737361236e-02 9.522695968137268e-01 -5.271653245885947e-02 -6.173924988125060e-02 -5.802448998610964e-02
3.656141875000000e+10 -1.440142707812319e-02 -4.749208300161428e-02 9.510452723314602e-01 -5.158564608214045e-02 9.511009983663727e-01 -5.218664107923331e-02 -6.283765974210818e-02 -5.786358907485839e-02
3.660328750000000e+10 -1.292198761558113e-02 -4.549959382229900e-02 9.528578340703391e-01 -5.108482805375522e-02 9.529411416284429e-01 -5.165726183031446e-02 -6.254025629556746e-02 -5.758723132605426e-02
3.664515625000000e+10 -1.378400563652895e-02 -4.668437688746108e-02 9.529607812120742e-01 -5.153779866388240e-02 9.529354862997419e-01 -5.199585331950340e-02 -6.314436204462211e-02 -5.847221509309234e-02
3.668702500000000e+10 -1.289178112859644e-02 -4.676065816375505e-02 9.528063455842113e-01 -5.161701208112196e-02 9.528327303793782e-01 -5.205645620535551e-02 -6.362596510873791e-02 -5.818648692840592e-02
3.672889375000000e+10 -1.312242757428300e-02 -4.748028000959537e-02 9.541114150736044e-01 -5.174648811431398e-02 9.538982037863513e-01 -5.253306662169088e-02 -6.244522453365072e-02 -5.919950810366629e-02
3.677076250000000e+10 -1.244918502967418e-02 -4.761610385299395e-02 9.535564797834820e-01 -5.268686476545908e-02 9.535334123167440e-01 -5.334134999982188e-02 -6.382457636763325e-02 -5.858548581560031e-02
3.681263125000000e+10 -1.263431718763902e-02 -4.877476376019307e-02 9.533940822771868e-01 -5.356859610545588e-02 9.530613447545192e-01 -5.430991348611384e-02 -6.220699199041264e-02 -6.035733124234474e-02
3.685450000000000e+10 -1.445187754010516e-02 -5.053949258508750e-02 9.519568252360812e-01 -5.416382920429733e-02 9.519738348150811e-01 -5.492219865831542e-02 -6.382027492779792e-02 -6.132251549931583e-02
3.689636875000000e+10 -1.694499887294436e-02 -4.810537890218343e-02 9.521479067957562e-01 -5.366668353815533e-02 9.520959443771156e-01 -5.454741759036925e-02 -6.266225155219803e-02 -6.053764622554558e-02
3.693823750000000e+10 -1.688937194819513e-02 -4.915720179299999e-02 9.516174364116413e-01 -5.334391536226614e-02 9.515201541942195e-01 -5.413308455128159e-02 -6.319858084076065e-02 -6.026913024530708e-02
3.698010625000000e+10 -1.690973439843451e-02 -4.610131853162354e-02 9.522737335721581e-01 -5.260750306616242e-02 9.519064861107903e-01 -5.340545750418359e-02 -6.420998255629362e-02 -5.862192149523172e-02
3.702197500000000e+10 -1.713473424637166e-02 -4.623676866093747e-02 9.548382044615727e-01 -5.271449568738629e-02 9.548205244022876e-01 -5.337362120072498e-02 -6.317087642716872e-02 -5.980555853982431e-02
3.706384375000000e+10 -1.657927443122026e-02 -4.787097081207926e-02 9.544827214549697e-01 -5.446259788047931e-02 9.544100457322594e-01 -5.500856654512862e-02 -6.475114580071034e-02 -6.056946582562873e-02
3.710571250000000e+10 -1.791805196296436e-02 -4.825578513382667e-02 9.535003583507645e-01 -5.430290471653744e-02 9.535210201134168e-01 -5.524906515138416e-02 -6.286626326182437e-02 -6.060101346458540e-02
3.714758125000000e+10 -1.882583961952671e-02 -4.839753735526385e-02 9.525571646921679e-01 -5.417775127551057e-02 9.525163561801036e-01 -5.496084867477701e-02 -6.440834172055307e-02 -6.022559430227339e-02
3.718945000000000e+10 -1.886035672103348e-02 -4.739057734904174e-02 9.523307257079481e-01 -5.412510618255839e-02 9.523542865923492e-01 -5.482515145322610e-02 -6.323767661144153e-02 -5.909672098384512e-02
3.723131875000000e+10 -2.022243071401833e-02 -4.731200504707012e-02 9.525549360917389e-01 -5.417686480888055e-02 9.526176005565035e-01 -5.462547527028869e-02 -6.364214898975429e-02 -5.982478218834465e-02
3.727318750000000e+10 -2.027821963240593e-02 -4.710409807736494e-02 9.523087278982846e-01 -5.421922447466661e-02 9.521406883146758e-01 -5.461906878577062e-02 -6.330131370234859e-02 -5.859940463339283e-02
3.731505625000000e+10 -2.047811409567187e-02 -4.576155977415222e-02 9.529777437862014e-01 -5.350191701564937e-02 9.529871995812449e-01 -5.422743839625489e-02 -6.311646273060773e-02 -5.969101827378873e-02
3.735692500000000e+10 -2.049253727870086e-02 -4.574881597294315e-02 9.521724161193830e-01 -5.330348103663293e-02 9.521774053779520e-01 -5.375311550785227e-02 -6.458437538537883e-02 -5.851987619634981e-02
3.739879375000000e+10 -1.839905024163044e-02 -4.551197520906500e-02 9.523717290241180e-01 -5.202326712811620e-02 9.523080540438273e-01 -5.265735713877568e-02 -6.267551983460250e-02 -5.889915413206996e-02
3.744066250000000e+10 -1.680032116980216e-02 -4.546741813787872e-02 9.520584750810237e-01 -5.224053488909846e-02 9.520677310400417e-01 -5.287148762486061e-02 -6.464241414517705e-02 -5.949892487324463e-02
3.748253125000000e+10 -1.678852250043901e-02 -4.743842455143625e-02 9.518179003118747e-01 -5.272528490539571e-02 9.518987234251656e-01 -5.331305815553088e-02 -6.333180858941888e-02 -6.187853344199990e-02
3.752440000000000e+10 -1.839490092310908e-02 -4.770187076982232e-02 9.524464041035412e-01 -5.263511122743803e-02 9.525986194516185e-01 -5.303380280774442e-02 -6.330309033447842e-02 -6.259134146498498e-02
3.756626875000000e+10 -1.950492365905779e-02 -4.680155117330403e-02 9.528022564041155e-01 -5.223751666257513e-02 9.529118054375386e-01 -5.274271029521526e-02 -6.379848161950742e-02 -6.134908638593936e-02
3.760813750000000e+10 -1.678937471670041e-02 -4.819316323903530e-02 9.528095147399431e-01 -5.236864118467117e-02 9.527452112841320e-01 -5.262443678464254e-02 -6.346147233855849e-02 -6.249188713378004e-02
3.765000625000000e+10 -1.751090116725875e-02 -4.933433900896446e-02 9.530828617767013e-01 -5.324869315488565e-02 9.531281843799773e-01 -5.380247685110084e-02 -6.413274106817266e-02 -6.393929405313613e-02
3.769187500000000e+10 -1.881067684262003e-02 -4.983854923666817e-02 9.528096957322766e-01 -5.374874944482908e-02 9.527186779863798e-01 -5.445852411243007e-02 -6.228600196037737e-02 -6.410294654211622e-02
3.773374375000000e+10 -1.818798566942611e-02 -5.035652779100924e-02 9.510093399340940e-01 -5.410224490381420e-02 9.509460256481912e-01 -5.497113340408761e-02 -6.382077812655668e-02 -6.468667088444778e-02
3.777561250000000e+10 -2.006688439063960e-02 -4.998165545008883e-02 9.507860479431032e-01 -5.371141167085604e-02 9.506533310014281e-01 -5.462478731446514e-02 -6.282094804158575e-02 -6.597230557072571e-02
3.781748125000000e+10 -2.151343406872212e-02 -4.964692867265898e-02 9.523867060474537e-01 -5.313519131715030e-02 9.521567372740867e-01 -5.360762518460541e-02 -6.247197572287897e-02 -6.695461948386344e-02
3.785935000000000e+10 -2.170122099527675e-02 -4.963290796664849e-02 9.519286448605433e-01 -5.255121112146988e-02 9.518842199270062e-01 -5.308329912086352e-02 -6.361517708020581e-02 -6.642377162764550e-02
3.790121875000000e+10 -2.195936611406514e-02 -4.980430117486220e-02 9.529303986172047e-01 -5.258588372373631e-02 9.531076084003844e-01 -5.340792508319522e-02 -6.276654862750228e-02 -6.687530494714139e-02
3.794308750000000e+10 -2.191252438005961e-02 -4.992753766341979e-02 9.538385555632566e-01 -5.271317087794694e-02 9.537882873549780e-01 -5.311003609441237e-02 -6.399563674563459e-02 -6.727041133172014e-02
3.798495625000000e+10 -2.022169230053992e-02 -5.059617155235478e-02 9.551908912843932e-01 -5.349492842440074e-02 9.550533312423589e-01 -5.405794358382768e-02 -6.316111002104749e-02 -6.769480650215744e-02
3.802682500000000e+10 -2.013381410287097e-02 -5.307940594194236e-02 9.544550452945778e-01 -5.563665368737118e-02 9.542458803766700e-01 -5.626844096399207e-02 -6.400590689619140e-02 -6.886473369343117e-02
3.806869375000000e+10 -2.251812141594030e-02 -5.497240448890028e-02 9.520945564980650e-01 -5.624171492651672e-02 9.523100735755820e-01 -5.681267836166908e-02 -6.448252154312288e-02 -6.914294449997174e-02
3.811056250000000e+10 -2.387222224562952e-02 -5.378054804350828e-02 9.510446011098092e-01 -5.508098666653279e-02 9.511364014536778e-01 -5.588120892429400e-02 -6.386141629274490e-02 -6.809441949628882e-02
3.815243125000000e+10 -2.286805568605233e-02 -5.354731455359390e-02 9.493860790620712e-01 -5.444919028975596e-02 9.492736180234411e-01 -5.501404997846074e-02 -6.499955637573933e-02 -6.628445940453424e-02
3.819430000000000e+10 -2.134482065332323e-02 -5.191240351214925e-02 9.505098745814043e-01 -5.306531395789267e-02 9.503840247950293e-01 -5.352931119641657e-02 -6.444465339125098e-02 -6.701471006685546e-02
3.823616875000000e+10 -2.131567244892383e-02 -5.251273397388150e-02 9.508468841001728e-01 -5.158230078518770e-02 9.506197238961689e-01 -5.231376883855027e-02 -6.424614796338547e-02 -6.703703057673535e-02
3.827803750000000e+10 -1.923112372646821e-02 -5.346253210340959e-02 9.520938439382957e-01 -5.128418242889889e-02 9.520365219981085e-01 -5.174731818636782e-02 -6.447954367083836e-02 -6.759028282990319e-02
3.831990625000000e+10 -1.895131068161377e-02 -5.524916633028755e-02 9.525493470752653e-01 -5.248769387478933e-02 9.525911498661813e-01 -5.292653614900324e-02 -6.405754429860222e-02 -6.970574680563492e-02
3.836177500000000e+10 -1.954398357035326e-02 -5.713597546826038e-02 9.520910697857942e-01 -5.337348612517445e-02 9.519890795129133e-01 -5.365445494444213e-02 -6.383345129516491e-02 -7.100206158581350e-02
3.840364375000000e+10 -1.899497726554381e-02 -5.807311657914302e-02 9.517259017017379e-01 -5.373353877751667e-02 9.518538082700619e-01 -5.415559886433938e-02 -6.297512327792984e-02 -7.107573466140885e-02
3.844551250000000e+10 -2.115755692863022e-02 -5.835481699776304e-02 9.509643789559155e-01 -5.371233090018437e-02 9.510008037303440e-01 -5.402682361922252e-02 -6.334249485196015e-02 -7.073867498096288e-02
3.848738125000000e+10 -1.972553422743558e-02 -5.744248909887611e-02 9.512538978803239e-01 -5.327128358785741e-02 9.512360844032277e-01 -5.355740541947982e-02 -6.352480245547937e-02 -6.983277952691297e-02
3.852925000000000e+10 -2.048475830659440e-02 -5.863209048411400e-02 9.515885306270006e-01 -5.387126385079861e-02 9.516488902763796e-01 -5.432379002197704e-02 -6.392548733485445e-02 -7.087467642745360e-02
3.857111875000000e+10 -1.761436974485085e-02 -5.869010611730682e-02 9.507116244033209e-01 -5.339136617645388e-02 9.508206191508669e-01 -5.382007746255955e-02 -6.444309898921509e-02 -6.971622602510939e-02
3.861298750000000e+10 -1.554989232345907e-02 -6.084728814224667e-02 9.515821255027358e-01 -5.432219723845263e-02 9.515225458744960e-01 -5.511794714703191e-02 -6.306407597222326e-02 -7.277442814724769e-02
3.865485625000000e+10 -1.561284078931044e-02 -6.296617588239749e-02 9.493688062647049e-01 -5.430587828413788e-02 9.497631525490404e-01 -5.534064383597722e-02 -6.361945244326959e-02 -7.335533245701734e-02
3.869672500000000e+10 -1.704133265773770e-02 -6.283367691685919e-02 9.502435540278747e-01 -5.474113010551828e-02 9.501122802718497e-01 -5.526130321885988e-02 -6.286566446341176e-02 -7.399787366534541e-02
3.873859375000000e+10 -1.661143733085900e-02 -6.476795555861638e-02 9.502348405060934e-01 -5.513739772461439e-02 9.502579374855596e-01 -5.577643703411565e-02 -6.324933825707352e-02 -7.501525898040075e-02
3.878046250000000e+10 -1.720810235521887e-02 -6.438695045645546e-02 9.501363370891095e-01 -5.651707879226253e-02 9.499753067253336e-01 -5.714247905486173e-02 -6.334476935946279e-02 -7.487588381439575e-02
3.882233125000000e+10 -1.824426415062202e-02 -6.629362353953447e-02 9.496773194781026e-01 -5.747893658330162e-02 9.496045891572960e-01 -5.833197535394705e-02 -6.281394270794190e-02 -7.693981559977568e-02
3.886420000000000e+10 -1.953744676904657e-02 -6.478974366033495e-02 9.489510001852755e-01 -5.724389650447635e-02 9.489389077717474e-01 -5.797731672502972e-02 -6.409289897347870e-02 -7.540139193830876e-02
3.890606875000000e+10 -2.080796882890143e-02 -6.703955199688422e-02 9.492164844759010e-01 -5.856432965511221e-02 9.492532900755114e-01 -5.971675411060096e-02 -6.171249012979194e-02 -7.773815140500311e-02
3.894793750000000e+10 -2.268697536504593e-02 -6.669411292762858e-02 9.466678086625586e-01 -5.904263744671016e-02 9.466111042106623e-01 -6.016118632539355e-02 -6.335057268302594e-02 -7.708764961637329e-02
3.898980625000000e+10 -2.275596100436945e-02 -6.636186643378957e-02 9.457396766492644e-01 -5.721091878034659e-02 9.455908237727481e-01 -5.856663477372968e-02 -6.263853394265008e-02 -7.500566392601897e-02
3.903167500000000e+10 -2.006303910542858e-02 -6.471404885332370e-02 9.457510765309513e-01 -5.596132149063390e-02 9.457628087445310e-01 -5.738174094413490e-02 -6.375904000509069e-02 -7.594201629937272e-02
3.907354375000000e+10 -2.206876898318962e-02 -6.535832754171036e-02 9.462624655844335e-01 -5.491183781124979e-02 9.461451978767198e-01 -5.653575288048471e-02 -6.354406021253722e-02 -7.553625180094826e-02
3.911541250000000e+10 -2.017903737420405e-02 -6.351008607062976e-02 9.471241875740929e-01 -5.321577003248452e-02 9.472300535061813e-01 -5.396751926936027e-02 -6.279069807126045e-02 -7.515883608494046e-02
3.915728125000000e+10 -2.029032068893102e-02 -6.369269422864265e-02 9.488581931137485e-01 -5.437785629807736e-02 9.487589688043456e-01 -5.454413015913568e-02 -6.543682778344689e-02 -7.493432483866658e-02
3.919915000000000e+10 -1.801456485569445e-02 -6.305402174922439e-02 9.495531085100588e-01 -5.524791957766563e-02 9.494060415809829e-01 -5.588868525302924e-02 -6.400230031335362e-02 -7.635804488599331e-02
3.924101875000000e+10 -2.042638831773416e-02 -6.638586582436817e-02 9.479780077293826e-01 -5.647696402377190e-02 9.477519057056237e-01 -5.716538765190277e-02 -6.586217787584846e-02 -7.684943928217666e-02
3.928288750000000e+10 -2.148580923155114e-02 -6.370512012874642e-02 9.470898008935559e-01 -5.615399095157313e-02 9.469962121819147e-01 -5.683831732036559e-02 -6.408590453457592e-02 -7.576669525088424e-02
3.932475625000000e+10 -2.133334460368269e-02 -6.464943948784606e-02 9.471493922048682e-01 -5.478501752089705e-02 9.470842596288105e-01 -5.572893556600699e-02 -6.467246958875489e-02 -7.613868020318516e-02
3.936662500000000e+10 -2.147788421532320e-02 -6.208167815285928e-02 9.486585942722779e-01 -5.488899349614040e-02 9.484930688074029e-01 -5.588555756713840e-02 -6.511574450235184e-02 -7.558697945757839e-02
3.940849375000000e+10 -2.047386471909960e-02 -6.380215692009540e-02 9.504574522797979e-01 -5.399223631970158e-02 9.503918324768508e-01 -5.534892823301491e-02 -6.325188076337311e-02 -7.701903506504315e-02
3.945036250000000e+10 -2.024518134058810e-02 -6.384835209167029e-02 9.495955184830291e-01 -5.475776721796351e-02 9.494466211169112e-01 -5.587430616886609e-02 -6.449929878817508e-02 -7.637768629493649e-02
3.949223125000000e+10 -2.000995344632911e-02 -6.502398476690215e-02 9.499647658529464e-01 -5.507347573215581e-02 9.497809323149274e-01 -5.646073172641791e-02 -6.229920998954023e-02 -7.768932579142500e-02
3.953410000000000e+10 -2.004423038817244e-02 -6.491769198746197e-02 9.491422302731189e-01 -5.583363329777836e-02 9.490972744042510e-01 -5.686217765895357e-02 -6.454578487233735e-02 -7.704317332379174e-02
3.957596875000000e+10 -2.096318470978822e-02 -6.396359962379276e-02 9.476442041110290e-01 -5.575537058852324e-02 9.475044317983403e-01 -5.714606628940025e-02 -6.275137416169690e-02 -7.589817754101713e-02
3.961783750000000e+10 -1.975254066905607e-02 -6.396205546727464e-02 9.476114619966849e-01 -5.517844825913603e-02 9.474780803772025e-01 -5.622276787034141e-02 -6.456455461233591e-02 -7.665445600606073e-02
3.965970625000000e+10 -2.068187749344110e-02 -6.287141206194104e-02 9.502009448189415e-01 -5.548235520214979e-02 9.502521098267650e-01 -5.675336726496127e-02 -6.447028039748073e-02 -7.684459685373696e-02
3.970157500000000e+10 -2.115563734177464e-02 -6.338873324759514e-02 9.503222925850958e-01 -5.551479938745212e-02 9.501262381116701e-01 -5.739593822626071e-02 -6.233482858991892e-02 -7.807654881311250e-02
3.974344375000000e+10 -2.163616402712068e-02 -6.280142734922041e-02 9.498761024733795e-01 -5.597809049958889e-02 9.495027911592147e-01 -5.741917490189555e-02 -6.449494010642877e-02 -7.649028042726640e-02
3.978531250000000e+10 -1.971588183982239e-02 -6.132857498604993e-02 9.505200038795714e-01 -5.499534259253951e-02 9.504604892654083e-01 -5.662213230306634e-02 -6.198259691648883e-02 -7.634918038371469e-02
3.982718125000000e+10 -1.813251593813229e-02 -6.208881254373155e-02 9.498068551405427e-01 -5.528407809305614e-02 9.496476406737029e-01 -5.624406346484722e-02 -6.410635327241322e-02 -7.650762663321510e-02
3.986905000000000e+10 -1.663214566890473e-02 -6.188855196213074e-02 9.506682863840251e-01 -5.561695847750732e-02 9.505114722563297e-01 -5.685062303231761e-02 -6.329684360765056e-02 -7.725207164031821e-02
3.991091875000000e+10 -1.770712386256170e-02 -6.421761991561259e-02 9.528266706795133e-01 -5.588364713752086e-02 9.521974749041255e-01 -5.788342530987495e-02 -6.267093278853599e-02 -8.141469922970407e-02
3.995278750000000e+10 -1.958610652873079e-02 -6.449448088882838e-02 9.514364978180229e-01 -5.733901976987109e-02 9.513000694779302e-01 -5.888152925966135e-02 -6.316660492145031e-02 -7.941758218068008e-02
3.999465625000000e+10 -1.923265107788505e-02 -6.390614110770322e-02 9.515212899587877e-01 -5.662479546954256e-02 9.514663941465591e-01 -5.838608824143524e-02 -6.228109817454145e-02 -7.988424767616698e-02
4.003652500000000e+10 -1.714763586273327e-02 -6.384097732519095e-02 9.514956346620922e-01 -5.696383938690874e-02 9.513235585615906e-01 -5.842482859084940e-02 -6.450147802492394e-02 -7.903155546227063e-02
4.007839375000000e+10 -1.694638166237597e-02 -6.448489106142642e-02 9.513751155160692e-01 -5.738622796435797e-02 9.510519801823507e-01 -5.916781165865397e-02 -6.276226812128009e-02 -8.031279868136627e-02
4.012026250000000e+10 -1.671402361034603e-02 -6.548259743527646e-02 9.521480479253898e-01 -5.808565788139239e-02 9.519119533134061e-01 -5.959371984398909e-02 -6.493856870804406e-02 -8.159641395649002e-02
4.016213125000000e+10 -1.816309925855300e-02 -6.509169299267649e-02 9.523379798381945e-01 -6.022202636188229e-02 9.521580755117948e-01 -6.139318560194486e-02 -6.499349127339085e-02 -8.197029296304510e-02
4.020400000000000e+10 -2.020549683293322e-02 -6.877427666660163e-02 9.527425005328888e-01 -6.182242261741028e-02 9.523437562525209e-01 -6.308119560723231e-02 -6.502306119102820e-02 -8.534845901604804e-02
4.024586875000000e+10 -2.079067896965232e-02 -6.755270132728464e-02 9.498374498836883e-01 -6.233995621745194e-02 9.497109254244759e-01 -6.358029362696611e-02 -6.637299726291755e-02 -8.185574004265404e-02
4.028773750000000e+10 -2.171120318532609e-02 -6.767934385202184e-02 9.501039279938180e-01 -6.122059747752558e-02 9.501540868718932e-01 -6.287730551503497e-02 -6.595547880165931e-02 -8.305139303049933e-02
4.032960625000000e+10 -2.143689992753888e-02 -6.811100076629802e-02 9.497146858828637e-01 -6.227479963946222e-02 9.496321222000694e-01 -6.388487965414848e-02 -6.668680769423380e-02 -8.235849332942381e-02
4.037147500000000e+10 -2.165865017073101e-02 -6.818876489245800e-02 9.487720581928401e-01 -6.231779832567790e-02 9.483327971843758e-01 -6.373636634467629e-02 -6.661510123799838e-02 -8.139680254176133e-02
4.041334375000000e+10 -2.097573652960228e-02 -6.939494053134254e-02 9.472858614568630e-01 -6.246269712998546e-02 9.470310235458123e-01 -6.382899945923946e-02 -6.844695423218324e-02 -8.127887925623536e-02
4.045521250000000e+10 -2.287033746764510e-02 -6.760047075237664e-02 9.454519852042734e-01 -6.196205787161219e-02 9.453562513324286e-01 -6.301776851115538e-02 -6.786703516721480e-02 -7.970550004521909e-02
4.049708125000000e+10 -2.473873270778318e-02 -6.758134411576652e-02 9.464979943146252e-01 -6.112820297621090e-02 9.463583776622951e-01 -6.226064302711046e-02 -6.789550286988108e-02 -8.072036316462851e-02
4.053895000000000e+10 -2.346576437419563e-02 -6.634715827025761e-02 9.451717331113763e-01 -5.996333051523798e-02 9.448398230102963e-01 -6.140017776908313e-02 -6.877294674902011e-02 -7.721757301689491e-02
4.058081875000000e+10 -2.203754633282226e-02 -6.561206634898459e-02 9.461747029526945e-01 -5.980681467290836e-02 9.462206360411418e-01 -6.093943475501443e-02 -6.780916116955148e-02 -7.842155436511984e-02
4.062268750000000e+10 -2.223785849878570e-02 -6.669459507916085e-02 9.458563542646576e-01 -6.018676794774891e-02 9.456052460828274e-01 -6.127263039795586e-02 -6.947715388136219e-02 -7.816351384851576e-02
4.066455625000000e+10 -2.303223266321042e-02 -6.715890603993946e-02 9.459752651402773e-01 -5.963360478276141e-02 9.460012411392660e-01 -6.099113178094066e-02 -6.788482300889824e-02 -7.927363256145023e-02
4.070642500000000e+10 -2.321383548595242e-02 -6.893260090604375e-02 9.454740190220953e-01 -5.965044025814809e-02 9.454385339866285e-01 -6.093134094384040e-02 -6.893460597810679e-02 -7.900445449598167e-02
4.074829375000000e+10 -2.290081826274374e-02 -6.668720887603585e-02 9.442614352091556e-01 -5.923034484433200e-02 9.444809666094102e-01 -6.028208169823131e-02 -6.925137178428956e-02 -7.684370494370686e-02
4.079016250000000e+10 -2.254416952949259e-02 -6.757271096021188e-02 9.443390037530159e-01 -5.936744459548209e-02 9.442823813008766e-01 -6.035046148440532e-02 -6.904392837771986e-02 -7.704620270273298e-02
4.083203125000000e+10 -2.305705694246505e-02 -6.676052284569799e-02 9.438757255217108e-01 -5.952845925404213e-02 9.438757608476135e-01 -6.106876090359153e-02 -6.957931418806457e-02 -7.619927465162941e-02
4.087390000000000e+10 -2.327354817559524e-02 -6.527444822658891e-02 9.445250902427220e-01 -5.970334572143619e-02 9.443366138942585e-01 -6.087962898012034e-02 -6.876111333409356e-02 -7.600586784711183e-02
4.091576875000000e+10 -2.293833728859039e-02 -6.473927601005283e-02 9.437070705842155e-01 -5.956966616613835e-02 9.438508374945414e-01 -6.053638210751638e-02 -7.052393273491185e-02 -7.570230125781227e-02
4.095763750000000e+10 -2.284957680951483e-02 -6.338729249848199e-02 9.437040238597864e-01 -5.901456150064702e-02 9.435022459345073e-01 -5.973746207415764e-02 -6.941937573629636e-02 -7.499828719163794e-02
4.099950625000000e+10 -2.210684009656642e-02 -6.401484382729940e-02 9.437074447218102e-01 -5.838855885646157e-02 9.434484207135143e-01 -5.898750286658613e-02 -6.995150179368718e-02 -7.529831423341229e-02
4.104137500000000e+10 -2.123965146246205e-02 -6.278774796399010e-02 9.433876349766549e-01 -5.748062504720732e-02 9.434266904681731e-01 -5.852737829728225e-02 -7.021521310744011e-02 -7.474907477099907e-02
4.108324375000000e+10 -2.072628282857950e-02 -6.448638941853932e-02 9.434807782438547e-01 -5.752634342061021e-02 9.434771820817837e-01 -5.841142939009372e-02 -6.915120985409955e-02 -7.501977916425653e-02
4.112511250000000e+10 -2.057443136331423e-02 -6.277248965372835e-02 9.436232469143883e-01 -5.754468817868405e-02 9.438173934532862e-01 -5.803863156969775e-02 -7.029744596663293e-02 -7.461825833988224e-02
4.116698125000000e+10 -1.980882462682524e-02 -6.277235455806829e-02 9.441252619699355e-01 -5.770335903732942e-02 9.443066850416022e-01 -5.840444689554219e-02 -6.948390614616384e-02 -7.463380738137419e-02
4.120885000000000e+10 -1.963284686766375e-02 -6.423208495627296e-02 9.435277538639290e-01 -5.830703733702987e-02 9.434441363477485e-01 -5.933587817769847e-02 -6.997223729448306e-02 -7.649831085260114e-02
4.125071875000000e+10 -1.896182128407320e-02 -6.270741099556963e-02 9.432325630037900e-01 -5.710686932279242e-02 9.432898945158047e-01 -5.812447518805561e-02 -6.965279671739123e-02 -7.572566469575695e-02
4.129258750000000e+10 -1.856677069449133e-02 -6.486595282172671e-02 9.442691774304460e-01 -5.775374834263917e-02 9.443407391950764e-01 -5.878238078362501e-02 -6.947365261315107e-02 -7.867374845479676e-02
4.133445625000000e+10 -2.017271803513935e-02 -6.547505977753719e-02 9.440526152739876e-01 -5.888476131358635e-02 9.442984269133723e-01 -5.977562320580374e-02 -6.975367013470050e-02 -7.873077156965470e-02
4.137632500000000e+10 -2.117050280502488e-02 -6.563213488841749e-02 9.432503357844318e-01 -5.840292332694980e-02 9.434602100514031e-01 -5.934615622295238e-02 -6.843499209889643e-02 -7.829802753187447e-02
4.141819375000000e+10 -2.249342581601062e-02 -6.392561595955294e-02 9.429345199039113e-01 -5.846449070813385e-02 9.428422284424417e-01 -5.944835204935536e-02 -7.007395336677416e-02 -7.711034923017547e-02
4.146006250000000e+10 -2.341831244398282e-02 -6.121310015455354e-02 9.425963179219606e-01 -5.732592766150241e-02 9.425464380494184e-01 -5.825505779400297e-02 -6.937336451909436e-02 -7.434443297122452e-02
4.150193125000000e+10 -2.289974700057722e-02 -5.912668354643705e-02 9.452052252588844e-01 -5.617359407406498e-02 9.454716712476416e-01 -5.732975725282888e-02 -6.967099858694795e-02 -7.475165993220335e-02
4.154380000000000e+10 -2.070189411667458e-02 -5.826008637329787e-02 9.452368058724756e-01 -5.622239770832098e-02 9.452681271615349e-01 -5.696005294381503e-02 -6.995004809276988e-02 -7.320462117918304e-02
4.158566875000000e+10 -1.957514214725161e-02 -6.025067315405925e-02 9.467250875502761e-01 -5.672256623065378e-02 9.466526143175344e-01 -5.754217742507942e-02 -6.870527189387553e-02 -7.594935238800775e-02
4.162753750000000e+10 -2.070275496730225e-02 -5.949940787449176e-02 9.450111563256586e-01 -5.688473679131228e-02 9.450558646738086e-01 -5.761067622403174e-02 -7.034348946920692e-02 -7.372095738329897e-02
4.166940625000000e+10 -2.043169710513247e-02 -5.940721118356907e-02 9.454467319654669e-01 -5.685548800455423e-02 9.455249062163802e-01 -5.773893628086049e-02 -6.967087065795584e-02 -7.373476217189551e-02
4.171127500000000e+10 -1.893813170744786e-02 -5.819031310521803e-02 9.446162280712149e-01 -5.584800458871086e-02 9.445933131688120e-01 -5.661258502805198e-02 -7.184811502492970e-02 -7.251692880652814e-02
4.175314375000000e+10 -1.767151157826477e-02 -5.812835964470175e-02 9.453355161393313e-01 -5.552089443629708e-02 9.456418049188720e-01 -5.676975982232980e-02 -7.031680948139059e-02 -7.388016992848666e-02
4.179501250000000e+10 -1.686557011034601e-02 -5.814886981404280e-02 9.465027828322092e-01 -5.599186411060176e-02 9.460877884417619e-01 -5.690333423339678e-02 -7.047167372097138e-02 -7.475405433747766e-02
4.183688125000000e+10 -1.758118583096216e-02 -5.810550477030890e-02 9.457042037690426e-01 -5.554352231073029e-02 9.459968632435580e-01 -5.611651665552740e-02 -7.121206048950186e-02 -7.349570254929810e-02
4.187875000000000e+10 -1.651031564264389e-02 -5.676432536996630e-02 9.465869842035837e-01 -5.534843651623404e-02 9.467508902071641e-01 -5.621773816379021e-02 -7.077366894993616e-02 -7.366633855400305e-02
4.192061875000000e+10 -1.546643296285639e-02 -5.818777395087706e-02 9.459543742139855e-01 -5.605629325687419e-02 9.461019094920219e-01 -5.708314706450730e-02 -7.183000242568871e-02 -7.432284303633731e-02
4.196248750000000e+10 -1.695305917272986e-02 -5.672022319628858e-02 9.455673960976482e-01 -5.601705328741461e-02 9.450133617513743e-01 -5.700796772889568e-02 -7.187222643575240e-02 -7.305860333065670e-02
4.200435625000000e+10 -1.496832894595717e-02 -5.647091994936707e-02 9.448130123817099e-01 -5.591488684223710e-02 9.451224513634361e-01 -5.665380007046800e-02 -7.318306852763865e-02 -7.346200092728525e-02
4.204622500000000e+10 -1.751632753007119e-02 -5.519821702717890e-02 9.467407150013277e-01 -5.695445860758647e-02 9.439827156246197e-01 -5.842203326356733e-02 -7.180762493628511e-02 -7.210029953679604e-02
4.208809375000000e+10 -1.586141678489161e-02 -5.501079403490838e-02 9.452193725198411e-01 -5.531756349661631e-02 9.443288975418135e-01 -5.649703446605689e-02 -7.337579144517471e-02 -7.235516000266742e-02
4.212996250000000e+10 -1.545318235010761e-02 -5.285746591900008e-02 9.461176429758762e-01 -5.394299659851800e-02 9.458341677301847e-01 -5.519972118551614e-02 -7.358928120452446e-02 -7.142622493414730e-02
4.217183125000000e+10 -1.541596400224970e-02 -5.406165341440616e-02 9.476879202158768e-01 -5.504021095358576e-02 9.467585054645351e-01 -5.596638073519711e-02 -7.259802742446268e-02 -7.293552765145032e-02
4.221370000000000e+10 -1.523340641087011e-02 -5.274314847586189e-02 9.458366112811214e-01 -5.436361603548193e-02 9.469890664443165e-01 -5.616323351820093e-02 -7.319871869091896e-02 -7.258419639610227e-02
4.225556875000000e+10 -1.644134051057200e-02 -5.402832656321521e-02 9.477478085904014e-01 -5.568482098512119e-02 9.474642028571105e-01 -5.733506183852166e-02 -7.228212614916238e-02 -7.290433203859523e-02
4.229743750000000e+10 -1.737402883590730e-02 -5.124510935365760e-02 9.475140045494839e-01 -5.566503719585677e-02 9.470395035485499e-01 -5.586785161507289e-02 -7.258611850890560e-02 -7.209895232517413e-02
4.233930625000000e+10 -1.496886869688381e-02 -4.975094192060313e-02 9.497307084926088e-01 -5.588225471190440e-02 9.474929721606339e-01 -5.619794331184727e-02 -7.339217153244858e-02 -6.959425497016168e-02
4.238117500000000e+10 -1.775097819715440e-02 -5.098034542853226e-02 9.513456611695942e-01 -5.681056378524935e-02 9.487365711925361e-01 -5.554260484884185e-02 -7.276671491828010e-02 -7.266948130255761e-02
4.242304375000000e+10 -2.113198877032089e-02 -4.581079944231274e-02 9.508914660846192e-01 -6.183645157502598e-02 9.481006025833117e-01 -6.324667810934501e-02 -7.027999901308557e-02 -7.103573768727658e-02
4.246491250000000e+10 -1.314554180478567e-02 -4.221480266508592e-02 9.507374567333168e-01 -5.720549073786449e-02 9.491209280650168e-01 -5.661628829460855e-02 -6.784803344702271e-02 -6.575903596825122e-02
4.250678125000000e+10 -1.668545927090079e-02 -5.069042019342437e-02 9.508975538881744e-01 -5.582209490230947e-02 9.497648296341625e-01 -6.020231901392678e-02 -6.479842461992084e-02 -6.294053121115430e-02
4.254865000000000e+10 -2.528905990968096e-02 -5.751179683301304e-02 9.526725733818426e-01 -5.826594455846863e-02 9.481430639009395e-01 -5.681023816142836e-02 -5.494471988492333e-02 -6.961664512461073e-02
4.259051875000000e+10 -2.598946825937909e-02 -4.927800445278870e-02 9.542335342517924e-01 -5.506060087453223e-02 9.533571757048400e-01 -5.645636595853062e-02 -3.843168004321702e-02 -5.846415736688784e-02
4.263238750000000e+10 -2.955981457606297e-02 -4.573174253619988e-02 9.543708819102327e-01 -5.451944841767182e-02 9.540516922990209e-01 -5.502281922547485e-02 -3.173071435709836e-02 -5.385659863158298e-02
4.267425625000000e+10 -2.979808884799358e-02 -4.656898155468325e-02 9.551972487957071e-01 -5.450451971953404e-02 9.548460259447401e-01 -5.631870599717866e-02 -3.108198809586632e-02 -5.584266337499208e-02
4.271612500000000e+10 -2.953620925127077e-02 -4.900977332062997e-02 9.537669110992562e-01 -5.617199973395298e-02 9.536487468993849e-01 -5.735283688785182e-02 -3.129437026646776e-02 -5.763987577107429e-02
4.275799375000000e+10 -3.020893903903086e-02 -5.041151934097101e-02 9.525802482072906e-01 -5.640122483245831e-02 9.526588170464692e-01 -5.863431367158662e-02 -3.206148899879598e-02 -5.775059458119364e-02
4.279986250000000e+10 -3.047311821130755e-02 -4.979673861599667e-02 9.519094721746788e-01 -5.521870497832152e-02 9.518026055974823e-01 -5.705487478617419e-02 -3.353750408905373e-02 -5.589513604411750e-02
4.284173125000000e+10 -3.018448352666164e-02 -4.926671426870559e-02 9.520582305272682e-01 -5.520932825771804e-02 9.519619630765305e-01 -5.709613507502393e-02 -3.219569848210685e-02 -5.530504187228363e-02
4.288360000000000e+10 -3.001087542995035e-02 -5.019613156239786e-02 9.521898017015817e-01 -5.567286713084707e-02 9.522978860041753e-01 -5.763239379680741e-02 -3.261087987564214e-02 -5.635873204258231e-02
4.292546875000000e+10 -3.105774396572944e-02 -4.949655718815274e-02 9.517407062199875e-01 -5.581383962775662e-02 9.514657571530064e-01 -5.756383757561276e-02 -3.350233403599667e-02 -5.449122024947892e-02
4.296733750000000e+10 -3.105038009031815e-02 -4.951361160853261e-02 9.521431272855782e-01 -5.546363178520707e-02 9.516703034075530e-01 -5.779537836416065e-02 -3.254217094546583e-02 -5.499576828728354e-02
4.300920625000000e+10 -3.172994030453042e-02 -4.961044211468828e-02 9.527701576553342e-01 -5.650529443137627e-02 9.524704675034954e-01 -5.827536245095397e-02 -3.377075568198951e-02 -5.555780830477483e-02
4.305107500000000e+10 -3.243164088646050e-02 -4.975660426028825e-02 9.512371189583315e-01 -5.640898029141488e-02 9.509724013831530e-01 -5.877364221615452e-02 -3.490817217222794e-02 -5.436934730632811e-02
4.309294375000000e+10 -3.171816353452005e-02 -5.001870526093092e-02 9.509082829062850e-01 -5.642044817249275e-02 9.506820676057317e-01 -5.837937836393963e-02 -3.526787721133367e-02 -5.441541163551405e-02
4.313481250000000e+10 -3.206235819309188e-02 -4.971805421906796e-02 9.502498832057378e-01 -5.603027728500139e-02 9.499449615435784e-01 -5.799146034491771e-02 -3.468902003188818e-02 -5.273836983260669e-02
4.317668125000000e+10 -3.159872097597920e-02 -4.892622760647063e-02 9.502021278829207e-01 -5.534358012043057e-02 9.502409906156182e-01 -5.742049278980420e-02 -3.420245648476544e-02 -5.381661381349440e-02
4.321855000000000e+10 -3.228906931632069e-02 -4.932939067672584e-02 9.515786220284338e-01 -5.549783934886159e-02 9.512277032893918e-01 -5.736327113844758e-02 -3.459558244683183e-02 -5.422969455986403e-02
4.326041875000000e+10 -3.292055838084723e-02 -4.881076752955006e-02 9.507867466675043e-01 -5.543822071028952e-02 9.503514191461637e-01 -5.719088832959530e-02 -3.535646592305925e-02 -5.368903893247249e-02
4.330228750000000e+10 -3.179541231857615e-02 -5.000019855063068e-02 9.500277945359125e-01 -5.445516665745929e-02 9.498192974966090e-01 -5.635890372446074e-02 -3.670542745607241e-02 -5.274705659454448e-02
4.334415625000000e+10 -3.213865780469805e-02 -4.736285631877973e-02 9.506339621327757e-01 -5.452961056323319e-02 9.504152347327530e-01 -5.694625939739369e-02 -3.674620712283121e-02 -5.185811331539741e-02
4.338602500000000e+10 -3.205529259731444e-02 -4.766961938211289e-02 9.504503447439397e-01 -5.389981634039394e-02 9.503473076825734e-01 -5.596119633253888e-02 -3.620672968567693e-02 -5.153126435740691e-02
4.342789375000000e+10 -3.291246912635794e-02 -4.678385747414855e-02 9.502987996555508e-01 -5.392126746550312e-02 9.501027803278660e-01 -5.552587741844417e-02 -3.619171925626175e-02 -5.088603873725573e-02
4.346976250000000e+10 -3.079766065032858e-02 -4.634727245482965e-02 9.505493249730614e-01 -5.243423906322722e-02 9.505483888714252e-01 -5.417311106497694e-02 -3.507863906706387e-02 -5.144245920128816e-02
4.351163125000000e+10 -3.182845996925745e-02 -4.646195654464547e-02 9.509451279850974e-01 -5.266834628878498e-02 9.508752774078750e-01 -5.451784012604621e-02 -3.612779498796126e-02 -5.120936687670846e-02
4.355350000000000e+10 -3.059440971162291e-02 -4.707260928986451e-02 9.503709902695088e-01 -5.242701157712676e-02 9.502838147439604e-01 -5.435033464927783e-02 -3.356313558128337e-02 -4.993106227527389e-02
4.359536875000000e+10 -2.961127485483880e-02 -4.730925899322024e-02 9.505155507521719e-01 -5.296202834063004e-02 9.504630758160855e-01 -5.428662814085710e-02 -3.470776443454575e-02 -5.220215057803716e-02
4.363723750000000e+10 -3.078355320652876e-02 -4.675699154436295e-02 9.507022194859456e-01 -5.266432662290715e-02 9.511309757990494e-01 -5.463516860205556e-02 -3.366609437898536e-02 -5.100178240416349e-02
4.367910625000000e+10 -2.915048640662342e-02 -4.578277929188979e-02 9.516093914763394e-01 -5.184955869659221e-02 9.517430426494747e-01 -5.364600256736531e-02 -3.447354214043849e-02 -5.129879452372420e-02
4.372097500000000e+10 -3.107204376690865e-02 -4.515935441554641e-02 9.508728119994976e-01 -5.372531414884867e-02 9.507260083884675e-01 -5.459867038576321e-02 -3.575492460974193e-02 -4.948233794722213e-02
4.376284375000000e+10 -2.869890241980351e-02 -4.604365245124823e-02 9.511064720971744e-01 -5.219569668478815e-02 9.506514839242269e-01 -5.391590653462967e-02 -3.294376902141979e-02 -5.081782983161268e-02
4.380471250000000e+10 -2.957107513230137e-02 -4.555898551150502e-02 9.516126904796733e-01 -5.292047785205776e-02 9.513055314849214e-01 -5.471619008222493e-02 -3.306763683148609e-02 -5.097833942835480e-02
4.384658125000000e+10 -2.899180421728328e-02 -4.687637390323545e-02 9.517970881878534e-01 -5.306291945377249e-02 9.514084827246064e-01 -5.507222892445989e-02 -3.052237145930385e-02 -5.179115595423201e-02
4.388845000000000e+10 -2.907059179056236e-02 -4.669520121919943e-02 9.511142930472780e-01 -5.355232732584522e-02 9.511454875467505e-01 -5.522220322809153e-02 -3.246582493145436e-02 -5.250793724613956e-02
4.393031875000000e+10 -2.950393719049277e-02 -4.560092688138129e-02 9.513541841550824e-01 -5.355595409877510e-02 9.513443329579238e-01 -5.505694440929912e-02 -3.233347642453400e-02 -5.090459509649465e-02
4.397218750000000e+10 -2.857607454543474e-02 -4.612913585689660e-02 9.517043589181785e-01 -5.359909709756260e-02 9.515968773630181e-01 -5.494576670955285e-02 -3.314840649231742e-02 -5.250195221837536e-02
4.401405625000000e+10 -2.944134006186416e-02 -4.562257660239235e-02 9.514350232685052e-01 -5.442847082480737e-02 9.513304102150933e-01 -5.542013547667851e-02 -3.460621561739014e-02 -5.168861207323793e-02
4.405592500000000e+10 -2.931651935386716e-02 -4.609432642912976e-02 9.512912556127001e-01 -5.400530800808322e-02 9.511427611856109e-01 -5.487793049200394e-02 -3.426321603669769e-02 -5.180323901644956e-02
4.409779375000000e+10 -2.939049347752967e-02 -4.612910288650630e-02 9.519742532469823e-01 -5.417467422240173e-02 9.515234620448136e-01 -5.554344485745574e-02 -3.446904220703625e-02 -5.220978743244765e-02
4.413966250000000e+10 -2.904499206273445e-02 -4.598613689362736e-02 9.505573911017589e-01 -5.401409669925087e-02 9.501787385993894e-01 -5.513401206039310e-02 -3.229927297358753e-02 -5.121598113367265e-02
4.418153125000000e+10 -2.869088762748253e-02 -4.578682653543652e-02 9.508802978753615e-01 -5.297907394009124e-02 9.507575219454724e-01 -5.345571529167843e-02 -3.422217272069707e-02 -5.184560896341814e-02
4.422340000000000e+10 -2.952535040538916e-02 -4.666541526444617e-02 9.509262880125170e-01 -5.353317364275648e-02 9.504670706873786e-01 -5.426194217277010e-02 -3.247063859863988e-02 -5.138220112155489e-02
4.426526875000000e+10 -2.959585678720880e-02 -4.694724949326853e-02 9.512112033176277e-01 -5.299158693707006e-02 9.512017077150910e-01 -5.346134306176792e-02 -3.400416020282828e-02 -5.231573276643194e-02
4.430713750000000e+10 -2.989801736723098e-02 -4.615842916497933e-02 9.516487092281360e-01 -5.390032542465150e-02 9.513528477306578e-01 -5.420733566796809e-02 -3.401856029005598e-02 -5.115025813245525e-02
4.434900625000000e+10 -2.941049507732581e-02 -4.599471855684854e-02 9.517975463828899e-01 -5.434021270366853e-02 9.513549520256612e-01 -5.464490719087801e-02 -3.396209338993107e-02 -5.292665250289347e-02
4.439087500000000e+10 -3.026632830018692e-02 -4.753176438468640e-02 9.497602774184968e-01 -5.488696019563644e-02 9.497976482593585e-01 -5.510475738050994e-02 -3.675425073144493e-02 -5.201710930908433e-02
4.443274375000000e+10 -3.057978251009584e-02 -4.672035614584159e-02 9.495966098958213e-01 -5.305315647226395e-02 9.493952563562417e-01 -5.329548934515704e-02 -3.443220827416194e-02 -4.969927317475769e-02
4.447461250000000e+10 -2.883070081761486e-02 -4.636544546085326e-02 9.495436484660525e-01 -5.230451895502100e-02 9.495582996055119e-01 -5.235040882086815e-02 -3.513205319165801e-02 -4.952901307342222e-02
4.451648125000000e+10 -2.838724978655188e-02 -4.473422194910158e-02 9.505800270628766e-01 -5.237398253998127e-02 9.502241220252018e-01 -5.280961553875051e-02 -3.176904963153689e-02 -4.814487887551891e-02
4.455835000000000e+10 -2.790074397585380e-02 -4.568294249486058e-02 9.505908551085466e-01 -5.283212903145484e-02 9.504634704621703e-01 -5.331624698628339e-02 -3.086049493909465e-02 -5.097085886045273e-02
4.460021875000000e+10 -2.977158062993064e-02 -4.633772100381810e-02 9.505186799034979e-01 -5.351864102412133e-02 9.501507197961870e-01 -5.441014761351071e-02 -3.325175202109671e-02 -5.089816598038747e-02
4.464208750000000e+10 -2.994215804756450e-02 -4.704448869788076e-02 9.494543544899712e-01 -5.352833759537837e-02 9.490820355073780e-01 -5.393427608762336e-02 -3.129329603591519e-02 -5.096138290676668e-02
4.468395625000000e+10 -2.998978608746883e-02 -4.777422315056743e-02 9.495487065367302e-01 -5.409981034488877e-02 9.491966115066524e-01 -5.433093137269035e-02 -3.460155779250249e-02 -5.102993770280123e-02
4.472582500000000e+10 -3.122031202542265e-02 -4.755288390171901e-02 9.475377969936151e-01 -5.375081138766181e-02 9.485177142425235e-01 -5.380724060979619e-02 -3.300168601686531e-02 -4.930783487920222e-02
4.476769375000000e+10 -3.187378715508406e-02 -4.607597787012629e-02 9.501936559328059e-01 -5.305334238143061e-02 9.504898829277569e-01 -5.345544590892727e-02 -3.464914530178644e-02 -5.019172158496343e-02
4.480956250000000e+10 -3.077219129296286e-02 -4.463946709438874e-02 9.503265910635200e-01 -5.165471625450734e-02 9.506216041268836e-01 -5.189383971355008e-02 -3.282000930314670e-02 -4.752654210588916e-02
4.485143125000000e+10 -3.082411638602828e-02 -4.540159127567073e-02 9.529287075296223e-01 -5.267332933555634e-02 9.528107503844239e-01 -5.315319863839477e-02 -3.370461260395134e-02 -5.171884589827240e-02
4.489330000000000e+10 -3.203437578480081e-02 -4.693576475272232e-02 9.510056392316724e-01 -5.484734245018240e-02 9.509870481305722e-01 -5.537508010730137e-02 -3.462741986630688e-02 -4.946293062856371e-02
4.493516875000000e+10 -3.057350669745712e-02 -4.622515103857959e-02 9.490347682828801e-01 -5.389935336959953e-02 9.486640132236249e-01 -5.434743502951327e-02 -3.507078883346260e-02 -4.793592390666258e-02
4.497703750000000e+10 -3.019583503995349e-02 -4.344518774405860e-02 9.496778345877573e-01 -5.227180500808808e-02 9.496292761144187e-01 -5.247747607172618e-02 -3.557984596750836e-02 -4.701293025766320e-02
4.501890625000000e+10 -2.833688862383948e-02 -4.471361421844129e-02 9.489321017296547e-01 -5.118389476927463e-02 9.491836441141255e-01 -5.147331654361160e-02 -3.157210484562276e-02 -4.692647821021893e-02
4.506077500000000e+10 -3.003159367601459e-02 -4.452225331937069e-02 9.517114027597788e-01 -5.189177382111413e-02 9.511724176421144e-01 -5.093605098414363e-02 -3.126498561073947e-02 -5.027719155171263e-02
4.510264375000000e+10 -3.000334333784097e-02 -4.529977558198690e-02 9.506402541391485e-01 -5.237918658905277e-02 9.503235869479268e-01 -5.235449047128145e-02 -3.155094499600253e-02 -4.897975761300367e-02
4.514451250000000e+10 -3.030978444036433e-02 -4.581385560821079e-02 9.511272585086927e-01 -5.280334631364893e-02 9.509032398736935e-01 -5.293640328460342e-02 -3.197299228581645e-02 -5.018411925988043e-02
4.518638125000000e+10 -2.999207168421794e-02 -4.539479399764426e-02 9.507423068891226e-01 -5.277313534285440e-02 9.507677645175893e-01 -5.289967332368483e-02 -3.275969198444159e-02 -4.884816574800630e-02
4.522825000000000e+10 -2.939955147684173e-02 -4.464173756402107e-02 9.526415825849777e-01 -5.344826824844700e-02 9.523133502866605e-01 -5.329822914670688e-02 -3.201791249832101e-02 -5.101593204373297e-02
4.527011875000000e+10 -2.982996585778037e-02 -4.603277047063376e-02 9.512065455655697e-01 -5.388200976911727e-02 9.515115438871956e-01 -5.392456610949697e-02 -3.418903058812416e-02 -5.046037829138530e-02
4.531198750000000e+10 -2.977677439711485e-02 -4.558579220563314e-02 9.505301181813088e-01 -5.284724468152974e-02 9.506162260418852e-01 -5.310412593677564e-02 -3.173386057640966e-02 -4.881914869117859e-02
4.535385625000000e+10 -3.042612492623315e-02 -4.460257970325854e-02 9.520576802843687e-01 -5.248390999086321e-02 9.520511694394433e-01 -5.315949859644658e-02 -3.159630938302294e-02 -4.893998974041958e-02
4.539572500000000e+10 -3.009758941644240e-02 -4.423982909343751e-02 9.517192741918568e-01 -5.296942745701697e-02 9.515148117229039e-01 -5.330746800338371e-02 -3.247822695631174e-02 -4.846956200325620e-02
4.543759375000000e+10 -2.960393568029204e-02 -4.375901006732725e-02 9.519270302805538e-01 -5.258687272415169e-02 9.518541748680991e-01 -5.306774165951715e-02 -3.221940280225542e-02 -4.914985137685115e-02
4.547946250000000e+10 -2.970011645290321e-02 -4.373074368335026e-02 9.513607235816618e-01 -5.272671977187766e-02 9.512395018817881e-01 -5.307201235905658e-02 -3.248406284021667e-02 -4.844551798679142e-02
4.552133125000000e+10 -2.939320942031638e-02 -4.273117274484625e-02 9.524906589067530e-01 -5.278470890593805e-02 9.525858373278128e-01 -5.278623229474662e-02 -2.862503014359317e-02 -4.987872828971009e-02
4.556320000000000e+10 -2.866326154281744e-02 -4.419140205903792e-02 9.530985626973734e-01 -5.348022775239297e-02 9.528267954081078e-01 -5.355875325707346e-02 -2.997775117335263e-02 -5.106074632695986e-02
4.560506875000000e+10 -2.963352803503994e-02 -4.491823149591179e-02 9.523106765230390e-01 -5.415294266340329e-02 9.521323215243442e-01 -5.410374296839902e-02 -2.924189096407232e-02 -5.157588406327977e-02
4.564693750000000e+10 -2.903531244841769e-02 -4.512714098099703e-02 9.534699767500147e-01 -5.418687470551211e-02 9.532951623520773e-01 -5.437297501024119e-02 -3.052312990071458e-02 -5.297384576953117e-02
4.568880625000000e+10 -2.852131241611721e-02 -4.558512368242116e-02 9.527829551602438e-01 -5.516627698897184e-02 9.527041076121104e-01 -5.510613874046141e-02 -3.032432910773614e-02 -5.311739961781391e-02
4.573067500000000e+10 -2.936206497950106e-02 -4.765090449232013e-02 9.521416435976334e-01 -5.471231364113336e-02 9.518199326451001e-01 -5.531710906348664e-02 -2.943432579079479e-02 -5.340689030239894e-02
4.577254375000000e+10 -3.101093966157618e-02 -4.608141828971567e-02 9.521498692491577e-01 -5.576820912029636e-02 9.522188285124298e-01 -5.665433284921214e-02 -3.125859241999224e-02 -5.363745865182822e-02
4.581441250000000e+10 -3.162922506724732e-02 -4.651936224396049e-02 9.523404277328290e-01 -5.606508253793098e-02 9.522764106587394e-01 -5.639809327790057e-02 -3.113116638268572e-02 -5.328715223968768e-02
4.585628125000000e+10 -3.097141962395062e-02 -4.522392602256818e-02 9.523342043077192e-01 -5.583385963927334e-02 9.521516717536002e-01 -5.628208660313833e-02 -3.326970491216468e-02 -5.357121714118897e-02
4.589815000000000e+10 -3.039489514711613e-02 -4.680150218734619e-02 9.515603559183518e-01 -5.536782527845285e-02 9.515427862130726e-01 -5.592657885781348e-02 -3.071859700206122e-02 -5.294552342499832e-02
4.594001875000000e+10 -3.028621570995563e-02 -4.434913123601946e-02 9.521869128436427e-01 -5.518865638331608e-02 9.535334085872386e-01 -5.575945387735348e-02 -3.370791138521545e-02 -5.437752440002854e-02
4.598188750000000e+10 -3.139389335372815e-02 -4.544028888112572e-02 9.526145911765566e-01 -5.477736808188696e-02 9.525737425498028e-01 -5.540915752864736e-02 -3.164811570752062e-02 -5.280810121081064e-02
4.602375625000000e+10 -3.017542905002544e-02 -4.466461477254931e-02 9.529288219132519e-01 -5.496938342621824e-02 9.527310185553673e-01 -5.520105057540735e-02 -3.149710665015788e-02 -5.305639277909698e-02
4.606562500000000e+10 -3.079152881018886e-02 -4.492535142557962e-02 9.526202294068700e-01 -5.532847130028751e-02 9.530153501424297e-01 -5.568403839914780e-02 -3.180241326774913e-02 -5.324121983188240e-02
4.610749375000000e+10 -3.016071135913650e-02 -4.530020492582532e-02 9.521364162874597e-01 -5.534332686446804e-02 9.519945346711557e-01 -5.586225729283303e-02 -3.161821225367661e-02 -5.276475351458658e-02
4.614936250000000e+10 -2.957838835714615e-02 -4.517286291773909e-02 9.524157767560312e-01 -5.463494487716361e-02 9.519723498081372e-01 -5.503098768820502e-02 -3.226681565363426e-02 -5.286804840241369e-02
4.619123125000000e+10 -2.993725334605792e-02 -4.535597902394189e-02 9.529288199645759e-01 -5.444159212993036e-02 9.527768879258000e-01 -5.493621105044579e-02 -3.217695344637192e-02 -5.394298643632070e-02
4.623310000000000e+10 -2.847601757734253e-02 -4.612632678012319e-02 9.534032394492069e-01 -5.439446570057711e-02 9.532471118159584e-01 -5.561788959760139e-02 -3.308274554535454e-02 -5.410538693865347e-02
4.627496875000000e+10 -2.937304083237395e-02 -4.620245844812634e-02 9.532227063434352e-01 -5.440916219712857e-02 9.531285387950784e-01 -5.524195776112771e-02 -3.301315478105497e-02 -5.421909157261905e-02
4.631683750000000e+10 -2.839782354307470e-02 -4.584572771306107e-02 9.532526953822774e-01 -5.429032799245921e-02 9.531949040044321e-01 -5.517198767576025e-02 -3.288419470411188e-02 -5.369439210716034e-02
4.635870625000000e+10 -2.818374805334710e-02 -4.676757037588742e-02 9.533138463429610e-01 -5.500664130122736e-02 9.529877036843558e-01 -5.586803549444885e-02 -3.227642847330790e-02 -5.444783548905976e-02
4.640057500000000e+10 -2.865470636312668e-02 -4.627707606091243e-02 9.529414588970774e-01 -5.545414756777430e-02 9.526634399173816e-01 -5.615947976092395e-02 -3.200350355539060e-02 -5.440415993506221e-02
4.644244375000000e+10 -2.984512805794792e-02 -4.742164075760168e-02 9.528375993092393e-01 -5.633308647313736e-02 9.525829426580815e-01 -5.771806116494696e-02 -3.129182009124941e-02 -5.496143765562848e-02
4.648431250000000e+10 -3.019066091370369e-02 -4.704174004904841e-02 9.520943343198920e-01 -5.751134735363751e-02 9.519734657684867e-01 -5.833417290767507e-02 -3.315279004550636e-02 -5.450700138453512e-02
4.652618125000000e+10 -3.081483666190611e-02 -4.646404477381468e-02 9.517076430542162e-01 -5.680901609654022e-02 9.515089215659097e-01 -5.807347899530534e-02 -3.224916655473130e-02 -5.383513303046095e-02
4.656805000000000e+10 -2.940099177171509e-02 -4.649458495087225e-02 9.516764067832421e-01 -5.618105893782518e-02 9.516267903766349e-01 -5.768660874624412e-02 -3.151276276226340e-02 -5.396594571320754e-02
4.660991875000000e+10 -2.960708527191914e-02 -4.660604974778795e-02 9.519340085167917e-01 -5.652917015688888e-02 9.514801338274191e-01 -5.785966534313481e-02 -3.169061770995425e-02 -5.412626138447631e-02
4.665178750000000e+10 -2.973015202011348e-02 -4.608211909642674e-02 9.524082175353290e-01 -5.682258180855036e-02 9.521866226708444e-01 -5.812879555437959e-02 -3.201592302854648e-02 -5.457066288145931e-02
4.669365625000000e+10 -2.940163336987352e-02 -4.618063621539360e-02 9.521199119401684e-01 -5.696980626772338e-02 9.517877349677868e-01 -5.843484075383341e-02 -3.229811896558070e-02 -5.327065682493524e-02
4.673552500000000e+10 -2.844329632700959e-02 -4.605325771189325e-02 9.512140378551589e-01 -5.653821317749248e-02 9.511752867173936e-01 -5.835369592429616e-02 -3.097300014746878e-02 -5.355037589125283e-02
4.677739375000000e+10 -2.827890567711927e-02 -4.799720130889029e-02 9.512066559612946e-01 -5.773790137382395e-02 9.509638209626374e-01 -5.910378035230403e-02 -3.098717978875777e-02 -5.473477599921922e-02
4.681926250000000e+10 -2.972664428172886e-02 -4.770786680243938e-02 9.505574442547785e-01 -5.892973360084501e-02 9.504932884594595e-01 -6.052555727797347e-02 -3.156358407014728e-02 -5.495312602517011e-02
4.686113125000000e+10 -3.026082202453198e-02 -4.888806769351595e-02 9.485104699478502e-01 -5.877505621692514e-02 9.483669250036499e-01 -6.002746351555593e-02 -3.216002844059290e-02 -5.485852280523337e-02
4.690300000000000e+10 -3.007667610327847e-02 -4.722844580282845e-02 9.499442750679169e-01 -5.682956815841986e-02 9.495433354602603e-01 -5.822862595101626e-02 -3.195185635782549e-02 -5.407704862695934e-02
4.694486875000000e+10 -2.946108107826613e-02 -4.899968559340522e-02 9.496786864738403e-01 -5.700845497963078e-02 9.494238932410618e-01 -5.859528709276769e-02 -3.205569950588041e-02 -5.568824996862128e-02
4.698673750000000e+10 -3.122516946585456e-02 -4.902846730279804e-02 9.490850201815156e-01 -5.717978313592106e-02 9.487466011669066e-01 -5.881876120153938e-02 -3.307950311789169e-02 -5.441840723443885e-02
4.702860625000000e+10 -3.070405445451745e-02 -4.849324485863028e-02 9.479775805129108e-01 -5.598867349687765e-02 9.476679432960490e-01 -5.732527406468987e-02 -3.269035163077996e-02 -5.265756568277413e-02
4.707047500000000e+10 -3.029370652353498e-02 -4.719208833114889e-02 9.490737252765254e-01 -5.555526437201365e-02 9.487255213983384e-01 -5.676898390226816e-02 -3.095356353610770e-02 -5.320295362426199e-02
4.711234375000000e+10 -3.071361692845036e-02 -4.714523412953060e-02 9.495545088531103e-01 -5.547380010114870e-02 9.494970211479572e-01 -5.715804348047737e-02 -3.146398801213757e-02 -5.372499091937884e-02
4.715421250000000e+10 -3.041185283247701e-02 -4.719957335134313e-02 9.504368508303139e-01 -5.633063316689253e-02 9.501335114768160e-01 -5.781147539044801e-02 -3.187883104054932e-02 -5.515460541281258e-02
4.719608125000000e+10 -3.078758579910021e-02 -4.741820314391310e-02 9.484653473442451e-01 -5.565775874963667e-02 9.482463675731228e-01 -5.741556040016807e-02 -3.136415014964668e-02 -5.277137992615170e-02
4.723795000000000e+10 -2.990906470510371e-02 -4.668453422230548e-02 9.495132064726507e-01 -5.441619914904866e-02 9.492892341750570e-01 -5.603738341846778e-02 -2.976270076625438e-02 -5.392469620016188e-02
4.727981875000000e+10 -3.105810620449587e-02 -4.766444428587310e-02 9.506575508951925e-01 -5.494199901196613e-02 9.503573143413416e-01 -5.640701405053713e-02 -3.175612035248363e-02 -5.444462126214103e-02
4.732168750000000e+10 -2.986726018754132e-02 -4.729974502829535e-02 9.504337320531855e-01 -5.460660974489379e-02 9.502223198080659e-01 -5.585647187712640e-02 -3.276900681503976e-02 -5.446261950399959e-02
4.736355625000000e+10 -2.949360770002865e-02 -4.758567375889821e-02 9.502401590301794e-01 -5.413328541278115e-02 9.497042264111970e-01 -5.533349709185143e-02 -3.179580749239246e-02 -5.349675172291700e-02
4.740542500000000e+10 -2.852818415320898e-02 -4.608864061148420e-02 9.501591575907542e-01 -5.408685192699444e-02 9.499481665728007e-01 -5.532260150581505e-02 -3.008752191091856e-02 -5.350386137949958e-02
4.744729375000000e+10 -3.023322738210864e-02 -4.761966291001541e-02 9.515455342371919e-01 -5.588471749553812e-02 9.513481218861382e-01 -5.776299785523920e-02 -2.927193831277364e-02 -5.647746491280229e-02
4.748916250000000e+10 -3.123824849233311e-02 -4.767698755212212e-02 9.494496428781790e-01 -5.716733257751522e-02 9.496829893922533e-01 -5.808443454862388e-02 -3.108210204766184e-02 -5.448603155323900e-02
4.753103125000000e+10 -3.044793136657637e-02 -4.674597677004416e-02 9.502574445994135e-01 -5.614302804112109e-02 9.501112709918058e-01 -5.729743495133625e-02 -3.145838791006756e-02 -5.507671697884424e-02
4.757290000000000e+10 -3.032787150321181e-02 -4.750181651590889e-02 9.500279671199052e-01 -5.625929267433807e-02 9.496949743470994e-01 -5.798309130249805e-02 -3.251397658694239e-02 -5.476275727236021e-02
4.761476875000000e+10 -3.066017916794140e-02 -4.647675959013942e-02 9.501133186049353e-01 -5.556207421765466e-02 9.498838495963532e-01 -5.704284544779109e-02 -3.119992596009452e-02 -5.420763999854172e-02
4.765663750000000e+10 -2.988049603537207e-02 -4.582922571777710e-02 9.503219833770724e-01 -5.524855199638892e-02 9.501180570478931e-01 -5.652292983640821e-02 -3.213555582299626e-02 -5.449816345442553e-02
4.769850625000000e+10 -3.061690753271960e-02 -4.590663952527835e-02 9.513393953491651e-01 -5.573945590727279e-02 9.507838201810002e-01 -5.635882491758434e-02 -3.094297467549116e-02 -5.525361373392190e-02
4.774037500000000e+10 -3.090073470683985e-02 -4.652851262920625e-02 9.509405721891991e-01 -5.539355692674947e-02 9.505668488029245e-01 -5.637637886774368e-02 -3.210565482228126e-02 -5.514961484659689e-02
4.778224375000000e+10 -3.109041834841738e-02 -4.469287919865306e-02 9.517383715496531e-01 -5.441459895680138e-02 9.513170757550636e-01 -5.542398031050490e-02 -3.162464832482269e-02 -5.359988962609386e-02
4.782411250000000e+10 -2.922667012688159e-02 -4.578638910917709e-02 9.520139708719341e-01 -5.549556779280537e-02 9.518678898352460e-01 -5.661526164231817e-02 -3.016915454649396e-02 -5.574231603423575e-02
4.786598125000000e+10 -3.058231036231649e-02 -4.647231609801648e-02 9.516994876869665e-01 -5.625232864703493e-02 9.515595882937975e-01 -5.794341175895095e-02 -3.196196518620327e-02 -5.535453669917580e-02
4.790785000000000e+10 -2.968368684644734e-02 -4.487772835734900e-02 9.522450781905090e-01 -5.552162025208326e-02 9.518697787363963e-01 -5.699825659588290e-02 -3.147613799839086e-02 -5.533251849779177e-02
4.794971875000000e+10 -2.911729449591472e-02 -4.589455882905556e-02 9.528285101852724e-01 -5.624376081217117e-02 9.524474770525810e-01 -5.790889846910292e-02 -3.209195336005314e-02 -5.659230590382455e-02
4.799158750000000e+10 -3.018732945799665e-02 -4.551435025634579e-02 9.525201631665523e-01 -5.683666416058862e-02 9.523088794503040e-01 -5.816287639520280e-02 -3.174924372733776e-02 -5.613049792775069e-02
4.803345625000000e+10 -2.944134342978605e-02 -4.560816077422684e-02 9.524993522999758e-01 -5.745575282938083e-02 9.521690812165021e-01 -5.911626477044486e-02 -3.238721917430352e-02 -5.648120234970920e-02
4.807532500000000e+10 -2.970816818379568e-02 -4.688069569435001e-02 9.513821836592318e-01 -5.746225602281985e-02 9.511871617168037e-01 -5.869435586843638e-02 -3.243975492527132e-02 -5.674679555612051e-02
4.811719375000000e+10 -3.012966532768859e-02 -4.703343087669260e-02 9.512074141656954e-01 -5.711931210735836e-02 9.510307596921241e-01 -5.853584603163614e-02 -3.240661776042607e-02 -5.612685351958750e-02
4.815906250000000e+10 -2.985294983419170e-02 -4.639680836120270e-02 9.514378257018138e-01 -5.674365672418408e-02 9.511407541025755e-01 -5.841562221562353e-02 -3.264362766962295e-02 -5.555893344951843e-02
4.820093125000000e+10 -2.862294531728610e-02 -4.507185340067301e-02 9.518339882985217e-01 -5.700790394083183e-02 9.514807167170048e-01 -5.832426819356968e-02 -3.133920314709592e-02 -5.563676640863825e-02
4.824280000000000e+10 -2.927782171436518e-02 -4.733438040975355e-02 9.523038044660752e-01 -5.803880690078630e-02 9.517938488302902e-01 -5.942449874264755e-02 -3.202211882210852e-02 -5.747735436769920e-02
4.828466875000000e+10 -3.001843454527322e-02 -4.674895536214888e-02 9.515581213401149e-01 -5.856474452595588e-02 9.510807472821040e-01 -6.010285389798289e-02 -3.393360327357886e-02 -5.770671909238375e-02
4.832653750000000e+10 -2.875316331381673e-02 -4.680354714626898e-02 9.515700722210544e-01 -5.726137716597587e-02 9.511907849226320e-01 -5.860962892396653e-02 -3.328267346288503e-02 -5.653562936082868e-02
4.836840625000000e+10 -2.871361426233445e-02 -4.782953161937359e-02 9.513218812584255e-01 -5.857902082605426e-02 9.509416968712155e-01 -5.971888778107406e-02 -3.332418581473302e-02 -5.795448968943825e-02
4.841027500000000e+10 -2.975794033967236e-02 -4.923579783506134e-02 9.501728116556916e-01 -5.921365830211445e-02 9.493826538533636e-01 -6.035168515948742e-02 -3.365738289412995e-02 -5.717055981742369e-02
4.845214375000000e+10 -3.102121094581498e-02 -4.823490477695831e-02 9.499110605875277e-01 -5.812532180072158e-02 9.502104049190280e-01 -5.916836389268264e-02 -3.570632107674025e-02 -5.746308329068591e-02
4.849401250000000e+10 -3.056722454269482e-02 -4.794316097931075e-02 9.505455476073167e-01 -5.767977983444808e-02 9.503109915949742e-01 -5.852980722169925e-02 -3.380344393651627e-02 -5.648458610016110e-02
4.853588125000000e+10 -2.992201048871751e-02 -4.899119244277170e-02 9.506333932310244e-01 -5.818437898946879e-02 9.504886404423305e-01 -5.903353683485695e-02 -3.561462547528725e-02 -5.699908081198506e-02
4.857775000000000e+10 -2.956567471133995e-02 -4.895238481838146e-02 9.500771378509578e-01 -5.828189746890777e-02 9.498847640828765e-01 -5.914704646754481e-02 -3.437977607063738e-02 -5.629126731578985e-02
4.861961875000000e+10 -2.998539844309697e-02 -5.035021306469089e-02 9.495312726635640e-01 -5.896876825070673e-02 9.495800173155080e-01 -5.969915079529218e-02 -3.511715307719682e-02 -5.711572619570996e-02
4.866148750000000e+10 -3.089982643591144e-02 -5.071006163180860e-02 9.490021844005259e-01 -5.935036263746829e-02 9.488351218772211e-01 -6.036996842207110e-02 -3.609469057956226e-02 -5.573965001897716e-02
4.870335625000000e+10 -3.208638034954527e-02 -4.998953715473167e-02 9.486592339600031e-01 -5.981945612882026e-02 9.484475124685727e-01 -6.060582857305725e-02 -3.417764840810583e-02 -5.534500036617084e-02
4.874522500000000e+10 -3.124784977309119e-02 -4.979437230363654e-02 9.487385998603574e-01 -5.941995267113905e-02 9.484513154729541e-01 -6.005971949600613e-02 -3.561371916825274e-02 -5.524029487005105e-02
4.878709375000000e+10 -3.121646827659990e-02 -5.039009459581953e-02 9.475790972133334e-01 -5.978776006518792e-02 9.472798383559984e-01 -6.046367466151985e-02 -3.464852218526530e-02 -5.475162050850663e-02
4.882896250000000e+10 -3.296710877502713e-02 -5.000294112364916e-02 9.476833504089477e-01 -5.912452319089993e-02 9.474742088319934e-01 -5.911123301518924e-02 -3.696811217502845e-02 -5.426031820795277e-02
4.887083125000000e+10 -3.245136764370191e-02 -4.899745290981510e-02 9.476970311097259e-01 -5.849875463169250e-02 9.473379357574321e-01 -5.882638931210191e-02 -3.709057614940575e-02 -5.384070667572192e-02
4.891270000000000e+10 -3.308059801882687e-02 -4.906336066271968e-02 9.478560093251166e-01 -5.777902341830114e-02 9.474736917113374e-01 -5.844816648272875e-02 -3.722326866074381e-02 -5.277685149881187e-02
4.895456875000000e+10 -3.145469521830266e-02 -4.893408366946520e-02 9.471553771613920e-01 -5.786301217275423e-02 9.470817492840816e-01 -5.857095528808094e-02 -3.731654972652081e-02 -5.297781140628492e-02
4.899643750000000e+10 -3.163865427600613e-02 -4.856399141649355e-02 9.472810577824627e-01 -5.750693658315539e-02 9.472119338888559e-01 -5.788460374780515e-02 -3.646986793195522e-02 -5.242423363158403e-02
4.903830625000000e+10 -3.113822225074783e-02 -4.885376735354377e-02 9.473595619454711e-01 -5.707167912334627e-02 9.473366663589485e-01 -5.727285395762105e-02 -3.845196762755175e-02 -5.315865989835197e-02
4.908017500000000e+10 -3.059570823272331e-02 -4.899071681061889e-02 9.466645539437614e-01 -5.658493796259818e-02 9.463240962582572e-01 -5.690419162101462e-02 -3.664337673187382e-02 -5.165764564169473e-02
4.912204375000000e+10 -3.120958371845384e-02 -4.854700143579884e-02 9.471945331625700e-01 -5.668982422253752e-02 9.471489838973244e-01 -5.701199023232722e-02 -3.722577036768718e-02 -5.260626537459662e-02
4.916391250000000e+10 -3.000722565968542e-02 -4.858683230221071e-02 9.460355640467685e-01 -5.618775712129764e-02 9.459659093659574e-01 -5.651816973812855e-02 -3.657530384535631e-02 -5.059062619265669e-02
4.920578125000000e+10 -3.156130536030609e-02 -4.828100828891905e-02 9.469718425336024e-01 -5.557659725476569e-02 9.465703793338903e-01 -5.523997957806369e-02 -3.680360785265772e-02 -5.070416494980854e-02
4.924765000000000e+10 -3.112761542359036e-02 -4.803804407190194e-02 9.474357002588041e-01 -5.594129940537632e-02 9.473468279790788e-01 -5.590624547415087e-02 -3.661200558039789e-02 -5.113327749972171e-02
4.928951875000000e+10 -3.080088715224478e-02 -4.916574163764885e-02 9.466784171528658e-01 -5.626523037512083e-02 9.464058244383677e-01 -5.685408952545978e-02 -3.575795117415219e-02 -5.045231810992451e-02
4.933138750000000e+10 -3.085404528960970e-02 -4.869832636500689e-02 9.462051031881650e-01 -5.600425219377592e-02 9.460415689719538e-01 -5.639004507558747e-02 -3.688758103152678e-02 -4.987362158419668e-02
4.937325625000000e+10 -3.118188226066716e-02 -4.683500809771887e-02 9.469206883632164e-01 -5.569716017456470e-02 9.468419700323532e-01 -5.590147253676870e-02 -3.639199512276597e-02 -4.891050135083983e-02
4.941512500000000e+10 -3.082681305462894e-02 -4.762911635851838e-02 9.464952134507157e-01 -5.564245272917865e-02 9.461431116613208e-01 -5.592412622034796e-02 -3.661127963073902e-02 -4.935219937808542e-02
4.945699375000000e+10 -2.966361063992259e-02 -4.717865174370771e-02 9.460514043954981e-01 -5.486548047883653e-02 9.458536756961192e-01 -5.510790061665748e-02 -3.444883537344726e-02 -4.878319131249482e-02
4.949886250000000e+10 -3.033269431517940e-02 -4.688214754594030e-02 9.466568687898267e-01 -5.436631782655086e-02 9.465042713073151e-01 -5.456489450949553e-02 -3.468741991112036e-02 -4.896247893963899e-02
4.954073125000000e+10 -3.048309848992344e-02 -4.691619390537361e-02 9.466959080747087e-01 -5.466232877889502e-02 9.462702946970522e-01 -5.473858155012905e-02 -3.497697744115860e-02 -4.795864541802936e-02
4.958260000000000e+10 -2.922359503030953e-02 -4.637550564822582e-02 9.478453372284450e-01 -5.459238044854946e-02 9.475397164319995e-01 -5.472988264955589e-02 -3.262565521334997e-02 -4.865878531900111e-02
4.962446875000000e+10 -2.862589136485604e-02 -4.782097609062859e-02 9.477457920377154e-01 -5.609025228035552e-02 9.472473440810912e-01 -5.607021849581472e-02 -3.276681703263572e-02 -5.075592279057852e-02
4.966633750000000e+10 -3.090001800917215e-02 -4.984588243676744e-02 9.458222739670756e-01 -5.765578870488852e-02 9.469700125840240e-01 -5.721503835322973e-02 -3.401893801206666e-02 -5.044330868677420e-02
4.970820625000000e+10 -3.065796348516271e-02 -5.036865539641500e-02 9.451292520265986e-01 -5.696228189406035e-02 9.451819683838724e-01 -5.731765587549389e-02 -3.500520127794630e-02 -4.963888870023681e-02
4.975007500000000e+10 -3.025432290099909e-02 -4.955537591418269e-02 9.442350484444754e-01 -5.654375677864028e-02 9.441769183829358e-01 -5.678272628858952e-02 -3.330535985420011e-02 -4.879962398899257e-02
4.979194375000000e+10 -3.218400800385883e-02 -4.941362624335176e-02 9.451802849070572e-01 -5.665805560420492e-02 9.443851559338771e-01 -5.696341786816078e-02 -3.383814472770690e-02 -4.838688281806090e-02
4.983381250000000e+10 -3.088212175015725e-02 -4.996827107999290e-02 9.440529299603119e-01 -5.513255490408007e-02 9.437828378935724e-01 -5.607061367893950e-02 -3.479795316245349e-02 -4.885086660798514e-02
4.987568125000000e+10 -3.134671751783289e-02 -4.911393660689937e-02 9.440601929263267e-01 -5.425514849001041e-02 9.438260892073909e-01 -5.492821970183989e-02 -3.415013046635407e-02 -4.689420132139871e-02
4.991755000000000e+10 -3.161884779596972e-02 -4.732380993816999e-02 9.438187185840923e-01 -5.321537717032108e-02 9.435951971619022e-01 -5.382945248622970e-02 -3.215324751145261e-02 -4.638178266690097e-02
4.995941875000000e+10 -3.032898771558653e-02 -4.659165272686758e-02 9.447348565078231e-01 -5.284974315453026e-02 9.446146174366343e-01 -5.309249923416948e-02 -3.117832814351448e-02 -4.593672749565264e-02
5.000128750000000e+10 -3.083326027273632e-02 -4.590874345847130e-02 9.454867580432476e-01 -5.273766797740098e-02 9.453865224418730e-01 -5.285729792038979e-02 -3.034250570365509e-02 -4.757365425762530e-02
5.004315625000000e+10 -3.056568044838878e-02 -4.590388205363144e-02 9.467825739969711e-01 -5.255234932948070e-02 9.466368919699210e-01 -5.320406236025369e-02 -2.986217422887756e-02 -4.779927065587397e-02
5.008502500000000e+10 -3.121473014930177e-02 -4.434539654461651e-02 9.479190993484099e-01 -5.266704771740421e-02 9.474513081215287e-01 -5.295658174353643e-02 -3.030109404697967e-02 -4.763268282719296e-02
5.012689375000000e+10 -3.034021445147545e-02 -4.562172665739471e-02 9.486173141756675e-01 -5.377453972845370e-02 9.485566659888608e-01 -5.425356548209795e-02 -2.955974785890485e-02 -4.933237105695834e-02
5.016876250000000e+10 -3.101458619990062e-02 -4.539487288830788e-02 9.488354346301373e-01 -5.491348227063125e-02 9.491737084640097e-01 -5.568386498502517e-02 -3.026854851377004e-02 -5.035263360204967e-02
5.021063125000000e+10 -3.119933732904763e-02 -4.692210408562276e-02 9.483180326010684e-01 -5.590385335435514e-02 9.481034304622810e-01 -5.689856544064281e-02 -3.085431433117328e-02 -4.988827203319120e-02
5.025250000000000e+10 -2.989115368303031e-02 -4.651411038055979e-02 9.472336775364278e-01 -5.596425627751567e-02 9.471974591695975e-01 -5.713316648482288e-02 -3.098261553744515e-02 -4.967735114081124e-02
5.029436875000000e+10 -3.011781931197462e-02 -4.680444013570009e-02 9.464690180459558e-01 -5.521392691679682e-02 9.463320686586236e-01 -5.636362409429480e-02 -3.082079691877305e-02 -4.994071897282375e-02
5.033623750000000e+10 -3.020352915626004e-02 -4.692491772246762e-02 9.459951753350426e-01 -5.461453129078589e-02 9.458876491455794e-01 -5.539086372744417e-02 -2.947439382815490e-02 -4.936721565448773e-02
5.037810625000000e+10 -3.054918048374837e-02 -4.736010963362938e-02 9.474648193209189e-01 -5.476057296325826e-02 9.472346777085124e-01 -5.544255225481614e-02 -3.059242149406472e-02 -5.103998039660484e-02
5.041997500000000e+10 -3.021256696062263e-02 -4.710742656687123e-02 9.473046813585925e-01 -5.402089417815805e-02 9.472294526736739e-01 -5.511292967592532e-02 -3.160794280504067e-02 -5.075698902426930e-02
5.046184375000000e+10 -2.925667212343778e-02 -4.659702357671383e-02 9.481487728146196e-01 -5.340746372265664e-02 9.480306298009982e-01 -5.417561935849092e-02 -3.093014363753625e-02 -5.070198915842671e-02
5.050371250000000e+10 -2.885424967513912e-02 -4.745288962639192e-02 9.481724125047093e-01 -5.400950840042309e-02 9.481508991624699e-01 -5.492154170336933e-02 -3.044720595190384e-02 -5.128509692576028e-02
5.054558125000000e+10 -2.888959847770794e-02 -4.903456611946558e-02 9.471759704986227e-01 -5.492266468441240e-02 9.469556537382565e-01 -5.623751673725380e-02 -2.951125246896746e-02 -5.232431574279924e-02
5.058745000000000e+10 -3.070307726523393e-02 -4.838867226348478e-02 9.467308661259318e-01 -5.433914014133126e-02 9.465923738025406e-01 -5.591157921872227e-02 -2.934356171803580e-02 -5.128508427226709e-02
5.062931875000000e+10 -3.120184990083448e-02 -4.734160794788293e-02 9.471737029076964e-01 -5.400472264585294e-02 9.468847934393841e-01 -5.538351493073358e-02 -2.985632032183757e-02 -5.086310611446949e-02
5.067118750000000e+10 -3.241333427566883e-02 -4.644283022818425e-02 9.487331503076610e-01 -5.362173024412407e-02 9.485615594126435e-01 -5.563795788470177e-02 -2.842447208150604e-02 -5.177653196938110e-02
5.071305625000000e+10 -3.060678447985457e-02 -4.713490069098927e-02 9.484110869069047e-01 -5.461167148183609e-02 9.483073288793290e-01 -5.637148900549821e-02 -2.954945941076983e-02 -5.263066589569181e-02
5.075492500000000e+10 -3.157396469195497e-02 -4.676812954479512e-02 9.488856039288228e-01 -5.411715420278482e-02 9.485335412150016e-01 -5.605734623785229e-02 -2.967000955002676e-02 -5.183822449985939e-02
5.079679375000000e+10 -2.940069531856779e-02 -4.619432062660058e-02 9.486639576459266e-01 -5.384802259251172e-02 9.483998036206266e-01 -5.512627519947325e-02 -3.013734736926330e-02 -5.223096484845321e-02
5.083866250000000e+10 -3.093972602261040e-02 -4.727689533357240e-02 9.491604768173560e-01 -5.413296890993622e-02 9.490894617044058e-01 -5.556591086220616e-02 -2.917961019253648e-02 -5.428862571052712e-02
5.088053125000000e+10 -3.111876240728649e-02 -4.630169446861143e-02 9.496995232339511e-01 -5.416729475180146e-02 9.494518622656536e-01 -5.583909431841546e-02 -3.008202312342716e-02 -5.350833911954847e-02
5.092240000000000e+10 -2.996884913089694e-02 -4.796497537301644e-02 9.501365932968734e-01 -5.520925633553939e-02 9.501121182483144e-01 -5.697520485312087e-02 -3.128489910248305e-02 -5.488407059351491e-02
5.096426875000000e+10 -2.908034191430851e-02 -4.797559764002369e-02 9.484790431189449e-01 -5.499821821305727e-02 9.478494425528179e-01 -5.726898989158268e-02 -3.126616036529709e-02 -5.321772589084330e-02
5.100613750000000e+10 -2.952481350777506e-02 -4.738433391399281e-02 9.490920874072417e-01 -5.458229343218768e-02 9.488331078307842e-01 -5.664487316098264e-02 -2.961405524389920e-02 -5.470528918315157e-02
5.104800625000000e+10 -3.043135668203731e-02 -4.847490525903652e-02 9.488524665022121e-01 -5.527716311944307e-02 9.484959798527473e-01 -5.766895437797170e-02 -3.013688562507694e-02 -5.429532562052766e-02
5.108987500000000e+10 -2.987277077436362e-02 -4.802436780655390e-02 9.492378848330754e-01 -5.494577417987408e-02 9.490995850558981e-01 -5.786667726489237e-02 -2.963186103405394e-02 -5.480693031544365e-02
5.113174375000000e+10 -2.859284915810805e-02 -4.811916791065102e-02 9.494301625250744e-01 -5.507317731662315e-02 9.492238872210155e-01 -5.768546595212681e-02 -3.129844805163936e-02 -5.426586820890190e-02
5.117361250000000e+10 -2.894409472093992e-02 -4.817023933789880e-02 9.492814774626654e-01 -5.524818595578482e-02 9.489589725519829e-01 -5.831428019432601e-02 -3.142219626245048e-02 -5.623479557867104e-02
5.121548125000000e+10 -2.851844836471155e-02 -4.937886522583916e-02 9.486574748835785e-01 -5.457134057158241e-02 9.483797012076406e-01 -5.726652299668748e-02 -3.112731039377491e-02 -5.513322814915846e-02
5.125735000000000e+10 -2.920300921544781e-02 -4.884839133174093e-02 9.492247487656852e-01 -5.489033640078997e-02 9.488759946894106e-01 -5.755536911269558e-02 -3.103965466780774e-02 -5.586747201652365e-02
5.129921875000000e+10 -2.938749878859797e-02 -4.888518775538968e-02 9.483719180186092e-01 -5.458952514951936e-02 9.479941562698110e-01 -5.657293744432692e-02 -3.052965613555136e-02 -5.431014725905080e-02
5.134108750000000e+10 -2.973292481408746e-02 -4.755691538739375e-02 9.489655867269358e-01 -5.382801728995020e-02 9.484582020947903e-01 -5.603175302159952e-02 -3.083875507465101e-02 -5.254126640206623e-02
5.138295625000000e+10 -2.808028034639106e-02 -4.774100318994694e-02 9.492961578013580e-01 -5.413110885000273e-02 9.492012136766994e-01 -5.637968022195079e-02 -2.966301336898751e-02 -5.486488564526683e-02
5.142482500000000e+10 -2.713558642651715e-02 -4.892042630177762e-02 9.492284337893864e-01 -5.449389192078961e-02 9.488231078414735e-01 -5.676079504754408e-02 -2.919439499026251e-02 -5.465331552963613e-02
5.146669375000000e+10 -2.828238373470084e-02 -4.919134917224809e-02 9.483574077875166e-01 -5.452376011638268e-02 9.480758756183534e-01 -5.664660369377300e-02 -2.769712460308278e-02 -5.457390487617442e-02
5.150856250000000e+10 -2.869807423366603e-02 -5.017597367671025e-02 9.494100234079447e-01 -5.477770382501256e-02 9.491435124269116e-01 -5.703095064644247e-02 -2.877551412743458e-02 -5.601296038244390e-02
5.155043125000000e+10 -2.965520666312160e-02 -4.918305307432716e-02 9.501648945040174e-01 -5.532807141777315e-02 9.497605317006919e-01 -5.735271273597950e-02 -2.870521438437294e-02 -5.626568271299631e-02
5.159230000000000e+10 -2.971347373433767e-02 -5.069184638918110e-02 9.505760415810185e-01 -5.601163376771959e-02 9.499377298385371e-01 -5.833062383763498e-02 -3.049217112718023e-02 -5.692138509593190e-02
5.163416875000000e+10 -3.075354394681594e-02 -5.130685946888795e-02 9.494652530145435e-01 -5.681434626057333e-02 9.493652229272351e-01 -5.951069161980909e-02 -3.121114319522378e-02 -5.565775888125803e-02
5.167603750000000e+10 -3.037182356260764e-02 -4.916879513333720e-02 9.501315686844949e-01 -5.641270196665508e-02 9.495766881564410e-01 -5.914677084328143e-02 -3.156120998916245e-02 -5.570682560000526e-02
5.171790625000000e+10 -3.112069841531943e-02 -5.039896344172318e-02 9.488983801574772e-01 -5.665872288990541e-02 9.483695126763391e-01 -5.910137622491981e-02 -3.236673563548387e-02 -5.388849460352334e-02
5.175977500000000e+10 -3.021146145587231e-02 -4.799077660691026e-02 9.482490641346449e-01 -5.496406935743059e-02 9.480037105693220e-01 -5.731033798251967e-02 -3.108287328324794e-02 -5.290533479052830e-02
5.180164375000000e+10 -2.989487409748732e-02 -4.967314869998610e-02 9.490830401204873e-01 -5.578541103705115e-02 9.491340487562675e-01 -5.791225187900251e-02 -3.159313846460592e-02 -5.279405860179225e-02
5.184351250000000e+10 -2.962365476834840e-02 -4.746235706205972e-02 9.489045059961028e-01 -5.457469091140252e-02 9.489609596903895e-01 -5.740034633824162e-02 -3.083560529031920e-02 -5.177459490677987e-02
5.188538125000000e+10 -2.862222558229595e-02 -4.769880583943550e-02 9.511457061956742e-01 -5.531599184125164e-02 9.511332165917733e-01 -5.750047371648672e-02 -2.977126910439028e-02 -5.440651838454547e-02
5.192725000000000e+10 -2.931201232644625e-02 -4.929509619127551e-02 9.497867585773496e-01 -5.679244687819151e-02 9.494324717997816e-01 -5.967144676942254e-02 -3.014734601845028e-02 -5.350653578676749e-02
5.196911875000000e+10 -3.080439408962243e-02 -4.822974127806427e-02 9.492496127282932e-01 -5.722835562349478e-02 9.493303304881746e-01 -5.988343581905948e-02 -3.133662204736859e-02 -5.421633995294355e-02
5.201098750000000e+10 -3.155657612109365e-02 -4.860284590796560e-02 9.483180158749442e-01 -5.751106676301478e-02 9.482434838850041e-01 -5.951597824215423e-02 -3.316263744871851e-02 -5.158381478742353e-02
5.205285625000000e+10 -2.827271981238690e-02 -4.740834807851034e-02 9.490734906743485e-01 -5.632443493266100e-02 9.488669905339711e-01 -5.805742715992690e-02 -3.125938731227043e-02 -5.214364495461634e-02
5.209472500000000e+10 -2.765333750342048e-02 -4.833013599111599e-02 9.487294736755384e-01 -5.744318665122303e-02 9.485206151223150e-01 -5.921716366374604e-02 -3.256199340565610e-02 -5.264578483273458e-02
5.213659375000000e+10 -2.885947284005767e-02 -4.781118393686897e-02 9.472987942957201e-01 -5.566658103476788e-02 9.469501141807292e-01 -5.711539224802482e-02 -2.979605254851546e-02 -5.096848971457167e-02
5.217846250000000e+10 -2.749977968425004e-02 -4.862370228904373e-02 9.485235772744574e-01 -5.615027878640222e-02 9.486656007779047e-01 -5.755426509041214e-02 -2.891204388941386e-02 -5.346233637224571e-02
5.222033125000000e+10 -2.904231979848866e-02 -4.953361467974531e-02 9.475748354692449e-01 -5.731968617779348e-02 9.477025431467064e-01 -5.895961542004917e-02 -2.838532787604383e-02 -5.246080072447631e-02
5.226220000000000e+10 -2.959989220795391e-02 -4.763501521338545e-02 9.478100408870082e-01 -5.682109432065311e-02 9.477216398951661e-01 -5.796733329918578e-02 -2.829551632073928e-02 -5.279807789426831e-02
5.230406875000000e+10 -3.004301387924534e-02 -4.880435419621346e-02 9.489304863870938e-01 -5.695282481709165e-02 9.484963664589890e-01 -5.820610541540697e-02 -2.930704869790694e-02 -5.185165633648135e-02
5.234593750000000e+10 -2.962514031231819e-02 -4.760998815707707e-02 9.486105973527993e-01 -5.662106629862862e-02 9.481327842697010e-01 -5.800398814859572e-02 -2.806682602656665e-02 -5.313582600204931e-02
5.238780625000000e+10 -3.056792366107604e-02 -4.883702470189064e-02 9.478912462840042e-01 -5.752423185115078e-02 9.476730039845207e-01 -5.848402706476616e-02 -2.961162979403449e-02 -5.133941260762059e-02
5.242967500000000e+10 -3.141737405198671e-02 -4.674534257063663e-02 9.486346006668060e-01 -5.697437823482353e-02 9.484393537697985e-01 -5.786558358436349e-02 -2.867690009316072e-02 -5.262923517170974e-02
5.247154375000000e+10 -2.987187378113815e-02 -4.915797026030320e-02 9.489776494106712e-01 -5.892951475395439e-02 9.482952062756163e-01 -5.958633459152776e-02 -3.150065417144632e-02 -5.236083638454635e-02
5.251341250000000e+10 -3.048109612341284e-02 -4.742692373434135e-02 9.466329666592977e-01 -5.768306372340640e-02 9.461567703598669e-01 -5.842899563063708e-02 -3.019475875408097e-02 -5.049616435389265e-02
5.255528125000000e+10 -2.963532162108669e-02 -4.624486380895811e-02 9.480535033611323e-01 -5.697762402072123e-02 9.474338309880381e-01 -5.729322719639224e-02 -3.015613020153828e-02 -5.217139467982135e-02
5.259715000000000e+10 -3.154900101644177e-02 -4.713165610984515e-02 9.476486149789685e-01 -5.733960110605490e-02 9.472054060198478e-01 -5.796336711577145e-02 -2.997044392948547e-02 -5.161276732047661e-02
5.263901875000000e+10 -2.983481566969785e-02 -4.572035250342426e-02 9.480323161193784e-01 -5.576502336764028e-02 9.474096588887471e-01 -5.617318342546535e-02 -2.936748427951338e-02 -5.100158213917603e-02
5.268088750000000e+10 -3.074427719299032e-02 -4.692840017096899e-02 9.481294649630958e-01 -5.678747864907233e-02 9.474930478556677e-01 -5.732803652161920e-02 -2.983797774120464e-02 -5.178671311462096e-02
5.272275625000000e+10 -3.237021265477052e-02 -4.580989995788680e-02 9.470814625145038e-01 -5.656368375647483e-02 9.467128334333623e-01 -5.651263060378579e-02 -2.795715359834875e-02 -5.101379983715199e-02
5.276462500000000e+10 -3.242559569958597e-02 -4.407197997125881e-02 9.488285708353897e-01 -5.551885615753970e-02 9.485388594038358e-01 -5.547887603498701e-02 -2.909015084924791e-02 -5.125497995453731e-02
5.280649375000000e+10 -3.221990019525491e-02 -4.363874704142413e-02 9.494773800211951e-01 -5.535885993363510e-02 9.492478343808712e-01 -5.545037203125474e-02 -2.738831504036753e-02 -4.994106353393775e-02
5.284836250000000e+10 -3.131335544948261e-02 -4.257074226353032e-02 9.506351511097363e-01 -5.573622578738414e-02 9.501263224829486e-01 -5.574794359008710e-02 -2.866338586562182e-02 -5.206547202114199e-02
5.289023125000000e+10 -3.181436476107859e-02 -4.288314503769573e-02 9.521056730085363e-01 -5.601703127355534e-02 9.516964034067855e-01 -5.642555953988566e-02 -2.879416554038395e-02 -5.238425098728977e-02
5.293210000000000e+10 -2.982520603916433e-02 -4.235102918742080e-02 9.516070947211732e-01 -5.659092281725665e-02 9.512431569299841e-01 -5.654137692299784e-02 -2.927155412874643e-02 -5.338548500835905e-02
5.297396875000000e+10 -3.030258712223510e-02 -4.388050009198358e-02 9.523503988289461e-01 -5.774311832206697e-02 9.517307647908277e-01 -5.786990703338502e-02 -3.001087906193601e-02 -5.365556673958469e-02
5.301583750000000e+10 -2.953510899177920e-02 -4.285644395146812e-02 9.507854359284983e-01 -5.908128538177687e-02 9.506716625125494e-01 -5.852505986200951e-02 -2.900548409994419e-02 -5.410393155154945e-02
5.305770625000000e+10 -2.979327434254377e-02 -4.477586269298105e-02 9.507400208356011e-01 -6.012494952988771e-02 9.508883710685151e-01 -5.993448071143705e-02 -2.938014312768362e-02 -5.450212114123787e-02
5.309957500000000e+10 -3.132140160600457e-02 -4.464699927048964e-02 9.500090022350738e-01 -6.062381962125160e-02 9.500179455954171e-01 -6.064767414268785e-02 -2.901320339151265e-02 -5.595527224685301e-02
5.314144375000000e+10 -3.096180821960501e-02 -4.616844206012860e-02 9.500189781838079e-01 -6.102861727878107e-02 9.495985381874658e-01 -6.105544565219644e-02 -3.042403137156579e-02 -5.608449283093810e-02
5.318331250000000e+10 -3.191383253219911e-02 -4.571950005978984e-02 9.480630109254722e-01 -6.090074089749767e-02 9.482044510107247e-01 -6.084799403709628e-02 -2.921313611143121e-02 -5.364617399592304e-02
5.322518125000000e+10 -3.335818410736055e-02 -4.441608790892945e-02 9.484939327755831e-01 -6.082166914821065e-02 9.485822729702500e-01 -6.051324523499074e-02 -3.055716962493174e-02 -5.493372737457992e-02
5.326705000000000e+10 -3.142068621267598e-02 -4.528366315412743e-02 9.476696076519346e-01 -6.000060857512440e-02 9.477116047218259e-01 -5.967496855597723e-02 -3.082732227668366e-02 -5.314499272262926e-02
5.330891875000000e+10 -3.114760861889821e-02 -4.308187337046032e-02 9.487327504726790e-01 -5.821111053290459e-02 9.487251429289654e-01 -5.796018044104649e-02 -2.904277495275050e-02 -5.451753214950756e-02
5.335078750000000e+10 -3.167252202969027e-02 -4.584365822695884e-02 9.493221481006262e-01 -5.990715794280328e-02 9.490644086843849e-01 -5.973208984385125e-02 -2.977330497137856e-02 -5.544490150116781e-02
5.339265625000000e+10 -3.308233831772824e-02 -4.489510675564930e-02 9.489357367841192e-01 -5.937539554142172e-02 9.490701198917607e-01 -5.866523755008723e-02 -2.966774820081573e-02 -5.518660668056296e-02
5.343452500000000e+10 -3.269556135316977e-02 -4.591708268932098e-02 9.498446952107136e-01 -6.009691490412294e-02 9.499734779292793e-01 -5.932401439561957e-02 -3.117753021013384e-02 -5.562171993703874e-02
5.347639375000000e+10 -3.352441243692972e-02 -4.498907330853737e-02 9.492398107070822e-01 -6.022523143473237e-02 9.495639561430359e-01 -5.959592477885839e-02 -3.143943218947499e-02 -5.409012179130063e-02
5.351826250000000e+10 -3.300890504177922e-02 -4.464643475913557e-02 9.494258456200527e-01 -6.012288739954902e-02 9.493457464871009e-01 -5.940283691831845e-02 -3.131849035382522e-02 -5.456380875664160e-02
5.356013125000000e+10 -3.246490921488195e-02 -4.578922525976654e-02 9.489195658470353e-01 -6.024832499047880e-02 9.488209091615769e-01 -5.967385261995963e-02 -3.145155090361060e-02 -5.484487669399030e-02
5.360200000000000e+10 -3.329965893824648e-02 -4.369481897522708e-02 9.502765468841191e-01 -5.979897796108857e-02 9.497464786100984e-01 -5.921926038777624e-02 -3.207600176023468e-02 -5.507888862286080e-02
5.364386875000000e+10 -3.290683452288197e-02 -4.430727512226312e-02 9.500100908276776e-01 -6.064757911241898e-02 9.500885697712588e-01 -6.006427980060582e-02 -3.484785248847739e-02 -5.445201027307289e-02
5.368573750000000e+10 -3.318843001884464e-02 -4.518142266474099e-02 9.492219384088154e-01 -6.099737363092421e-02 9.495375525068568e-01 -6.065353670521430e-02 -3.389691571704594e-02 -5.467840340718042e-02
5.372760625000000e+10 -3.284277047910288e-02 -4.517451239908890e-02 9.486398058406451e-01 -6.160787177899475e-02 9.487076156428391e-01 -6.104962269365524e-02 -3.235253905393488e-02 -5.503530859173946e-02
5.376947500000000e+10 -3.426562688049132e-02 -4.544090280251051e-02 9.478517162636522e-01 -6.189623308293996e-02 9.480399172964257e-01 -6.126382243507208e-02 -3.378700033126184e-02 -5.423380600526594e-02
5.381134375000000e+10 -3.281628493200259e-02 -4.607457320745405e-02 9.479281575707201e-01 -6.181227541109474e-02 9.481161565001023e-01 -6.128031571195116e-02 -3.387736270020937e-02 -5.598941495458483e-02
5.385321250000000e+10 -3.230534353412168e-02 -4.618856351557981e-02 9.463634290071546e-01 -6.073555802575079e-02 9.465167896081654e-01 -6.037651134224465e-02 -3.505472202670167e-02 -5.359617058165023e-02
5.389508125000000e+10 -3.282322083221192e-02 -4.457009331132947e-02 9.475083979162654e-01 -5.969388925775000e-02 9.472345171046184e-01 -5.961234910168976e-02 -3.305092502912217e-02 -5.389763758110094e-02
5.393695000000000e+10 -3.422345123191856e-02 -4.552315176835122e-02 9.474843653870095e-01 -6.028602687398285e-02 9.473526575254430e-01 -6.023006217187951e-02 -3.275401507294867e-02 -5.335861287292122e-02
5.397881875000000e+10 -3.174379884262726e-02 -4.430765131466705e-02 9.481103735990239e-01 -5.962054570105636e-02 9.480823299095401e-01 -5.965557897854928e-02 -3.290500803967435e-02 -5.443279668799536e-02
5.402068750000000e+10 -3.179355028869271e-02 -4.612575372554715e-02 9.472922578284670e-01 -5.990587976358203e-02 9.472269748807249e-01 -5.999774827527263e-02 -3.386082690812505e-02 -5.358998081707701e-02
5.406255625000000e+10 -3.179434080974541e-02 -4.496826060457838e-02 9.478476306022231e-01 -5.984983724210724e-02 9.473511600217757e-01 -5.990780489759400e-02 -3.182710921673804e-02 -5.327507344391189e-02
5.410442500000000e+10 -3.286284769680462e-02 -4.545345878915730e-02 9.476455108293710e-01 -6.040491746886155e-02 9.477147406552916e-01 -6.058033971570009e-02 -3.370507692508009e-02 -5.489442816804816e-02
5.414629375000000e+10 -3.244783432928304e-02 -4.620872119801719e-02 9.470452065185345e-01 -6.047911499451238e-02 9.473283174834259e-01 -6.082504651931016e-02 -3.415421518810756e-02 -5.371658691278203e-02
5.418816250000000e+10 -3.172832202851238e-02 -4.480950029329665e-02 9.469615751874709e-01 -5.964144930174508e-02 9.467754993988794e-01 -5.952409814563755e-02 -3.386756800241673e-02 -5.372894321314101e-02
5.423003125000000e+10 -3.160347584901630e-02 -4.590460745285228e-02 9.474901529665627e-01 -6.012367857476390e-02 9.474015665644098e-01 -5.976946696423678e-02 -3.245220390552078e-02 -5.329748702657193e-02
5.427190000000000e+10 -3.173028445847858e-02 -4.496950648191635e-02 9.472448449901357e-01 -5.923289075829764e-02 9.474151279370575e-01 -5.940600676983266e-02 -3.338540376486521e-02 -5.511783186137018e-02
5.431376875000000e+10 -3.259900390816946e-02 -4.537021091120424e-02 9.487813237097397e-01 -5.975521230991517e-02 9.487735797078882e-01 -6.013510815281147e-02 -3.410959431953640e-02 -5.359688210719246e-02
5.435563750000000e+10 -3.226927730358239e-02 -4.561934048998819e-02 9.477880672014914e-01 -6.070669283770822e-02 9.473320588972894e-01 -6.083959910120246e-02 -3.208394627562173e-02 -5.355468796118220e-02
5.439750625000000e+10 -3.262324737451256e-02 -4.571353891448778e-02 9.486725817970263e-01 -6.041396953299643e-02 9.483278417842892e-01 -6.083346292695499e-02 -3.501535365670140e-02 -5.528872211564446e-02
5.443937500000000e+10 -3.198239692803641e-02 -4.585345333586342e-02 9.486082416469637e-01 -6.077657014550527e-02 9.484691395623673e-01 -6.136351155398347e-02 -3.403500818205906e-02 -5.442996333990856e-02
5.448124375000000e+10 -3.054677317051184e-02 -4.902364133665644e-02 9.466271978473597e-01 -6.123093973858512e-02 9.468914709361707e-01 -6.214797315735483e-02 -3.510565688000659e-02 -5.498856932882067e-02
5.452311250000000e+10 -3.209215542068662e-02 -4.908083164159777e-02 9.464392739194682e-01 -6.144215711942561e-02 9.463422857462990e-01 -6.182383292811777e-02 -3.416453889025457e-02 -5.430389824717535e-02
5.456498125000000e+10 -3.010885829834707e-02 -4.725196992581177e-02 9.462539454466476e-01 -6.069729704492542e-02 9.461635138988865e-01 -6.161217042713690e-02 -3.616527343956362e-02 -5.415622681370622e-02
5.460685000000000e+10 -3.294998400424998e-02 -4.781009530734545e-02 9.459664749650055e-01 -6.051692448208174e-02 9.459679485853928e-01 -6.117855240727831e-02 -3.645391199501634e-02 -5.162238072221606e-02
5.464871875000000e+10 -2.909442899663463e-02 -4.893622436247215e-02 9.435713790823010e-01 -5.942586957499704e-02 9.437659558125351e-01 -6.064955174846756e-02 -3.504381068310512e-02 -5.110142271033530e-02
5.469058750000000e+10 -2.969922677090880e-02 -4.692838731691547e-02 9.446329226233867e-01 -5.820988154732112e-02 9.440926187014680e-01 -5.961658951273414e-02 -3.154664608490674e-02 -5.056007354543867e-02
5.473245625000000e+10 -2.924202557866349e-02 -4.641590459054571e-02 9.444260952733936e-01 -5.918342855951492e-02 9.441533105924416e-01 -6.025951319798682e-02 -3.078534705085341e-02 -5.166531806594593e-02
5.477432500000000e+10 -3.020998975271120e-02 -4.663731099703838e-02 9.454754897854462e-01 -5.805974455100817e-02 9.451533760175260e-01 -5.925478089781643e-02 -3.217004002565311e-02 -5.337010366438270e-02
5.481619375000000e+10 -3.059367776513818e-02 -4.737374111807825e-02 9.445930940772794e-01 -5.753400688262379e-02 9.446222046831279e-01 -5.862079979549632e-02 -3.198650744237334e-02 -5.146931862680489e-02
5.485806250000000e+10 -2.922567688955284e-02 -4.685048958397616e-02 9.449182907389894e-01 -5.703760774886079e-02 9.448022045096923e-01 -5.797046243989050e-02 -3.135065062080392e-02 -5.293837100397004e-02
5.489993125000000e+10 -3.094345020778788e-02 -4.717016957199837e-02 9.457041749398620e-01 -5.663047765072590e-02 9.453100456568601e-01 -5.739870100201692e-02 -3.128181732238661e-02 -5.092675340559407e-02
5.494180000000000e+10 -2.886624915846157e-02 -4.677084783602874e-02 9.456458317193080e-01 -5.660101014667412e-02 9.450978649614377e-01 -5.735984572667142e-02 -2.855003022696475e-02 -5.309577443367866e-02
5.498366875000000e+10 -2.995324715595418e-02 -4.660960700163261e-02 9.470874631102536e-01 -5.695550482173266e-02 9.470208552630084e-01 -5.782342691957172e-02 -3.160608990592354e-02 -5.265970743755944e-02
5.502553750000000e+10 -3.014423661673015e-02 -4.733956372139359e-02 9.468744348500646e-01 -5.750374699685944e-02 9.464648580422078e-01 -5.892969801621704e-02 -2.964357153575791e-02 -5.379165884680361e-02
5.506740625000000e+10 -3.014137401568706e-02 -4.784919174441769e-02 9.474210164681091e-01 -5.808248712924760e-02 9.470791772782851e-01 -5.932597624713579e-02 -3.204449135339729e-02 -5.441907565622722e-02
5.510927500000000e+10 -3.112030030000131e-02 -4.751003727841618e-02 9.461173220282533e-01 -5.785505197902598e-02 9.464746835339553e-01 -5.944807483879151e-02 -3.109251746304662e-02 -5.261131013599515e-02
5.515114375000000e+10 -2.862375399465050e-02 -4.672952838095618e-02 9.463549413702769e-01 -5.651477605572012e-02 9.460584523804979e-01 -5.803035607937224e-02 -3.081458807948258e-02 -5.279782818282466e-02
5.519301250000000e+10 -2.972475445430224e-02 -4.718138665996510e-02 9.470244021836245e-01 -5.736514979494515e-02 9.469721530661330e-01 -5.883383112072105e-02 -3.063582055082520e-02 -5.239929192126168e-02
5.523488125000000e+10 -2.786332868987600e-02 -4.586775744512635e-02 9.466794265154544e-01 -5.643554575557877e-02 9.465380805469051e-01 -5.776512986658208e-02 -2.976890928942837e-02 -5.282094408475381e-02
5.527675000000000e+10 -2.700944087771491e-02 -4.758880918779430e-02 9.469391041008777e-01 -5.643784109027892e-02 9.468616974840028e-01 -5.809762507945763e-02 -3.066421926886289e-02 -5.260385549879719e-02
5.531861875000000e+10 -2.800517057921564e-02 -4.674535776963757e-02 9.470114514129661e-01 -5.668837681964919e-02 9.467245367964553e-01 -5.840075318102111e-02 -2.927637005873869e-02 -5.415847594120467e-02
5.536048750000000e+10 -2.728238865306185e-02 -4.954415429096390e-02 9.454702074558267e-01 -5.668242919901938e-02 9.458060945947627e-01 -5.824627268223939e-02 -3.025670585671347e-02 -5.302796201864730e-02
5.540235625000000e+10 -2.943047518775514e-02 -4.622096054162624e-02 9.461660630051713e-01 -5.671430635031835e-02 9.458939615747842e-01 -5.835373221204775e-02 -2.953521636006606e-02 -5.219800941383095e-02
5.544422500000000e+10 -2.824476962213577e-02 -4.641248817001339e-02 9.481474692318439e-01 -5.654960907771259e-02 9.481072818586076e-01 -5.820003650624656e-02 -2.880868905259360e-02 -5.517227134862101e-02
5.548609375000000e+10 -3.014891707701314e-02 -4.786547302897836e-02 9.480693341161339e-01 -5.726843515837150e-02 9.474303741352537e-01 -5.955332725208732e-02 -2.958385527647047e-02 -5.300583783541005e-02
5.552796250000000e+10 -2.762329312839721e-02 -4.644126261495249e-02 9.485306412954401e-01 -5.767563101121054e-02 9.480785732006870e-01 -5.960640646219558e-02 -2.963159613660119e-02 -5.516615159756149e-02
5.556983125000000e+10 -3.039001993832251e-02 -4.778651539283254e-02 9.475399664733475e-01 -5.882954150350868e-02 9.475163478382110e-01 -6.037215190602192e-02 -2.973323012121397e-02 -5.321586340959601e-02
5.561170000000000e+10 -3.073313115904797e-02 -4.664439186320059e-02 9.473710910495794e-01 -5.741505788794416e-02 9.475452601301869e-01 -5.883221251718425e-02 -2.872747403621852e-02 -5.363508727576961e-02
5.565356875000000e+10 -2.813177154567667e-02 -4.812455628132938e-02 9.487177638679364e-01 -5.736571761560205e-02 9.487521847519841e-01 -5.930831608927858e-02 -2.984967772694402e-02 -5.442050620336405e-02
5.569543750000000e+10 -2.871216215154696e-02 -4.835778171883429e-02 9.468700433919167e-01 -5.927628161855698e-02 9.469091540092529e-01 -6.078039037776777e-02 -2.912334258582276e-02 -5.452688965489779e-02
5.573730625000000e+10 -3.004513027567675e-02 -5.022228078505119e-02 9.460785310052299e-01 -5.912589838138312e-02 9.459644410297072e-01 -6.131360558151092e-02 -3.029024810201670e-02 -5.473045546199148e-02
5.577917500000000e+10 -3.117896285068376e-02 -4.877469081842672e-02 9.473839608796538e-01 -5.887963618219557e-02 9.467824772359572e-01 -6.082715401335397e-02 -3.097746284834930e-02 -5.287005161263923e-02
5.582104375000000e+10 -2.969902088051122e-02 -4.767013170884603e-02 9.460807634925692e-01 -5.788318184229195e-02 9.458905598985774e-01 -6.034786717768743e-02 -2.878036055687202e-02 -5.280565128053412e-02
5.586291250000000e+10 -3.040147335442862e-02 -4.779224017234834e-02 9.458234971325762e-01 -5.873919807983873e-02 9.459062639987079e-01 -6.056876357446801e-02 -2.886396749325465e-02 -5.134601685472766e-02
5.590478125000000e+10 -3.027958030279723e-02 -4.700764279498917e-02 9.469860848125805e-01 -5.806904080311611e-02 9.470195568755154e-01 -6.042514206019165e-02 -2.920567821102843e-02 -5.285934123595238e-02
5.594665000000000e+10 -2.811242866670569e-02 -4.656236526322822e-02 9.469401335171896e-01 -5.852988532525701e-02 9.466339144673546e-01 -6.008221251927852e-02 -3.053537940504801e-02 -5.245749767574647e-02
5.598851875000000e+10 -2.964752915706180e-02 -4.654398512652819e-02 9.462109410486871e-01 -5.762174972051411e-02 9.455242429649676e-01 -5.959070566908823e-02 -2.818967826787469e-02 -5.226233695091322e-02
5.603038750000000e+10 -2.873165089683850e-02 -4.567560758125806e-02 9.474077788712946e-01 -5.724995894314253e-02 9.476412055538905e-01 -5.915189139779942e-02 -2.828574108564401e-02 -5.434921669523844e-02
5.607225625000000e+10 -3.103638658827709e-02 -4.651492105191634e-02 9.473128616643173e-01 -5.834892903209339e-02 9.472915736006908e-01 -5.956831223865485e-02 -2.918868407362462e-02 -5.302793695042864e-02
5.611412500000000e+10 -2.972118953273636e-02 -4.508511448351619e-02 9.477515342379473e-01 -5.748912926313495e-02 9.477224470376215e-01 -5.896696498816543e-02 -2.753971291044300e-02 -5.355655098582806e-02
5.615599375000000e+10 -2.998906140198372e-02 -4.566311892104846e-02 9.484314507326103e-01 -5.787865888227586e-02 9.482102489537645e-01 -5.963302949905247e-02 -3.028321732957075e-02 -5.233493278500811e-02
5.619786250000000e+10 -2.991677079347432e-02 -4.347714435395433e-02 9.493931546952985e-01 -5.743079113938650e-02 9.487189483944515e-01 -5.943240556358006e-02 -2.796973538317010e-02 -5.333799625565196e-02
5.623973125000000e+10 -2.751926577600227e-02 -4.497835720723559e-02 9.498808008048815e-01 -5.945171430870073e-02 9.501607440725803e-01 -6.140107499674777e-02 -3.086894738889803e-02 -5.515193069471416e-02
5.628160000000000e+10 -2.864745990896883e-02 -4.517738842869335e-02 9.487951397979190e-01 -5.951481430120478e-02 9.482665299320993e-01 -6.105508599116804e-02 -2.958113401365052e-02 -5.481289478478527e-02
5.632346875000000e+10 -2.769934161633861e-02 -4.718673740894697e-02 9.477576245759137e-01 -5.903781078936571e-02 9.476876022610699e-01 -6.095572044061787e-02 -3.211062103239613e-02 -5.615471370871512e-02
5.636533750000000e+10 -3.008287731384835e-02 -4.759957611557052e-02 9.451998286601817e-01 -5.890310577556777e-02 9.449810284110458e-01 -6.021685666328765e-02 -3.019921273656333e-02 -5.145155633494709e-02
5.640720625000000e+10 -2.823293482508639e-02 -4.482228969598614e-02 9.459784049306527e-01 -5.591142425409919e-02 9.459039006613159e-01 -5.766099188905182e-02 -2.879911603951768e-02 -5.213941709961987e-02
5.644907500000000e+10 -2.773094193804265e-02 -4.458868741159968e-02 9.482338757904074e-01 -5.676636843902683e-02 9.482724913690056e-01 -5.808433327421558e-02 -2.973032105360002e-02 -5.254877219951824e-02
5.649094375000000e+10 -2.805529838284961e-02 -4.479159741550051e-02 9.470013464481432e-01 -5.766420811972152e-02 9.477085167516870e-01 -5.922884144035941e-02 -2.747210886683195e-02 -5.355514437283838e-02
5.653281250000000e+10 -2.910946700633191e-02 -4.643769298631741e-02 9.473476760252649e-01 -5.897599734686276e-02 9.472996562636065e-01 -6.067676637162894e-02 -2.834853973364636e-02 -5.429487008561756e-02
5.657468125000000e+10 -3.006913974503895e-02 -4.465315667218955e-02 9.470609876488987e-01 -5.852535927489346e-02 9.467360505245497e-01 -5.993215318204274e-02 -2.806094976633047e-02 -5.214051542598111e-02
5.661655000000000e+10 -2.926952274953500e-02 -4.425707426970533e-02 9.486485258263838e-01 -5.972740053959586e-02 9.486528868748305e-01 -6.066434625682856e-02 -2.967805061818778e-02 -5.438099037539102e-02
5.665841875000000e+10 -2.902665042996963e-02 -4.529719521254575e-02 9.465286875064068e-01 -6.027939582627254e-02 9.463700740260462e-01 -6.149470137662892e-02 -2.896719188632009e-02 -5.254907100491215e-02
5.670028750000000e+10 -2.828621582762487e-02 -4.421186724974202e-02 9.469775956453194e-01 -6.013947321914544e-02 9.469845633951358e-01 -6.072952258307571e-02 -2.836413264515282e-02 -5.514980428090956e-02
5.674215625000000e+10 -2.985457057997221e-02 -4.635960236144599e-02 9.457646772532264e-01 -6.027725450134045e-02 9.456745218527515e-01 -6.099779706598700e-02 -3.041908006363122e-02 -5.322760492059921e-02
5.678402500000000e+10 -3.139398176513292e-02 -4.594952841263953e-02 9.461136355388625e-01 -5.951888001045421e-02 9.462593996186218e-01 -5.989456242276692e-02 -3.028191379460868e-02 -5.388385419602865e-02
5.682589375000000e+10 -2.980451899934645e-02 -4.572120498796146e-02 9.460319167029468e-01 -5.893010631928523e-02 9.457281948694960e-01 -5.954860413980113e-02 -3.244759307915428e-02 -5.327581641300946e-02
5.686776250000000e+10 -3.122941811481809e-02 -4.473688522829611e-02 9.451175278625615e-01 -5.783227087452693e-02 9.454883304639058e-01 -5.895673881698946e-02 -2.957280783545761e-02 -5.034620748272350e-02
5.690963125000000e+10 -2.925997129547966e-02 -4.339629919913705e-02 9.465548308507958e-01 -5.728815825053152e-02 9.466875636592759e-01 -5.805493713505161e-02 -2.918881605464270e-02 -5.177188112751088e-02
5.695150000000000e+10 -3.021167815154602e-02 -4.317148016601965e-02 9.463857472052464e-01 -5.766618173739864e-02 9.466258867645867e-01 -5.790942671793344e-02 -2.894369975296451e-02 -4.988468817208030e-02
5.699336875000000e+10 -2.784438475583267e-02 -4.194493507047625e-02 9.490672247321295e-01 -5.736255084631047e-02 9.485817476868780e-01 -5.816619983970138e-02 -2.968235984102443e-02 -5.326063490091720e-02
5.703523750000000e+10 -2.921975957106185e-02 -4.362857668369255e-02 9.481667245607358e-01 -5.840915593001718e-02 9.485178862431444e-01 -5.881734411752852e-02 -2.998779721005130e-02 -5.254222344314376e-02
5.707710625000000e+10 -2.806776434285391e-02 -4.501044335067144e-02 9.469266350700319e-01 -5.873132935634332e-02 9.465712021537391e-01 -5.998309221381128e-02 -2.808644698306726e-02 -5.203526369985556e-02
5.711897500000000e+10 -2.832640791030237e-02 -4.509512633843324e-02 9.464510818105463e-01 -5.928372779946440e-02 9.466854957201404e-01 -5.961270400143617e-02 -2.982286042504456e-02 -5.233613584726886e-02
5.716084375000000e+10 -2.956251748810814e-02 -4.373227473273697e-02 9.477446311702370e-01 -5.906676227852068e-02 9.473300991611175e-01 -5.943375783397900e-02 -2.833138095578356e-02 -5.257419307564030e-02
5.720271250000000e+10 -2.875536357117909e-02 -4.522581386222745e-02 9.476561485264480e-01 -5.958857972122947e-02 9.479079883032817e-01 -5.967748178280577e-02 -2.907837286563165e-02 -5.308206334266394e-02
5.724458125000000e+10 -2.999358008552265e-02 -4.574119827778444e-02 9.476299251069455e-01 -6.096556603090792e-02 9.474897445641659e-01 -6.057007026534833e-02 -2.785437938010880e-02 -5.349126669757733e-02
5.728645000000000e+10 -3.047659530451744e-02 -4.504853494853246e-02 9.475769422252671e-01 -6.123388015824108e-02 9.472136216030042e-01 -6.176721228864845e-02 -2.930767856741974e-02 -5.557005594977604e-02
5.732831875000000e+10 -3.122911047454775e-02 -4.665787926342474e-02 9.461467449666739e-01 -6.061726984058756e-02 9.455493667173376e-01 -6.085356834272229e-02 -2.985142982263310e-02 -5.149628507223759e-02
5.737018750000000e+10 -3.195213484490615e-02 -4.497612707104521e-02 9.464720961147284e-01 -6.119201162503341e-02 9.462505663166149e-01 -6.141210343960237e-02 -2.801855350396288e-02 -5.235237093643519e-02
5.741205625000000e+10 -3.165911616061414e-02 -4.471368874057041e-02 9.451045712467124e-01 -6.088745967939051e-02 9.450200298749296e-01 -6.077960121543412e-02 -2.967772154796058e-02 -5.155577030487247e-02
5.745392500000000e+10 -3.209919583053010e-02 -4.439155939790226e-02 9.466561487945079e-01 -6.013444290005079e-02 9.463871650395521e-01 -6.010933990830222e-02 -2.988292350780164e-02 -5.118702655939227e-02
5.749579375000000e+10 -3.077558897145794e-02 -4.475099006160532e-02 9.472665741652516e-01 -6.034282522966865e-02 9.471755315396813e-01 -6.033988669953574e-02 -3.085775356130400e-02 -5.276868455213644e-02
5.753766250000000e+10 -3.186548676977229e-02 -4.416450309120538e-02 9.470327441956722e-01 -6.068187820480906e-02 9.465364979903342e-01 -6.092989951174717e-02 -3.120935740694603e-02 -5.196278638412866e-02
5.757953125000000e+10 -3.146052366138639e-02 -4.441900598479139e-02 9.456988026334781e-01 -6.010772901904868e-02 9.453083098162809e-01 -5.990651738514637e-02 -3.091260779033294e-02 -5.166534979925784e-02
5.762140000000000e+10 -3.051646457902783e-02 -4.521005831796857e-02 9.452729350286725e-01 -5.941705782413585e-02 9.451324932987537e-01 -5.967029092389079e-02 -3.115213325870056e-02 -5.021515214951841e-02
5.766326875000000e+10 -3.031046411966483e-02 -4.446696603031356e-02 9.453032922153313e-01 -5.965661031111677e-02 9.451413491020024e-01 -5.950348403310551e-02 -2.764838465236861e-02 -5.078200691915858e-02
5.770513750000000e+10 -3.064146203016164e-02 -4.411666162949350e-02 9.458431149926299e-01 -5.938138245211052e-02 9.454246295732021e-01 -5.945815977852956e-02 -3.068110858634836e-02 -5.044847382323465e-02
5.774700625000000e+10 -3.070051855123080e-02 -4.138985299491893e-02 9.468439924620193e-01 -5.791258080448043e-02 9.462155805260798e-01 -5.801453681907043e-02 -2.934931754216377e-02 -4.990308460657025e-02
5.778887500000000e+10 -2.916445552337924e-02 -4.386226440853945e-02 9.472920905186417e-01 -5.929171108367671e-02 9.471159535677248e-01 -5.878545551921310e-02 -2.938257513142045e-02 -5.109089591357581e-02
5.783074375000000e+10 -2.953069970325232e-02 -4.228423172943094e-02 9.474381032072743e-01 -5.898297296775363e-02 9.476261143768941e-01 -5.854588919354176e-02 -2.746783609116201e-02 -5.246718194360024e-02
5.787261250000000e+10 -2.933204560201738e-02 -4.357783834940166e-02 9.473530469262756e-01 -5.907771266563439e-02 9.477166034911818e-01 -5.913167079406226e-02 -2.863640568950414e-02 -5.235212764486451e-02
5.791448125000000e+10 -2.991484330085389e-02 -4.376831305285752e-02 9.470875877959610e-01 -5.876194569872727e-02 9.473291489998343e-01 -5.828584459566283e-02 -2.695808296033589e-02 -5.227390818123107e-02
5.795635000000000e+10 -2.960081160465024e-02 -4.518970832792728e-02 9.482801315870210e-01 -6.035543332580783e-02 9.480119128825507e-01 -6.015303408406775e-02 -2.762306192612838e-02 -5.392139992621307e-02
5.799821875000000e+10 -3.034895510276424e-02 -4.548845521325351e-02 9.474786514165471e-01 -6.121979178952452e-02 9.470953399874945e-01 -6.138765194457702e-02 -2.803914470178551e-02 -5.333790746530523e-02
5.804008750000000e+10 -3.031480614315513e-02 -4.573108744188634e-02 9.464495356822338e-01 -6.129390408817941e-02 9.462061312737258e-01 -6.150660264386688e-02 -2.929850542560492e-02 -5.328954144527900e-02
5.808195625000000e+10 -3.004082813069681e-02 -4.622000015813189e-02 9.456318139043770e-01 -6.029550946795541e-02 9.453745498242992e-01 -6.051516389588247e-02 -3.099270754483113e-02 -5.026524109496870e-02
5.812382500000000e+10 -2.924057540243784e-02 -4.415006017544759e-02 9.459312321521366e-01 -5.996321757648182e-02 9.456600781072710e-01 -6.057535003699104e-02 -2.878571387431799e-02 -5.233988252069705e-02
5.816569375000000e+10 -3.063412590958673e-02 -4.649606688413237e-02 9.453312115951786e-01 -5.999954110300493e-02 9.451786854360018e-01 -6.012396840225361e-02 -2.677014632647518e-02 -5.120429734069733e-02
5.820756250000000e+10 -2.982609805489145e-02 -4.459363232037324e-02 9.451712093849085e-01 -5.957952966988257e-02 9.455881083648655e-01 -5.960987738184502e-02 -2.582703726394246e-02 -5.114885191571716e-02
5.824943125000000e+10 -3.006753016997623e-02 -4.695055669923872e-02 9.460531068390960e-01 -6.093446234072031e-02 9.459168970933519e-01 -6.127386507920456e-02 -2.665198419594935e-02 -5.358450199461805e-02
5.829130000000000e+10 -3.246162013010371e-02 -4.701733831363944e-02 9.462136037399822e-01 -6.149909981453012e-02 9.456333553229238e-01 -6.231480684576380e-02 -2.737148947390413e-02 -5.349763409315060e-02
5.833316875000000e+10 -3.115510421798054e-02 -4.441222439767752e-02 9.460980149057593e-01 -6.020300538478832e-02 9.460385915851065e-01 -6.114405976680660e-02 -2.814754602426615e-02 -5.333314421764395e-02
5.837503750000000e+10 -3.283130154529477e-02 -4.619254677880996e-02 9.471848139949448e-01 -6.071556790931532e-02 9.472222499929633e-01 -6.109253749964397e-02 -2.822050648209252e-02 -5.316816994525871e-02
5.841690625000000e+10 -3.119426120356372e-02 -4.430505257667620e-02 9.468155856823159e-01 -6.055694354692679e-02 9.467023597166858e-01 -6.149243687240676e-02 -2.879963219178400e-02 -5.398671252881043e-02
5.845877500000000e+10 -3.061698707103164e-02 -4.557447010710543e-02 9.474734395014190e-01 -5.985180823132560e-02 9.474053097868518e-01 -6.053062709443830e-02 -2.898490713012979e-02 -5.235459606382876e-02
5.850064375000000e+10 -2.866611740847787e-02 -4.356811798090631e-02 9.477756475960860e-01 -5.952845691669143e-02 9.470119287892088e-01 -6.095502693779915e-02 -2.827431401277140e-02 -5.379025514715916e-02
5.854251250000000e+10 -2.865826516337236e-02 -4.527398764268821e-02 9.488610041560100e-01 -6.047628228630166e-02 9.486467377703985e-01 -6.147129072331564e-02 -2.905324470750363e-02 -5.531764081584761e-02
5.858438125000000e+10 -2.950787587188572e-02 -4.499545008783151e-02 9.472145986889940e-01 -6.138186455981023e-02 9.468639490733501e-01 -6.277402041736568e-02 -2.848582363941394e-02 -5.352999571778359e-02
5.862625000000000e+10 -2.942474504227806e-02 -4.641162903645350e-02 9.459870112628060e-01 -6.165755967516106e-02 9.456754175508316e-01 -6.292600587259103e-02 -2.484839265155218e-02 -5.520583686081709e-02
5.866811875000000e+10 -3.252357400657012e-02 -4.645572141166156e-02 9.457541162697284e-01 -6.207585290259835e-02 9.461852415206176e-01 -6.339499030242238e-02 -2.789612498958685e-02 -5.226086832924078e-02
5.870998750000000e+10 -2.900597826955687e-02 -4.360354849081942e-02 9.469773936514368e-01 -6.141925924075731e-02 9.473093547118666e-01 -6.231850565382370e-02 -2.852632918800238e-02 -5.648280475939021e-02
5.875185625000000e+10 -3.186365047875604e-02 -4.651587746396740e-02 9.483878182626905e-01 -6.194777705477526e-02 9.478979996368051e-01 -6.290159220426701e-02 -2.934761577953094e-02 -5.497327284615496e-02
5.879372500000000e+10 -3.094989652425828e-02 -4.448297401617526e-02 9.473409017527427e-01 -6.239679702004948e-02 9.476982063928241e-01 -6.341893454598989e-02 -2.740708888464788e-02 -5.629536507415150e-02
5.883559375000000e+10 -3.120100076305520e-02 -4.700816114778871e-02 9.471298596912094e-01 -6.300491149161427e-02 9.469902194943334e-01 -6.422748551119357e-02 -2.872168453662436e-02 -5.607360945564565e-02
5.887746250000000e+10 -3.105398614926935e-02 -4.614454722375162e-02 9.467824589802700e-01 -6.318667029659250e-02 9.468065532764075e-01 -6.461782354805891e-02 -2.948080401197721e-02 -5.576640281520501e-02
5.891933125000000e+10 -3.051401711790193e-02 -4.680303053231178e-02 9.461097692088847e-01 -6.282056823004208e-02 9.453994409506756e-01 -6.386082610402374e-02 -3.033384563299340e-02 -5.612053087351332e-02
5.896120000000000e+10 -3.018794410007501e-02 -4.851038115828724e-02 9.454825501285489e-01 -6.173049832161957e-02 9.451611731128464e-01 -6.388385314060403e-02 -3.202767511462680e-02 -5.292164218251756e-02
5.900306875000000e+10 -2.692833011704613e-02 -4.685538793088628e-02 9.455059393269708e-01 -6.103360143386273e-02 9.451106195715312e-01 -6.288808419968804e-02 -2.946527519080359e-02 -5.640280637843984e-02
5.904493750000000e+10 -2.885302733034895e-02 -4.995907967148570e-02 9.446890253734870e-01 -6.273757549128821e-02 9.445009128822169e-01 -6.461184440433586e-02 -3.134083818927780e-02 -5.337757884765608e-02
5.908680625000000e+10 -3.049746864567698e-02 -4.651970502497964e-02 9.437915384952310e-01 -6.183646417876176e-02 9.437969849907304e-01 -6.402807937101576e-02 -2.903420359447065e-02 -5.480801945024858e-02
5.912867500000000e+10 -2.854921847141872e-02 -4.966674730816457e-02 9.437810147288310e-01 -6.156255345112484e-02 9.437329095455432e-01 -6.342274227563653e-02 -3.215397203076003e-02 -5.546246000243765e-02
5.917054375000000e+10 -3.213225479088627e-02 -4.808133932269859e-02 9.428397492055602e-01 -6.123624335239909e-02 9.432837765981499e-01 -6.305186252522983e-02 -2.940641254598227e-02 -5.367996430855728e-02
5.921241250000000e+10 -3.010379706719880e-02 -4.772253944681837e-02 9.428742743198459e-01 -5.991452778431132e-02 9.426656648571141e-01 -6.190772572337797e-02 -2.936356578976001e-02 -5.436418016104611e-02
5.925428125000000e+10 -3.409522559479937e-02 -4.674841530508952e-02 9.446068464349059e-01 -5.908549453813110e-02 9.445583770899747e-01 -6.097440460592790e-02 -2.840849499456844e-02 -5.016192219211856e-02
5.929615000000000e+10 -2.982291192183058e-02 -4.425304911227620e-02 9.447105114983856e-01 -5.814572018001726e-02 9.451450570036499e-01 -5.960350699276781e-02 -2.932122340083581e-02 -5.309196558346031e-02
5.933801875000000e+10 -3.141913197310146e-02 -4.692625524304862e-02 9.473097667992539e-01 -6.010468634136103e-02 9.474064718980254e-01 -6.243650854423145e-02 -3.094751218267625e-02 -5.324265333031783e-02
5.937988750000000e+10 -2.980773450170009e-02 -4.207887848160757e-02 9.471968788017876e-01 -5.882114227330579e-02 9.465756399715421e-01 -6.109782657577369e-02 -2.871922944272536e-02 -5.468290296240401e-02
5.942175625000000e+10 -2.869438563405447e-02 -4.589226285816900e-02 9.473839384299234e-01 -5.932509568945023e-02 9.468378180684008e-01 -6.147456273403516e-02 -2.894904295205751e-02 -5.308745794113152e-02
5.946362500000000e+10 -3.108703450115401e-02 -4.369829562821741e-02 9.470220930291806e-01 -6.108950189695125e-02 9.460433584819461e-01 -6.301443118073370e-02 -2.631884205829268e-02 -5.374305957614651e-02
5.950549375000000e+10 -2.790278415197468e-02 -4.396210097885560e-02 9.486482884636379e-01 -6.041263300254184e-02 9.482325776890731e-01 -6.290047631786805e-02 -2.861272417990095e-02 -5.796654216054264e-02
5.954736250000000e+10 -3.070359199531691e-02 -4.609890209340079e-02 9.462756520965950e-01 -6.138559725129058e-02 9.465674112725526e-01 -6.366568765286125e-02 -2.846239195038727e-02 -5.322086388590959e-02
5.958923125000000e+10 -2.669649212747272e-02 -4.311786393341969e-02 9.471749409090988e-01 -6.028044849786246e-02 9.470567995697282e-01 -6.251921676221907e-02 -2.959645439072521e-02 -5.702946423577478e-02
5.963110000000000e+10 -2.977717592740172e-02 -4.606011662711484e-02 9.483022253604787e-01 -6.208707213429666e-02 9.480840107442919e-01 -6.465240517130352e-02 -3.064177543199521e-02 -5.567708990996399e-02
5.967296875000000e+10 -2.781402508008284e-02 -4.349644784831661e-02 9.464332723468278e-01 -6.105884032844755e-02 9.464736525489993e-01 -6.466784324165611e-02 -2.843875456044718e-02 -5.767808947409530e-02
5.971483750000000e+10 -2.877607294983674e-02 -4.766224820288437e-02 9.468194632353782e-01 -6.208356222984461e-02 9.465615832452255e-01 -6.403011033541470e-02 -3.091654974120795e-02 -5.574889813017411e-02
5.975670625000000e+10 -2.900492358559998e-02 -4.389954792227847e-02 9.463571774291730e-01 -6.039199407239405e-02 9.457459255170692e-01 -6.313012305699468e-02 -3.093473760762585e-02 -5.624260019732730e-02
5.979857500000000e+10 -2.865206243322983e-02 -4.526213146690353e-02 9.478139946588144e-01 -6.079544742831609e-02 9.471910640149427e-01 -6.280215027320744e-02 -3.179254713741732e-02 -5.718339438055679e-02
5.984044375000000e+10 -3.051399643185140e-02 -4.582937644589057e-02 9.469446726688501e-01 -6.141795242697116e-02 9.464147383402993e-01 -6.307738559584881e-02 -3.085532434976284e-02 -5.398750556071878e-02
5.988231250000000e+10 -2.689030969216964e-02 -4.446924241613093e-02 9.475464387813579e-01 -6.007003751537316e-02 9.476085829455940e-01 -6.242225146819586e-02 -3.061102311166772e-02 -5.855708403970378e-02
5.992418125000000e+10 -2.899151363738794e-02 -4.829490296049339e-02 9.471195238991841e-01 -6.218015384453619e-02 9.466563979232262e-01 -6.486176120861942e-02 -3.358153428931885e-02 -5.479429877890493e-02
5.996605000000000e+10 -2.627817286245268e-02 -4.601153428129869e-02 9.443781778806566e-01 -6.112234757769021e-02 9.445556409356883e-01 -6.342216871385983e-02 -3.188035338460796e-02 -5.547007906161532e-02
6.000791875000000e+10 -2.660297039610845e-02 -4.824560478540348e-02 9.451136140120232e-01 -6.209119023489711e-02 9.453674808914858e-01 -6.418474553507235e-02 -3.338790327983487e-02 -5.434505215592774e-02
6.004978750000000e+10 -2.918588390654962e-02 -4.784123417243642e-02 9.433285561070743e-01 -6.183106929384330e-02 9.429231104726964e-01 -6.383326787960310e-02 -3.038200828633081e-02 -5.447087118184226e-02
6.009165625000000e+10 -2.705653804520707e-02 -4.868876857789166e-02 9.443370258512098e-01 -6.129916712391765e-02 9.442286911702544e-01 -6.281812524675437e-02 -3.172655321489627e-02 -5.380065140218641e-02
6.013352500000000e+10 -3.068193177375599e-02 -4.718020902118755e-02 9.436443369657460e-01 -6.044126070744486e-02 9.430624606777070e-01 -6.268724866796226e-02 -2.938099384315431e-02 -5.188685368159023e-02
6.017539375000000e+10 -2.859407567852947e-02 -4.573621310433059e-02 9.444384678132405e-01 -6.044518344203737e-02 9.440711851052254e-01 -6.203332052150560e-02 -2.991718240341410e-02 -5.340125263970192e-02
6.021726250000000e+10 -3.091239297527527e-02 -4.852697442060022e-02 9.438799003683910e-01 -6.068684195783781e-02 9.440862374231971e-01 -6.227660062314782e-02 -2.941460147945709e-02 -5.034251560630557e-02
6.025913125000000e+10 -2.800683649494034e-02 -4.622222530434408e-02 9.434981210576679e-01 -5.935311375964739e-02 9.432505227375287e-01 -6.078308415915809e-02 -2.711498285037985e-02 -5.210465186766201e-02
6.030100000000000e+10 -3.074555062883268e-02 -4.570166081532236e-02 9.453353255642514e-01 -5.933841535099381e-02 9.455431356964350e-01 -6.058311311031943e-02 -2.910702925603794e-02 -5.128917175128599e-02
6.034286875000000e+10 -2.871609087606080e-02 -4.352954462446311e-02 9.454550751072522e-01 -5.878827682930549e-02 9.451642484938548e-01 -6.048225831680915e-02 -2.749916479913980e-02 -5.103581004553261e-02
6.038473750000000e+10 -2.798389160517694e-02 -4.635061352715952e-02 9.463114178002637e-01 -5.930939450602742e-02 9.463088550161454e-01 -6.165871293765126e-02 -3.015850928581059e-02 -5.354768397395096e-02
6.042660625000000e+10 -2.971798676402924e-02 -4.638307274266600e-02 9.454501624416148e-01 -5.998486622512433e-02 9.454149023039319e-01 -6.188284153340782e-02 -2.974129352506237e-02 -5.166560044963658e-02
6.046847500000000e+10 -2.797041753109176e-02 -4.408890578788872e-02 9.461157287448642e-01 -5.909765109346340e-02 9.459694431294841e-01 -6.110469237879040e-02 -3.099488871985484e-02 -5.191291535467609e-02
6.051034375000000e+10 -2.921915752421025e-02 -4.508540298535906e-02 9.460235135949370e-01 -6.030670696475611e-02 9.460106294899555e-01 -6.147255243300850e-02 -3.143687142416424e-02 -5.018561846726522e-02
6.055221250000000e+10 -2.576194438575568e-02 -4.293009500078435e-02 9.465204642694452e-01 -6.010006824616615e-02 9.466678594343418e-01 -6.138677359823538e-02 -3.171030274638304e-02 -5.202011198014439e-02
6.059408125000000e+10 -2.710376727319685e-02 -4.538254998506757e-02 9.456809509102247e-01 -6.035289809914857e-02 9.456775333326112e-01 -6.140407434482870e-02 -2.884675306280535e-02 -5.059845568344558e-02
6.063595000000000e+10 -2.658333359645546e-02 -4.392767444205307e-02 9.457451045339741e-01 -6.027341135731584e-02 9.456950373105519e-01 -6.149664573736858e-02 -2.737988386541308e-02 -5.204245190164817e-02
6.067781875000000e+10 -2.623307077903606e-02 -4.591231515104071e-02 9.451012510258964e-01 -6.197108042935225e-02 9.456431122756108e-01 -6.314326415484599e-02 -2.801806647114089e-02 -5.386795858367310e-02
6.071968750000000e+10 -2.833700494934533e-02 -4.615047208644927e-02 9.435742741455210e-01 -6.190369846863481e-02 9.441296056064461e-01 -6.229117314108970e-02 -2.682619224519537e-02 -5.409613361693572e-02
6.076155625000000e+10 -2.824772788574613e-02 -4.726129945740221e-02 9.451106630354216e-01 -6.169530205963020e-02 9.456576434964372e-01 -6.293851212286081e-02 -2.737186582909345e-02 -5.483056656232259e-02
6.080342500000000e+10 -2.967713956709421e-02 -4.815348678215456e-02 9.436000139874484e-01 -6.232692165392268e-02 9.428982833415024e-01 -6.356839725682951e-02 -2.856840757491585e-02 -5.386411962752269e-02
6.084529375000000e+10 -3.010750155198161e-02 -4.645098532838353e-02 9.440617464340266e-01 -6.120754964475835e-02 9.438177449997387e-01 -6.244535264771695e-02 -2.698510313068428e-02 -5.238709913445787e-02
6.088716250000000e+10 -3.047994289956118e-02 -4.705964773901385e-02 9.433630491462998e-01 -6.136369817406144e-02 9.432548817190971e-01 -6.310601708478478e-02 -2.532343152127187e-02 -5.240340987528042e-02
6.092903125000000e+10 -3.316758557708156e-02 -4.652534915349182e-02 9.445225580381424e-01 -6.268998018452103e-02 9.444689305373671e-01 -6.362208816682738e-02 -2.438585574299980e-02 -5.466513759064733e-02
6.097090000000000e+10 -3.244407664971223e-02 -4.560686915538817e-02 9.455492734813096e-01 -6.305476304877244e-02 9.455505333342127e-01 -6.408013915814714e-02 -2.669829094157044e-02 -5.499716482645854e-02
6.101276875000000e+10 -3.479806968288686e-02 -4.549218741838281e-02 9.443386531555173e-01 -6.258682974035865e-02 9.442385801855201e-01 -6.342298009313037e-02 -2.729693434678535e-02 -5.194344612135749e-02
6.105463750000000e+10 -3.252576699879301e-02 -4.654262883106568e-02 9.449916129522562e-01 -6.303078536030539e-02 9.446432096145647e-01 -6.327502362721950e-02 -2.783964674976511e-02 -5.323869480635434e-02
6.109650625000000e+10 -3.321247780779493e-02 -4.332124092884078e-02 9.453594432568948e-01 -6.192394564742395e-02 9.455279020023696e-01 -6.223324750455922e-02 -2.969791436185594e-02 -5.330402902702647e-02
6.113837500000000e+10 -3.367435681339349e-02 -4.589471749679397e-02 9.452217272418901e-01 -6.315120587631383e-02 9.453172160476477e-01 -6.322682291553131e-02 -2.932199300675849e-02 -5.192795467956493e-02
6.118024375000000e+10 -3.361719821917794e-02 -4.361971887596951e-02 9.441182349461189e-01 -6.211016880571538e-02 9.446181153166568e-01 -6.228843265666574e-02 -2.972374919677846e-02 -5.039962238184686e-02
6.122211250000000e+10 -3.300204187402729e-02 -4.257125813573481e-02 9.456548798118890e-01 -6.109183663877085e-02 9.453101859993988e-01 -6.179972644604260e-02 -2.804452146956608e-02 -5.105078442321382e-02
6.126398125000000e+10 -3.338334371688710e-02 -4.096525451652882e-02 9.459897153597780e-01 -6.112924786162967e-02 9.465024296905675e-01 -6.122373373816437e-02 -2.901891100465226e-02 -5.190777761564747e-02
6.130585000000000e+10 -3.367234660488864e-02 -4.206154177295700e-02 9.466596605277218e-01 -6.233074153915143e-02 9.465972155270704e-01 -6.257224955309407e-02 -2.906384177967187e-02 -5.169789196793749e-02
6.134771875000000e+10 -3.186342964626561e-02 -4.235426728311211e-02 9.467416770019483e-01 -6.207839270195431e-02 9.467892002542144e-01 -6.214204579026710e-02 -3.121038647389867e-02 -5.081485674094032e-02
6.138958750000000e+10 -3.210227589637440e-02 -3.988127049154853e-02 9.471712619833152e-01 -6.056609867152832e-02 9.470936909489760e-01 -6.110891065633870e-02 -3.014022309057989e-02 -5.182850658132981e-02
6.143145625000000e+10 -3.036426725227351e-02 -4.119200146779495e-02 9.485090222325973e-01 -6.071613127704126e-02 9.480036880322666e-01 -6.113286360964856e-02 -2.824866978843837e-02 -5.281195938978051e-02
6.147332500000000e+10 -2.923882011325092e-02 -4.038849274839647e-02 9.470077089093915e-01 -6.206634142730656e-02 9.473188633721135e-01 -6.264478273538246e-02 -2.815034044624064e-02 -5.375769114128644e-02
6.151519375000000e+10 -3.044553407405886e-02 -4.323478299338517e-02 9.470483748603942e-01 -6.376677572982707e-02 9.470986887594505e-01 -6.424654223746869e-02 -2.816097615637233e-02 -5.683884662919382e-02
6.155706250000000e+10 -3.218583562175941e-02 -4.243714501026001e-02 9.465203534203526e-01 -6.256961849009686e-02 9.471595369847575e-01 -6.333150311249373e-02 -3.112406015587201e-02 -5.423672156805973e-02
6.159893125000000e+10 -3.075146952204476e-02 -4.237644164911056e-02 9.474674928846640e-01 -6.275331305423705e-02 9.475275691068624e-01 -6.283716578428532e-02 -3.182746103104797e-02 -5.401897547312924e-02
6.164080000000000e+10 -2.760879277934545e-02 -4.445838470025143e-02 9.461309235147224e-01 -6.263711320463647e-02 9.461797599223559e-01 -6.317484773360142e-02 -3.347262691169652e-02 -5.273857781318467e-02
6.168266875000000e+10 -2.849197823531597e-02 -4.261264884371678e-02 9.446988432497736e-01 -6.223458144172384e-02 9.451774463601212e-01 -6.320373104146536e-02 -2.986463459156308e-02 -5.383557839933724e-02
6.172453750000000e+10 -3.163035133832148e-02 -4.524256700547644e-02 9.452926715955763e-01 -6.467476484947512e-02 9.448694316243537e-01 -6.456341792514854e-02 -3.018662511349121e-02 -5.340296220504859e-02
6.176640625000000e+10 -3.140570037495185e-02 -4.235169896588334e-02 9.448284219715545e-01 -6.356258066476110e-02 9.443369663425544e-01 -6.386391106084842e-02 -2.980879090199967e-02 -5.183192191289658e-02
6.180827500000000e+10 -3.085965586773058e-02 -4.155875874743295e-02 9.473725394387600e-01 -6.347083716501535e-02 9.473408389095872e-01 -6.367249467605313e-02 -3.161407126813734e-02 -5.336949077222054e-02
6.185014375000000e+10 -2.970011291330378e-02 -4.163963467387470e-02 9.459584855351543e-01 -6.267317277925021e-02 9.461984925481546e-01 -6.288904861449859e-02 -3.088753411212854e-02 -5.079151428665964e-02
6.189201250000000e+10 -2.883503304571686e-02 -4.342117567648857e-02 9.446735066125488e-01 -6.325989420095419e-02 9.445075358333129e-01 -6.270260729011706e-02 -3.101991366250350e-02 -5.148180053683551e-02
6.193388125000000e+10 -2.797930370761169e-02 -4.177331515798136e-02 9.452740021644978e-01 -6.174059959737933e-02 9.448833846211284e-01 -6.170727931032169e-02 -3.099444189562492e-02 -5.114609115734137e-02
6.197575000000000e+10 -3.038424397640340e-02 -4.038238843823780e-02 9.454021047824693e-01 -6.202252872010004e-02 9.453860574023570e-01 -6.206107568334895e-02 -2.849439645325082e-02 -5.198955598912337e-02
6.201761875000000e+10 -2.766786992009434e-02 -4.393448032166639e-02 9.469590416605858e-01 -6.348044208934786e-02 9.466576642463904e-01 -6.306152098366211e-02 -3.160374179458551e-02 -5.462315774231440e-02
6.205948750000000e+10 -2.870552633450690e-02 -4.318342476281306e-02 9.448760079195163e-01 -6.284403778796117e-02 9.449461720715563e-01 -6.244678111540946e-02 -2.882094213664043e-02 -5.154120478397060e-02
6.210135625000000e+10 -2.647858041312091e-02 -4.322846676787649e-02 9.463789657934721e-01 -6.365862981071115e-02 9.468035866086678e-01 -6.328108103793367e-02 -3.394778498478613e-02 -5.458649617930076e-02
6.214322500000000e+10 -2.883187787370239e-02 -4.560009005900585e-02 9.435135101317806e-01 -6.320483620076917e-02 9.433173592914318e-01 -6.227173489990832e-02 -3.116839747975905e-02 -4.964048839558655e-02
6.218509375000000e+10 -2.535255958558143e-02 -4.353650935194831e-02 9.442654622963348e-01 -6.310953511440669e-02 9.445638568844323e-01 -6.212279958676741e-02 -3.208948525611059e-02 -5.361681632210536e-02
6.222696250000000e+10 -2.935622081665808e-02 -4.538597001931801e-02 9.443807318943344e-01 -6.296456163592826e-02 9.437846974277392e-01 -6.275922392506238e-02 -3.188407108188420e-02 -5.009501052870153e-02
6.226883125000000e+10 -2.964216217340866e-02 -4.215801617675505e-02 9.436328001357392e-01 -6.225978783403739e-02 9.433676230716284e-01 -6.153884632230523e-02 -3.019400971149483e-02 -5.021629689807796e-02
6.231070000000000e+10 -2.727482333158597e-02 -4.484519474831264e-02 9.455283169273553e-01 -6.159538982191724e-02 9.453184485289433e-01 -6.133460035047365e-02 -2.970806668170764e-02 -5.101477867692587e-02
6.235256875000000e+10 -2.810106806607369e-02 -4.188603701183462e-02 9.453368015772922e-01 -6.127163869930794e-02 9.449495210526409e-01 -6.117298596867746e-02 -2.971014182230279e-02 -5.046827549878900e-02
6.239443750000000e+10 -2.780059700709978e-02 -4.527730682220953e-02 9.451880378353448e-01 -6.285396787070181e-02 9.449264908583926e-01 -6.303412109661183e-02 -3.032169810536027e-02 -5.308231638087792e-02
6.243630625000000e+10 -2.994828534688424e-02 -4.420159579374919e-02 9.442431828362031e-01 -6.275076587812972e-02 9.444183442126176e-01 -6.282965953279575e-02 -2.941377635218389e-02 -4.993408093908520e-02
6.247817500000000e+10 -2.921133992439465e-02 -4.354599774421895e-02 9.455091612530769e-01 -6.335311298307034e-02 9.454583582369132e-01 -6.332342436290647e-02 -2.874273062750633e-02 -5.416066754346684e-02
6.252004375000000e+10 -2.893789623079553e-02 -4.671857005567985e-02 9.450406193515746e-01 -6.336424113439924e-02 9.452029033749298e-01 -6.348084180966622e-02 -3.243156661771687e-02 -5.068796285767963e-02
6.256191250000000e+10 -2.718931176572118e-02 -4.381947481816202e-02 9.447186587236287e-01 -6.237571443551365e-02 9.446261431453281e-01 -6.260865261673705e-02 -3.165277013317107e-02 -5.081802157893320e-02
6.260378125000000e+10 -2.551063891881592e-02 -4.652679950813406e-02 9.444696106108718e-01 -6.370662457048661e-02 9.446612806738451e-01 -6.346354347734945e-02 -3.182369567925487e-02 -5.115400730184964e-02
6.264565000000000e+10 -2.958593230566971e-02 -4.397693300768726e-02 9.423147132282458e-01 -6.264214230761350e-02 9.425997690933715e-01 -6.264636810888934e-02 -3.111997696121338e-02 -4.875469876834768e-02
6.268751875000000e+10 -2.624427180856083e-02 -4.599820149494709e-02 9.431557622664555e-01 -6.259650939446645e-02 9.430861481275533e-01 -6.244419214830280e-02 -3.084878901456480e-02 -5.087458649902088e-02
6.272938750000000e+10 -2.695431615124718e-02 -4.678578198521249e-02 9.426724179675418e-01 -6.251648757690337e-02 9.424367110720635e-01 -6.294462675105704e-02 -2.977972035169896e-02 -4.899471979485606e-02
6.277125625000000e+10 -2.616529297804557e-02 -4.520847883597175e-02 9.421871010721736e-01 -6.191884039125860e-02 9.426546021820280e-01 -6.259036242109134e-02 -2.817598537413355e-02 -5.149897979935309e-02
6.281312500000000e+10 -2.869047192089868e-02 -4.785297282116734e-02 9.432987920322697e-01 -6.249356987565362e-02 9.433250766387576e-01 -6.291821637974754e-02 -3.002224860159181e-02 -5.035368410496640e-02
6.285499375000000e+10 -2.761039020682321e-02 -4.628424788903995e-02 9.424950389868328e-01 -6.230729101036044e-02 9.427745546778448e-01 -6.280793628545787e-02 -2.838773733612279e-02 -5.165496553533794e-02
6.289686250000000e+10 -2.827580417461551e-02 -4.813795407291652e-02 9.423867137207073e-01 -6.226584054937177e-02 9.422426286794234e-01 -6.315049593094541e-02 -2.924940404867256e-02 -5.067449773330347e-02
6.293873125000000e+10 -3.099360992869537e-02 -4.528670490277768e-02 9.430347020529186e-01 -6.196426732897347e-02 9.424972545407343e-01 -6.232414343670533e-02 -2.762802381979379e-02 -4.850061769359890e-02
6.298060000000000e+10 -2.858436499537194e-02 -4.722380802493467e-02 9.423639321021630e-01 -6.279120993990940e-02 9.423635399687961e-01 -6.304048953542496e-02 -2.837595171195736e-02 -5.107624136928157e-02
6.302246875000000e+10 -3.133454784159469e-02 -4.545149789209939e-02 9.417906373364950e-01 -6.144884040888841e-02 9.416895977557372e-01 -6.222659259121901e-02 -2.683278894929750e-02 -4.630135628968587e-02
6.306433750000000e+10 -2.939403034660348e-02 -4.361773214893252e-02 9.412727134247575e-01 -6.143641942002835e-02 9.412954752139304e-01 -6.220866146896443e-02 -2.569923379542109e-02 -4.798258282421934e-02
6.310620625000000e+10 -3.045961673516169e-02 -4.539770485034429e-02 9.434008564373835e-01 -6.080433919096400e-02 9.431660734193803e-01 -6.188040936828765e-02 -2.771152549456598e-02 -4.833708672120534e-02
6.314807500000000e+10 -3.121395040177113e-02 -4.471801164466384e-02 9.424979671619994e-01 -6.034332896584013e-02 9.423771766965325e-01 -6.052228556910638e-02 -2.727979050918065e-02 -4.762686491378222e-02
6.318994375000000e+10 -2.833353995530214e-02 -4.515016947109973e-02 9.432518202944087e-01 -5.939871889470891e-02 9.430846373035633e-01 -5.988341138393666e-02 -3.046839355525760e-02 -4.839789769106618e-02
6.323181250000000e+10 -3.030372459831013e-02 -4.453600526335342e-02 9.437167253955758e-01 -5.909555484038563e-02 9.436324728786472e-01 -6.008419615841511e-02 -2.884803699755096e-02 -4.588951493820174e-02
6.327368125000000e+10 -2.716892717962648e-02 -4.203652362499422e-02 9.443293431384140e-01 -5.713948221930550e-02 9.439992170691583e-01 -5.806164183895841e-02 -2.855616811550788e-02 -4.684702431728607e-02
6.331555000000000e+10 -2.730122081640629e-02 -4.433916409474033e-02 9.462689597347602e-01 -5.816001722515605e-02 9.455974968838858e-01 -5.887735041030020e-02 -2.920211830589785e-02 -4.611696147586137e-02
6.335741875000000e+10 -2.666624418671144e-02 -4.193733950195592e-02 9.458492777105720e-01 -5.888892072985828e-02 9.460485970277064e-01 -6.012288226810732e-02 -2.816472331749223e-02 -4.822447686905573e-02
6.339928750000000e+10 -2.620878155967547e-02 -4.469094795295413e-02 9.472041939451167e-01 -6.001172769754847e-02 9.471270138354135e-01 -6.093622299502301e-02 -2.854813765325396e-02 -4.851427428770215e-02
6.344115625000000e+10 -2.657428941805018e-02 -4.273586458838698e-02 9.452923123636712e-01 -6.020960684947434e-02 9.453860205740212e-01 -6.202045840021432e-02 -2.503714552055772e-02 -4.728335227665648e-02
6.348302500000000e+10 -2.560356726376298e-02 -4.414447749277542e-02 9.448395769057641e-01 -6.111759069795531e-02 9.450837696400654e-01 -6.245511771718432e-02 -2.353129326598296e-02 -4.979807100813604e-02
6.352489375000000e+10 -2.750594465931371e-02 -4.479128549522955e-02 9.432858826825724e-01 -6.173095403776376e-02 9.433443144705131e-01 -6.323468655525222e-02 -2.261330308783531e-02 -4.696000732725218e-02
6.356676250000000e+10 -2.558742214670784e-02 -4.479853255406052e-02 9.440188162860113e-01 -6.202653424927813e-02 9.441316170149637e-01 -6.333643314373798e-02 -2.143057602743446e-02 -5.237273780035868e-02
6.360863125000000e+10 -2.933592449487358e-02 -4.599112003344716e-02 9.426954748879705e-01 -6.291570960070177e-02 9.426940923105527e-01 -6.398510010077882e-02 -2.210876043841380e-02 -4.754234373235403e-02
6.365050000000000e+10 -2.996171417889499e-02 -4.251942217059952e-02 9.424896746927012e-01 -6.167676799452013e-02 9.421504821046749e-01 -6.288394071559687e-02 -2.104490250771697e-02 -5.016322858028310e-02
6.369236875000000e+10 -3.054023727502776e-02 -4.617515457827440e-02 9.453581251600446e-01 -6.166417312900990e-02 9.455976986196476e-01 -6.316600424278453e-02 -2.408992244991583e-02 -5.210486373274929e-02
6.373423750000000e+10 -2.903842208272914e-02 -4.468051066664989e-02 9.443218855445539e-01 -6.050349013413429e-02 9.444895669909058e-01 -6.230526631313547e-02 -2.285060475572809e-02 -4.980458899312301e-02
6.377610625000000e+10 -2.959400363648103e-02 -4.541181473160912e-02 9.452416129854160e-01 -6.108927665054738e-02 9.452497985514352e-01 -6.274283402070857e-02 -2.422426421947015e-02 -5.345171180631665e-02
6.381797500000000e+10 -3.225740620172130e-02 -4.592276672642534e-02 9.457887262483151e-01 -6.182236279141973e-02 9.454987228531558e-01 -6.355833709307512e-02 -2.471713840832525e-02 -5.046744693461217e-02
6.385984375000000e+10 -2.972236770258630e-02 -4.415334345357660e-02 9.461546307287818e-01 -6.056346383541050e-02 9.459086112014435e-01 -6.301636161964408e-02 -2.581770599780060e-02 -5.241945314838498e-02
6.390171250000000e+10 -3.095448415503255e-02 -4.519051280639923e-02 9.468402662770692e-01 -6.136506526134363e-02 9.467020818094052e-01 -6.336181977828019e-02 -2.673247497452171e-02 -4.984059695530872e-02
6.394358125000000e+10 -2.910901936824987e-02 -4.202899438846251e-02 9.472695767743433e-01 -6.090679461684298e-02 9.468075830772295e-01 -6.325607137986025e-02 -2.525682673364051e-02 -5.287643020766687e-02
6.398545000000000e+10 -3.002342556562873e-02 -4.442886370969064e-02 9.467596151145861e-01 -6.176272377036056e-02 9.466125884673086e-01 -6.353483395465208e-02 -2.691788895008719e-02 -5.029261993467520e-02
6.402731875000000e+10 -2.957187689250467e-02 -4.096948828968654e-02 9.483830782913732e-01 -6.110925329015989e-02 9.479576673779693e-01 -6.421201554330370e-02 -2.525021353794153e-02 -5.207113119829659e-02
6.406918750000000e+10 -2.872258581289912e-02 -4.384471097216420e-02 9.491462347155365e-01 -6.159416866535313e-02 9.491760000394650e-01 -6.391833418858719e-02 -2.778420323591885e-02 -5.328105940777103e-02
6.411105625000000e+10 -2.635782175802883e-02 -4.318707271453598e-02 9.485215910643370e-01 -6.233284219435765e-02 9.489961876476162e-01 -6.443902008244269e-02 -2.775778115269383e-02 -5.168507810963529e-02
6.415292500000000e+10 -2.817762608650584e-02 -4.491078603320010e-02 9.479364002826017e-01 -6.319319464954035e-02 9.482332595430459e-01 -6.545035226708362e-02 -2.708146765929708e-02 -5.438891914178935e-02
6.419479375000000e+10 -2.860840085256245e-02 -4.718472242185905e-02 9.479169544984241e-01 -6.500427043080922e-02 9.477706042302531e-01 -6.726013843857322e-02 -2.813298667324867e-02 -5.340599114661655e-02
6.423666250000000e+10 -2.874311062774780e-02 -4.501239279605380e-02 9.465944193932727e-01 -6.436376545745573e-02 9.466702288221223e-01 -6.700209549663198e-02 -2.966567036929247e-02 -5.300078732982142e-02
6.427853125000000e+10 -2.695430681815282e-02 -4.692753671155284e-02 9.471336545010501e-01 -6.456977175296327e-02 9.467596340369291e-01 -6.693666528881181e-02 -2.992720417961704e-02 -5.274106956163419e-02
6.432040000000000e+10 -2.816931389742438e-02 -4.509994616133176e-02 9.451613308292094e-01 -6.391914309373879e-02 9.448006437853772e-01 -6.570660171185362e-02 -2.793902069906705e-02 -5.059782843849817e-02
6.436226875000000e+10 -2.669105118676447e-02 -4.554561253783400e-02 9.464063077300576e-01 -6.404176255485955e-02 9.460761683745411e-01 -6.606574650755863e-02 -2.667888018217026e-02 -5.369217310342303e-02
6.440413750000000e+10 -2.833663682068745e-02 -4.659357736083952e-02 9.464270570574000e-01 -6.483663186470474e-02 9.460757740800214e-01 -6.669242913152727e-02 -2.729575027861855e-02 -5.347717798803174e-02
6.444600625000000e+10 -2.807267510430192e-02 -4.669634829008890e-02 9.454458884510342e-01 -6.479955931999951e-02 9.453543433131043e-01 -6.680673558119578e-02 -2.690354809517166e-02 -5.382940335170678e-02
6.448787500000000e+10 -2.826383958369308e-02 -4.825223685746914e-02 9.459015702694630e-01 -6.640439957662306e-02 9.457526562155745e-01 -6.811937582572290e-02 -2.685605120624888e-02 -5.457134283258885e-02
6.452974375000000e+10 -2.903437828037763e-02 -4.538789687354260e-02 9.459137219112483e-01 -6.543912921611648e-02 9.459612416750399e-01 -6.656746715035886e-02 -2.848493809548386e-02 -5.557729729718686e-02
6.457161250000000e+10 -2.657943771346821e-02 -4.874404111789566e-02 9.470862328917462e-01 -6.547169997497866e-02 9.464962211160027e-01 -6.726717523396213e-02 -3.032656033665658e-02 -5.492750361576895e-02
6.461348125000000e+10 -2.694776715931001e-02 -4.786230188596827e-02 9.451467100589103e-01 -6.496292836812986e-02 9.447289171213150e-01 -6.708546985375907e-02 -3.048545199583850e-02 -5.444796161628379e-02
6.465535000000000e+10 -2.558292857152178e-02 -4.970375084799183e-02 9.454341581805679e-01 -6.523002912280658e-02 9.453021951902408e-01 -6.733669242857916e-02 -2.848406998431635e-02 -5.492918090151692e-02
6.469721875000000e+10 -2.522769593794153e-02 -4.911522602333470e-02 9.434868487861102e-01 -6.554423618844042e-02 9.429379745966755e-01 -6.754246456170636e-02 -2.960639915081127e-02 -5.236046227094511e-02
6.473908750000000e+10 -2.788032856168249e-02 -4.997617856583642e-02 9.429584921238736e-01 -6.489040002158705e-02 9.429097646841149e-01 -6.670251542266536e-02 -2.812971151841848e-02 -5.350394652439507e-02
6.478095625000000e+10 -2.625185365488315e-02 -5.065202859533300e-02 9.445040865801921e-01 -6.421661218665013e-02 9.444245510127639e-01 -6.602267101868624e-02 -2.891681977043175e-02 -5.553739516766185e-02
6.482282500000000e+10 -2.698240200903514e-02 -5.010260055962779e-02 9.451987389675833e-01 -6.352559769647360e-02 9.448960356137013e-01 -6.487574681147937e-02 -2.933219007785270e-02 -5.423120634389088e-02
6.486469375000000e+10 -2.358769741369898e-02 -5.263653650644586e-02 9.458877506327474e-01 -6.451138374348118e-02 9.460915455294719e-01 -6.630312762041814e-02 -3.142589404181163e-02 -5.704568248717365e-02
6.490656250000000e+10 -2.614165583063279e-02 -5.298115353228251e-02 9.445451773116853e-01 -6.616626572033110e-02 9.443961301840329e-01 -6.733397758018825e-02 -3.095246604514556e-02 -5.550057214578954e-02
6.494843125000000e+10 -2.527909288100817e-02 -5.306460756069349e-02 9.447428719865224e-01 -6.641821215703653e-02 9.442148071626665e-01 -6.764021489511871e-02 -3.147682537473621e-02 -5.613463660660019e-02
6.499030000000000e+10 -2.701904209972369e-02 -5.347346204890005e-02 9.426076230957006e-01 -6.607044282327829e-02 9.426697516262285e-01 -6.656317896955760e-02 -3.182683679346948e-02 -5.432807529049439e-02
6.503216875000000e+10 -2.652115126233058e-02 -5.255514513711778e-02 9.433808502721578e-01 -6.514517933641746e-02 9.434257210344995e-01 -6.587365054240206e-02 -3.229295935836284e-02 -5.387098982603068e-02
6.507403750000000e+10 -2.638661074792711e-02 -5.369673747199599e-02 9.415298247563648e-01 -6.428351704232299e-02 9.414647357893687e-01 -6.494635122145995e-02 -3.191270668846283e-02 -5.206786702240508e-02
6.511590625000000e+10 -2.630394820818738e-02 -5.148784139532114e-02 9.425498217104236e-01 -6.308126443064208e-02 9.420455760239055e-01 -6.362124225446734e-02 -2.960267670766000e-02 -5.002692996760339e-02
6.515777500000000e+10 -2.662112591976231e-02 -5.222463759314796e-02 9.424226681877208e-01 -6.285360959755595e-02 9.421279831319843e-01 -6.338123228848171e-02 -2.674410307886630e-02 -5.214709883450185e-02
6.519964375000000e+10 -2.726127606859960e-02 -4.988177924328968e-02 9.438046427858239e-01 -6.174050158126772e-02 9.437303253262208e-01 -6.257391775036865e-02 -2.787195871890851e-02 -5.005044438010382e-02
6.524151250000000e+10 -2.769287467357586e-02 -4.954458807388669e-02 9.439880656632815e-01 -6.239331032175679e-02 9.437606304125886e-01 -6.286041333769067e-02 -2.807281025844886e-02 -4.963181500008265e-02
6.528338125000000e+10 -2.478529585721553e-02 -4.735113240022745e-02 9.449470598046784e-01 -6.212100133857030e-02 9.448519713196145e-01 -6.223078297379381e-02 -2.859389918254184e-02 -5.072730863746168e-02
6.532525000000000e+10 -2.616575840496763e-02 -4.959607459897293e-02 9.441747182758210e-01 -6.231441387957237e-02 9.440543646675382e-01 -6.275643442378066e-02 -2.596363946398873e-02 -4.863375689951924e-02
6.536711875000000e+10 -2.256272107906087e-02 -4.522894470349430e-02 9.458546669514227e-01 -6.185084228043490e-02 9.458128182044403e-01 -6.158910212718343e-02 -2.653132381823153e-02 -5.316421398134013e-02
6.540898750000000e+10 -2.487785542483449e-02 -5.042738634720716e-02 9.452224911520356e-01 -6.338159514461694e-02 9.447562742997467e-01 -6.392416390049808e-02 -2.658833759686432e-02 -4.993888032557430e-02
6.545085625000000e+10 -2.357637628031002e-02 -4.717583892753534e-02 9.454030285743207e-01 -6.341396888300443e-02 9.450345020297027e-01 -6.327553160337644e-02 -2.501001968177870e-02 -5.218248804214466e-02
6.549272500000000e+10 -2.405982880523821e-02 -4.914715900820737e-02 9.452322801629014e-01 -6.400966847664089e-02 9.450126732925616e-01 -6.429243453313178e-02 -2.514273759758492e-02 -5.190557696609571e-02
6.553459375000000e+10 -2.362722636000469e-02 -4.833910471858215e-02 9.447140918520865e-01 -6.398019642051932e-02 9.447490153867009e-01 -6.452793810110811e-02 -2.294628314638042e-02 -5.309268256015516e-02
6.557646250000000e+10 -2.364687038760632e-02 -4.992975834319992e-02 9.445004758998922e-01 -6.404417265882136e-02 9.444128277982626e-01 -6.419332832686950e-02 -2.541592360521669e-02 -5.456825534622791e-02
6.561833125000000e+10 -2.559439093748287e-02 -5.080628255840754e-02 9.444171858164088e-01 -6.379331096294902e-02 9.443860309940559e-01 -6.430460523184149e-02 -2.303134067865047e-02 -5.206495833203501e-02
6.566020000000000e+10 -2.423114943640408e-02 -4.677202062258542e-02 9.447269862185621e-01 -6.404873432722573e-02 9.440944853255838e-01 -6.402858955920594e-02 -2.281233067529951e-02 -5.464768919837108e-02
6.570206875000000e+10 -2.656436496519974e-02 -5.103078311985986e-02 9.456643248758604e-01 -6.457797067030126e-02 9.459378591687734e-01 -6.457428084356061e-02 -2.588181065059072e-02 -5.413348733843199e-02
6.574393750000000e+10 -2.596032287301092e-02 -4.963579503191527e-02 9.441641700501390e-01 -6.389147071094990e-02 9.443218194803443e-01 -6.471058328542578e-02 -2.257764751457825e-02 -5.386577076251277e-02
6.578580625000000e+10 -2.585469766507047e-02 -5.163403907760878e-02 9.444188594320360e-01 -6.492773812196391e-02 9.448806625272872e-01 -6.513718557456748e-02 -2.564181523203921e-02 -5.434808392117551e-02
6.582767500000000e+10 -2.911231282314094e-02 -5.034902685897293e-02 9.437380170114711e-01 -6.499601450806292e-02 9.434862221132095e-01 -6.582555554560014e-02 -2.180498913297502e-02 -5.145007011663311e-02
6.586954375000000e+10 -2.668606066787668e-02 -4.838295691852151e-02 9.447734311689135e-01 -6.519617778301581e-02 9.450675957561134e-01 -6.506127769255537e-02 -2.548821944260866e-02 -5.471845354190832e-02
6.591141250000000e+10 -2.883119154023216e-02 -4.895853020629079e-02 9.455349999605879e-01 -6.542332763577029e-02 9.449919420949088e-01 -6.505872300194246e-02 -2.673237324713071e-02 -5.190734289288281e-02
6.595328125000000e+10 -2.571700082025168e-02 -4.789958970393547e-02 9.445556432502176e-01 -6.472358541808561e-02 9.448534416918184e-01 -6.376385535741509e-02 -2.588136545982878e-02 -5.572505707531641e-02
6.599515000000000e+10 -2.765008615138315e-02 -5.002064019760247e-02 9.453963471860045e-01 -6.484542361244268e-02 9.455658881648550e-01 -6.503723694156158e-02 -2.848858906767641e-02 -5.112845005869261e-02
6.603701875000000e+10 -2.631937184113306e-02 -4.588082474636614e-02 9.440696421232121e-01 -6.290904257059683e-02 9.439911731868875e-01 -6.322587021484309e-02 -2.468127755503919e-02 -5.177850903113057e-02
6.607888750000000e+10 -2.672265785550746e-02 -4.739082760937864e-02 9.463240689957224e-01 -6.315923751436207e-02 9.459793969558796e-01 -6.290019562398223e-02 -2.522739730529852e-02 -5.277386840178500e-02
6.612075625000000e+10 -2.600767878460415e-02 -4.575517275864958e-02 9.452695546336531e-01 -6.257949940216927e-02 9.451006198632371e-01 -6.171876247596285e-02 -2.409492705327567e-02 -4.967477189018729e-02
6.616262500000000e+10 -2.313675822586127e-02 -4.545487228694278e-02 9.473102005868604e-01 -6.161359572202422e-02 9.471906113765899e-01 -6.150034671816063e-02 -2.408104098615948e-02 -5.346319324231757e-02
6.620449375000000e+10 -2.630047919466253e-02 -4.607896625493328e-02 9.475646005977336e-01 -6.241027974845235e-02 9.473774743673987e-01 -6.318965621604786e-02 -2.514550276679359e-02 -5.051955454690828e-02
6.624636250000000e+10 -2.344767816168212e-02 -4.524292636607860e-02 9.474875420532672e-01 -6.252326092849825e-02 9.471237134575236e-01 -6.257984108325991e-02 -2.149924815309924e-02 -5.401509070494239e-02
6.628823125000000e+10 -2.416039900522316e-02 -4.910166148657318e-02 9.474886944501790e-01 -6.412824189833663e-02 9.478239490246964e-01 -6.484959267263511e-02 -2.409869076282072e-02 -5.375299674607840e-02
6.633010000000000e+10 -2.808488104816540e-02 -4.677421853441751e-02 9.470788098597713e-01 -6.365688658429325e-02 9.465762116537767e-01 -6.376500131632891e-02 -1.928633818135311e-02 -5.474049705670412e-02
6.637196875000000e+10 -2.424756940688453e-02 -4.921087483973550e-02 9.489535080725839e-01 -6.442233885479164e-02 9.488815701857275e-01 -6.531469923510161e-02 -2.462780301202728e-02 -5.527621919277758e-02
6.641383750000000e+10 -2.590339427413081e-02 -4.627940869463639e-02 9.479504040775286e-01 -6.429312473826169e-02 9.477653707794139e-01 -6.428092462128777e-02 -2.250823749154008e-02 -5.339872334149026e-02
6.645570625000000e+10 -2.367718085391078e-02 -4.643850710761535e-02 9.489408367699126e-01 -6.568785684723256e-02 9.490160801855333e-01 -6.595867941314910e-02 -2.269757831737112e-02 -5.730085839114609e-02
6.649757500000000e+10 -2.698726254339154e-02 -5.009569551464671e-02 9.474519824369081e-01 -6.681532428720964e-02 9.476271902118827e-01 -6.724335170701189e-02 -2.347240864895490e-02 -5.326271724258441e-02
6.653944375000000e+10 -2.662047458761515e-02 -4.643042168035049e-02 9.482648532187151e-01 -6.643812164083725e-02 9.482114123445201e-01 -6.689198795547716e-02 -2.165604067018034e-02 -5.497156927706393e-02
6.658131250000000e+10 -2.666179580130153e-02 -5.088443049134476e-02 9.476729258290298e-01 -6.772409403125298e-02 9.475700814194449e-01 -6.801706891000826e-02 -2.626504819756055e-02 -5.371286555437099e-02
6.662318125000000e+10 -2.772340241231987e-02 -4.692782053985898e-02 9.473508770922395e-01 -6.646113003959080e-02 9.475765997071051e-01 -6.649844183664345e-02 -2.261453762096859e-02 -5.562465195146189e-02
6.666505000000000e+10 -2.542154261872330e-02 -5.047836235359917e-02 9.480185600989272e-01 -6.720432952462629e-02 9.482109112071579e-01 -6.739140630870255e-02 -2.606938900647443e-02 -5.577791291523683e-02
6.670691875000000e+10 -2.675926916514128e-02 -4.864690691840248e-02 9.462733620103467e-01 -6.523334144239414e-02 9.464384700745898e-01 -6.613074493272143e-02 -2.216649737603597e-02 -5.341425681379543e-02
6.674878750000000e+10 -2.715908977430098e-02 -4.664315365079092e-02 9.490953933631823e-01 -6.535469103409530e-02 9.488322048288045e-01 -6.625795914396447e-02 -2.259302061211000e-02 -5.613059161113140e-02
6.679065625000000e+10 -2.878537003086346e-02 -4.883269594739970e-02 9.491433455259949e-01 -6.660369372946162e-02 9.483042970564817e-01 -6.717070898506343e-02 -2.380449853881499e-02 -5.274202793832011e-02
6.683252500000000e+10 -2.571725717963507e-02 -4.555056117549853e-02 9.494557252864818e-01 -6.670854864416553e-02 9.494647166459418e-01 -6.724883681825843e-02 -2.566391340795123e-02 -5.707749464562639e-02
6.687439375000000e+10 -2.490247699273611e-02 -4.973696968497759e-02 9.498322046829680e-01 -6.710066709673733e-02 9.495964913036662e-01 -6.829153225467259e-02 -2.886343254073683e-02 -5.525356021373692e-02
6.691626250000000e+10 -2.751992586251955e-02 -4.939810046668710e-02 9.479272588320092e-01 -6.760571049650235e-02 9.487613004465500e-01 -6.874556100851582e-02 -2.574170385226739e-02 -5.489346877057287e-02
6.695813125000000e+10 -2.402638866356709e-02 -5.073669306187572e-02 9.490477310355671e-01 -6.780240890393413e-02 9.493960199799937e-01 -6.887257801561936e-02 -2.984743111362817e-02 -5.628359868967873e-02
6.700000000000000e+10 -2.590321624855841e-02 -4.923193061524869e-02 9.474232465610709e-01 -6.734035514716855e-02 9.478385461705187e-01 -6.796968841619984e-02 -2.553907239107429e-02 -5.324447049975239e-02
