! Generated by Phase I extraction
# Hz S RI R 50
1.100000000000000e+11 2.573578286525194e-01 -8.643711018085715e-02
1.100408163265300e+11 2.577567263989907e-01 -8.596805025271267e-02
1.100816326530600e+11 2.567618808274260e-01 -8.621276428543528e-02
1.101224489795900e+11 2.558134263338718e-01 -8.571489021582872e-02
1.101632653061200e+11 2.549031612668756e-01 -8.569727237325639e-02
1.102040816326500e+11 2.543299740514193e-01 -8.509353514283360e-02
1.102448979591800e+11 2.538514770057870e-01 -8.425748742884503e-02
1.102857142857100e+11 2.535189648973089e-01 -8.322589054367986e-02
1.103265306122400e+11 2.532549412065155e-01 -8.206983027265018e-02
1.103673469387800e+11 2.531213441921192e-01 -8.104497987652966e-02
1.104081632653100e+11 2.530467604183199e-01 -8.064019947912103e-02
1.104489795918400e+11 2.531010902927063e-01 -7.986625941783485e-02
1.104897959183700e+11 2.533503316612983e-01 -7.915519404742344e-02
1.105306122449000e+11 2.533410538525011e-01 -7.899112548287561e-02
1.105714285714300e+11 2.535613295729368e-01 -7.880856353957072e-02
1.106122448979600e+11 2.536456348481468e-01 -7.906749281348142e-02
1.106530612244900e+11 2.536972823185094e-01 -7.829088328216237e-02
1.106938775510200e+11 2.538888869189035e-01 -7.786185306101184e-02
1.107346938775500e+11 2.539013731937141e-01 -7.779957577793185e-02
1.107755102040800e+11 2.539272458427130e-01 -7.773539867324225e-02
1.108163265306100e+11 2.540390685177855e-01 -7.801300718410857e-02
1.108571428571400e+11 2.539446395171888e-01 -7.808838735762472e-02
1.108979591836700e+11 2.542456948625731e-01 -7.826754624513783e-02
1.109387755102000e+11 2.541860818474802e-01 -7.870391802059365e-02
1.109795918367300e+11 2.543765964456274e-01 -7.869863684281482e-02
1.110204081632700e+11 2.541923934449680e-01 -7.880722477610917e-02
1.110612244898000e+11 2.540705705730975e-01 -7.885189624339654e-02
1.111020408163300e+11 2.539118933285298e-01 -7.903016502714438e-02
1.111428571428600e+11 2.536810129997164e-01 -7.951441958110263e-02
1.111836734693900e+11 2.532204200888497e-01 -7.964555372921674e-02
1.112244897959200e+11 2.527659406198008e-01 -7.970674644156936e-02
1.112653061224500e+11 2.525706632881705e-01 -7.972994103822074e-02
1.113061224489800e+11 2.524411425965843e-01 -7.953058945826283e-02
1.113469387755100e+11 2.524409781524805e-01 -7.938754869027233e-02
1.113877551020400e+11 2.526122419422387e-01 -7.895149991036715e-02
1.114285714285700e+11 2.526969290856151e-01 -7.864527202393455e-02
1.114693877551000e+11 2.531182444249942e-01 -7.823363509840188e-02
1.115102040816300e+11 2.537193177200329e-01 -7.777182734621059e-02
1.115510204081600e+11 2.545065518501885e-01 -7.740038034257374e-02
1.115918367346900e+11 2.551803302934237e-01 -7.712384894499065e-02
1.116326530612200e+11 2.558906901508475e-01 -7.711244460818294e-02
1.116734693877600e+11 2.565203742302085e-01 -7.703734628640335e-02
1.117142857142900e+11 2.571916039053047e-01 -7.685765207810513e-02
1.117551020408200e+11 2.575353704584299e-01 -7.720898384142956e-02
1.117959183673500e+11 2.580273347758640e-01 -7.733436231021645e-02
1.118367346938800e+11 2.581916405240703e-01 -7.765866484018699e-02
1.118775510204100e+11 2.581985870645280e-01 -7.809658000051647e-02
1.119183673469400e+11 2.582090487942640e-01 -7.829948060691591e-02
1.119591836734700e+11 2.580916942073582e-01 -7.847853001589009e-02
1.120000000000000e+11 2.563978137700203e-01 -7.735860714532454e-02
1.120408163265300e+11 2.563122842717638e-01 -7.696267459125319e-02
1.120816326530600e+11 2.561062197294153e-01 -7.698286016312331e-02
1.121224489795900e+11 2.560510559586729e-01 -7.687262517072616e-02
1.121632653061200e+11 2.559101413619305e-01 -7.689240632144538e-02
1.122040816326500e+11 2.558905821143289e-01 -7.675049886351526e-02
1.122448979591800e+11 2.560037529775631e-01 -7.658697245657235e-02
1.122857142857100e+11 2.560417706223911e-01 -7.647635145259826e-02
1.123265306122400e+11 2.558392266393800e-01 -7.669362188844618e-02
1.123673469387800e+11 2.556027441340749e-01 -7.689081248756219e-02
1.124081632653100e+11 2.554629535807880e-01 -7.683106291885741e-02
1.124489795918400e+11 2.554548024094246e-01 -7.665878933820300e-02
1.124897959183700e+11 2.554987719811509e-01 -7.647206069287750e-02
1.125306122449000e+11 2.553976585382227e-01 -7.654639009322635e-02
1.125714285714300e+11 2.553439998886887e-01 -7.654331837980903e-02
1.126122448979600e+11 2.552927396549103e-01 -7.635571411701136e-02
1.126530612244900e+11 2.554986300475791e-01 -7.606685615694495e-02
1.126938775510200e+11 2.557502638687521e-01 -7.565535637630416e-02
1.127346938775500e+11 2.559843181777310e-01 -7.557606838553302e-02
1.127755102040800e+11 2.560914794975976e-01 -7.552587798940656e-02
1.128163265306100e+11 2.564789377942007e-01 -7.537377846661959e-02
1.128571428571400e+11 2.567685674527858e-01 -7.533171299968382e-02
1.128979591836700e+11 2.569935100061977e-01 -7.538644581891425e-02
1.129387755102000e+11 2.571869996402772e-01 -7.531669632007995e-02
1.129795918367300e+11 2.570982132098358e-01 -7.549423635563809e-02
1.130204081632700e+11 2.570486255224663e-01 -7.559182600207051e-02
1.130612244898000e+11 2.571653744731879e-01 -7.556414547526294e-02
1.131020408163300e+11 2.569794765595693e-01 -7.554604739919481e-02
1.131428571428600e+11 2.569197365661339e-01 -7.589884585763383e-02
1.131836734693900e+11 2.569476110619514e-01 -7.610973626918349e-02
1.132244897959200e+11 2.568097368141453e-01 -7.618387467305854e-02
1.132653061224500e+11 2.569571358395732e-01 -7.603595786473583e-02
1.133061224489800e+11 2.573012030908939e-01 -7.563393055031152e-02
1.133469387755100e+11 2.578601185988839e-01 -7.513957568744604e-02
1.133877551020400e+11 2.584001814843101e-01 -7.461716496647570e-02
1.134285714285700e+11 2.589133723542801e-01 -7.446510843303225e-02
1.134693877551000e+11 2.595199356972568e-01 -7.465609144989334e-02
1.135102040816300e+11 2.600928831910790e-01 -7.481696373113188e-02
1.135510204081600e+11 2.605089339128229e-01 -7.497585759732076e-02
1.135918367346900e+11 2.605583839788269e-01 -7.518279688204790e-02
1.136326530612200e+11 2.606524066514377e-01 -7.541513988384162e-02
1.136734693877600e+11 2.608483257486151e-01 -7.532005310409214e-02
1.137142857142900e+11 2.609511643538552e-01 -7.519596881246822e-02
1.137551020408200e+11 2.608659746970258e-01 -7.579186452998313e-02
1.137959183673500e+11 2.609460070856884e-01 -7.572074841106242e-02
1.138367346938800e+11 2.609517717155740e-01 -7.558620710540906e-02
1.138775510204100e+11 2.608790599116881e-01 -7.568086898900511e-02
1.139183673469400e+11 2.609929722004982e-01 -7.536837612547802e-02
1.139591836734700e+11 2.611251136297070e-01 -7.517238903109678e-02
1.140000000000000e+11 2.615328883833529e-01 -7.453882694505949e-02
1.140408163265300e+11 2.615256778393448e-01 -7.417576364399127e-02
1.140816326530600e+11 2.613246639103791e-01 -7.434747947237993e-02
1.141224489795900e+11 2.614245828777065e-01 -7.408997770035972e-02
1.141632653061200e+11 2.610529528552551e-01 -7.430388458483976e-02
1.142040816326500e+11 2.608684609323154e-01 -7.410281767932994e-02
1.142448979591800e+11 2.606124040640009e-01 -7.370156545024201e-02
1.142857142857100e+11 2.603804639002893e-01 -7.383387029790849e-02
1.143265306122400e+11 2.599581850529742e-01 -7.403092617543054e-02
1.143673469387800e+11 2.594565499609794e-01 -7.394343472801428e-02
1.144081632653100e+11 2.591108175517682e-01 -7.372579894552903e-02
1.144489795918400e+11 2.589375625234124e-01 -7.330141480043600e-02
1.144897959183700e+11 2.588098105578160e-01 -7.303862456140883e-02
1.145306122449000e+11 2.589150371946576e-01 -7.260582233711291e-02
1.145714285714300e+11 2.591388367215984e-01 -7.193045066340568e-02
1.146122448979600e+11 2.593542850304000e-01 -7.184013762109107e-02
1.146530612244900e+11 2.598118605713550e-01 -7.139520535758960e-02
1.146938775510200e+11 2.605169940363351e-01 -7.117182421848579e-02
1.147346938775500e+11 2.611304600413840e-01 -7.134560014132296e-02
1.147755102040800e+11 2.616747939228925e-01 -7.154319576662246e-02
1.148163265306100e+11 2.623188183228437e-01 -7.173947168664849e-02
1.148571428571400e+11 2.628143981343372e-01 -7.206060248600829e-02
1.148979591836700e+11 2.628945072731793e-01 -7.270117480092268e-02
1.149387755102000e+11 2.628207479235083e-01 -7.343516461081422e-02
1.149795918367300e+11 2.625269733474520e-01 -7.375069454847874e-02
1.150204081632700e+11 2.620183943064800e-01 -7.374771324968139e-02
1.150612244898000e+11 2.616260895319240e-01 -7.371598795763737e-02
1.151020408163300e+11 2.615336809538676e-01 -7.361298489736469e-02
1.151428571428600e+11 2.614854143952051e-01 -7.350935274238368e-02
1.151836734693900e+11 2.618947465993634e-01 -7.316320144561063e-02
1.152244897959200e+11 2.624058366376575e-01 -7.252524919551551e-02
1.152653061224500e+11 2.631649623060022e-01 -7.200908976436994e-02
1.153061224489800e+11 2.644292355494156e-01 -7.152713457610510e-02
1.153469387755100e+11 2.656207236400262e-01 -7.135174799018792e-02
1.153877551020400e+11 2.666734488010798e-01 -7.146795488076843e-02
1.154285714285700e+11 2.675507797472685e-01 -7.180817673661943e-02
1.154693877551000e+11 2.684923433373324e-01 -7.212494963105466e-02
1.155102040816300e+11 2.693410038286427e-01 -7.222920990310655e-02
1.155510204081600e+11 2.697614811521701e-01 -7.275002135892046e-02
1.155918367346900e+11 2.697457129162446e-01 -7.349281480552163e-02
1.156326530612200e+11 2.695605434927016e-01 -7.372335638297428e-02
1.156734693877600e+11 2.690686384884240e-01 -7.423735603397935e-02
1.157142857142900e+11 2.685606264360027e-01 -7.476263024920071e-02
1.157551020408200e+11 2.679426722315088e-01 -7.506978622136577e-02
1.157959183673500e+11 2.674071410030086e-01 -7.510147932689432e-02
1.158367346938800e+11 2.668565014865555e-01 -7.509140968695791e-02
1.158775510204100e+11 2.665986848673841e-01 -7.490387486411504e-02
1.159183673469400e+11 2.667029615743163e-01 -7.455442778461049e-02
1.159591836734700e+11 2.670677698123040e-01 -7.417058181249096e-02
1.160000000000000e+11 2.676624957831128e-01 -7.383476707825903e-02
1.160408163265300e+11 2.684408386633565e-01 -7.360546562697723e-02
1.160816326530600e+11 2.691477534896041e-01 -7.351694389746447e-02
1.161224489795900e+11 2.697564249413723e-01 -7.336397895419876e-02
1.161632653061200e+11 2.703008062783431e-01 -7.336313120267571e-02
1.162040816326500e+11 2.705724910740122e-01 -7.357086536266681e-02
1.162448979591800e+11 2.706443897831827e-01 -7.357740230536683e-02
1.162857142857100e+11 2.705146991402138e-01 -7.366386565184890e-02
1.163265306122400e+11 2.703965900900160e-01 -7.377116691305639e-02
1.163673469387800e+11 2.698555508271355e-01 -7.396564184659664e-02
1.164081632653100e+11 2.699644584384102e-01 -7.384237821320358e-02
1.164489795918400e+11 2.697149808228129e-01 -7.411081894072324e-02
1.164897959183700e+11 2.696196117866535e-01 -7.408531260349943e-02
1.165306122449000e+11 2.696838125641262e-01 -7.419415444246973e-02
1.165714285714300e+11 2.700274888925153e-01 -7.424918567530578e-02
1.166122448979600e+11 2.705979204577467e-01 -7.412777148569265e-02
1.166530612244900e+11 2.713553450707575e-01 -7.425462617302359e-02
1.166938775510200e+11 2.720087661042865e-01 -7.451944570591763e-02
1.167346938775500e+11 2.727900362962352e-01 -7.484758720453466e-02
1.167755102040800e+11 2.733954789772500e-01 -7.525174160916281e-02
1.168163265306100e+11 2.740293248910320e-01 -7.576785457612131e-02
1.168571428571400e+11 2.740574290217871e-01 -7.616511282594236e-02
1.168979591836700e+11 2.741462263207778e-01 -7.655945316725607e-02
1.169387755102000e+11 2.737408075919407e-01 -7.700033940130716e-02
1.169795918367300e+11 2.735240728902399e-01 -7.703001625141286e-02
1.170204081632700e+11 2.730082690756847e-01 -7.715408091877164e-02
1.170612244898000e+11 2.726148827814517e-01 -7.728449711086340e-02
1.171020408163300e+11 2.719203419643296e-01 -7.722498986178651e-02
1.171428571428600e+11 2.716446909522976e-01 -7.669057793717936e-02
1.171836734693900e+11 2.714888649609656e-01 -7.642476904995942e-02
1.172244897959200e+11 2.715461811084097e-01 -7.605892383497075e-02
1.172653061224500e+11 2.719412117261849e-01 -7.571940000953042e-02
1.173061224489800e+11 2.724265662216185e-01 -7.528968521055467e-02
1.173469387755100e+11 2.731067849538818e-01 -7.525972605953457e-02
1.173877551020400e+11 2.738135293186197e-01 -7.512917940097179e-02
1.174285714285700e+11 2.744341648527769e-01 -7.542785338803434e-02
1.174693877551000e+11 2.752176866908799e-01 -7.562129188421110e-02
1.175102040816300e+11 2.753138538960460e-01 -7.598239423256715e-02
1.175510204081600e+11 2.756765957970336e-01 -7.627989886235829e-02
1.175918367346900e+11 2.755460434945285e-01 -7.666594890307142e-02
1.176326530612200e+11 2.751299105028476e-01 -7.694222233645076e-02
1.176734693877600e+11 2.743259851411065e-01 -7.740622870227354e-02
1.177142857142900e+11 2.733686797050880e-01 -7.794544770598999e-02
1.177551020408200e+11 2.729811623093043e-01 -7.769149269284525e-02
1.177959183673500e+11 2.728559238622595e-01 -7.726004887671534e-02
1.178367346938800e+11 2.727935109530859e-01 -7.717847474788599e-02
1.178775510204100e+11 2.730438454652055e-01 -7.686746529525018e-02
1.179183673469400e+11 2.731234415315639e-01 -7.702435826593761e-02
1.179591836734700e+11 2.734033755947349e-01 -7.707404391845936e-02
1.180000000000000e+11 2.737546204383451e-01 -7.702980163561360e-02
1.180408163265300e+11 2.776836704488760e-01 -7.908086870427276e-02
1.180816326530600e+11 2.785098507792001e-01 -7.919216895210544e-02
1.181224489795900e+11 2.789407285794470e-01 -7.955426553064640e-02
1.181632653061200e+11 2.794183069905010e-01 -7.958395671159975e-02
1.182040816326500e+11 2.799108375300020e-01 -7.957942310790166e-02
1.182448979591800e+11 2.798469413788721e-01 -7.974232325099344e-02
1.182857142857100e+11 2.796530976719994e-01 -8.002994955035271e-02
1.183265306122400e+11 2.796134529156049e-01 -8.021923542223844e-02
1.183673469387800e+11 2.794002799433462e-01 -8.028173482227821e-02
1.184081632653100e+11 2.791825828910636e-01 -8.034472784790656e-02
1.184489795918400e+11 2.789161296873154e-01 -8.025998692350640e-02
1.184897959183700e+11 2.785173024015347e-01 -8.040548044131855e-02
1.185306122449000e+11 2.781520054354319e-01 -8.070347970661274e-02
1.185714285714300e+11 2.782257008486308e-01 -8.073786263010289e-02
1.186122448979600e+11 2.783581060718807e-01 -8.081212212983978e-02
1.186530612244900e+11 2.785154485417171e-01 -8.087924454346761e-02
1.186938775510200e+11 2.790210830038062e-01 -8.126440655995516e-02
1.187346938775500e+11 2.793196125505958e-01 -8.158534202381043e-02
1.187755102040800e+11 2.797462317234778e-01 -8.193860176735838e-02
1.188163265306100e+11 2.802078124575385e-01 -8.268451959818134e-02
1.188571428571400e+11 2.804893381368442e-01 -8.277416969768532e-02
1.188979591836700e+11 2.804859263988727e-01 -8.305965232599598e-02
1.189387755102000e+11 2.803257823452613e-01 -8.339319001308487e-02
1.189795918367300e+11 2.802915631110439e-01 -8.325992226912894e-02
1.190204081632700e+11 2.801117272584636e-01 -8.293241220018464e-02
1.190612244898000e+11 2.799810222496444e-01 -8.267873521135126e-02
1.191020408163300e+11 2.798497133131658e-01 -8.237718094879766e-02
1.191428571428600e+11 2.799551835418497e-01 -8.205180196188293e-02
1.191836734693900e+11 2.798699551030915e-01 -8.194908062539182e-02
1.192244897959200e+11 2.799394925049373e-01 -8.198279647971961e-02
1.192653061224500e+11 2.803119021415432e-01 -8.170589154986030e-02
1.193061224489800e+11 2.806167423897535e-01 -8.179226931041532e-02
1.193469387755100e+11 2.810110162274530e-01 -8.197385958016216e-02
1.193877551020400e+11 2.814599561208000e-01 -8.233457291377416e-02
1.194285714285700e+11 2.815075794429155e-01 -8.274842753129869e-02
1.194693877551000e+11 2.816458126002508e-01 -8.278726247414690e-02
1.195102040816300e+11 2.816832327781638e-01 -8.321632588281284e-02
1.195510204081600e+11 2.818016955258210e-01 -8.355780286267378e-02
1.195918367346900e+11 2.816918904167149e-01 -8.407632901556404e-02
1.196326530612200e+11 2.813933700756648e-01 -8.450134736280189e-02
1.196734693877600e+11 2.811042556480822e-01 -8.427146128150267e-02
1.197142857142900e+11 2.807826743157406e-01 -8.429836413389957e-02
1.197551020408200e+11 2.806847206161113e-01 -8.420132672122335e-02
1.197959183673500e+11 2.806941559923988e-01 -8.400805247010361e-02
1.198367346938800e+11 2.805712594161455e-01 -8.397951136503214e-02
1.198775510204100e+11 2.806284795630776e-01 -8.376337830632150e-02
1.199183673469400e+11 2.808783116283972e-01 -8.364106668608563e-02
1.199591836734700e+11 2.812011443185557e-01 -8.363011325964413e-02
1.200000000000000e+11 2.814913256831180e-01 -8.367303577114349e-02
1.200408163265300e+11 2.816561709369307e-01 -8.354240671913522e-02
1.200816326530600e+11 2.817431162584754e-01 -8.375726181731208e-02
1.201224489795900e+11 2.819504047694753e-01 -8.411292160796557e-02
1.201632653061200e+11 2.820205394785310e-01 -8.452015650306173e-02
1.202040816326500e+11 2.820124909752090e-01 -8.468418146221092e-02
1.202448979591800e+11 2.820460254685661e-01 -8.462098062266764e-02
1.202857142857100e+11 2.819038542421509e-01 -8.444678493122684e-02
1.203265306122400e+11 2.820261787936631e-01 -8.394781135592748e-02
1.203673469387800e+11 2.822127595873309e-01 -8.428437030775093e-02
1.204081632653100e+11 2.822828799386791e-01 -8.452535037637383e-02
1.204489795918400e+11 2.826403144534623e-01 -8.390502565483449e-02
1.204897959183700e+11 2.832319868055475e-01 -8.300267228630699e-02
1.205306122449000e+11 2.839904700000757e-01 -8.206798045790453e-02
1.205714285714300e+11 2.847652396855492e-01 -8.232194631102868e-02
1.206122448979600e+11 2.856654591429373e-01 -8.278963979101732e-02
1.206530612244900e+11 2.863309032877697e-01 -8.329642414593860e-02
1.206938775510200e+11 2.868184400214089e-01 -8.349115293455898e-02
1.207346938775500e+11 2.871362273096700e-01 -8.416625656382008e-02
1.207755102040800e+11 2.870542130224792e-01 -8.518064166273678e-02
1.208163265306100e+11 2.871362750165266e-01 -8.596132360910186e-02
1.208571428571400e+11 2.870134103260947e-01 -8.624602706349185e-02
1.208979591836700e+11 2.866996705609421e-01 -8.670101517257181e-02
1.209387755102000e+11 2.860685134038005e-01 -8.684541285177055e-02
1.209795918367300e+11 2.857430135315486e-01 -8.680133578131746e-02
1.210204081632700e+11 2.853746652899382e-01 -8.654699171385834e-02
1.210612244898000e+11 2.849114889665860e-01 -8.634525934098912e-02
1.211020408163300e+11 2.847862241916957e-01 -8.559977541326115e-02
1.211428571428600e+11 2.849288519705344e-01 -8.502986686956969e-02
1.211836734693900e+11 2.851439296071454e-01 -8.464791925209816e-02
1.212244897959200e+11 2.855443939833582e-01 -8.405424618376438e-02
1.212653061224500e+11 2.859316593786747e-01 -8.410665403489503e-02
1.213061224489800e+11 2.864288352535360e-01 -8.376233027270458e-02
1.213469387755100e+11 2.868315980181381e-01 -8.404708883476951e-02
1.213877551020400e+11 2.872916395804197e-01 -8.421018716476084e-02
1.214285714285700e+11 2.875613096146186e-01 -8.449361919671704e-02
1.214693877551000e+11 2.877568599999121e-01 -8.566817944671823e-02
1.215102040816300e+11 2.873690020162443e-01 -8.700521343095809e-02
1.215510204081600e+11 2.869642906833115e-01 -8.683589500033695e-02
1.215918367346900e+11 2.867306923301597e-01 -8.675532928776641e-02
1.216326530612200e+11 2.864827113570811e-01 -8.686403462399334e-02
1.216734693877600e+11 2.861843679447799e-01 -8.677728339788289e-02
1.217142857142900e+11 2.861797355140154e-01 -8.614641014539966e-02
1.217551020408200e+11 2.862522156976848e-01 -8.573194381449131e-02
1.217959183673500e+11 2.864417631267747e-01 -8.536876295677036e-02
1.218367346938800e+11 2.868924161939223e-01 -8.455394748205400e-02
1.218775510204100e+11 2.873352605227646e-01 -8.407483731050173e-02
1.219183673469400e+11 2.878643373625777e-01 -8.403119587327854e-02
1.219591836734700e+11 2.882947197298017e-01 -8.411921789213106e-02
1.220000000000000e+11 2.886477912023596e-01 -8.429347623062322e-02
1.220408163265300e+11 2.888642391885888e-01 -8.440273881364639e-02
1.220816326530600e+11 2.888404992999131e-01 -8.460012407697037e-02
1.221224489795900e+11 2.885566557800296e-01 -8.507371942704928e-02
1.221632653061200e+11 2.881552799949281e-01 -8.577819703637474e-02
1.222040816326500e+11 2.877728779562905e-01 -8.603065104634942e-02
1.222448979591800e+11 2.873194585514213e-01 -8.599723941676707e-02
1.222857142857100e+11 2.869265486755889e-01 -8.596505127419175e-02
1.223265306122400e+11 2.865127885521918e-01 -8.550975710702059e-02
1.223673469387800e+11 2.862365018614315e-01 -8.488377629428791e-02
1.224081632653100e+11 2.861138155721564e-01 -8.451480955881893e-02
1.224489795918400e+11 2.863492776405143e-01 -8.382527202319603e-02
1.224897959183700e+11 2.865956632583235e-01 -8.296313923169170e-02
1.225306122449000e+11 2.870888919571546e-01 -8.272617507706619e-02
1.225714285714300e+11 2.875744132701852e-01 -8.229529434128527e-02
1.226122448979600e+11 2.880413295323230e-01 -8.228020671342698e-02
1.226530612244900e+11 2.882006742450544e-01 -8.242992146780374e-02
1.226938775510200e+11 2.883522102355555e-01 -8.276528017231694e-02
1.227346938775500e+11 2.883455674717639e-01 -8.311990861305589e-02
1.227755102040800e+11 2.879163728699239e-01 -8.374202335392335e-02
1.228163265306100e+11 2.872404713517740e-01 -8.460152497490298e-02
1.228571428571400e+11 2.865148838601211e-01 -8.516060106293762e-02
1.228979591836700e+11 2.858930479766360e-01 -8.570284369618049e-02
1.229387755102000e+11 2.850504437076041e-01 -8.554457454952014e-02
1.229795918367300e+11 2.843079986414742e-01 -8.572600662824018e-02
1.230204081632700e+11 2.846551462821214e-01 -8.533666218352697e-02
1.230612244898000e+11 2.849670018990824e-01 -8.474299772143240e-02
1.231020408163300e+11 2.849805972205249e-01 -8.414819204849162e-02
1.231428571428600e+11 2.853893958140912e-01 -8.349765044130258e-02
1.231836734693900e+11 2.860468720828365e-01 -8.285012027984956e-02
1.232244897959200e+11 2.867600400813730e-01 -8.233067912573783e-02
1.232653061224500e+11 2.874576859452146e-01 -8.201356844361254e-02
1.233061224489800e+11 2.881883297047108e-01 -8.191560220190813e-02
1.233469387755100e+11 2.888754143407109e-01 -8.180587981260186e-02
1.233877551020400e+11 2.892549143043718e-01 -8.235362504269421e-02
1.234285714285700e+11 2.897244915029353e-01 -8.251400809583347e-02
1.234693877551000e+11 2.896739860495413e-01 -8.316194230060836e-02
1.235102040816300e+11 2.897176161750057e-01 -8.370312092746507e-02
1.235510204081600e+11 2.893777123609391e-01 -8.438136935405369e-02
1.235918367346900e+11 2.892672297896853e-01 -8.487444259082134e-02
1.236326530612200e+11 2.888771976813592e-01 -8.522010397770094e-02
1.236734693877600e+11 2.887647643538817e-01 -8.535240008000303e-02
1.237142857142900e+11 2.888058014926091e-01 -8.519738565795008e-02
1.237551020408200e+11 2.888711663586789e-01 -8.510821454198886e-02
1.237959183673500e+11 2.889647570085022e-01 -8.495672168923343e-02
1.238367346938800e+11 2.892126113479982e-01 -8.461757623637375e-02
1.238775510204100e+11 2.896645488978607e-01 -8.446741720781929e-02
1.239183673469400e+11 2.906681367648855e-01 -8.403883454550452e-02
1.239591836734700e+11 2.914808426723196e-01 -8.400064177102362e-02
1.240000000000000e+11 2.918306478121248e-01 -8.433891761713738e-02
1.240408163265300e+11 2.921883911014426e-01 -8.468527646696999e-02
1.240816326530600e+11 2.921491659591836e-01 -8.517352259957534e-02
1.241224489795900e+11 2.915438693820357e-01 -8.578986612908085e-02
1.241632653061200e+11 2.911200101316985e-01 -8.635760995985570e-02
1.242040816326500e+11 2.905130413226795e-01 -8.679626214832668e-02
1.242448979591800e+11 2.900613109791601e-01 -8.705559961262881e-02
1.242857142857100e+11 2.892058395417462e-01 -8.741481256116072e-02
1.243265306122400e+11 2.886743193246419e-01 -8.733142528425161e-02
1.243673469387800e+11 2.882539796468670e-01 -8.714048326944854e-02
1.244081632653100e+11 2.880287027992425e-01 -8.694541421144129e-02
1.244489795918400e+11 2.882090503791485e-01 -8.640421716692936e-02
1.244897959183700e+11 2.884753172691660e-01 -8.591328538681328e-02
1.245306122449000e+11 2.890335002326359e-01 -8.550670487559456e-02
1.245714285714300e+11 2.896211006517889e-01 -8.511809265953879e-02
1.246122448979600e+11 2.903412127304278e-01 -8.483900616623505e-02
1.246530612244900e+11 2.911137632112223e-01 -8.468881274970756e-02
1.246938775510200e+11 2.917257691448366e-01 -8.479055027868204e-02
1.247346938775500e+11 2.920584614499487e-01 -8.494011272483905e-02
1.247755102040800e+11 2.921081031193061e-01 -8.548221404210717e-02
1.248163265306100e+11 2.916645064679182e-01 -8.616077337018475e-02
1.248571428571400e+11 2.911084807465531e-01 -8.704038085458216e-02
1.248979591836700e+11 2.906848814541811e-01 -8.763731151860456e-02
1.249387755102000e+11 2.905658589938744e-01 -8.765138343108411e-02
1.249795918367300e+11 2.901354579524597e-01 -8.800899432614588e-02
1.250204081632700e+11 2.891272885262140e-01 -8.842846177397087e-02
1.250612244898000e+11 2.883365004137700e-01 -8.908950550413110e-02
1.251020408163300e+11 2.880446766594904e-01 -8.909234054415546e-02
1.251428571428600e+11 2.882825791734323e-01 -8.895208858473208e-02
1.251836734693900e+11 2.882267153139018e-01 -8.879262391174399e-02
1.252244897959200e+11 2.886268024403422e-01 -8.852352341217996e-02
1.252653061224500e+11 2.891149601006856e-01 -8.856236812970579e-02
1.253061224489800e+11 2.899232334856222e-01 -8.796301290957698e-02
1.253469387755100e+11 2.909293002965723e-01 -8.779479090757092e-02
1.253877551020400e+11 2.918025052093416e-01 -8.801337819647354e-02
1.254285714285700e+11 2.924679194817443e-01 -8.805834941580416e-02
1.254693877551000e+11 2.931417623507895e-01 -8.777655999285700e-02
1.255102040816300e+11 2.938387904803690e-01 -8.749212228080019e-02
1.255510204081600e+11 2.942091767855186e-01 -8.723667363440937e-02
1.255918367346900e+11 2.939472625873555e-01 -8.778710413869334e-02
1.256326530612200e+11 2.935104910023210e-01 -8.846972916978089e-02
1.256734693877600e+11 2.928936437486815e-01 -8.900709619795773e-02
1.257142857142900e+11 2.923512270787643e-01 -8.922449989956761e-02
1.257551020408200e+11 2.919293114991218e-01 -8.905239287504202e-02
1.257959183673500e+11 2.916109549076675e-01 -8.885562465258008e-02
1.258367346938800e+11 2.915840816667593e-01 -8.869432284623775e-02
1.258775510204100e+11 2.915755128634057e-01 -8.856248170735266e-02
1.259183673469400e+11 2.918436287519782e-01 -8.798426708526244e-02
1.259591836734700e+11 2.923967596937125e-01 -8.790137022598124e-02
1.260000000000000e+11 2.931601227867735e-01 -8.763082883504986e-02
1.260408163265300e+11 2.938775015588281e-01 -8.759826405422233e-02
1.260816326530600e+11 2.944375577520791e-01 -8.790553264063868e-02
1.261224489795900e+11 2.950549860704448e-01 -8.820497679219824e-02
1.261632653061200e+11 2.953426282673365e-01 -8.845644439626361e-02
1.262040816326500e+11 2.954527425665099e-01 -8.878339281782083e-02
1.262448979591800e+11 2.951420557596725e-01 -8.912138560460300e-02
1.262857142857100e+11 2.948333022808106e-01 -8.924174559728701e-02
1.263265306122400e+11 2.944221325178029e-01 -8.938275560989958e-02
1.263673469387800e+11 2.939592796887779e-01 -8.918183724383298e-02
1.264081632653100e+11 2.933431433098530e-01 -8.914326769932680e-02
1.264489795918400e+11 2.928872391133233e-01 -8.898207583062460e-02
1.264897959183700e+11 2.924666134455693e-01 -8.875942696559892e-02
1.265306122449000e+11 2.923945707058955e-01 -8.819289791393986e-02
1.265714285714300e+11 2.922365983670081e-01 -8.819629368068208e-02
1.266122448979600e+11 2.925412375028179e-01 -8.779562573719332e-02
1.266530612244900e+11 2.929596205954786e-01 -8.754293406540872e-02
1.266938775510200e+11 2.936861478118244e-01 -8.659855925047058e-02
1.267346938775500e+11 2.945509427484436e-01 -8.638424921401074e-02
1.267755102040800e+11 2.952987987593187e-01 -8.639336389958265e-02
1.268163265306100e+11 2.964585027919830e-01 -8.622765571033061e-02
1.268571428571400e+11 2.972773405048770e-01 -8.635315110892298e-02
1.268979591836700e+11 2.980230415620230e-01 -8.680045269088914e-02
1.269387755102000e+11 2.983974928879518e-01 -8.720475166459545e-02
1.269795918367300e+11 2.987221830745770e-01 -8.766270518916203e-02
1.270204081632700e+11 2.986562894027922e-01 -8.823342195035190e-02
1.270612244898000e+11 2.983809492551449e-01 -8.864444806291720e-02
1.271020408163300e+11 2.980873813879487e-01 -8.893693318243760e-02
1.271428571428600e+11 2.978955006980628e-01 -8.902028132192558e-02
1.271836734693900e+11 2.975303231076031e-01 -8.909126576432037e-02
1.272244897959200e+11 2.974251441886294e-01 -8.911926825393031e-02
1.272653061224500e+11 2.973908341298063e-01 -8.890980724530240e-02
1.273061224489800e+11 2.975477473139393e-01 -8.849378505855923e-02
1.273469387755100e+11 2.978749592734540e-01 -8.816010629563056e-02
1.273877551020400e+11 2.985464550758271e-01 -8.762455213938697e-02
1.274285714285700e+11 2.992784376433665e-01 -8.746510410264058e-02
1.274693877551000e+11 2.999769555816988e-01 -8.758213946629531e-02
1.275102040816300e+11 3.006273222776956e-01 -8.802455616272013e-02
1.275510204081600e+11 3.016049808129749e-01 -8.836317549245587e-02
1.275918367346900e+11 3.020571893229280e-01 -8.859557757195710e-02
1.276326530612200e+11 3.023978777766416e-01 -8.889591425087957e-02
1.276734693877600e+11 3.026773690734231e-01 -8.898476864583389e-02
1.277142857142900e+11 3.027663278563852e-01 -8.909397125831642e-02
1.277551020408200e+11 3.028083690819921e-01 -8.909928519635035e-02
1.277959183673500e+11 3.026745102984599e-01 -8.889928410754797e-02
1.278367346938800e+11 3.026642151448611e-01 -8.867405135291227e-02
1.278775510204100e+11 3.026781469378841e-01 -8.834311734291787e-02
1.279183673469400e+11 3.027158148671225e-01 -8.829786088609839e-02
1.279591836734700e+11 3.026456206044201e-01 -8.832693830950675e-02
1.280000000000000e+11 3.026743238723808e-01 -8.840753324222099e-02
1.280408163265300e+11 3.027599366592340e-01 -8.855094960699901e-02
1.280816326530600e+11 3.028319845903638e-01 -8.875231765354755e-02
1.281224489795900e+11 3.030000584684517e-01 -8.876775120322231e-02
1.281632653061200e+11 3.032214123259562e-01 -8.893307851604636e-02
1.282040816326500e+11 3.033961206960711e-01 -8.917762902420756e-02
1.282448979591800e+11 3.036696246888423e-01 -8.909581946071406e-02
1.282857142857100e+11 3.039571888329975e-01 -8.933463340437132e-02
1.283265306122400e+11 3.043203410430353e-01 -8.937569844281536e-02
1.283673469387800e+11 3.043327325076765e-01 -8.932018582512978e-02
1.284081632653100e+11 3.044944287224272e-01 -8.938737220287436e-02
1.284489795918400e+11 3.047118846170626e-01 -8.901102430024754e-02
1.284897959183700e+11 3.049681659705197e-01 -8.890141729195303e-02
1.285306122449000e+11 3.051694520472943e-01 -8.861165340737177e-02
1.285714285714300e+11 3.055614222860517e-01 -8.822950515429057e-02
1.286122448979600e+11 3.058679152193349e-01 -8.830175160758348e-02
1.286530612244900e+11 3.063216118614212e-01 -8.808718387510522e-02
1.286938775510200e+11 3.068043717840494e-01 -8.780146373993451e-02
1.287346938775500e+11 3.074906862865351e-01 -8.726978122102462e-02
1.287755102040800e+11 3.079646563671906e-01 -8.733231764677779e-02
1.288163265306100e+11 3.087096067072064e-01 -8.725794285629572e-02
1.288571428571400e+11 3.093308782990590e-01 -8.751916157710600e-02
1.288979591836700e+11 3.101037977507074e-01 -8.835385471965003e-02
1.289387755102000e+11 3.104249471441463e-01 -8.892292305900017e-02
1.289795918367300e+11 3.110050558758433e-01 -8.923717293166809e-02
1.290204081632700e+11 3.114710604465040e-01 -8.943062840408340e-02
1.290612244898000e+11 3.119117655639949e-01 -8.975067127835196e-02
1.291020408163300e+11 3.122852323276444e-01 -8.996477333456918e-02
1.291428571428600e+11 3.125135068258071e-01 -9.043889659899669e-02
1.291836734693900e+11 3.127741366107099e-01 -9.052426874523915e-02
1.292244897959200e+11 3.129120428329797e-01 -9.109398718217523e-02
1.292653061224500e+11 3.130324543416959e-01 -9.138412812018033e-02
1.293061224489800e+11 3.131609215603340e-01 -9.110251478647034e-02
1.293469387755100e+11 3.129887664963871e-01 -9.160090829686174e-02
1.293877551020400e+11 3.129333447033850e-01 -9.231789439567507e-02
1.294285714285700e+11 3.129859610440962e-01 -9.250717850162757e-02
1.294693877551000e+11 3.130767125131663e-01 -9.257601728511228e-02
1.295102040816300e+11 3.131093125784167e-01 -9.297904332320441e-02
1.295510204081600e+11 3.129984462523924e-01 -9.314367527209667e-02
1.295918367346900e+11 3.128456758932224e-01 -9.380297449231477e-02
1.296326530612200e+11 3.128864448525820e-01 -9.390167002773064e-02
1.296734693877600e+11 3.128235651865028e-01 -9.400418557057484e-02
1.297142857142900e+11 3.127457767313741e-01 -9.438365155702570e-02
1.297551020408200e+11 3.126287643540476e-01 -9.476541479444137e-02
1.297959183673500e+11 3.124570899303175e-01 -9.489035511334200e-02
1.298367346938800e+11 3.123369865701828e-01 -9.487377578319792e-02
1.298775510204100e+11 3.125521397741733e-01 -9.432916320787264e-02
1.299183673469400e+11 3.126425051573403e-01 -9.385296060787042e-02
1.299591836734700e+11 3.130096860161417e-01 -9.381710574509421e-02
1.300000000000000e+11 3.134236531777208e-01 -9.381004266886793e-02
1.300408163265300e+11 3.137640492196217e-01 -9.377295133062406e-02
1.300816326530600e+11 3.144401212273305e-01 -9.365655407207932e-02
1.301224489795900e+11 3.148262650007845e-01 -9.404656489635638e-02
1.301632653061200e+11 3.154343037744496e-01 -9.414995340101402e-02
1.302040816326500e+11 3.161372192591166e-01 -9.433048396549307e-02
1.302448979591800e+11 3.167060566223894e-01 -9.465821781295583e-02
1.302857142857100e+11 3.169669413463923e-01 -9.542487703245574e-02
1.303265306122400e+11 3.169890313025842e-01 -9.649186039835493e-02
1.303673469387800e+11 3.170736031024691e-01 -9.726116520661646e-02
1.304081632653100e+11 3.169617682331485e-01 -9.769369555496406e-02
1.304489795918400e+11 3.167248351626391e-01 -9.819778262715240e-02
1.304897959183700e+11 3.163325503843561e-01 -9.900106782152922e-02
1.305306122449000e+11 3.159452227518502e-01 -9.987482560222291e-02
1.305714285714300e+11 3.156156478608330e-01 -1.004643859267168e-01
1.306122448979600e+11 3.153101948062041e-01 -1.005962758448860e-01
1.306530612244900e+11 3.151924583837671e-01 -1.005805798678019e-01
1.306938775510200e+11 3.150488796129315e-01 -1.005926320506580e-01
1.307346938775500e+11 3.149668899314150e-01 -1.005699406094641e-01
1.307755102040800e+11 3.149029549416741e-01 -1.005463710795979e-01
1.308163265306100e+11 3.148482124348752e-01 -1.004932592311808e-01
1.308571428571400e+11 3.149067085615476e-01 -1.004711638569045e-01
1.308979591836700e+11 3.149518570205501e-01 -1.004365565148012e-01
1.309387755102000e+11 3.151494736448682e-01 -1.004751706793944e-01
1.309795918367300e+11 3.152303355956863e-01 -1.010991095578515e-01
1.310204081632700e+11 3.149339574830616e-01 -1.016721995507510e-01
1.310612244898000e+11 3.145526137156311e-01 -1.019175578570613e-01
1.311020408163300e+11 3.138216771039157e-01 -1.024840357994247e-01
1.311428571428600e+11 3.133740415391348e-01 -1.027395953840745e-01
1.311836734693900e+11 3.128152468339639e-01 -1.033432462675475e-01
1.312244897959200e+11 3.124746231762366e-01 -1.035727741924235e-01
1.312653061224500e+11 3.120462864063343e-01 -1.038220988537864e-01
1.313061224489800e+11 3.116298943830289e-01 -1.042491688688964e-01
1.313469387755100e+11 3.114586789563016e-01 -1.040614856391460e-01
1.313877551020400e+11 3.113588554801257e-01 -1.038169393989732e-01
1.314285714285700e+11 3.113294316742606e-01 -1.034615266360657e-01
1.314693877551000e+11 3.112292240747452e-01 -1.031453968198986e-01
1.315102040816300e+11 3.111530023832142e-01 -1.032795952475688e-01
1.315510204081600e+11 3.112533033429805e-01 -1.029246639063906e-01
1.315918367346900e+11 3.113084588449576e-01 -1.029641075382292e-01
1.316326530612200e+11 3.114565129467607e-01 -1.025998268748228e-01
1.316734693877600e+11 3.114364796893700e-01 -1.024982184189666e-01
1.317142857142900e+11 3.112695438722740e-01 -1.027584034715759e-01
1.317551020408200e+11 3.111760167860780e-01 -1.030246765473694e-01
1.317959183673500e+11 3.107685567806962e-01 -1.032019323857261e-01
1.318367346938800e+11 3.107561714426978e-01 -1.034716379003071e-01
1.318775510204100e+11 3.101098041510222e-01 -1.035888097697007e-01
1.319183673469400e+11 3.099614106711120e-01 -1.037491625342258e-01
1.319591836734700e+11 3.090599947443533e-01 -1.042732382263210e-01
1.320000000000000e+11 3.084857027884231e-01 -1.046203369888347e-01
1.320408163265300e+11 3.087727937384426e-01 -1.045760394086981e-01
1.320816326530600e+11 3.082531958530421e-01 -1.047369195041655e-01
1.321224489795900e+11 3.080787980069941e-01 -1.045337927159853e-01
1.321632653061200e+11 3.082080696584076e-01 -1.040600454704007e-01
1.322040816326500e+11 3.078991567853047e-01 -1.039435260598590e-01
1.322448979591800e+11 3.084055517437217e-01 -1.037429280748351e-01
1.322857142857100e+11 3.086715670202090e-01 -1.035176317263801e-01
1.323265306122400e+11 3.091634536354355e-01 -1.029568567538973e-01
1.323673469387800e+11 3.097627551492436e-01 -1.026012117543983e-01
1.324081632653100e+11 3.102449462643346e-01 -1.024061148654025e-01
1.324489795918400e+11 3.100606178403338e-01 -1.029608535956567e-01
1.324897959183700e+11 3.097512115308143e-01 -1.033955475056690e-01
1.325306122449000e+11 3.099390943469633e-01 -1.034377321283842e-01
1.325714285714300e+11 3.092409020775010e-01 -1.040489764936100e-01
1.326122448979600e+11 3.086003576585711e-01 -1.045780514646814e-01
1.326530612244900e+11 3.080312096436733e-01 -1.050963858922384e-01
1.326938775510200e+11 3.074076135832879e-01 -1.055691870439870e-01
1.327346938775500e+11 3.076069508425611e-01 -1.054147463412169e-01
1.327755102040800e+11 3.063611037400742e-01 -1.057950924553606e-01
1.328163265306100e+11 3.064007403292673e-01 -1.052710579008024e-01
1.328571428571400e+11 3.059014381982477e-01 -1.051376690979571e-01
1.328979591836700e+11 3.054026056330107e-01 -1.052732238584103e-01
1.329387755102000e+11 3.055370929970208e-01 -1.046831627712484e-01
1.329795918367300e+11 3.061644767548081e-01 -1.037114699128535e-01
1.330204081632700e+11 3.064598371970170e-01 -1.030507367221542e-01
1.330612244898000e+11 3.071234716822217e-01 -1.023239996571659e-01
1.331020408163300e+11 3.078371001959248e-01 -1.019126653854403e-01
1.331428571428600e+11 3.083223045815400e-01 -1.015618228914725e-01
1.331836734693900e+11 3.090748360246159e-01 -1.013433764136666e-01
1.332244897959200e+11 3.093115346322326e-01 -1.014965260520520e-01
1.332653061224500e+11 3.096782444003986e-01 -1.015188909555968e-01
1.333061224489800e+11 3.100015982612558e-01 -1.016442560543959e-01
1.333469387755100e+11 3.102777259667930e-01 -1.017529734850144e-01
1.333877551020400e+11 3.100382604007517e-01 -1.022564234838110e-01
1.334285714285700e+11 3.102353668881674e-01 -1.024758262153928e-01
1.334693877551000e+11 3.101064193657832e-01 -1.028967859199291e-01
1.335102040816300e+11 3.095699732588247e-01 -1.032457014804966e-01
1.335510204081600e+11 3.093896904306844e-01 -1.034733258806771e-01
1.335918367346900e+11 3.093537111358856e-01 -1.034005029964644e-01
1.336326530612200e+11 3.091537679826079e-01 -1.036846658320668e-01
1.336734693877600e+11 3.094760877464123e-01 -1.037666964094553e-01
1.337142857142900e+11 3.099916621538996e-01 -1.033927540437644e-01
1.337551020408200e+11 3.102478445236991e-01 -1.029935183954540e-01
1.337959183673500e+11 3.108500475384132e-01 -1.026904835655095e-01
1.338367346938800e+11 3.114634393976590e-01 -1.027726309119162e-01
1.338775510204100e+11 3.121083182067942e-01 -1.027974067639069e-01
1.339183673469400e+11 3.122792577534420e-01 -1.036453180812517e-01
1.339591836734700e+11 3.127464925589940e-01 -1.037511297309365e-01
1.340000000000000e+11 3.128209760053741e-01 -1.044400977537043e-01
1.340408163265300e+11 3.126666775384260e-01 -1.051848656100111e-01
1.340816326530600e+11 3.125200665753911e-01 -1.059249053782596e-01
1.341224489795900e+11 3.120699034615642e-01 -1.062446499956082e-01
1.341632653061200e+11 3.117452583754561e-01 -1.066523749470087e-01
1.342040816326500e+11 3.113575806805344e-01 -1.067826878018399e-01
1.342448979591800e+11 3.106338175347985e-01 -1.069835588257337e-01
1.342857142857100e+11 3.100415542018604e-01 -1.069771132503967e-01
1.343265306122400e+11 3.098919577567104e-01 -1.063739420683569e-01
1.343673469387800e+11 3.098947810233659e-01 -1.056080390854546e-01
1.344081632653100e+11 3.099727919332901e-01 -1.042700108336693e-01
1.344489795918400e+11 3.097383155713879e-01 -1.042236757685988e-01
1.344897959183700e+11 3.101815888751236e-01 -1.040334636372537e-01
1.345306122449000e+11 3.111289799198913e-01 -1.033836407274229e-01
1.345714285714300e+11 3.123123874280589e-01 -1.021802153311170e-01
1.346122448979600e+11 3.131001529630502e-01 -1.021111783192596e-01
1.346530612244900e+11 3.139726496994940e-01 -1.021051212590482e-01
1.346938775510200e+11 3.150914133199212e-01 -1.015771199968393e-01
1.347346938775500e+11 3.158295737354452e-01 -1.018008727928462e-01
1.347755102040800e+11 3.163381521991790e-01 -1.027039670094174e-01
1.348163265306100e+11 3.166641591078631e-01 -1.036891841771665e-01
1.348571428571400e+11 3.167716067162516e-01 -1.041802926196473e-01
1.348979591836700e+11 3.166218573566459e-01 -1.049888012607130e-01
1.349387755102000e+11 3.163007354886067e-01 -1.055807392185802e-01
1.349795918367300e+11 3.158035804135993e-01 -1.057952624220227e-01
1.350204081632700e+11 3.153923158487190e-01 -1.059676972234377e-01
1.350612244898000e+11 3.146219814748143e-01 -1.066163478460301e-01
1.351020408163300e+11 3.140641456832500e-01 -1.062067444361752e-01
1.351428571428600e+11 3.137247264186506e-01 -1.058256984000071e-01
1.351836734693900e+11 3.135508131105093e-01 -1.051784546570258e-01
1.352244897959200e+11 3.136347969463517e-01 -1.053385293614002e-01
1.352653061224500e+11 3.139243912163699e-01 -1.045520452441014e-01
1.353061224489800e+11 3.147079883279264e-01 -1.033430810850590e-01
1.353469387755100e+11 3.151263178498422e-01 -1.034281203944020e-01
1.353877551020400e+11 3.159114892954224e-01 -1.030043340571741e-01
1.354285714285700e+11 3.166385942088205e-01 -1.030816611043540e-01
1.354693877551000e+11 3.175945690310007e-01 -1.034489735242576e-01
1.355102040816300e+11 3.184457989335616e-01 -1.032901607622206e-01
1.355510204081600e+11 3.192379305734483e-01 -1.039442900412066e-01
1.355918367346900e+11 3.199900167135251e-01 -1.044082162732763e-01
1.356326530612200e+11 3.203862710714286e-01 -1.048419266838680e-01
1.356734693877600e+11 3.200257057698515e-01 -1.052103110533184e-01
1.357142857142900e+11 3.203112870013096e-01 -1.057809283117168e-01
1.357551020408200e+11 3.202278394841926e-01 -1.065670642968259e-01
1.357959183673500e+11 3.201579122950911e-01 -1.069579535320735e-01
1.358367346938800e+11 3.201093588242759e-01 -1.070266433968910e-01
1.358775510204100e+11 3.196314779683864e-01 -1.072136281935972e-01
1.359183673469400e+11 3.193752666656108e-01 -1.072550011810699e-01
1.359591836734700e+11 3.194742881601403e-01 -1.070269146079234e-01
1.360000000000000e+11 3.197626320633661e-01 -1.070583901857033e-01
1.360408163265300e+11 3.199879208723120e-01 -1.067633963887434e-01
1.360816326530600e+11 3.203711130762691e-01 -1.067761365839254e-01
1.361224489795900e+11 3.207712949271342e-01 -1.075477679240964e-01
1.361632653061200e+11 3.212260018319237e-01 -1.074939960898699e-01
1.362040816326500e+11 3.218850208215866e-01 -1.074079595649639e-01
1.362448979591800e+11 3.224758543603145e-01 -1.080880462852837e-01
1.362857142857100e+11 3.227303646014892e-01 -1.082448108762029e-01
1.363265306122400e+11 3.231168763057904e-01 -1.082386442099048e-01
1.363673469387800e+11 3.232823043917962e-01 -1.085900127814152e-01
1.364081632653100e+11 3.232206809787445e-01 -1.095950573882575e-01
1.364489795918400e+11 3.232598304207752e-01 -1.099490556519225e-01
1.364897959183700e+11 3.231546284973786e-01 -1.102169137545957e-01
1.365306122449000e+11 3.229143329666964e-01 -1.102047593500204e-01
1.365714285714300e+11 3.226537684983883e-01 -1.105908668065888e-01
1.366122448979600e+11 3.222781482481578e-01 -1.109026216307469e-01
1.366530612244900e+11 3.218891272504847e-01 -1.111750056154731e-01
1.366938775510200e+11 3.218835414673533e-01 -1.108044835928417e-01
1.367346938775500e+11 3.220343142149613e-01 -1.105723361977468e-01
1.367755102040800e+11 3.221235610093645e-01 -1.109726397939284e-01
1.368163265306100e+11 3.222440472243039e-01 -1.104488982933565e-01
1.368571428571400e+11 3.225530318698405e-01 -1.100218244835786e-01
1.368979591836700e+11 3.229451819585732e-01 -1.104879570244389e-01
1.369387755102000e+11 3.233635577580236e-01 -1.107265439412289e-01
1.369795918367300e+11 3.239260769087762e-01 -1.109239611236457e-01
1.370204081632700e+11 3.244698863774925e-01 -1.108163949434579e-01
1.370612244898000e+11 3.250761271734333e-01 -1.108581307387753e-01
1.371020408163300e+11 3.254550367394651e-01 -1.109787960462229e-01
1.371428571428600e+11 3.257128201772584e-01 -1.116996983797695e-01
1.371836734693900e+11 3.258899015325347e-01 -1.122157240973850e-01
1.372244897959200e+11 3.260216127181645e-01 -1.123955384752315e-01
1.372653061224500e+11 3.258879651483266e-01 -1.123964201131502e-01
1.373061224489800e+11 3.258732083493909e-01 -1.129237899640171e-01
1.373469387755100e+11 3.258473241790064e-01 -1.138185007071841e-01
1.373877551020400e+11 3.257308825064117e-01 -1.138469493661011e-01
1.374285714285700e+11 3.252077387508647e-01 -1.136604880244295e-01
1.374693877551000e+11 3.247607318897572e-01 -1.145019986184505e-01
1.375102040816300e+11 3.244983373106057e-01 -1.147432758499159e-01
1.375510204081600e+11 3.246089879606623e-01 -1.145224076537501e-01
1.375918367346900e+11 3.246391158428291e-01 -1.142385621730990e-01
1.376326530612200e+11 3.243552958865014e-01 -1.140243481581247e-01
1.376734693877600e+11 3.241931973839046e-01 -1.145980396295336e-01
1.377142857142900e+11 3.246930418041811e-01 -1.141773298179314e-01
1.377551020408200e+11 3.248585439648584e-01 -1.141213700314391e-01
1.377959183673500e+11 3.248829028035931e-01 -1.143207709687898e-01
1.378367346938800e+11 3.255239274314310e-01 -1.142987433041071e-01
1.378775510204100e+11 3.258418073372232e-01 -1.141718697441979e-01
1.379183673469400e+11 3.262154227875668e-01 -1.142783767373184e-01
1.379591836734700e+11 3.262590295676165e-01 -1.147009392984208e-01
1.380000000000000e+11 3.264842880137119e-01 -1.154402017010887e-01
1.380408163265300e+11 3.266403504259798e-01 -1.157106864015081e-01
1.380816326530600e+11 3.263854786137699e-01 -1.161474616756975e-01
1.381224489795900e+11 3.262562830739503e-01 -1.165197716949545e-01
1.381632653061200e+11 3.260868330868870e-01 -1.165097664541565e-01
1.382040816326500e+11 3.260586160247970e-01 -1.166791813081590e-01
1.382448979591800e+11 3.263358277360980e-01 -1.167452604218119e-01
1.382857142857100e+11 3.262823801993326e-01 -1.172601760186507e-01
1.383265306122400e+11 3.265022826548682e-01 -1.171618753903594e-01
1.383673469387800e+11 3.268781556858629e-01 -1.169014073443254e-01
1.384081632653100e+11 3.270031678957798e-01 -1.165015569150960e-01
1.384489795918400e+11 3.269327811853515e-01 -1.161786499104191e-01
1.384897959183700e+11 3.271529047056794e-01 -1.161691744788152e-01
1.385306122449000e+11 3.275218435627038e-01 -1.163060996069260e-01
1.385714285714300e+11 3.276941471919603e-01 -1.167490677891590e-01
1.386122448979600e+11 3.280678329395849e-01 -1.165082361748025e-01
1.386530612244900e+11 3.280406402500053e-01 -1.163952484764784e-01
1.386938775510200e+11 3.275500358918376e-01 -1.168432179834640e-01
1.387346938775500e+11 3.277437239661002e-01 -1.169282203957708e-01
1.387755102040800e+11 3.279635465522624e-01 -1.169317893389126e-01
1.388163265306100e+11 3.277415489067123e-01 -1.175309660917405e-01
1.388571428571400e+11 3.277359592601255e-01 -1.177036734198394e-01
1.388979591836700e+11 3.276673734777938e-01 -1.179581715230405e-01
1.389387755102000e+11 3.281095745939345e-01 -1.176989102360869e-01
1.389795918367300e+11 3.284778462213080e-01 -1.174859244426447e-01
1.390204081632700e+11 3.289553345869480e-01 -1.173876923746383e-01
1.390612244898000e+11 3.290858134129819e-01 -1.171274344476756e-01
1.391020408163300e+11 3.288185595849789e-01 -1.176057437438896e-01
1.391428571428600e+11 3.288213714982736e-01 -1.177945960431644e-01
1.391836734693900e+11 3.291402730389269e-01 -1.176579036011707e-01
1.392244897959200e+11 3.298091029873387e-01 -1.175508776955872e-01
1.392653061224500e+11 3.301634501254720e-01 -1.177929593556113e-01
1.393061224489800e+11 3.302817441344281e-01 -1.179763969246989e-01
1.393469387755100e+11 3.306632267267054e-01 -1.177433937167835e-01
1.393877551020400e+11 3.309333308047305e-01 -1.178464620332071e-01
1.394285714285700e+11 3.306736876221421e-01 -1.185951079963786e-01
1.394693877551000e+11 3.303388682947989e-01 -1.193907939207521e-01
1.395102040816300e+11 3.295937569624435e-01 -1.204378048918338e-01
1.395510204081600e+11 3.294915407859146e-01 -1.202551802585224e-01
1.395918367346900e+11 3.296124212021254e-01 -1.206690665193043e-01
1.396326530612200e+11 3.296739502417650e-01 -1.208980132407429e-01
1.396734693877600e+11 3.298178818353060e-01 -1.206801668800657e-01
1.397142857142900e+11 3.294667706241359e-01 -1.212079554307972e-01
1.397551020408200e+11 3.293773684315897e-01 -1.215496810350657e-01
1.397959183673500e+11 3.296091444158761e-01 -1.210815275760988e-01
1.398367346938800e+11 3.297804319910182e-01 -1.213322511781508e-01
1.398775510204100e+11 3.302922478871878e-01 -1.211191723414540e-01
1.399183673469400e+11 3.300359502665772e-01 -1.207903166229301e-01
1.399591836734700e+11 3.301507563176973e-01 -1.205690483552091e-01
1.400000000000000e+11 3.307652340500259e-01 -1.200498271664098e-01
1.400408163265300e+11 3.309834679358958e-01 -1.202641716094745e-01
1.400816326530600e+11 3.312349115026836e-01 -1.203440907755663e-01
1.401224489795900e+11 3.310965246719613e-01 -1.211656866829400e-01
1.401632653061200e+11 3.309875479205156e-01 -1.211308214746292e-01
1.402040816326500e+11 3.309942695094742e-01 -1.216237827344605e-01
1.402448979591800e+11 3.313371964835664e-01 -1.215320136863076e-01
1.402857142857100e+11 3.312844895346353e-01 -1.217870382420917e-01
1.403265306122400e+11 3.308443221348205e-01 -1.219996688262073e-01
1.403673469387800e+11 3.312050925619507e-01 -1.218602815767977e-01
1.404081632653100e+11 3.309069251381805e-01 -1.221232837129230e-01
1.404489795918400e+11 3.306994511800977e-01 -1.223493697577423e-01
1.404897959183700e+11 3.312970158461323e-01 -1.224069602670222e-01
1.405306122449000e+11 3.313935560207612e-01 -1.225695877341756e-01
1.405714285714300e+11 3.315437114753473e-01 -1.228879857528324e-01
1.406122448979600e+11 3.315704636319751e-01 -1.227847653624040e-01
1.406530612244900e+11 3.323463650252060e-01 -1.224629011594892e-01
1.406938775510200e+11 3.326405508642981e-01 -1.222562825979265e-01
1.407346938775500e+11 3.330378011422610e-01 -1.225289526079861e-01
1.407755102040800e+11 3.332532864501798e-01 -1.224082778625405e-01
1.408163265306100e+11 3.336686550940184e-01 -1.225913360910317e-01
1.408571428571400e+11 3.334359881205201e-01 -1.229074326901751e-01
1.408979591836700e+11 3.333879093514414e-01 -1.238883474304082e-01
1.409387755102000e+11 3.335717836387840e-01 -1.242225203749633e-01
1.409795918367300e+11 3.333262558582276e-01 -1.242373868039161e-01
1.410204081632700e+11 3.332721713336311e-01 -1.242749362388252e-01
1.410612244898000e+11 3.328472468627631e-01 -1.253496880809793e-01
1.411020408163300e+11 3.328183885182852e-01 -1.254941632025598e-01
1.411428571428600e+11 3.327814814028660e-01 -1.254850072682104e-01
1.411836734693900e+11 3.324710931286147e-01 -1.250417366082200e-01
1.412244897959200e+11 3.323217951858296e-01 -1.252034570093110e-01
1.412653061224500e+11 3.319374392237903e-01 -1.257924343990775e-01
1.413061224489800e+11 3.318348297917085e-01 -1.257038896574294e-01
1.413469387755100e+11 3.314445533082631e-01 -1.262167353330776e-01
1.413877551020400e+11 3.321120211569487e-01 -1.258604847685728e-01
1.414285714285700e+11 3.323918976340245e-01 -1.259330954959103e-01
1.414693877551000e+11 3.326908016051066e-01 -1.259683950158240e-01
1.415102040816300e+11 3.331152905572178e-01 -1.261822487017782e-01
1.415510204081600e+11 3.333324378597506e-01 -1.265676774967864e-01
1.415918367346900e+11 3.334077164607518e-01 -1.268951654595135e-01
1.416326530612200e+11 3.335218645777047e-01 -1.272369092943856e-01
1.416734693877600e+11 3.336176156707248e-01 -1.273374907313697e-01
1.417142857142900e+11 3.335158436087908e-01 -1.276029177359376e-01
1.417551020408200e+11 3.332318982201908e-01 -1.282958780451756e-01
1.417959183673500e+11 3.332560405133459e-01 -1.280600882937501e-01
1.418367346938800e+11 3.334302149387621e-01 -1.287359805703906e-01
1.418775510204100e+11 3.330776596741682e-01 -1.293764894225004e-01
1.419183673469400e+11 3.329393477293844e-01 -1.295865117263523e-01
1.419591836734700e+11 3.329524826317593e-01 -1.298180240523195e-01
1.420000000000000e+11 3.327108697448985e-01 -1.301795223016919e-01
1.420408163265300e+11 3.330039262692427e-01 -1.300839676107076e-01
1.420816326530600e+11 3.328978251012781e-01 -1.301175887168680e-01
1.421224489795900e+11 3.329342651404395e-01 -1.303861995386004e-01
1.421632653061200e+11 3.332500701472885e-01 -1.308073540509899e-01
1.422040816326500e+11 3.331030135740734e-01 -1.311317695666190e-01
1.422448979591800e+11 3.329484303685553e-01 -1.307340259685666e-01
1.422857142857100e+11 3.335921295294277e-01 -1.306915537157902e-01
1.423265306122400e+11 3.338245214847265e-01 -1.307585982129526e-01
1.423673469387800e+11 3.342055087681916e-01 -1.308531668173200e-01
1.424081632653100e+11 3.344419051679426e-01 -1.308840509895487e-01
1.424489795918400e+11 3.340629314959956e-01 -1.311445455553061e-01
1.424897959183700e+11 3.343621840745703e-01 -1.310352536572742e-01
1.425306122449000e+11 3.342644086571812e-01 -1.307639326156709e-01
1.425714285714300e+11 3.347787040796959e-01 -1.306062219900190e-01
1.426122448979600e+11 3.345252994767162e-01 -1.311366370056779e-01
1.426530612244900e+11 3.339512769379581e-01 -1.311739108683933e-01
1.426938775510200e+11 3.339469072858277e-01 -1.312329229057828e-01
1.427346938775500e+11 3.336720256645871e-01 -1.311912861039658e-01
1.427755102040800e+11 3.343126301864233e-01 -1.304322543121805e-01
1.428163265306100e+11 3.349884437638294e-01 -1.292649705656942e-01
1.428571428571400e+11 3.353673981033787e-01 -1.295475882414073e-01
1.428979591836700e+11 3.360032003916514e-01 -1.297060158625807e-01
1.429387755102000e+11 3.359247965401010e-01 -1.304799178868129e-01
1.429795918367300e+11 3.363164283171028e-01 -1.308961612255215e-01
1.430204081632700e+11 3.363682963195583e-01 -1.307330526297355e-01
1.430612244898000e+11 3.367686220592910e-01 -1.305546002205076e-01
1.431020408163300e+11 3.369293764455718e-01 -1.315298492476513e-01
1.431428571428600e+11 3.368532876646575e-01 -1.323754446798107e-01
1.431836734693900e+11 3.367812905133598e-01 -1.328435732481359e-01
1.432244897959200e+11 3.367752815928332e-01 -1.328721896464306e-01
1.432653061224500e+11 3.368307895864174e-01 -1.325036611081940e-01
1.433061224489800e+11 3.365482805470257e-01 -1.330281357250473e-01
1.433469387755100e+11 3.364050228264733e-01 -1.336366224633673e-01
1.433877551020400e+11 3.361509563856774e-01 -1.336923477967788e-01
1.434285714285700e+11 3.356614370881160e-01 -1.339998013602294e-01
1.434693877551000e+11 3.366192552956518e-01 -1.326310914600871e-01
1.435102040816300e+11 3.360888636220161e-01 -1.344988803468256e-01
1.435510204081600e+11 3.358197085695127e-01 -1.333064785586739e-01
1.435918367346900e+11 3.360112009495188e-01 -1.319486556397771e-01
1.436326530612200e+11 3.366392350830968e-01 -1.321501559609341e-01
1.436734693877600e+11 3.370871487611012e-01 -1.331770155852954e-01
1.437142857142900e+11 3.375299818325275e-01 -1.330326896079093e-01
1.437551020408200e+11 3.375692592679355e-01 -1.334723848227187e-01
1.437959183673500e+11 3.375573938473950e-01 -1.336076100974200e-01
1.438367346938800e+11 3.374966596726870e-01 -1.342334167624970e-01
1.438775510204100e+11 3.377228841858395e-01 -1.346931154845737e-01
1.439183673469400e+11 3.376509159878979e-01 -1.349792145749580e-01
1.439591836734700e+11 3.375200176635639e-01 -1.348663291847984e-01
1.440000000000000e+11 3.369892802953681e-01 -1.356538462424758e-01
1.440408163265300e+11 3.372102444003600e-01 -1.355696375703439e-01
1.440816326530600e+11 3.368998939900467e-01 -1.360834914458334e-01
1.441224489795900e+11 3.366828731280225e-01 -1.363852229140791e-01
1.441632653061200e+11 3.363759123213630e-01 -1.366845426420529e-01
1.442040816326500e+11 3.367962951256824e-01 -1.363653280060900e-01
1.442448979591800e+11 3.363788064411554e-01 -1.358283553862709e-01
1.442857142857100e+11 3.363005780163287e-01 -1.352072680275066e-01
1.443265306122400e+11 3.363614929616817e-01 -1.356302500737482e-01
1.443673469387800e+11 3.365848309349422e-01 -1.354778040768518e-01
1.444081632653100e+11 3.370111463753021e-01 -1.346017342183959e-01
1.444489795918400e+11 3.372569118451718e-01 -1.344843106379619e-01
1.444897959183700e+11 3.377325636168945e-01 -1.339398838926190e-01
1.445306122449000e+11 3.382214352792179e-01 -1.340379850305897e-01
1.445714285714300e+11 3.384911113303051e-01 -1.345071762696929e-01
1.446122448979600e+11 3.388436024338432e-01 -1.344786646373975e-01
1.446530612244900e+11 3.390918015975394e-01 -1.341179461829434e-01
1.446938775510200e+11 3.389019001018040e-01 -1.353893265796552e-01
1.447346938775500e+11 3.393644480327261e-01 -1.346202677408208e-01
1.447755102040800e+11 3.395387140596884e-01 -1.342912553377766e-01
1.448163265306100e+11 3.392746647164690e-01 -1.346460668678410e-01
1.448571428571400e+11 3.389803744076102e-01 -1.347053038245868e-01
1.448979591836700e+11 3.386421308977976e-01 -1.348940203945382e-01
1.449387755102000e+11 3.382485572497296e-01 -1.349523403073781e-01
1.449795918367300e+11 3.381061206841927e-01 -1.348606807195609e-01
1.450204081632700e+11 3.380278725551201e-01 -1.346126193437861e-01
1.450612244898000e+11 3.381820109857355e-01 -1.343629062983452e-01
1.451020408163300e+11 3.382864243155444e-01 -1.340140172969923e-01
1.451428571428600e+11 3.381191970505000e-01 -1.334442495759157e-01
1.451836734693900e+11 3.385232115813956e-01 -1.326555302964221e-01
1.452244897959200e+11 3.386825071463863e-01 -1.330734580795821e-01
1.452653061224500e+11 3.391939620278670e-01 -1.329620087033085e-01
1.453061224489800e+11 3.399604900100747e-01 -1.324107412516941e-01
1.453469387755100e+11 3.408929556339548e-01 -1.316467624591865e-01
1.453877551020400e+11 3.414418568547197e-01 -1.317058150874305e-01
1.454285714285700e+11 3.418413550035254e-01 -1.316625503662086e-01
1.454693877551000e+11 3.423791666642396e-01 -1.326307452835289e-01
1.455102040816300e+11 3.431820952861960e-01 -1.326220761269712e-01
1.455510204081600e+11 3.434138396457765e-01 -1.328300097363909e-01
1.455918367346900e+11 3.433025463404626e-01 -1.328103090183347e-01
1.456326530612200e+11 3.436540626899999e-01 -1.330118644646051e-01
1.456734693877600e+11 3.439474201211598e-01 -1.335407955091423e-01
1.457142857142900e+11 3.438132551227574e-01 -1.342087051054867e-01
1.457551020408200e+11 3.437078455932129e-01 -1.338409888081955e-01
1.457959183673500e+11 3.438695046652746e-01 -1.326860321102614e-01
1.458367346938800e+11 3.441103590011725e-01 -1.320942013914919e-01
1.458775510204100e+11 3.445247172313933e-01 -1.321835709579620e-01
1.459183673469400e+11 3.450509771413693e-01 -1.318859020598285e-01
1.459591836734700e+11 3.454637860816814e-01 -1.320868757051523e-01
1.460000000000000e+11 3.459963031424297e-01 -1.312188994514789e-01
1.460408163265300e+11 3.467406740854004e-01 -1.307277868588264e-01
1.460816326530600e+11 3.471017396902405e-01 -1.304364346635937e-01
1.461224489795900e+11 3.475367265362309e-01 -1.311853209481604e-01
1.461632653061200e+11 3.484431188419190e-01 -1.298719907597479e-01
1.462040816326500e+11 3.496308981561125e-01 -1.292775661644907e-01
1.462448979591800e+11 3.505304831950781e-01 -1.284479864320832e-01
1.462857142857100e+11 3.515095909720601e-01 -1.287321267930794e-01
1.463265306122400e+11 3.521743250604240e-01 -1.295201743935067e-01
1.463673469387800e+11 3.528463784986207e-01 -1.302800661737437e-01
1.464081632653100e+11 3.533216598281175e-01 -1.295686310170524e-01
1.464489795918400e+11 3.528111115402931e-01 -1.298571838482296e-01
1.464897959183700e+11 3.531024976451216e-01 -1.295775200764914e-01
1.465306122449000e+11 3.530328208998024e-01 -1.308346179095183e-01
1.465714285714300e+11 3.538514227273428e-01 -1.301367716545256e-01
1.466122448979600e+11 3.542879645984475e-01 -1.298643418457251e-01
1.466530612244900e+11 3.543231773859472e-01 -1.305907522607717e-01
1.466938775510200e+11 3.546367872445176e-01 -1.297239416509045e-01
1.467346938775500e+11 3.553539200819048e-01 -1.288775644695095e-01
1.467755102040800e+11 3.564376231948935e-01 -1.278515019710117e-01
1.468163265306100e+11 3.567369926141638e-01 -1.278548650196973e-01
1.468571428571400e+11 3.570022899377402e-01 -1.271750636839572e-01
1.468979591836700e+11 3.586736573176533e-01 -1.267440227901722e-01
1.469387755102000e+11 3.590642604752441e-01 -1.274789088085254e-01
1.469795918367300e+11 3.593258981708617e-01 -1.285633414500217e-01
1.470204081632700e+11 3.592056106943782e-01 -1.295195356090439e-01
1.470612244898000e+11 3.598094031008865e-01 -1.279036839837957e-01
1.471020408163300e+11 3.602396814142302e-01 -1.279414552186150e-01
1.471428571428600e+11 3.605387977480178e-01 -1.289097025098850e-01
1.471836734693900e+11 3.607330941479331e-01 -1.303813138346167e-01
1.472244897959200e+11 3.611134613563067e-01 -1.302902930331013e-01
1.472653061224500e+11 3.609720746584931e-01 -1.305757511007516e-01
1.473061224489800e+11 3.606359946259977e-01 -1.309282432028738e-01
1.473469387755100e+11 3.610760158236643e-01 -1.308169576511381e-01
1.473877551020400e+11 3.622889891813403e-01 -1.299420555546546e-01
1.474285714285700e+11 3.625822586319636e-01 -1.295561412586400e-01
1.474693877551000e+11 3.626679454216002e-01 -1.292826352601253e-01
1.475102040816300e+11 3.637722973895155e-01 -1.290011377834668e-01
1.475510204081600e+11 3.648016680471554e-01 -1.300679319182307e-01
1.475918367346900e+11 3.655181666472122e-01 -1.302770478106748e-01
1.476326530612200e+11 3.658845778114524e-01 -1.298515826886704e-01
1.476734693877600e+11 3.668402234571951e-01 -1.303042385074569e-01
1.477142857142900e+11 3.677174300253914e-01 -1.306882273972529e-01
1.477551020408200e+11 3.689944768860075e-01 -1.306550631515240e-01
1.477959183673500e+11 3.688653731020866e-01 -1.320626775133496e-01
1.478367346938800e+11 3.682946686059486e-01 -1.338089236758510e-01
1.478775510204100e+11 3.686640825757098e-01 -1.345604255097524e-01
1.479183673469400e+11 3.690668392236905e-01 -1.349335843732223e-01
1.479591836734700e+11 3.693450980701646e-01 -1.346400936999027e-01
1.480000000000000e+11 3.686184309726090e-01 -1.355373059227079e-01
1.480408163265300e+11 3.678678654639878e-01 -1.366886545316985e-01
1.480816326530600e+11 3.678444884394677e-01 -1.365195291987330e-01
1.481224489795900e+11 3.681035844181699e-01 -1.368201061346422e-01
1.481632653061200e+11 3.684685733379003e-01 -1.365347030063362e-01
1.482040816326500e+11 3.687159086336874e-01 -1.366504116350630e-01
1.482448979591800e+11 3.696684640198844e-01 -1.356814440890721e-01
1.482857142857100e+11 3.711610496367407e-01 -1.353278824436875e-01
1.483265306122400e+11 3.719787594662373e-01 -1.342556500690978e-01
1.483673469387800e+11 3.725911428787951e-01 -1.340110402989511e-01
1.484081632653100e+11 3.733242605780216e-01 -1.348244324149809e-01
1.484489795918400e+11 3.742032404054780e-01 -1.356675932745743e-01
1.484897959183700e+11 3.750782834888859e-01 -1.365651258352088e-01
1.485306122449000e+11 3.763208016179873e-01 -1.355529416120694e-01
1.485714285714300e+11 3.767348591876390e-01 -1.364237362696994e-01
1.486122448979600e+11 3.771538517535338e-01 -1.373494113614645e-01
1.486530612244900e+11 3.769662943962551e-01 -1.393277985370668e-01
1.486938775510200e+11 3.768388040396250e-01 -1.401352431410166e-01
1.487346938775500e+11 3.754920405255094e-01 -1.418810934056066e-01
1.487755102040800e+11 3.751619415641418e-01 -1.424418490193771e-01
1.488163265306100e+11 3.751458876981005e-01 -1.433413477150954e-01
1.488571428571400e+11 3.742164404288330e-01 -1.435938750906592e-01
1.488979591836700e+11 3.734205384434373e-01 -1.446072625456839e-01
1.489387755102000e+11 3.726833079589388e-01 -1.448882955759029e-01
1.489795918367300e+11 3.718389609637345e-01 -1.461194603440363e-01
1.490204081632700e+11 3.720993500804466e-01 -1.458082935511173e-01
1.490612244898000e+11 3.720309440373931e-01 -1.449158008232064e-01
1.491020408163300e+11 3.718792459366551e-01 -1.454396054217679e-01
1.491428571428600e+11 3.711340619923713e-01 -1.463341091451471e-01
1.491836734693900e+11 3.708923370902382e-01 -1.469688717441759e-01
1.492244897959200e+11 3.705452233631710e-01 -1.470051451691443e-01
1.492653061224500e+11 3.709392524652337e-01 -1.462549074860938e-01
1.493061224489800e+11 3.707259543186086e-01 -1.469138159374695e-01
1.493469387755100e+11 3.702652290185886e-01 -1.473730769750957e-01
1.493877551020400e+11 3.696811151102501e-01 -1.482213270716064e-01
1.494285714285700e+11 3.688966287875592e-01 -1.483989332249216e-01
1.494693877551000e+11 3.677149207275345e-01 -1.491699945892552e-01
1.495102040816300e+11 3.671122667605036e-01 -1.496218534816440e-01
1.495510204081600e+11 3.660914893632640e-01 -1.506634669683559e-01
1.495918367346900e+11 3.660529491142934e-01 -1.498090888696496e-01
1.496326530612200e+11 3.656869775410118e-01 -1.493506290157696e-01
1.496734693877600e+11 3.651794980620205e-01 -1.490646515179463e-01
1.497142857142900e+11 3.642907294101397e-01 -1.498764235297235e-01
1.497551020408200e+11 3.640221703481373e-01 -1.500128209622825e-01
1.497959183673500e+11 3.637993859163069e-01 -1.497273040310932e-01
1.498367346938800e+11 3.641599232226296e-01 -1.489791268507385e-01
1.498775510204100e+11 3.649710912817849e-01 -1.485699367783648e-01
1.499183673469400e+11 3.654772346520905e-01 -1.483455207724462e-01
1.499591836734700e+11 3.663335352603732e-01 -1.476392356889194e-01
1.500000000000000e+11 3.680661964312693e-01 -1.468122967308724e-01
1.500408163265300e+11 3.686420951833245e-01 -1.469541772711709e-01
1.500816326530600e+11 3.694343641511692e-01 -1.479602519694046e-01
1.501224489795900e+11 3.699771266340611e-01 -1.487401493320097e-01
1.501632653061200e+11 3.703426140390194e-01 -1.490825416108214e-01
1.502040816326500e+11 3.706328611173280e-01 -1.505245207565579e-01
1.502448979591800e+11 3.706354913376965e-01 -1.511414703418830e-01
1.502857142857100e+11 3.705684410838460e-01 -1.518424997524747e-01
1.503265306122400e+11 3.702309744470408e-01 -1.528062414197907e-01
1.503673469387800e+11 3.695448023113948e-01 -1.536434610639643e-01
1.504081632653100e+11 3.686753735720873e-01 -1.543161493417313e-01
1.504489795918400e+11 3.669738935852367e-01 -1.562643564575092e-01
1.504897959183700e+11 3.663305965386094e-01 -1.564927541758774e-01
1.505306122449000e+11 3.656699179616384e-01 -1.566048841668438e-01
1.505714285714300e+11 3.662618607444345e-01 -1.568656872819190e-01
1.506122448979600e+11 3.656444035342606e-01 -1.576255038022993e-01
1.506530612244900e+11 3.645650270473860e-01 -1.571503596282693e-01
1.506938775510200e+11 3.637164695883046e-01 -1.576731336055954e-01
1.507346938775500e+11 3.631826952047646e-01 -1.579178433995500e-01
1.507755102040800e+11 3.638218412884640e-01 -1.570056558227676e-01
1.508163265306100e+11 3.645330726058925e-01 -1.569032549679639e-01
1.508571428571400e+11 3.644319168706903e-01 -1.566865544483940e-01
1.508979591836700e+11 3.646394013771762e-01 -1.565787765729924e-01
1.509387755102000e+11 3.651195548709164e-01 -1.564949919877616e-01
1.509795918367300e+11 3.650302167817126e-01 -1.566745445822172e-01
1.510204081632700e+11 3.650990522175553e-01 -1.561985342369449e-01
1.510612244898000e+11 3.642485911866825e-01 -1.571031505812260e-01
1.511020408163300e+11 3.636940418511431e-01 -1.576572936107409e-01
1.511428571428600e+11 3.628852415014589e-01 -1.584291895620386e-01
1.511836734693900e+11 3.626351897326271e-01 -1.582972827638355e-01
1.512244897959200e+11 3.621878239031579e-01 -1.581982957499176e-01
1.512653061224500e+11 3.617554940404085e-01 -1.577587406415970e-01
1.513061224489800e+11 3.608625799010286e-01 -1.580422706796079e-01
1.513469387755100e+11 3.606832061149616e-01 -1.582707449369707e-01
1.513877551020400e+11 3.604055614034833e-01 -1.578446409989758e-01
1.514285714285700e+11 3.609309352854533e-01 -1.563868092084678e-01
1.514693877551000e+11 3.611904534186555e-01 -1.555637034871159e-01
1.515102040816300e+11 3.619863647835103e-01 -1.546366734912814e-01
1.515510204081600e+11 3.621663677611326e-01 -1.551453389250492e-01
1.515918367346900e+11 3.623947242331322e-01 -1.556170403189291e-01
1.516326530612200e+11 3.625950080047877e-01 -1.553707798138532e-01
1.516734693877600e+11 3.634517281557178e-01 -1.546045109227541e-01
1.517142857142900e+11 3.643374541639762e-01 -1.545163339930076e-01
1.517551020408200e+11 3.645941576714929e-01 -1.548039356133428e-01
1.517959183673500e+11 3.650713589894344e-01 -1.553730384199132e-01
1.518367346938800e+11 3.656623494610193e-01 -1.558391729423206e-01
1.518775510204100e+11 3.654994972867822e-01 -1.560813652340388e-01
1.519183673469400e+11 3.649783873590675e-01 -1.562686686031298e-01
1.519591836734700e+11 3.644892931286778e-01 -1.566192624381388e-01
1.520000000000000e+11 3.647509298969870e-01 -1.571117598808259e-01
1.520408163265300e+11 3.640056079014056e-01 -1.574096251884417e-01
1.520816326530600e+11 3.635309058994363e-01 -1.571518511295106e-01
1.521224489795900e+11 3.631796056651450e-01 -1.569189948810328e-01
1.521632653061200e+11 3.623858033416206e-01 -1.574933109086775e-01
1.522040816326500e+11 3.621460743427465e-01 -1.561689931062408e-01
1.522448979591800e+11 3.622619361678435e-01 -1.561153765092388e-01
1.522857142857100e+11 3.624562171254271e-01 -1.554336974988791e-01
1.523265306122400e+11 3.627475555313942e-01 -1.546695771980274e-01
1.523673469387800e+11 3.630788673413220e-01 -1.537982680022268e-01
1.524081632653100e+11 3.631482019553741e-01 -1.542068903257797e-01
1.524489795918400e+11 3.637714331759215e-01 -1.531720821441415e-01
1.524897959183700e+11 3.644476002707633e-01 -1.536596361898912e-01
1.525306122449000e+11 3.642611449921212e-01 -1.546330443571200e-01
1.525714285714300e+11 3.646552110997621e-01 -1.548896554591260e-01
1.526122448979600e+11 3.646678979656477e-01 -1.546099823066239e-01
1.526530612244900e+11 3.647305517115760e-01 -1.543013993446475e-01
1.526938775510200e+11 3.644285745938042e-01 -1.547980880382439e-01
1.527346938775500e+11 3.637752105948570e-01 -1.556435740528465e-01
1.527755102040800e+11 3.633580246942974e-01 -1.560694848266114e-01
1.528163265306100e+11 3.632573659512082e-01 -1.551201038591713e-01
1.528571428571400e+11 3.630203038768599e-01 -1.541924286302006e-01
1.528979591836700e+11 3.625726076117401e-01 -1.537139352923112e-01
1.529387755102000e+11 3.623144586093827e-01 -1.536988953625919e-01
1.529795918367300e+11 3.625497741034528e-01 -1.530421225186037e-01
1.530204081632700e+11 3.625683506157794e-01 -1.515633642738740e-01
1.530612244898000e+11 3.629944226292501e-01 -1.493045985996803e-01
1.531020408163300e+11 3.632168237503137e-01 -1.492513170936732e-01
1.531428571428600e+11 3.640147078244839e-01 -1.488599131634808e-01
1.531836734693900e+11 3.647930397940352e-01 -1.471607313828941e-01
1.532244897959200e+11 3.659304704101499e-01 -1.462199638842598e-01
1.532653061224500e+11 3.668867147642029e-01 -1.448286817306970e-01
1.533061224489800e+11 3.678406392181892e-01 -1.438524838141470e-01
1.533469387755100e+11 3.687446630914362e-01 -1.433587629173254e-01
1.533877551020400e+11 3.694931818408301e-01 -1.428498016290118e-01
1.534285714285700e+11 3.707012147276544e-01 -1.418939053915045e-01
1.534693877551000e+11 3.710906213462661e-01 -1.419797903008466e-01
1.535102040816300e+11 3.716678617406015e-01 -1.417578599985453e-01
1.535510204081600e+11 3.726429630202023e-01 -1.412539337206019e-01
1.535918367346900e+11 3.737006113709334e-01 -1.406337661219563e-01
1.536326530612200e+11 3.747086692643478e-01 -1.394030068190375e-01
1.536734693877600e+11 3.749196530951659e-01 -1.392233027532738e-01
1.537142857142900e+11 3.754614044677455e-01 -1.395504912258616e-01
1.537551020408200e+11 3.766260035733269e-01 -1.394370718908131e-01
1.537959183673500e+11 3.773164388757952e-01 -1.398332337118099e-01
1.538367346938800e+11 3.781814221902760e-01 -1.389403926173773e-01
1.538775510204100e+11 3.786508672956780e-01 -1.387179715399048e-01
1.539183673469400e+11 3.794190571444287e-01 -1.391572616990988e-01
1.539591836734700e+11 3.800503935036317e-01 -1.393457403186253e-01
1.540000000000000e+11 3.805556582395813e-01 -1.387755743045261e-01
1.540408163265300e+11 3.814507419219283e-01 -1.384347755665751e-01
1.540816326530600e+11 3.824437765605345e-01 -1.394077016944565e-01
1.541224489795900e+11 3.829842323381865e-01 -1.392190272965434e-01
1.541632653061200e+11 3.831155633187929e-01 -1.404007139221291e-01
1.542040816326500e+11 3.832883541176735e-01 -1.402165333769345e-01
1.542448979591800e+11 3.833545253263645e-01 -1.390893380152991e-01
1.542857142857100e+11 3.835546041059995e-01 -1.387839741613868e-01
1.543265306122400e+11 3.834660528720588e-01 -1.388392503137388e-01
1.543673469387800e+11 3.835813345844037e-01 -1.381327816853112e-01
1.544081632653100e+11 3.841744496433036e-01 -1.373256353875688e-01
1.544489795918400e+11 3.850056243902491e-01 -1.355088112853067e-01
1.544897959183700e+11 3.851378104613114e-01 -1.352136450458765e-01
1.545306122449000e+11 3.859417368734337e-01 -1.340635603275025e-01
1.545714285714300e+11 3.872859356721017e-01 -1.331876108010153e-01
1.546122448979600e+11 3.886821455506096e-01 -1.309848712617706e-01
1.546530612244900e+11 3.898051583504677e-01 -1.295262553480867e-01
1.546938775510200e+11 3.910646897725881e-01 -1.281854805814313e-01
1.547346938775500e+11 3.927348369717487e-01 -1.264684543396918e-01
1.547755102040800e+11 3.950246659136185e-01 -1.260003559166177e-01
1.548163265306100e+11 3.967737299333896e-01 -1.260706640253472e-01
1.548571428571400e+11 3.985039261881780e-01 -1.263456756776255e-01
1.548979591836700e+11 4.002518062350919e-01 -1.256105743629061e-01
1.549387755102000e+11 4.017502594287774e-01 -1.244017522813081e-01
1.549795918367300e+11 4.027227493036624e-01 -1.244274351783873e-01
1.550204081632700e+11 4.039803582041375e-01 -1.246350335697811e-01
1.550612244898000e+11 4.054070918352127e-01 -1.248710981322333e-01
1.551020408163300e+11 4.063577582349407e-01 -1.258937883675681e-01
1.551428571428600e+11 4.067295556781810e-01 -1.259815853700819e-01
1.551836734693900e+11 4.070994156129180e-01 -1.267170025780278e-01
1.552244897959200e+11 4.074661808771673e-01 -1.275513913389386e-01
1.552653061224500e+11 4.090734196408961e-01 -1.257278722746973e-01
1.553061224489800e+11 4.098171879597189e-01 -1.272140785908418e-01
1.553469387755100e+11 4.105504528035593e-01 -1.275546459861084e-01
1.553877551020400e+11 4.105290727568788e-01 -1.271749114027541e-01
1.554285714285700e+11 4.109526910027289e-01 -1.274897799479821e-01
1.554693877551000e+11 4.119547618025513e-01 -1.279118793773960e-01
1.555102040816300e+11 4.128504910511133e-01 -1.292116504173497e-01
1.555510204081600e+11 4.132019454524591e-01 -1.292518772382669e-01
1.555918367346900e+11 4.136441196923374e-01 -1.285849710640766e-01
1.556326530612200e+11 4.137913650591801e-01 -1.289119702621491e-01
1.556734693877600e+11 4.145211899347964e-01 -1.288054862482305e-01
1.557142857142900e+11 4.146237039881455e-01 -1.290542804493612e-01
1.557551020408200e+11 4.149628519528132e-01 -1.291162320191487e-01
1.557959183673500e+11 4.157927629005193e-01 -1.282896855382354e-01
1.558367346938800e+11 4.169330990654097e-01 -1.276691476705656e-01
1.558775510204100e+11 4.174376132791505e-01 -1.266192731577605e-01
1.559183673469400e+11 4.174110411871947e-01 -1.272709072269392e-01
1.559591836734700e+11 4.180692252871739e-01 -1.278716433818189e-01
1.560000000000000e+11 4.203455204117779e-01 -1.264022103592077e-01
1.560408163265300e+11 4.224196051972086e-01 -1.244791152790115e-01
1.560816326530600e+11 4.232848119472163e-01 -1.251060103341577e-01
1.561224489795900e+11 4.221101326684891e-01 -1.271963631667487e-01
1.561632653061200e+11 4.237451710019703e-01 -1.266901981744758e-01
1.562040816326500e+11 4.268336190400752e-01 -1.243945098038409e-01
1.562448979591800e+11 4.287466874521781e-01 -1.239341289112590e-01
1.562857142857100e+11 4.291087248796868e-01 -1.246630991639084e-01
1.563265306122400e+11 4.288156525615300e-01 -1.268427005946653e-01
1.563673469387800e+11 4.302008399311475e-01 -1.271292556032772e-01
1.564081632653100e+11 4.329201005565849e-01 -1.268849108119645e-01
1.564489795918400e+11 4.337993357989440e-01 -1.278505112238748e-01
1.564897959183700e+11 4.337303742943368e-01 -1.279950730351336e-01
1.565306122449000e+11 4.334016238461924e-01 -1.298838572389585e-01
1.565714285714300e+11 4.334552571798043e-01 -1.325435836738360e-01
1.566122448979600e+11 4.340447286652195e-01 -1.339338747095282e-01
1.566530612244900e+11 4.335559352475019e-01 -1.354162549616581e-01
1.566938775510200e+11 4.333871858116132e-01 -1.356100238280425e-01
1.567346938775500e+11 4.331572440598320e-01 -1.360816152604251e-01
1.567755102040800e+11 4.329006178100232e-01 -1.372756672676498e-01
1.568163265306100e+11 4.324621232836626e-01 -1.383041158869406e-01
1.568571428571400e+11 4.323965283629310e-01 -1.378941115561336e-01
1.568979591836700e+11 4.327569366837251e-01 -1.362208789321458e-01
1.569387755102000e+11 4.326310624424033e-01 -1.367832513181620e-01
1.569795918367300e+11 4.325319431521372e-01 -1.383246054909412e-01
1.570204081632700e+11 4.327515464479798e-01 -1.397812533249489e-01
1.570612244898000e+11 4.332454358511914e-01 -1.399188102800489e-01
1.571020408163300e+11 4.343757622368299e-01 -1.378082142503145e-01
1.571428571428600e+11 4.363716878993510e-01 -1.373848097617599e-01
1.571836734693900e+11 4.371466176225992e-01 -1.388947683130436e-01
1.572244897959200e+11 4.379058243984035e-01 -1.405517843873639e-01
1.572653061224500e+11 4.381266350483393e-01 -1.419038207691668e-01
1.573061224489800e+11 4.391160347793358e-01 -1.419046800145501e-01
1.573469387755100e+11 4.394168210933513e-01 -1.421775218875378e-01
1.573877551020400e+11 4.384106967459378e-01 -1.444272451520083e-01
1.574285714285700e+11 4.383567970079545e-01 -1.459325795575020e-01
1.574693877551000e+11 4.383527241743521e-01 -1.468489610424158e-01
1.575102040816300e+11 4.383859381051488e-01 -1.467766624241592e-01
1.575510204081600e+11 4.383340160475914e-01 -1.475934493811049e-01
1.575918367346900e+11 4.379560401315122e-01 -1.483551127300872e-01
1.576326530612200e+11 4.367967947095344e-01 -1.500995208620035e-01
1.576734693877600e+11 4.377068450199395e-01 -1.489259554597265e-01
1.577142857142900e+11 4.376257865340503e-01 -1.488563064838140e-01
1.577551020408200e+11 4.377925909400489e-01 -1.500239421732521e-01
1.577959183673500e+11 4.380278317365398e-01 -1.502709573484729e-01
1.578367346938800e+11 4.388134157764808e-01 -1.507105998559133e-01
1.578775510204100e+11 4.392568458362081e-01 -1.506752842483735e-01
1.579183673469400e+11 4.396031474827563e-01 -1.512274074764695e-01
1.579591836734700e+11 4.406195360564220e-01 -1.507274525108848e-01
1.580000000000000e+11 4.417322762781328e-01 -1.512113141241783e-01
1.580408163265300e+11 4.418518980676772e-01 -1.535783494853121e-01
1.580816326530600e+11 4.422256921836719e-01 -1.553165730541579e-01
1.581224489795900e+11 4.411161386694897e-01 -1.576503931449874e-01
1.581632653061200e+11 4.411792994239663e-01 -1.570874326859001e-01
1.582040816326500e+11 4.394475272802240e-01 -1.584486376665971e-01
1.582448979591800e+11 4.378601603833228e-01 -1.607544356181981e-01
1.582857142857100e+11 4.372782549439634e-01 -1.615107347226094e-01
1.583265306122400e+11 4.362946212694616e-01 -1.630603752353064e-01
1.583673469387800e+11 4.350052420790071e-01 -1.627820709956918e-01
1.584081632653100e+11 4.341589998171863e-01 -1.629188739460701e-01
1.584489795918400e+11 4.341974073849507e-01 -1.627605681275926e-01
1.584897959183700e+11 4.334406539896799e-01 -1.632901009116291e-01
1.585306122449000e+11 4.337207239968756e-01 -1.631214111000722e-01
1.585714285714300e+11 4.332903998480437e-01 -1.628959098054818e-01
1.586122448979600e+11 4.336513442769299e-01 -1.632734531311937e-01
1.586530612244900e+11 4.347044262603043e-01 -1.625934751157988e-01
1.586938775510200e+11 4.358900728396675e-01 -1.624381561855875e-01
1.587346938775500e+11 4.358413737673311e-01 -1.646145562443453e-01
1.587755102040800e+11 4.362491163394358e-01 -1.658690418154648e-01
1.588163265306100e+11 4.365938296270698e-01 -1.662441930066401e-01
1.588571428571400e+11 4.361319259290884e-01 -1.678303483012301e-01
1.588979591836700e+11 4.360646219727598e-01 -1.693157123254197e-01
1.589387755102000e+11 4.351050140252232e-01 -1.713058824725620e-01
1.589795918367300e+11 4.338561391215102e-01 -1.732827038152407e-01
1.590204081632700e+11 4.315235842732565e-01 -1.746354422128305e-01
1.590612244898000e+11 4.290379128300831e-01 -1.760291991524550e-01
1.591020408163300e+11 4.271659004053926e-01 -1.763587982282073e-01
1.591428571428600e+11 4.260966760369168e-01 -1.777392271626999e-01
1.591836734693900e+11 4.243220118547717e-01 -1.793445229210729e-01
1.592244897959200e+11 4.223684241498026e-01 -1.789955621932035e-01
1.592653061224500e+11 4.201337393313900e-01 -1.783233947720061e-01
1.593061224489800e+11 4.185440442201482e-01 -1.781887802439855e-01
1.593469387755100e+11 4.186447065458166e-01 -1.777014311565969e-01
1.593877551020400e+11 4.178693092222303e-01 -1.779875621182167e-01
1.594285714285700e+11 4.175365261181276e-01 -1.773837164708905e-01
1.594693877551000e+11 4.172521498300759e-01 -1.759854783406374e-01
1.595102040816300e+11 4.174057097287187e-01 -1.749705596362096e-01
1.595510204081600e+11 4.177704163277084e-01 -1.746965596795998e-01
1.595918367346900e+11 4.188714370854716e-01 -1.745414782141977e-01
1.596326530612200e+11 4.189670872736965e-01 -1.751283092512112e-01
1.596734693877600e+11 4.201087868657143e-01 -1.744811064778450e-01
1.597142857142900e+11 4.203520753873344e-01 -1.756336493880891e-01
1.597551020408200e+11 4.207479101483463e-01 -1.761224433728689e-01
1.597959183673500e+11 4.204453388342979e-01 -1.771105089611839e-01
1.598367346938800e+11 4.207633502541962e-01 -1.772690183001311e-01
1.598775510204100e+11 4.201407205931569e-01 -1.783827470575848e-01
1.599183673469400e+11 4.194402089409052e-01 -1.798997965989248e-01
1.599591836734700e+11 4.182193339026285e-01 -1.812079092846040e-01
1.600000000000000e+11 4.168620841740578e-01 -1.821820060668659e-01
1.600408163265300e+11 4.155159813356458e-01 -1.833120403168597e-01
1.600816326530600e+11 4.147746000201786e-01 -1.834171706302625e-01
1.601224489795900e+11 4.136336771167086e-01 -1.843062568288873e-01
1.601632653061200e+11 4.130171786972703e-01 -1.841371588447565e-01
1.602040816326500e+11 4.121204721994391e-01 -1.844905929212103e-01
1.602448979591800e+11 4.117949745553433e-01 -1.843992148083547e-01
1.602857142857100e+11 4.105134185604320e-01 -1.849688320181220e-01
1.603265306122400e+11 4.104929338782086e-01 -1.846352942714795e-01
1.603673469387800e+11 4.093340759212763e-01 -1.854104427054779e-01
1.604081632653100e+11 4.092097265326344e-01 -1.858977940296110e-01
1.604489795918400e+11 4.092107437275228e-01 -1.859691465622736e-01
1.604897959183700e+11 4.082984208654806e-01 -1.866815024341625e-01
1.605306122449000e+11 4.075225014259456e-01 -1.867707892903390e-01
1.605714285714300e+11 4.058061963561583e-01 -1.890619517011767e-01
1.606122448979600e+11 4.040626304126230e-01 -1.892754956695772e-01
1.606530612244900e+11 4.026947340601462e-01 -1.886448678843570e-01
1.606938775510200e+11 4.007710812410967e-01 -1.893969142357017e-01
1.607346938775500e+11 3.987352267105598e-01 -1.891874572370233e-01
1.607755102040800e+11 3.968307256012770e-01 -1.885937617211246e-01
1.608163265306100e+11 3.957690558925663e-01 -1.860316754675282e-01
1.608571428571400e+11 3.939144605069930e-01 -1.849566451125122e-01
1.608979591836700e+11 3.929008807171274e-01 -1.826205337220276e-01
1.609387755102000e+11 3.914550608967065e-01 -1.818577981924385e-01
1.609795918367300e+11 3.915049376829657e-01 -1.786650321908950e-01
1.610204081632700e+11 3.916983018397191e-01 -1.764420655927325e-01
1.610612244898000e+11 3.930881480469904e-01 -1.728857062676167e-01
1.611020408163300e+11 3.950306230518585e-01 -1.703379803176074e-01
1.611428571428600e+11 3.969018020296932e-01 -1.684944906706018e-01
1.611836734693900e+11 3.985881554641203e-01 -1.665190019410144e-01
1.612244897959200e+11 4.006619193332531e-01 -1.644131858644698e-01
1.612653061224500e+11 4.023852560447351e-01 -1.644732431935184e-01
1.613061224489800e+11 4.041083119553572e-01 -1.636514259958345e-01
1.613469387755100e+11 4.053538519339147e-01 -1.646092580293868e-01
1.613877551020400e+11 4.065810395792259e-01 -1.649395198146628e-01
1.614285714285700e+11 4.073749499733210e-01 -1.652345655061590e-01
1.614693877551000e+11 4.077360010527293e-01 -1.656738241068308e-01
1.615102040816300e+11 4.076257860994950e-01 -1.667305186609918e-01
1.615510204081600e+11 4.072086245075356e-01 -1.669611656315916e-01
1.615918367346900e+11 4.065987817333332e-01 -1.679208557755883e-01
1.616326530612200e+11 4.054299669916858e-01 -1.685656086600484e-01
1.616734693877600e+11 4.041748777582729e-01 -1.693221723282850e-01
1.617142857142900e+11 4.031251251738049e-01 -1.696818757671164e-01
1.617551020408200e+11 4.019636616837741e-01 -1.688620990951342e-01
1.617959183673500e+11 4.014521776814967e-01 -1.671944139691695e-01
1.618367346938800e+11 4.002404781738483e-01 -1.671614609396401e-01
1.618775510204100e+11 3.992585366107297e-01 -1.664675950869128e-01
1.619183673469400e+11 3.987408546268052e-01 -1.650450462390924e-01
1.619591836734700e+11 3.994424093834809e-01 -1.639907613359910e-01
1.620000000000000e+11 4.001659080785519e-01 -1.622426519662198e-01
1.620408163265300e+11 4.004326371645451e-01 -1.616572814626177e-01
1.620816326530600e+11 4.001558788883385e-01 -1.622075091467101e-01
1.621224489795900e+11 4.002869058438028e-01 -1.613933963392090e-01
1.621632653061200e+11 4.006648432069838e-01 -1.609689957187829e-01
1.622040816326500e+11 4.010905422301719e-01 -1.600935660140458e-01
1.622448979591800e+11 4.013486028911349e-01 -1.590087104539636e-01
1.622857142857100e+11 4.016063265525835e-01 -1.571273389924577e-01
1.623265306122400e+11 4.011075868823176e-01 -1.562984574810975e-01
1.623673469387800e+11 4.006832286050629e-01 -1.556912360100257e-01
1.624081632653100e+11 4.009581735136707e-01 -1.544726424272305e-01
1.624489795918400e+11 4.015148396045521e-01 -1.513153185192421e-01
1.624897959183700e+11 4.023872343782881e-01 -1.480810641407336e-01
1.625306122449000e+11 4.032927054944752e-01 -1.453789658045588e-01
1.625714285714300e+11 4.041829035937842e-01 -1.431496889020653e-01
1.626122448979600e+11 4.057559062516253e-01 -1.403525031871836e-01
1.626530612244900e+11 4.085139193056866e-01 -1.362665316780497e-01
1.626938775510200e+11 4.114843687755995e-01 -1.331364324379263e-01
1.627346938775500e+11 4.135712077863729e-01 -1.311310781664076e-01
1.627755102040800e+11 4.157129795983932e-01 -1.297444789204551e-01
1.628163265306100e+11 4.188557667686214e-01 -1.272570514668475e-01
1.628571428571400e+11 4.219710577700496e-01 -1.258576388585494e-01
1.628979591836700e+11 4.243413420119878e-01 -1.247125160569270e-01
1.629387755102000e+11 4.263280397574102e-01 -1.235340507161695e-01
1.629795918367300e+11 4.284837149709838e-01 -1.220391852478734e-01
1.630204081632700e+11 4.296497842320953e-01 -1.233342296809030e-01
1.630612244898000e+11 4.311935929323081e-01 -1.233834608482998e-01
1.631020408163300e+11 4.324315263641210e-01 -1.229984708942782e-01
1.631428571428600e+11 4.330956884096285e-01 -1.225825791241784e-01
1.631836734693900e+11 4.335723787141055e-01 -1.218895348414502e-01
1.632244897959200e+11 4.334462848844700e-01 -1.216182072669544e-01
1.632653061224500e+11 4.335012955634361e-01 -1.209644753904500e-01
1.633061224489800e+11 4.340230989049706e-01 -1.208926522262670e-01
1.633469387755100e+11 4.351973189076727e-01 -1.206665096744437e-01
1.633877551020400e+11 4.352587022110505e-01 -1.198977905065671e-01
1.634285714285700e+11 4.352563953140421e-01 -1.190814934761695e-01
1.634693877551000e+11 4.357750050352649e-01 -1.182150327397919e-01
1.635102040816300e+11 4.371087680711359e-01 -1.168369959032269e-01
1.635510204081600e+11 4.380448369642667e-01 -1.163732550378694e-01
1.635918367346900e+11 4.390923179635332e-01 -1.156855308242821e-01
1.636326530612200e+11 4.405348881524946e-01 -1.144696698422044e-01
1.636734693877600e+11 4.424173001757403e-01 -1.129735020877999e-01
1.637142857142900e+11 4.439385205838635e-01 -1.121696335711308e-01
1.637551020408200e+11 4.443207313091906e-01 -1.135945978349391e-01
1.637959183673500e+11 4.460911196647308e-01 -1.136712668633648e-01
1.638367346938800e+11 4.476727694590042e-01 -1.128049997910341e-01
1.638775510204100e+11 4.484232153194961e-01 -1.121765313881681e-01
1.639183673469400e+11 4.479807474055206e-01 -1.131130484375702e-01
1.639591836734700e+11 4.469863675117165e-01 -1.149242809689996e-01
1.640000000000000e+11 4.470325783588003e-01 -1.155754228117477e-01
1.640408163265300e+11 4.474796493867498e-01 -1.146827560601895e-01
1.640816326530600e+11 4.474359516730341e-01 -1.132810545688673e-01
1.641224489795900e+11 4.465331342836664e-01 -1.123267962127053e-01
1.641632653061200e+11 4.467917118876465e-01 -1.108603290111214e-01
1.642040816326500e+11 4.482737484939209e-01 -1.083958312934009e-01
1.642448979591800e+11 4.499243935619248e-01 -1.060604744979863e-01
1.642857142857100e+11 4.515341418510142e-01 -1.026254389456517e-01
1.643265306122400e+11 4.529761678400180e-01 -1.013498268066007e-01
1.643673469387800e+11 4.561802159233669e-01 -9.896512059679718e-02
1.644081632653100e+11 4.600621067955993e-01 -9.542444698832610e-02
1.644489795918400e+11 4.628422561836085e-01 -9.392957660095588e-02
1.644897959183700e+11 4.649309521575524e-01 -9.279891042346008e-02
1.645306122449000e+11 4.679275995034597e-01 -9.227621045151183e-02
1.645714285714300e+11 4.715559956467066e-01 -9.014956199246268e-02
1.646122448979600e+11 4.745506337135658e-01 -8.787957198015989e-02
1.646530612244900e+11 4.764708337300098e-01 -8.644302932650773e-02
1.646938775510200e+11 4.791084805592462e-01 -8.444971588131271e-02
1.647346938775500e+11 4.820487518766952e-01 -8.442845644403470e-02
1.647755102040800e+11 4.859187910728378e-01 -8.428957957919044e-02
1.648163265306100e+11 4.881284053402693e-01 -8.273078968304021e-02
1.648571428571400e+11 4.893826227019755e-01 -8.350702872546817e-02
1.648979591836700e+11 4.918681701075349e-01 -8.077162544218244e-02
1.649387755102000e+11 4.956362931081063e-01 -7.982197268035031e-02
1.649795918367300e+11 4.981652407665648e-01 -8.017932053865287e-02
1.650204081632700e+11 4.999035208365644e-01 -8.023800127161022e-02
1.650612244898000e+11 5.005303163622238e-01 -7.987617824867113e-02
1.651020408163300e+11 5.027588655232347e-01 -7.967922055545952e-02
1.651428571428600e+11 5.055925195594964e-01 -8.004925645808271e-02
1.651836734693900e+11 5.076169663664679e-01 -8.000080075650826e-02
1.652244897959200e+11 5.101992237304734e-01 -7.904326139999580e-02
1.652653061224500e+11 5.108970750679704e-01 -8.106871281802981e-02
1.653061224489800e+11 5.116786640155521e-01 -8.319726352780947e-02
1.653469387755100e+11 5.122891481692159e-01 -8.541225478486883e-02
1.653877551020400e+11 5.130627788302572e-01 -8.807407826229215e-02
1.654285714285700e+11 5.140271863410940e-01 -9.023721973150774e-02
1.654693877551000e+11 5.133835667657862e-01 -9.267098640774371e-02
1.655102040816300e+11 5.115154112334270e-01 -9.467675418664351e-02
1.655510204081600e+11 5.093820681230538e-01 -9.717195578171373e-02
1.655918367346900e+11 5.072355093111914e-01 -9.914652081278806e-02
1.656326530612200e+11 5.042077738988585e-01 -1.026365077463837e-01
1.656734693877600e+11 5.018751920861457e-01 -1.042117895089915e-01
1.657142857142900e+11 4.995761599842883e-01 -1.039236240407622e-01
1.657551020408200e+11 4.975597644162878e-01 -1.043560874665853e-01
1.657959183673500e+11 4.969142210361499e-01 -1.034319759914396e-01
1.658367346938800e+11 4.961273078464655e-01 -1.021875100663044e-01
1.658775510204100e+11 4.965780246634089e-01 -1.011381617132448e-01
1.659183673469400e+11 4.974778338546006e-01 -9.906988854468192e-02
1.659591836734700e+11 5.000667253242045e-01 -9.494138300413218e-02
1.660000000000000e+11 5.020187019375378e-01 -9.195691484814307e-02
1.660408163265300e+11 5.046398563475349e-01 -8.927004661447634e-02
1.660816326530600e+11 5.078694503623390e-01 -8.717779718502250e-02
1.661224489795900e+11 5.114223017717197e-01 -8.699472964417812e-02
1.661632653061200e+11 5.150642224788878e-01 -8.588423137677828e-02
1.662040816326500e+11 5.169932013734987e-01 -8.622519772649059e-02
1.662448979591800e+11 5.206892384425121e-01 -8.405273632070798e-02
1.662857142857100e+11 5.232964396509698e-01 -8.390631630421758e-02
1.663265306122400e+11 5.264991141548867e-01 -8.520850694540211e-02
1.663673469387800e+11 5.294091856255592e-01 -8.463147902468222e-02
1.664081632653100e+11 5.305131990658203e-01 -8.570635819814493e-02
1.664489795918400e+11 5.305867917910566e-01 -8.734166836277212e-02
1.664897959183700e+11 5.323436126769541e-01 -8.843191877317565e-02
1.665306122449000e+11 5.338763421030494e-01 -8.929886922853693e-02
1.665714285714300e+11 5.353090067071863e-01 -9.151506243755889e-02
1.666122448979600e+11 5.360213883690815e-01 -9.205754941106287e-02
1.666530612244900e+11 5.367300763392288e-01 -9.192898437364350e-02
1.666938775510200e+11 5.371826572559624e-01 -9.211168403315219e-02
1.667346938775500e+11 5.366265818420399e-01 -9.336589087018045e-02
1.667755102040800e+11 5.372490439295251e-01 -9.387703913078672e-02
1.668163265306100e+11 5.389216490503049e-01 -9.539266778474668e-02
1.668571428571400e+11 5.389400085526158e-01 -9.649238047753031e-02
1.668979591836700e+11 5.378036417294427e-01 -9.843592854594847e-02
1.669387755102000e+11 5.359377875125871e-01 -1.016748506802349e-01
1.669795918367300e+11 5.350835832559027e-01 -1.043332421383021e-01
1.670204081632700e+11 5.346522776328955e-01 -1.057078008005587e-01
1.670612244898000e+11 5.319573983789000e-01 -1.092726896633983e-01
1.671020408163300e+11 5.297025102484587e-01 -1.113094145189100e-01
1.671428571428600e+11 5.265844910968478e-01 -1.154442431011965e-01
1.671836734693900e+11 5.243792566805457e-01 -1.165983100748632e-01
1.672244897959200e+11 5.217214163715874e-01 -1.183167198368766e-01
1.672653061224500e+11 5.179193292763661e-01 -1.207281806800089e-01
1.673061224489800e+11 5.157876027056615e-01 -1.231042715340169e-01
1.673469387755100e+11 5.137595931807232e-01 -1.244002214856206e-01
1.673877551020400e+11 5.116707145316797e-01 -1.244140559230059e-01
1.674285714285700e+11 5.094174114710756e-01 -1.245411962167119e-01
1.674693877551000e+11 5.081447778240615e-01 -1.257339731739405e-01
1.675102040816300e+11 5.066731621902126e-01 -1.271063926281606e-01
1.675510204081600e+11 5.047677173482525e-01 -1.286921209837445e-01
1.675918367346900e+11 5.043134271235946e-01 -1.282843521576494e-01
1.676326530612200e+11 5.032544078488004e-01 -1.274163610472911e-01
1.676734693877600e+11 5.026922006247057e-01 -1.271865855303916e-01
1.677142857142900e+11 5.016531912087279e-01 -1.284156932338120e-01
1.677551020408200e+11 5.005459470021039e-01 -1.297360334216333e-01
1.677959183673500e+11 4.994152661384020e-01 -1.308394479036374e-01
1.678367346938800e+11 4.986008637461075e-01 -1.312003267380162e-01
1.678775510204100e+11 4.976264794040864e-01 -1.317051118936287e-01
1.679183673469400e+11 4.955387990828840e-01 -1.336631799487545e-01
1.679591836734700e+11 4.933665126551585e-01 -1.360631298070134e-01
1.680000000000000e+11 4.911323887812609e-01 -1.381746261599221e-01
1.680408163265300e+11 4.883349033565856e-01 -1.398354187072281e-01
1.680816326530600e+11 4.853451450606334e-01 -1.424085895746795e-01
1.681224489795900e+11 4.815686341142080e-01 -1.450044714557192e-01
1.681632653061200e+11 4.783748229866403e-01 -1.461656012273775e-01
1.682040816326500e+11 4.776239875583929e-01 -1.454770679559319e-01
1.682448979591800e+11 4.759047392058128e-01 -1.453841767157563e-01
1.682857142857100e+11 4.736955972804899e-01 -1.455392653088809e-01
1.683265306122400e+11 4.720583877612752e-01 -1.454222750052637e-01
1.683673469387800e+11 4.710051758286287e-01 -1.450740747820621e-01
1.684081632653100e+11 4.710826793013126e-01 -1.437481912633215e-01
1.684489795918400e+11 4.707504924867262e-01 -1.438772855575996e-01
1.684897959183700e+11 4.718277355429970e-01 -1.424570060532234e-01
1.685306122449000e+11 4.720241719943609e-01 -1.422415344863478e-01
1.685714285714300e+11 4.729327802555215e-01 -1.425115245257303e-01
1.686122448979600e+11 4.731587643077809e-01 -1.441161422619377e-01
1.686530612244900e+11 4.736277367132762e-01 -1.448839088831929e-01
1.686938775510200e+11 4.741643176235451e-01 -1.457150044894766e-01
1.687346938775500e+11 4.731821810727311e-01 -1.474525627057682e-01
1.687755102040800e+11 4.715280180151489e-01 -1.505531549530962e-01
1.688163265306100e+11 4.702932925485915e-01 -1.528407654246838e-01
1.688571428571400e+11 4.692324123926626e-01 -1.546835226824782e-01
1.688979591836700e+11 4.666072831725753e-01 -1.579485101115308e-01
1.689387755102000e+11 4.648720506807234e-01 -1.594307562813025e-01
1.689795918367300e+11 4.626622214207502e-01 -1.616088795104379e-01
1.690204081632700e+11 4.600866957391813e-01 -1.640157842947235e-01
1.690612244898000e+11 4.574238682086882e-01 -1.656501734362864e-01
1.691020408163300e+11 4.547374677779652e-01 -1.670315429178791e-01
1.691428571428600e+11 4.521997985311452e-01 -1.681859141938020e-01
1.691836734693900e+11 4.495876511715473e-01 -1.696268876023507e-01
1.692244897959200e+11 4.467731490184521e-01 -1.713121972105496e-01
1.692653061224500e+11 4.442857751172037e-01 -1.722579289644605e-01
1.693061224489800e+11 4.418399260182846e-01 -1.723990551768848e-01
1.693469387755100e+11 4.401270430797911e-01 -1.724441018276303e-01
1.693877551020400e+11 4.381650097283794e-01 -1.725679256462187e-01
1.694285714285700e+11 4.357581193332934e-01 -1.733376539436069e-01
1.694693877551000e+11 4.341227985822517e-01 -1.734965177823736e-01
1.695102040816300e+11 4.325526462073028e-01 -1.731259830068946e-01
1.695510204081600e+11 4.305877598097746e-01 -1.731851184666510e-01
1.695918367346900e+11 4.289776029603196e-01 -1.727002768837750e-01
1.696326530612200e+11 4.272304293088781e-01 -1.733467958506609e-01
1.696734693877600e+11 4.252124067442084e-01 -1.736967440087702e-01
1.697142857142900e+11 4.231309401368475e-01 -1.742286936503811e-01
1.697551020408200e+11 4.212288742848853e-01 -1.743328579465518e-01
1.697959183673500e+11 4.193823680427962e-01 -1.739504690800699e-01
1.698367346938800e+11 4.190501584709557e-01 -1.718400586136742e-01
1.698775510204100e+11 4.180721040861311e-01 -1.699989391245096e-01
1.699183673469400e+11 4.165041230589398e-01 -1.687880096621722e-01
1.699591836734700e+11 4.159900580739108e-01 -1.672466718686669e-01
1.700000000000000e+11 4.156527853364039e-01 -1.658849844690705e-01
