! Generated by Phase I extraction
# Hz S RI R 50
1.100000000000000e+11 -1.079845811430750e+00 4.641324297554182e-02
1.100408163265300e+11 -1.067789789437275e+00 5.524686522882254e-02
1.100816326530600e+11 -1.067454562098141e+00 5.833016828710770e-02
1.101224489795900e+11 -1.067541755742474e+00 6.002948126535301e-02
1.101632653061200e+11 -1.067440639373784e+00 6.193495432810618e-02
1.102040816326500e+11 -1.068130421275600e+00 6.511155975808162e-02
1.102448979591800e+11 -1.068593505028634e+00 6.807742847982323e-02
1.102857142857100e+11 -1.068759087475071e+00 7.079885810917273e-02
1.103265306122400e+11 -1.068409184631766e+00 7.082435799898930e-02
1.103673469387800e+11 -1.068305245166394e+00 7.195005939034591e-02
1.104081632653100e+11 -1.067952883640399e+00 7.397381439225878e-02
1.104489795918400e+11 -1.067700749079687e+00 7.504557364859589e-02
1.104897959183700e+11 -1.067509772271205e+00 7.454241475454171e-02
1.105306122449000e+11 -1.067446111806402e+00 7.613219254719419e-02
1.105714285714300e+11 -1.067603619631251e+00 7.791842114156869e-02
1.106122448979600e+11 -1.067117747898447e+00 7.912736320751436e-02
1.106530612244900e+11 -1.067461750688665e+00 7.984667836420768e-02
1.106938775510200e+11 -1.067704487005279e+00 7.982770702813569e-02
1.107346938775500e+11 -1.067817395827138e+00 8.070605620853029e-02
1.107755102040800e+11 -1.067571937740617e+00 7.971060622344062e-02
1.108163265306100e+11 -1.067272511988154e+00 7.960433742709566e-02
1.108571428571400e+11 -1.067386745697005e+00 7.965776146495407e-02
1.108979591836700e+11 -1.067252969324075e+00 7.868618616697969e-02
1.109387755102000e+11 -1.067182000373155e+00 7.784414116537369e-02
1.109795918367300e+11 -1.066814989873549e+00 7.624084219696764e-02
1.110204081632700e+11 -1.066558334001784e+00 7.528991931815908e-02
1.110612244898000e+11 -1.066228626103107e+00 7.442229695004887e-02
1.111020408163300e+11 -1.066198695070027e+00 7.349450673471729e-02
1.111428571428600e+11 -1.065991506422639e+00 7.311681662876085e-02
1.111836734693900e+11 -1.065802344049716e+00 7.334912965543472e-02
1.112244897959200e+11 -1.065746132904584e+00 7.435437548641473e-02
1.112653061224500e+11 -1.065597249178353e+00 7.538249759047971e-02
1.113061224489800e+11 -1.065124591200219e+00 7.539309526593267e-02
1.113469387755100e+11 -1.065150883213610e+00 7.727221046944679e-02
1.113877551020400e+11 -1.065121007036919e+00 7.862317998059795e-02
1.114285714285700e+11 -1.065194924535272e+00 8.161101266323968e-02
1.114693877551000e+11 -1.064847035741086e+00 8.264993104706815e-02
1.115102040816300e+11 -1.064647104617720e+00 8.292383067586985e-02
1.115510204081600e+11 -1.064430307862979e+00 8.329435447405976e-02
1.115918367346900e+11 -1.064610749200395e+00 8.488690619597591e-02
1.116326530612200e+11 -1.064228689868695e+00 8.410203449005048e-02
1.116734693877600e+11 -1.064644642381789e+00 8.490519567274754e-02
1.117142857142900e+11 -1.064734366666040e+00 8.535385150577379e-02
1.117551020408200e+11 -1.064965683730281e+00 8.633075898272363e-02
1.117959183673500e+11 -1.064527763447811e+00 8.397228761201313e-02
1.118367346938800e+11 -1.064525686850494e+00 8.311940147051780e-02
1.118775510204100e+11 -1.064586489282165e+00 8.271384198595698e-02
1.119183673469400e+11 -1.064619159054116e+00 8.252926224295661e-02
1.119591836734700e+11 -1.064737250823495e+00 8.231699161309770e-02
1.120000000000000e+11 -1.064569428119573e+00 8.050098597473415e-02
1.120408163265300e+11 -1.064695011933033e+00 7.943595267408714e-02
1.120816326530600e+11 -1.064654294333240e+00 8.045581057106135e-02
1.121224489795900e+11 -1.064329846248040e+00 7.982090610428626e-02
1.121632653061200e+11 -1.064085714078080e+00 7.897457549144032e-02
1.122040816326500e+11 -1.064113968301033e+00 7.843394664986099e-02
1.122448979591800e+11 -1.063880408544957e+00 7.770610382771878e-02
1.122857142857100e+11 -1.063606389087952e+00 7.647879858598466e-02
1.123265306122400e+11 -1.063177263260898e+00 7.591281251806589e-02
1.123673469387800e+11 -1.062748604839677e+00 7.598144369734042e-02
1.124081632653100e+11 -1.062683605447361e+00 7.619040693999975e-02
1.124489795918400e+11 -1.062561996142167e+00 7.607775652251375e-02
1.124897959183700e+11 -1.062424323769497e+00 7.603238743782517e-02
1.125306122449000e+11 -1.062181217605545e+00 7.593324609488049e-02
1.125714285714300e+11 -1.062230716972478e+00 7.653743379929871e-02
1.126122448979600e+11 -1.062207304699670e+00 7.662525536430115e-02
1.126530612244900e+11 -1.062367301941220e+00 7.694393064650329e-02
1.126938775510200e+11 -1.062478574497318e+00 7.724506950997757e-02
1.127346938775500e+11 -1.062792948857546e+00 7.908987396410484e-02
1.127755102040800e+11 -1.063196323894777e+00 8.076428216878442e-02
1.128163265306100e+11 -1.063223828038145e+00 7.969936854250659e-02
1.128571428571400e+11 -1.063274526211698e+00 7.751061023497634e-02
1.128979591836700e+11 -1.062839090035591e+00 7.466991404306264e-02
1.129387755102000e+11 -1.062714004666165e+00 7.402214742494875e-02
1.129795918367300e+11 -1.062563242828684e+00 7.469984998635340e-02
1.130204081632700e+11 -1.062533949279864e+00 7.444839370582368e-02
1.130612244898000e+11 -1.062263697692336e+00 7.320656737235520e-02
1.131020408163300e+11 -1.062080892197842e+00 7.251390700512816e-02
1.131428571428600e+11 -1.061327742001980e+00 7.098781910642590e-02
1.131836734693900e+11 -1.061304586096534e+00 7.172403754880227e-02
1.132244897959200e+11 -1.061348671649074e+00 7.318343924133226e-02
1.132653061224500e+11 -1.061475542447439e+00 7.364620950380346e-02
1.133061224489800e+11 -1.061393017001548e+00 7.271682702065473e-02
1.133469387755100e+11 -1.061945272463853e+00 7.380508340732124e-02
1.133877551020400e+11 -1.062706240441847e+00 7.620519090889701e-02
1.134285714285700e+11 -1.062876760927526e+00 7.774242581829768e-02
1.134693877551000e+11 -1.062547419023880e+00 7.675472038147151e-02
1.135102040816300e+11 -1.062490906484441e+00 7.560843064447459e-02
1.135510204081600e+11 -1.062373180026186e+00 7.485438464064027e-02
1.135918367346900e+11 -1.062452335467145e+00 7.468557938370271e-02
1.136326530612200e+11 -1.062161340336419e+00 7.358423696626586e-02
1.136734693877600e+11 -1.061893843917262e+00 7.224834863669076e-02
1.137142857142900e+11 -1.061896836056697e+00 7.164290892533143e-02
1.137551020408200e+11 -1.061483904709486e+00 7.261655091847273e-02
1.137959183673500e+11 -1.061464541347990e+00 7.276730243313917e-02
1.138367346938800e+11 -1.061078179053936e+00 7.107700047159869e-02
1.138775510204100e+11 -1.060795266942150e+00 7.014017024798318e-02
1.139183673469400e+11 -1.061055388796529e+00 7.010295888562514e-02
1.139591836734700e+11 -1.061447340631565e+00 7.073413872125370e-02
1.140000000000000e+11 -1.062327383305955e+00 7.144729375741345e-02
1.140408163265300e+11 -1.062353609501430e+00 7.110435345995025e-02
1.140816326530600e+11 -1.062274244559984e+00 7.137167331387942e-02
1.141224489795900e+11 -1.062306524976572e+00 7.179744502548868e-02
1.141632653061200e+11 -1.062279931089465e+00 7.333095753307593e-02
1.142040816326500e+11 -1.062272104136818e+00 7.298619908121025e-02
1.142448979591800e+11 -1.062669054265402e+00 7.394337950923074e-02
1.142857142857100e+11 -1.061944933761540e+00 7.306988559003146e-02
1.143265306122400e+11 -1.061478836686321e+00 7.359096426145059e-02
1.143673469387800e+11 -1.061897860658895e+00 7.604155724319729e-02
1.144081632653100e+11 -1.062212317225047e+00 7.908523071188828e-02
1.144489795918400e+11 -1.062289963221680e+00 8.075193070197643e-02
1.144897959183700e+11 -1.061903825704836e+00 8.072346747300348e-02
1.145306122449000e+11 -1.062132552725432e+00 8.145914434817218e-02
1.145714285714300e+11 -1.062682329504302e+00 8.382053930902650e-02
1.146122448979600e+11 -1.062572639603220e+00 8.620395207638211e-02
1.146530612244900e+11 -1.062693818505549e+00 8.765952211293324e-02
1.146938775510200e+11 -1.062398058394756e+00 8.754399037424930e-02
1.147346938775500e+11 -1.062296438380199e+00 8.745246635558175e-02
1.147755102040800e+11 -1.062413411835022e+00 8.754307438844430e-02
1.148163265306100e+11 -1.062760405496521e+00 8.926006261049826e-02
1.148571428571400e+11 -1.062747235008059e+00 9.038032029082811e-02
1.148979591836700e+11 -1.062013919121369e+00 8.868958735039724e-02
1.149387755102000e+11 -1.061011830738536e+00 8.544461498931817e-02
1.149795918367300e+11 -1.061411938074954e+00 8.615846842861372e-02
1.150204081632700e+11 -1.061885769824934e+00 8.843944927876923e-02
1.150612244898000e+11 -1.061462250149339e+00 8.827033662196548e-02
1.151020408163300e+11 -1.061175276437479e+00 8.768833278297140e-02
1.151428571428600e+11 -1.060289728048837e+00 8.556099792096981e-02
1.151836734693900e+11 -1.059814856268319e+00 8.470001634726151e-02
1.152244897959200e+11 -1.060050569986970e+00 8.597643668383477e-02
1.152653061224500e+11 -1.059931402968864e+00 8.679895109454838e-02
1.153061224489800e+11 -1.060419783420551e+00 8.825114772628453e-02
1.153469387755100e+11 -1.060663839702594e+00 8.960784071594792e-02
1.153877551020400e+11 -1.060477296928873e+00 8.955117160339440e-02
1.154285714285700e+11 -1.060672783232876e+00 9.064842158889726e-02
1.154693877551000e+11 -1.060863298798747e+00 9.083954322971463e-02
1.155102040816300e+11 -1.061269060238701e+00 9.109142580805366e-02
1.155510204081600e+11 -1.061456363850617e+00 9.125176238942526e-02
1.155918367346900e+11 -1.061142979206744e+00 9.063358893762832e-02
1.156326530612200e+11 -1.061501879990466e+00 9.039079013546199e-02
1.156734693877600e+11 -1.061877180092248e+00 9.031820374415758e-02
1.157142857142900e+11 -1.061940157075639e+00 9.047132916717744e-02
1.157551020408200e+11 -1.061877126056129e+00 8.984036606307773e-02
1.157959183673500e+11 -1.061722004948717e+00 8.886145556351858e-02
1.158367346938800e+11 -1.061764619378049e+00 8.892780972332498e-02
1.158775510204100e+11 -1.061957445459841e+00 8.912110961380439e-02
1.159183673469400e+11 -1.062004917885856e+00 8.933764567472779e-02
1.159591836734700e+11 -1.062295765028969e+00 8.990247782140677e-02
1.160000000000000e+11 -1.062306855719991e+00 8.912991132231374e-02
1.160408163265300e+11 -1.062695462961125e+00 8.953673241639289e-02
1.160816326530600e+11 -1.062903442822928e+00 8.995840879156544e-02
1.161224489795900e+11 -1.062708988807835e+00 8.912612358835349e-02
1.161632653061200e+11 -1.062759417446043e+00 8.939860534559260e-02
1.162040816326500e+11 -1.062646557980222e+00 8.954258087007853e-02
1.162448979591800e+11 -1.062672621208910e+00 8.956618626459657e-02
1.162857142857100e+11 -1.062463464023253e+00 8.987218522335423e-02
1.163265306122400e+11 -1.062072184885220e+00 8.926439940780022e-02
1.163673469387800e+11 -1.061483458082785e+00 8.820779006137995e-02
1.164081632653100e+11 -1.061733036658900e+00 8.742688276346686e-02
1.164489795918400e+11 -1.061637601347855e+00 8.679020696006658e-02
1.164897959183700e+11 -1.061685363062319e+00 8.590432574104695e-02
1.165306122449000e+11 -1.061618667672127e+00 8.489432902237401e-02
1.165714285714300e+11 -1.061902371278678e+00 8.401418208946659e-02
1.166122448979600e+11 -1.062164422097804e+00 8.234701144484097e-02
1.166530612244900e+11 -1.062596177765649e+00 8.212446294120097e-02
1.166938775510200e+11 -1.062984529016430e+00 8.142516569955981e-02
1.167346938775500e+11 -1.063411962643495e+00 8.108315227905730e-02
1.167755102040800e+11 -1.063431001827022e+00 7.937058598009014e-02
1.168163265306100e+11 -1.063228986939084e+00 7.805226950763662e-02
1.168571428571400e+11 -1.063403039079734e+00 7.704748971266492e-02
1.168979591836700e+11 -1.063716531213066e+00 7.728833310239196e-02
1.169387755102000e+11 -1.063473824763245e+00 7.667402756005275e-02
1.169795918367300e+11 -1.063100580717125e+00 7.533494169778468e-02
1.170204081632700e+11 -1.062958771493191e+00 7.541751027109726e-02
1.170612244898000e+11 -1.063349205327556e+00 7.727092589089343e-02
1.171020408163300e+11 -1.062717980058804e+00 7.722407946457099e-02
1.171428571428600e+11 -1.062687463204171e+00 7.743122213224315e-02
1.171836734693900e+11 -1.062634170457906e+00 7.775748296348302e-02
1.172244897959200e+11 -1.062708981824285e+00 7.821703117075042e-02
1.172653061224500e+11 -1.062968882546770e+00 7.908108622899659e-02
1.173061224489800e+11 -1.063390129127668e+00 7.963980480683217e-02
1.173469387755100e+11 -1.063990492321244e+00 8.063355873190621e-02
1.173877551020400e+11 -1.064447188154118e+00 8.080080742826107e-02
1.174285714285700e+11 -1.064259625561991e+00 7.964325247740484e-02
1.174693877551000e+11 -1.064575788998677e+00 7.957601525855720e-02
1.175102040816300e+11 -1.064427383228195e+00 7.858541309956750e-02
1.175510204081600e+11 -1.064776003391697e+00 7.919387320285441e-02
1.175918367346900e+11 -1.065113243528101e+00 7.960716841430587e-02
1.176326530612200e+11 -1.065012801401194e+00 7.898721940861878e-02
1.176734693877600e+11 -1.064828252574022e+00 7.896239043593506e-02
1.177142857142900e+11 -1.064467885963464e+00 7.879636259955773e-02
1.177551020408200e+11 -1.063795282574747e+00 7.667850688954859e-02
1.177959183673500e+11 -1.063960694116094e+00 7.594266524157307e-02
1.178367346938800e+11 -1.063771476287257e+00 7.487590394777859e-02
1.178775510204100e+11 -1.064447052155753e+00 7.574319853501819e-02
1.179183673469400e+11 -1.064816753259237e+00 7.640932876582497e-02
1.179591836734700e+11 -1.064850805732562e+00 7.583165311842682e-02
1.180000000000000e+11 -1.065314163717770e+00 7.599828009516728e-02
1.180408163265300e+11 -1.065581482086433e+00 7.608910245150484e-02
1.180816326530600e+11 -1.065594711200526e+00 7.593571357570511e-02
1.181224489795900e+11 -1.065669519727205e+00 7.613823913590531e-02
1.181632653061200e+11 -1.065342909912381e+00 7.515314082148226e-02
1.182040816326500e+11 -1.065922464587428e+00 7.588365103801496e-02
1.182448979591800e+11 -1.065840170993089e+00 7.630445217904147e-02
1.182857142857100e+11 -1.065648445110035e+00 7.602414737468871e-02
1.183265306122400e+11 -1.065420290440102e+00 7.538032287333393e-02
1.183673469387800e+11 -1.065136244158195e+00 7.486595445062416e-02
1.184081632653100e+11 -1.064902157601173e+00 7.482365571798419e-02
1.184489795918400e+11 -1.064835875666316e+00 7.546072503086924e-02
1.184897959183700e+11 -1.064853479666874e+00 7.539689653780349e-02
1.185306122449000e+11 -1.064931452079525e+00 7.481733448341397e-02
1.185714285714300e+11 -1.065128892055530e+00 7.525238897097657e-02
1.186122448979600e+11 -1.065359757404497e+00 7.616650349440618e-02
1.186530612244900e+11 -1.065595115880688e+00 7.616750383461472e-02
1.186938775510200e+11 -1.065917805231117e+00 7.575973041740844e-02
1.187346938775500e+11 -1.065931457908141e+00 7.459715256191278e-02
1.187755102040800e+11 -1.066026854789832e+00 7.438257241079180e-02
1.188163265306100e+11 -1.065990483442491e+00 7.456412519720097e-02
1.188571428571400e+11 -1.066328823360020e+00 7.528558846718668e-02
1.188979591836700e+11 -1.066150163655531e+00 7.564540344196106e-02
1.189387755102000e+11 -1.065913778154351e+00 7.561040783497801e-02
1.189795918367300e+11 -1.065812767488556e+00 7.504342163482512e-02
1.190204081632700e+11 -1.065610311059077e+00 7.538319758667840e-02
1.190612244898000e+11 -1.065741884581968e+00 7.611904029862281e-02
1.191020408163300e+11 -1.065454405950159e+00 7.558128192935812e-02
1.191428571428600e+11 -1.065490941990985e+00 7.497162185853129e-02
1.191836734693900e+11 -1.065581809483619e+00 7.542043039839946e-02
1.192244897959200e+11 -1.066219285592599e+00 7.641794495594172e-02
1.192653061224500e+11 -1.066312929638178e+00 7.530516965339656e-02
1.193061224489800e+11 -1.066067252047915e+00 7.387960013346838e-02
1.193469387755100e+11 -1.066135389699512e+00 7.350187470780005e-02
1.193877551020400e+11 -1.066255774096305e+00 7.245998346145681e-02
1.194285714285700e+11 -1.066799427348541e+00 7.256263420547472e-02
1.194693877551000e+11 -1.067043071426176e+00 7.265642971773177e-02
1.195102040816300e+11 -1.066823451615461e+00 7.154398601995493e-02
1.195510204081600e+11 -1.066987762655325e+00 7.123594287864504e-02
1.195918367346900e+11 -1.066895783724291e+00 7.076942314105950e-02
1.196326530612200e+11 -1.066556427612437e+00 7.009864958611227e-02
1.196734693877600e+11 -1.066523961662035e+00 6.964184091532490e-02
1.197142857142900e+11 -1.066342918597696e+00 6.928490480945916e-02
1.197551020408200e+11 -1.065725731134323e+00 6.782658971984576e-02
1.197959183673500e+11 -1.065672578511618e+00 6.724182950783292e-02
1.198367346938800e+11 -1.065438254293886e+00 6.675745957818278e-02
1.198775510204100e+11 -1.065507380357184e+00 6.736607677583943e-02
1.199183673469400e+11 -1.065492361724488e+00 6.651475863163032e-02
1.199591836734700e+11 -1.065630074697610e+00 6.647012494405899e-02
1.200000000000000e+11 -1.065732561061865e+00 6.632380411697797e-02
1.200408163265300e+11 -1.065866919959691e+00 6.565325051335170e-02
1.200816326530600e+11 -1.065726585016114e+00 6.512145497209182e-02
1.201224489795900e+11 -1.065683108987614e+00 6.513085794211501e-02
1.201632653061200e+11 -1.065613724108933e+00 6.597008859130080e-02
1.202040816326500e+11 -1.065603886271635e+00 6.602991544228129e-02
1.202448979591800e+11 -1.064946207423725e+00 6.498055987418394e-02
1.202857142857100e+11 -1.064847979269933e+00 6.582383307382868e-02
1.203265306122400e+11 -1.065152718345853e+00 6.696379940363849e-02
1.203673469387800e+11 -1.065172658765215e+00 6.900857603808429e-02
1.204081632653100e+11 -1.064461452345432e+00 6.842849041199620e-02
1.204489795918400e+11 -1.064040612836088e+00 6.637826426700481e-02
1.204897959183700e+11 -1.064494669480729e+00 6.613995147598911e-02
1.205306122449000e+11 -1.065469302178399e+00 6.775065107144947e-02
1.205714285714300e+11 -1.066032756319588e+00 6.886340613616293e-02
1.206122448979600e+11 -1.066210024215969e+00 6.744355055663061e-02
1.206530612244900e+11 -1.066260381763195e+00 6.549334554675874e-02
1.206938775510200e+11 -1.066561640794017e+00 6.387564835682893e-02
1.207346938775500e+11 -1.067296896405183e+00 6.396897485331846e-02
1.207755102040800e+11 -1.067656588374611e+00 6.453908880973314e-02
1.208163265306100e+11 -1.067491155077436e+00 6.226797656415952e-02
1.208571428571400e+11 -1.067399168180236e+00 6.019189010927063e-02
1.208979591836700e+11 -1.067610465025740e+00 5.989438513527710e-02
1.209387755102000e+11 -1.067673706884268e+00 6.025148559908437e-02
1.209795918367300e+11 -1.067431760001453e+00 5.959659737636214e-02
1.210204081632700e+11 -1.067352026382110e+00 5.986790387655091e-02
1.210612244898000e+11 -1.067330944656955e+00 6.059278752479850e-02
1.211020408163300e+11 -1.067274123134882e+00 5.968358640191126e-02
1.211428571428600e+11 -1.067291087705149e+00 5.923723408501525e-02
1.211836734693900e+11 -1.067047254218059e+00 5.898078600896399e-02
1.212244897959200e+11 -1.067034438437919e+00 5.835566763033241e-02
1.212653061224500e+11 -1.066471203029498e+00 5.691908656406324e-02
1.213061224489800e+11 -1.066793557179038e+00 5.650450958585204e-02
1.213469387755100e+11 -1.066769869415395e+00 5.565587085042336e-02
1.213877551020400e+11 -1.067456073855098e+00 5.634472128719641e-02
1.214285714285700e+11 -1.067872172322879e+00 5.653019702637723e-02
1.214693877551000e+11 -1.067573284654722e+00 5.618249792870765e-02
1.215102040816300e+11 -1.066619505152553e+00 5.611172215454239e-02
1.215510204081600e+11 -1.066756304301596e+00 5.704678724917665e-02
1.215918367346900e+11 -1.066878051555571e+00 5.712786281473039e-02
1.216326530612200e+11 -1.067029607552245e+00 5.864552479314728e-02
1.216734693877600e+11 -1.066478673459233e+00 5.901202448564652e-02
1.217142857142900e+11 -1.066222737451408e+00 5.937829928290307e-02
1.217551020408200e+11 -1.066002936153825e+00 5.972507437135927e-02
1.217959183673500e+11 -1.065853447835085e+00 5.953066021760361e-02
1.218367346938800e+11 -1.066080932639874e+00 5.949416124403502e-02
1.218775510204100e+11 -1.066115096324062e+00 5.965867897640806e-02
1.219183673469400e+11 -1.066164901158688e+00 5.939466543073185e-02
1.219591836734700e+11 -1.066360227176951e+00 6.002615822319815e-02
1.220000000000000e+11 -1.066789984055925e+00 5.984735987007372e-02
1.220408163265300e+11 -1.067540690194650e+00 6.024970456766243e-02
1.220816326530600e+11 -1.067240085352731e+00 5.893551247427555e-02
1.221224489795900e+11 -1.066624014857242e+00 5.756483000294119e-02
1.221632653061200e+11 -1.066170478234756e+00 5.680730721992421e-02
1.222040816326500e+11 -1.066341724281670e+00 5.783754749172113e-02
1.222448979591800e+11 -1.066042005293441e+00 5.787452902623985e-02
1.222857142857100e+11 -1.065708348479239e+00 5.765738488991744e-02
1.223265306122400e+11 -1.065320302140479e+00 5.783360147244892e-02
1.223673469387800e+11 -1.065811217091740e+00 5.976985699605222e-02
1.224081632653100e+11 -1.065740387731013e+00 6.188635841643141e-02
1.224489795918400e+11 -1.065460262220482e+00 6.219003884528881e-02
1.224897959183700e+11 -1.065756549535454e+00 6.273812476750022e-02
1.225306122449000e+11 -1.065247417387954e+00 6.146756348918585e-02
1.225714285714300e+11 -1.065641043703237e+00 6.136248854166737e-02
1.226122448979600e+11 -1.066076975982355e+00 6.170223446194899e-02
1.226530612244900e+11 -1.066399375615643e+00 6.114887837279916e-02
1.226938775510200e+11 -1.066779491578443e+00 6.047109348811670e-02
1.227346938775500e+11 -1.067145735982988e+00 5.995609696082624e-02
1.227755102040800e+11 -1.066709330244501e+00 5.876435854310853e-02
1.228163265306100e+11 -1.066431265938870e+00 5.850884950549733e-02
1.228571428571400e+11 -1.066607661210229e+00 5.932187054872066e-02
1.228979591836700e+11 -1.066345317626680e+00 5.915556774282028e-02
1.229387755102000e+11 -1.066394150150882e+00 5.969358990884132e-02
1.229795918367300e+11 -1.064991412728306e+00 5.837486696699329e-02
1.230204081632700e+11 -1.064783168949651e+00 5.701353836112798e-02
1.230612244898000e+11 -1.065328277326721e+00 5.807521744530828e-02
1.231020408163300e+11 -1.065316544681987e+00 5.945528647699279e-02
1.231428571428600e+11 -1.065254617665432e+00 5.961039434985525e-02
1.231836734693900e+11 -1.065387191353873e+00 6.071230019127494e-02
1.232244897959200e+11 -1.065593033838567e+00 6.176565308490260e-02
1.232653061224500e+11 -1.066193014469065e+00 6.319998628516553e-02
1.233061224489800e+11 -1.065806272838126e+00 6.278413969268994e-02
1.233469387755100e+11 -1.066058245723538e+00 6.292713876286814e-02
1.233877551020400e+11 -1.066094777726123e+00 6.294563899956827e-02
1.234285714285700e+11 -1.066547932398622e+00 6.280361173401307e-02
1.234693877551000e+11 -1.066539101071418e+00 6.332345834245479e-02
1.235102040816300e+11 -1.066329569074845e+00 6.304173908460066e-02
1.235510204081600e+11 -1.066443799447072e+00 6.414774501253692e-02
1.235918367346900e+11 -1.066190053177736e+00 6.364758014572244e-02
1.236326530612200e+11 -1.066288570131819e+00 6.463397620255300e-02
1.236734693877600e+11 -1.066082939727159e+00 6.441120703457863e-02
1.237142857142900e+11 -1.065939736170992e+00 6.411905045066071e-02
1.237551020408200e+11 -1.065737939232148e+00 6.425524622475630e-02
1.237959183673500e+11 -1.065738139231597e+00 6.464633119658895e-02
1.238367346938800e+11 -1.066054256387537e+00 6.608771317047663e-02
1.238775510204100e+11 -1.066141411202931e+00 6.723233247655716e-02
1.239183673469400e+11 -1.066182851225377e+00 6.606000252395806e-02
1.239591836734700e+11 -1.066159558888512e+00 6.462904673630462e-02
1.240000000000000e+11 -1.066231271128051e+00 6.411165739547924e-02
1.240408163265300e+11 -1.066570121876974e+00 6.346224850114182e-02
1.240816326530600e+11 -1.067043576293228e+00 6.386719080366701e-02
1.241224489795900e+11 -1.066906897856840e+00 6.381271202331852e-02
1.241632653061200e+11 -1.066626305060200e+00 6.343253344650188e-02
1.242040816326500e+11 -1.066512687384701e+00 6.366947640021539e-02
1.242448979591800e+11 -1.065843950442395e+00 6.243399214973497e-02
1.242857142857100e+11 -1.065357050973479e+00 6.168156809181601e-02
1.243265306122400e+11 -1.065246346216387e+00 6.194655336421599e-02
1.243673469387800e+11 -1.065100158099893e+00 6.289786421824269e-02
1.244081632653100e+11 -1.064665058108590e+00 6.373123796918118e-02
1.244489795918400e+11 -1.064392230650142e+00 6.325679940470195e-02
1.244897959183700e+11 -1.064520972047761e+00 6.432884044823887e-02
1.245306122449000e+11 -1.064661783955378e+00 6.503629059309673e-02
1.245714285714300e+11 -1.064925517524075e+00 6.543246765635218e-02
1.246122448979600e+11 -1.064734994587660e+00 6.516687966463906e-02
1.246530612244900e+11 -1.064843270078097e+00 6.422894657977259e-02
1.246938775510200e+11 -1.065358523645162e+00 6.500236531457047e-02
1.247346938775500e+11 -1.065853895549927e+00 6.483324689472811e-02
1.247755102040800e+11 -1.065912378620099e+00 6.413212862824745e-02
1.248163265306100e+11 -1.065544396253191e+00 6.309602032269129e-02
1.248571428571400e+11 -1.065776685685287e+00 6.330955831714676e-02
1.248979591836700e+11 -1.066332475675488e+00 6.408693223022485e-02
1.249387755102000e+11 -1.066148151448657e+00 6.268975693688696e-02
1.249795918367300e+11 -1.065234076386797e+00 5.966977797420162e-02
1.250204081632700e+11 -1.064620392151991e+00 5.849020859860674e-02
1.250612244898000e+11 -1.064626526173084e+00 5.914678667647372e-02
1.251020408163300e+11 -1.064527959825443e+00 5.905456362096023e-02
1.251428571428600e+11 -1.064307406670037e+00 5.856437377940496e-02
1.251836734693900e+11 -1.064394167474195e+00 5.910405355340381e-02
1.252244897959200e+11 -1.064543268226686e+00 5.978646145012194e-02
1.252653061224500e+11 -1.064779250965013e+00 6.155300861800746e-02
1.253061224489800e+11 -1.064823697313166e+00 6.256430116848445e-02
1.253469387755100e+11 -1.064666571459610e+00 6.235925353201682e-02
1.253877551020400e+11 -1.064941800980577e+00 6.293962542655848e-02
1.254285714285700e+11 -1.065404229669934e+00 6.381143404315465e-02
1.254693877551000e+11 -1.065281888812484e+00 6.262811135064777e-02
1.255102040816300e+11 -1.065219863593310e+00 6.125131629417919e-02
1.255510204081600e+11 -1.065433298746797e+00 6.055169546432890e-02
1.255918367346900e+11 -1.065579002731746e+00 6.112251339704667e-02
1.256326530612200e+11 -1.065567331890428e+00 6.161325752428891e-02
1.256734693877600e+11 -1.065428970911805e+00 6.188074171423030e-02
1.257142857142900e+11 -1.065167421934107e+00 6.143297180695494e-02
1.257551020408200e+11 -1.064703369266955e+00 6.081414690610025e-02
1.257959183673500e+11 -1.064311960908959e+00 5.962214264054631e-02
1.258367346938800e+11 -1.064406107911424e+00 5.986509753950067e-02
1.258775510204100e+11 -1.064840982033785e+00 6.129703818826501e-02
1.259183673469400e+11 -1.064827167259741e+00 6.076519969578868e-02
1.259591836734700e+11 -1.064795415172890e+00 6.022945072331159e-02
1.260000000000000e+11 -1.065425441679481e+00 6.053414168784294e-02
1.260408163265300e+11 -1.065671709845805e+00 6.037327025934074e-02
1.260816326530600e+11 -1.065815349731315e+00 6.019472424485116e-02
1.261224489795900e+11 -1.066309449650479e+00 6.047641481470971e-02
1.261632653061200e+11 -1.066038348459719e+00 5.902401727950640e-02
1.262040816326500e+11 -1.065959877600760e+00 5.769791813172623e-02
1.262448979591800e+11 -1.065706825422374e+00 5.717511280544357e-02
1.262857142857100e+11 -1.065547745128193e+00 5.689855638046096e-02
1.263265306122400e+11 -1.065660357493398e+00 5.730059443047100e-02
1.263673469387800e+11 -1.065359704595054e+00 5.719887207790724e-02
1.264081632653100e+11 -1.064892066456369e+00 5.630121210014120e-02
1.264489795918400e+11 -1.064501233797627e+00 5.591680190537988e-02
1.264897959183700e+11 -1.064339145446670e+00 5.651001882087114e-02
1.265306122449000e+11 -1.064666638046640e+00 5.770194334982762e-02
1.265714285714300e+11 -1.064697749637209e+00 5.835520881567914e-02
1.266122448979600e+11 -1.064811763960540e+00 5.877853995427598e-02
1.266530612244900e+11 -1.065280530242683e+00 6.020031552371900e-02
1.266938775510200e+11 -1.065358792998892e+00 6.005846146345355e-02
1.267346938775500e+11 -1.065728544860487e+00 6.081829983872154e-02
1.267755102040800e+11 -1.066083076101985e+00 6.042201495177611e-02
1.268163265306100e+11 -1.066397880979149e+00 6.027484975085688e-02
1.268571428571400e+11 -1.066679808654797e+00 6.012878543578477e-02
1.268979591836700e+11 -1.067137260853486e+00 6.026376403975235e-02
1.269387755102000e+11 -1.067261149972163e+00 6.055877707367339e-02
1.269795918367300e+11 -1.067351463149489e+00 6.026595057729214e-02
1.270204081632700e+11 -1.067047332594328e+00 5.971032707171475e-02
1.270612244898000e+11 -1.066564134141955e+00 5.869583612138260e-02
1.271020408163300e+11 -1.066283014633973e+00 5.808540119203061e-02
1.271428571428600e+11 -1.066324515894768e+00 5.818827296061732e-02
1.271836734693900e+11 -1.066434442894239e+00 5.849194107061499e-02
1.272244897959200e+11 -1.066279916201407e+00 5.814269355371785e-02
1.272653061224500e+11 -1.066023489984278e+00 5.758537081077651e-02
1.273061224489800e+11 -1.066246751970346e+00 5.761270973233303e-02
1.273469387755100e+11 -1.066685415290393e+00 5.786081681115279e-02
1.273877551020400e+11 -1.067465895043214e+00 5.816706167589585e-02
1.274285714285700e+11 -1.067517106222253e+00 5.773722735686041e-02
1.274693877551000e+11 -1.067678086037608e+00 5.732303355152606e-02
1.275102040816300e+11 -1.067427208170641e+00 5.677245323516011e-02
1.275510204081600e+11 -1.068171560921493e+00 5.710924792093840e-02
1.275918367346900e+11 -1.068595617490940e+00 5.730434398889584e-02
1.276326530612200e+11 -1.068666821057046e+00 5.814038032992009e-02
1.276734693877600e+11 -1.068516812186659e+00 5.758803162803335e-02
1.277142857142900e+11 -1.068194408437354e+00 5.759026015266105e-02
1.277551020408200e+11 -1.068078430424690e+00 5.811102976638473e-02
1.277959183673500e+11 -1.068151634086477e+00 5.868942307340078e-02
1.278367346938800e+11 -1.067974976526970e+00 5.861804964540784e-02
1.278775510204100e+11 -1.067958270965225e+00 5.837422625626434e-02
1.279183673469400e+11 -1.067910906280763e+00 5.824373290341087e-02
1.279591836734700e+11 -1.068414687984012e+00 5.863644820682573e-02
1.280000000000000e+11 -1.068303384058172e+00 5.776879234231479e-02
1.280408163265300e+11 -1.068315855150764e+00 5.675073148982002e-02
1.280816326530600e+11 -1.068391056808925e+00 5.599202990772535e-02
1.281224489795900e+11 -1.068648096199668e+00 5.553598161346299e-02
1.281632653061200e+11 -1.068645962242257e+00 5.435207931072673e-02
1.282040816326500e+11 -1.068867742208516e+00 5.386618530787327e-02
1.282448979591800e+11 -1.069319494789664e+00 5.404881884634967e-02
1.282857142857100e+11 -1.069190535588338e+00 5.370207557969180e-02
1.283265306122400e+11 -1.069452230063960e+00 5.415681771259560e-02
1.283673469387800e+11 -1.069086535654849e+00 5.381439294169463e-02
1.284081632653100e+11 -1.069155990461315e+00 5.419020171046179e-02
1.284489795918400e+11 -1.069115920358251e+00 5.447026902523665e-02
1.284897959183700e+11 -1.068981421120602e+00 5.467941168458353e-02
1.285306122449000e+11 -1.068735057672026e+00 5.465415126098257e-02
1.285714285714300e+11 -1.069023580305539e+00 5.527018713428700e-02
1.286122448979600e+11 -1.068562564527206e+00 5.510836692271333e-02
1.286530612244900e+11 -1.068582382947344e+00 5.510847279613873e-02
1.286938775510200e+11 -1.068841148124059e+00 5.497277585518565e-02
1.287346938775500e+11 -1.069332205276672e+00 5.514362004393440e-02
1.287755102040800e+11 -1.070033530537757e+00 5.616816456973108e-02
1.288163265306100e+11 -1.070325891084062e+00 5.685339458077061e-02
1.288571428571400e+11 -1.070621146485707e+00 5.676869651139989e-02
1.288979591836700e+11 -1.070790975965153e+00 5.649058769963716e-02
1.289387755102000e+11 -1.070589983513127e+00 5.523228711387117e-02
1.289795918367300e+11 -1.070296897259568e+00 5.343409109315268e-02
1.290204081632700e+11 -1.070635841124448e+00 5.374134490079400e-02
1.290612244898000e+11 -1.071152386609899e+00 5.367202801973095e-02
1.291020408163300e+11 -1.071177161702223e+00 5.233263935384717e-02
1.291428571428600e+11 -1.071281685804073e+00 5.115490727068870e-02
1.291836734693900e+11 -1.071524034156857e+00 5.050322695884023e-02
1.292244897959200e+11 -1.071033323280091e+00 4.898205150027558e-02
1.292653061224500e+11 -1.071370265373868e+00 4.853203578865428e-02
1.293061224489800e+11 -1.072279585440442e+00 4.918645957503925e-02
1.293469387755100e+11 -1.071918079318546e+00 4.812645993152703e-02
1.293877551020400e+11 -1.071089585176487e+00 4.638117960495254e-02
1.294285714285700e+11 -1.070898857204892e+00 4.464378916767991e-02
1.294693877551000e+11 -1.071531790360029e+00 4.435407173598045e-02
1.295102040816300e+11 -1.071444033310188e+00 4.399017143813194e-02
1.295510204081600e+11 -1.071768231072451e+00 4.472387812066161e-02
1.295918367346900e+11 -1.070915990340846e+00 4.398482718315001e-02
1.296326530612200e+11 -1.071206369046280e+00 4.361156059810011e-02
1.296734693877600e+11 -1.071236527823215e+00 4.406213709866371e-02
1.297142857142900e+11 -1.071084611983719e+00 4.448227117088466e-02
1.297551020408200e+11 -1.070839969707802e+00 4.480611460261411e-02
1.297959183673500e+11 -1.070535484388509e+00 4.525316614930196e-02
1.298367346938800e+11 -1.070007638080572e+00 4.540054619139342e-02
1.298775510204100e+11 -1.070351441756916e+00 4.588713849504274e-02
1.299183673469400e+11 -1.070347777421068e+00 4.714681856371598e-02
1.299591836734700e+11 -1.070392834465065e+00 4.799227131439337e-02
1.300000000000000e+11 -1.070277462242924e+00 4.818900123212247e-02
1.300408163265300e+11 -1.070108172650922e+00 4.853423810047370e-02
1.300816326530600e+11 -1.070462305028865e+00 4.881658900127470e-02
1.301224489795900e+11 -1.070018519822367e+00 4.800436727472071e-02
1.301632653061200e+11 -1.070392560629397e+00 4.771457424136839e-02
1.302040816326500e+11 -1.071229973596207e+00 4.764480241275978e-02
1.302448979591800e+11 -1.071200448013902e+00 4.656808691948636e-02
1.302857142857100e+11 -1.071535708812872e+00 4.589975807209552e-02
1.303265306122400e+11 -1.071247275664269e+00 4.521714401412612e-02
1.303673469387800e+11 -1.071266130558508e+00 4.381666386926198e-02
1.304081632653100e+11 -1.071627042465217e+00 4.342096386393412e-02
1.304489795918400e+11 -1.071515184490163e+00 4.327209982356562e-02
1.304897959183700e+11 -1.071048117313887e+00 4.228958239783903e-02
1.305306122449000e+11 -1.070521274489286e+00 4.129097629858802e-02
1.305714285714300e+11 -1.070081719653578e+00 4.002579616421632e-02
1.306122448979600e+11 -1.069915021851702e+00 3.927747747328680e-02
1.306530612244900e+11 -1.069935355683365e+00 3.836822585785687e-02
1.306938775510200e+11 -1.069630479532889e+00 3.767899269025494e-02
1.307346938775500e+11 -1.069310372383051e+00 3.776899549748804e-02
1.307755102040800e+11 -1.069273915625292e+00 3.795819169823668e-02
1.308163265306100e+11 -1.069354311779046e+00 3.802269159546295e-02
1.308571428571400e+11 -1.069496510573681e+00 3.684365738495708e-02
1.308979591836700e+11 -1.069711824710877e+00 3.663589595970960e-02
1.309387755102000e+11 -1.069835249666032e+00 3.654583640630193e-02
1.309795918367300e+11 -1.069935242494212e+00 3.557603791759698e-02
1.310204081632700e+11 -1.069527513949058e+00 3.502765199808412e-02
1.310612244898000e+11 -1.069918261710860e+00 3.533997322409025e-02
1.311020408163300e+11 -1.069777353428432e+00 3.604602272314299e-02
1.311428571428600e+11 -1.069261724104138e+00 3.553518805419761e-02
1.311836734693900e+11 -1.068893387271233e+00 3.515650889489522e-02
1.312244897959200e+11 -1.068689646532817e+00 3.377466464539262e-02
1.312653061224500e+11 -1.068561954890801e+00 3.368388070150981e-02
1.313061224489800e+11 -1.067726422471566e+00 3.284449379802978e-02
1.313469387755100e+11 -1.067558197097366e+00 3.278336633021451e-02
1.313877551020400e+11 -1.067639482636965e+00 3.272020884041012e-02
1.314285714285700e+11 -1.067537204143940e+00 3.184846791685814e-02
1.314693877551000e+11 -1.067227438400874e+00 3.153409660068999e-02
1.315102040816300e+11 -1.067068490787037e+00 3.166342893792125e-02
1.315510204081600e+11 -1.067390316426557e+00 3.168422861638702e-02
1.315918367346900e+11 -1.067283087443468e+00 3.165111207087445e-02
1.316326530612200e+11 -1.067747946782867e+00 3.188408218177664e-02
1.316734693877600e+11 -1.068067892418992e+00 3.254000030682365e-02
1.317142857142900e+11 -1.067813467484817e+00 3.161113027172078e-02
1.317551020408200e+11 -1.067677664328145e+00 3.131484551962802e-02
1.317959183673500e+11 -1.067635227954519e+00 3.153198007124792e-02
1.318367346938800e+11 -1.067654866460777e+00 3.083565778132001e-02
1.318775510204100e+11 -1.067484294749266e+00 3.077147205833703e-02
1.319183673469400e+11 -1.066613323683221e+00 2.807040257368550e-02
1.319591836734700e+11 -1.066666538674810e+00 2.889714528316167e-02
1.320000000000000e+11 -1.066455147900434e+00 2.927943511226165e-02
1.320408163265300e+11 -1.066185452089028e+00 2.825637339033843e-02
1.320816326530600e+11 -1.066477657914525e+00 2.848804470584685e-02
1.321224489795900e+11 -1.066596031225649e+00 2.865178386418467e-02
1.321632653061200e+11 -1.066737345042502e+00 2.889159349869484e-02
1.322040816326500e+11 -1.066893819493226e+00 3.057532605748768e-02
1.322448979591800e+11 -1.066664201769097e+00 2.965270533718002e-02
1.322857142857100e+11 -1.066856209852110e+00 2.996259696030491e-02
1.323265306122400e+11 -1.067352388472181e+00 2.976325781512301e-02
1.323673469387800e+11 -1.066943288111189e+00 2.833663736746647e-02
1.324081632653100e+11 -1.067795233246609e+00 2.798004955564642e-02
1.324489795918400e+11 -1.067697162559343e+00 2.762303655303291e-02
1.324897959183700e+11 -1.067719227646812e+00 2.805914049647660e-02
1.325306122449000e+11 -1.067514096075963e+00 2.698764987069011e-02
1.325714285714300e+11 -1.067547732757577e+00 2.666223337166421e-02
1.326122448979600e+11 -1.067148463522663e+00 2.531863171575367e-02
1.326530612244900e+11 -1.065945179848154e+00 2.340007266671674e-02
1.326938775510200e+11 -1.065962563429551e+00 2.339358590345222e-02
1.327346938775500e+11 -1.065009944137895e+00 2.058929829846202e-02
1.327755102040800e+11 -1.065078539158461e+00 2.058904109475920e-02
1.328163265306100e+11 -1.065003167973154e+00 1.987615677249871e-02
1.328571428571400e+11 -1.064236402104717e+00 2.065509999048363e-02
1.328979591836700e+11 -1.064024548359193e+00 2.143314779780326e-02
1.329387755102000e+11 -1.063595495523268e+00 2.229064836735992e-02
1.329795918367300e+11 -1.063856846164903e+00 2.227602172797114e-02
1.330204081632700e+11 -1.063876717274152e+00 2.342229283225535e-02
1.330612244898000e+11 -1.064225192493004e+00 2.468033756827699e-02
1.331020408163300e+11 -1.064294008500041e+00 2.595705509520184e-02
1.331428571428600e+11 -1.064599781724321e+00 2.754937419032883e-02
1.331836734693900e+11 -1.064758292875722e+00 2.867773063278380e-02
1.332244897959200e+11 -1.064883262608352e+00 2.923756424727101e-02
1.332653061224500e+11 -1.065134421633100e+00 3.061892130711853e-02
1.333061224489800e+11 -1.065257218480337e+00 3.124436500685545e-02
1.333469387755100e+11 -1.065387662601644e+00 3.140056822127156e-02
1.333877551020400e+11 -1.065524112745603e+00 3.201710407963215e-02
1.334285714285700e+11 -1.065299878583465e+00 3.142915061029691e-02
1.334693877551000e+11 -1.064878543523428e+00 3.086094321052313e-02
1.335102040816300e+11 -1.064577132701727e+00 3.036301789406451e-02
1.335510204081600e+11 -1.064138067401869e+00 2.979546998313705e-02
1.335918367346900e+11 -1.064409346467944e+00 2.893329562584886e-02
1.336326530612200e+11 -1.064171276740935e+00 2.947330742506408e-02
1.336734693877600e+11 -1.064072588029806e+00 2.968891360829241e-02
1.337142857142900e+11 -1.064306512527376e+00 2.933179214842950e-02
1.337551020408200e+11 -1.064545994155918e+00 2.902464544074602e-02
1.337959183673500e+11 -1.065155108565161e+00 2.916726903684256e-02
1.338367346938800e+11 -1.065080171305157e+00 2.981515183395227e-02
1.338775510204100e+11 -1.065335575811411e+00 3.006167986513771e-02
1.339183673469400e+11 -1.065297032264562e+00 3.048538863111025e-02
1.339591836734700e+11 -1.065889536319478e+00 2.918907726938557e-02
1.340000000000000e+11 -1.065712057779495e+00 2.831415374571404e-02
1.340408163265300e+11 -1.065382331089013e+00 2.758601200089776e-02
1.340816326530600e+11 -1.064963675750836e+00 2.741159230288659e-02
1.341224489795900e+11 -1.064728940329459e+00 2.654586175812576e-02
1.341632653061200e+11 -1.064644892773639e+00 2.645008339517621e-02
1.342040816326500e+11 -1.064506658020926e+00 2.673092920106337e-02
1.342448979591800e+11 -1.063950252244020e+00 2.653407483031440e-02
1.342857142857100e+11 -1.063065049997194e+00 2.758025272759566e-02
1.343265306122400e+11 -1.062842192250762e+00 2.759172004357210e-02
1.343673469387800e+11 -1.062928477108639e+00 2.759018730044346e-02
1.344081632653100e+11 -1.062259210851803e+00 2.790021604788853e-02
1.344489795918400e+11 -1.062544649007395e+00 2.964896561947754e-02
1.344897959183700e+11 -1.062759898654760e+00 3.219716383383762e-02
1.345306122449000e+11 -1.062962640923895e+00 3.391502978589021e-02
1.345714285714300e+11 -1.063314731979395e+00 3.435038455689411e-02
1.346122448979600e+11 -1.063929112340957e+00 3.548440620710839e-02
1.346530612244900e+11 -1.064472494786164e+00 3.579836635711145e-02
1.346938775510200e+11 -1.064705101642027e+00 3.570691892847164e-02
1.347346938775500e+11 -1.064994417262588e+00 3.586673561543012e-02
1.347755102040800e+11 -1.065901528378010e+00 3.632614086578076e-02
1.348163265306100e+11 -1.065808518413816e+00 3.629745307744180e-02
1.348571428571400e+11 -1.065761375984133e+00 3.582987305651474e-02
1.348979591836700e+11 -1.065134715831022e+00 3.538784926236898e-02
1.349387755102000e+11 -1.064973330971970e+00 3.476423715231369e-02
1.349795918367300e+11 -1.065099501011633e+00 3.365488696957075e-02
1.350204081632700e+11 -1.064699195119855e+00 3.254164397637821e-02
1.350612244898000e+11 -1.063848208274564e+00 3.273419553049292e-02
1.351020408163300e+11 -1.063281039233577e+00 3.228957608959427e-02
1.351428571428600e+11 -1.063194238060865e+00 3.204161899595117e-02
1.351836734693900e+11 -1.062779550345401e+00 3.194081577053994e-02
1.352244897959200e+11 -1.063130564028866e+00 3.326147815010599e-02
1.352653061224500e+11 -1.063374004915201e+00 3.356647726983662e-02
1.353061224489800e+11 -1.063278958348967e+00 3.324645032445378e-02
1.353469387755100e+11 -1.063876906220718e+00 3.485128574583848e-02
1.353877551020400e+11 -1.064665768559128e+00 3.595691005692692e-02
1.354285714285700e+11 -1.065026810424420e+00 3.639074238416717e-02
1.354693877551000e+11 -1.065440142685088e+00 3.606517852088020e-02
1.355102040816300e+11 -1.065672734424174e+00 3.579453276342109e-02
1.355510204081600e+11 -1.066428844708499e+00 3.735401457950931e-02
1.355918367346900e+11 -1.066992573919531e+00 3.773266937649496e-02
1.356326530612200e+11 -1.067884273861938e+00 3.841868946065080e-02
1.356734693877600e+11 -1.067818658916636e+00 3.851670687997199e-02
1.357142857142900e+11 -1.067663521609448e+00 3.892579187043499e-02
1.357551020408200e+11 -1.067238189745751e+00 3.939558985627255e-02
1.357959183673500e+11 -1.067173399499790e+00 3.960482158422483e-02
1.358367346938800e+11 -1.066622093097111e+00 3.832237039363008e-02
1.358775510204100e+11 -1.066212912852676e+00 3.700030751756197e-02
1.359183673469400e+11 -1.065823448252052e+00 3.659012128589723e-02
1.359591836734700e+11 -1.065896212841175e+00 3.595936546382566e-02
1.360000000000000e+11 -1.066369820988631e+00 3.593863930533612e-02
1.360408163265300e+11 -1.066347949654854e+00 3.481571697616712e-02
1.360816326530600e+11 -1.066647282317144e+00 3.379021605295550e-02
1.361224489795900e+11 -1.067060810855089e+00 3.435274829111482e-02
1.361632653061200e+11 -1.066743991389265e+00 3.296568858504522e-02
1.362040816326500e+11 -1.067260151140909e+00 3.200106784411255e-02
1.362448979591800e+11 -1.067703124326855e+00 3.202163998853386e-02
1.362857142857100e+11 -1.067959026575334e+00 3.139449870089688e-02
1.363265306122400e+11 -1.068300948121826e+00 3.067310911253739e-02
1.363673469387800e+11 -1.067854345230045e+00 3.002317419025262e-02
1.364081632653100e+11 -1.067597825734422e+00 3.009670923761588e-02
1.364489795918400e+11 -1.067221805814003e+00 3.002820461860222e-02
1.364897959183700e+11 -1.066697063921315e+00 2.944597549867391e-02
1.365306122449000e+11 -1.066063455435960e+00 2.950943012555480e-02
1.365714285714300e+11 -1.065181620781556e+00 2.934108361750222e-02
1.366122448979600e+11 -1.064723605818203e+00 2.843311439905782e-02
1.366530612244900e+11 -1.064373218998780e+00 2.820758551784116e-02
1.366938775510200e+11 -1.064185505644997e+00 2.783771897393069e-02
1.367346938775500e+11 -1.064443812043356e+00 2.836986906245869e-02
1.367755102040800e+11 -1.064417710210767e+00 2.886158987193357e-02
1.368163265306100e+11 -1.065003399819379e+00 2.835944466805239e-02
1.368571428571400e+11 -1.065597159354039e+00 2.818005423533654e-02
1.368979591836700e+11 -1.065969273049878e+00 2.820096431871426e-02
1.369387755102000e+11 -1.065923767053198e+00 2.725417458816721e-02
1.369795918367300e+11 -1.066415150096859e+00 2.652540390876339e-02
1.370204081632700e+11 -1.067145218958601e+00 2.661348936359244e-02
1.370612244898000e+11 -1.067458053174626e+00 2.565711522174664e-02
1.371020408163300e+11 -1.067977077210380e+00 2.517983693031876e-02
1.371428571428600e+11 -1.068094373044039e+00 2.530063803745095e-02
1.371836734693900e+11 -1.068010943694553e+00 2.503746224094312e-02
1.372244897959200e+11 -1.068141989293717e+00 2.404388679306115e-02
1.372653061224500e+11 -1.068034670099125e+00 2.359648661533005e-02
1.373061224489800e+11 -1.067773976810991e+00 2.382043777540041e-02
1.373469387755100e+11 -1.067553105438166e+00 2.438005164730037e-02
1.373877551020400e+11 -1.067216134677993e+00 2.394109674771208e-02
1.374285714285700e+11 -1.066899679837002e+00 2.283792804116093e-02
1.374693877551000e+11 -1.066512762253540e+00 2.192187454379432e-02
1.375102040816300e+11 -1.066458106735283e+00 2.210772083688283e-02
1.375510204081600e+11 -1.066940765571783e+00 2.193271778147142e-02
1.375918367346900e+11 -1.067231690187193e+00 2.125625785952805e-02
1.376326530612200e+11 -1.067089903310702e+00 2.092308140972526e-02
1.376734693877600e+11 -1.067038487086545e+00 2.141240148629047e-02
1.377142857142900e+11 -1.067659021426874e+00 2.022143272046617e-02
1.377551020408200e+11 -1.067801964715007e+00 1.880097764216769e-02
1.377959183673500e+11 -1.068235193320359e+00 1.799883158513849e-02
1.378367346938800e+11 -1.068905947927668e+00 1.761324581330621e-02
1.378775510204100e+11 -1.069357885720047e+00 1.719011916003095e-02
1.379183673469400e+11 -1.069324945065274e+00 1.582703224412109e-02
1.379591836734700e+11 -1.069279464322662e+00 1.484625833276580e-02
1.380000000000000e+11 -1.069177684425435e+00 1.403655419116819e-02
1.380408163265300e+11 -1.069187868111370e+00 1.284528435972021e-02
1.380816326530600e+11 -1.068729919611233e+00 1.229060164968477e-02
1.381224489795900e+11 -1.068060468800645e+00 1.093684178910576e-02
1.381632653061200e+11 -1.067726977555397e+00 9.950098210489065e-03
1.382040816326500e+11 -1.067701049181575e+00 9.344975862414510e-03
1.382448979591800e+11 -1.067621469721447e+00 8.812445158824603e-03
1.382857142857100e+11 -1.067031481214035e+00 7.836052852029519e-03
1.383265306122400e+11 -1.067005682179712e+00 8.006029675244617e-03
1.383673469387800e+11 -1.067106305470636e+00 7.760501348031434e-03
1.384081632653100e+11 -1.067384805848055e+00 7.528125878150105e-03
1.384489795918400e+11 -1.067645976758002e+00 7.248946035527255e-03
1.384897959183700e+11 -1.068126269968703e+00 6.900722181289969e-03
1.385306122449000e+11 -1.068338466985773e+00 6.862908201588584e-03
1.385714285714300e+11 -1.068167062524800e+00 6.882342595158731e-03
1.386122448979600e+11 -1.068658066711968e+00 5.923759146402637e-03
1.386530612244900e+11 -1.068857820862057e+00 5.337597726702044e-03
1.386938775510200e+11 -1.068615258317261e+00 5.295633313443964e-03
1.387346938775500e+11 -1.068473726235028e+00 3.804503633598316e-03
1.387755102040800e+11 -1.068543221525429e+00 3.534205530988144e-03
1.388163265306100e+11 -1.067990360725708e+00 3.050581403888309e-03
1.388571428571400e+11 -1.067751351303418e+00 2.308833448160779e-03
1.388979591836700e+11 -1.066897073062778e+00 2.141825477079245e-03
1.389387755102000e+11 -1.066983466368753e+00 1.851980524956362e-03
1.389795918367300e+11 -1.067550170339324e+00 3.199175958496014e-03
1.390204081632700e+11 -1.067761926713874e+00 3.100530480010320e-03
1.390612244898000e+11 -1.068012529486896e+00 3.765339002232747e-03
1.391020408163300e+11 -1.067805133207492e+00 5.169306729743891e-03
1.391428571428600e+11 -1.068198433703936e+00 5.547179191873768e-03
1.391836734693900e+11 -1.069030970631785e+00 5.207028230698698e-03
1.392244897959200e+11 -1.069885249379644e+00 3.781880639182622e-03
1.392653061224500e+11 -1.070289902466405e+00 3.736032223194171e-03
1.393061224489800e+11 -1.070703712064319e+00 3.893885794594055e-03
1.393469387755100e+11 -1.071378652107295e+00 2.948305514631949e-03
1.393877551020400e+11 -1.071824853894026e+00 2.124329828796242e-03
1.394285714285700e+11 -1.071939460607214e+00 5.185570363899400e-04
1.394693877551000e+11 -1.071169726834633e+00 -1.396670840941519e-03
1.395102040816300e+11 -1.070110929396011e+00 -3.328045749090522e-03
1.395510204081600e+11 -1.069856652928115e+00 -4.752803211689082e-03
1.395918367346900e+11 -1.069369131249146e+00 -5.961206312156286e-03
1.396326530612200e+11 -1.069141876285307e+00 -7.105784749045007e-03
1.396734693877600e+11 -1.068684082677390e+00 -8.364887526101801e-03
1.397142857142900e+11 -1.067724069474876e+00 -7.219954095766480e-03
1.397551020408200e+11 -1.067502954924881e+00 -7.639613531566076e-03
1.397959183673500e+11 -1.067841808228651e+00 -8.031478983386471e-03
1.398367346938800e+11 -1.066946567983783e+00 -8.626266783958987e-03
1.398775510204100e+11 -1.067388735807554e+00 -9.541544512895076e-03
1.399183673469400e+11 -1.067153092368410e+00 -8.642875292261026e-03
1.399591836734700e+11 -1.067752578354668e+00 -7.646527212767107e-03
1.400000000000000e+11 -1.068628881696531e+00 -6.722004957195762e-03
1.400408163265300e+11 -1.069067212808771e+00 -5.925279143155580e-03
1.400816326530600e+11 -1.069221257655420e+00 -5.866425456935135e-03
1.401224489795900e+11 -1.069033356389886e+00 -5.353035863287356e-03
1.401632653061200e+11 -1.068951822926714e+00 -5.639351798899003e-03
1.402040816326500e+11 -1.069361970949800e+00 -5.675638348276190e-03
1.402448979591800e+11 -1.069653724002995e+00 -6.348632800034745e-03
1.402857142857100e+11 -1.069542666306615e+00 -6.285537043145677e-03
1.403265306122400e+11 -1.068734973508822e+00 -6.314593259354375e-03
1.403673469387800e+11 -1.068966865064563e+00 -6.593125913847428e-03
1.404081632653100e+11 -1.068956092303481e+00 -5.783584317150479e-03
1.404489795918400e+11 -1.068623494966416e+00 -5.507618949547403e-03
1.404897959183700e+11 -1.068401076616081e+00 -6.411657921831728e-03
1.405306122449000e+11 -1.068399905935434e+00 -4.950302137148009e-03
1.405714285714300e+11 -1.068203365933181e+00 -4.584861555581179e-03
1.406122448979600e+11 -1.068242612958741e+00 -4.253780817889840e-03
1.406530612244900e+11 -1.068379382762618e+00 -4.613850672389647e-03
1.406938775510200e+11 -1.069046683307401e+00 -3.905320299941874e-03
1.407346938775500e+11 -1.069392645480564e+00 -2.738597137112255e-03
1.407755102040800e+11 -1.069719904870868e+00 -3.485549897718481e-03
1.408163265306100e+11 -1.070179030454090e+00 -3.465440608167128e-03
1.408571428571400e+11 -1.069606200243763e+00 -3.689972470517396e-03
1.408979591836700e+11 -1.069391291590899e+00 -3.533461657355119e-03
1.409387755102000e+11 -1.069409633429750e+00 -3.549566599976247e-03
1.409795918367300e+11 -1.069342858542002e+00 -5.149605417313607e-03
1.410204081632700e+11 -1.068942710391569e+00 -5.782167114793517e-03
1.410612244898000e+11 -1.067730844571142e+00 -6.272265864160034e-03
1.411020408163300e+11 -1.067513919430491e+00 -6.694788289830126e-03
1.411428571428600e+11 -1.067817508417470e+00 -7.298771233486181e-03
1.411836734693900e+11 -1.067953052049953e+00 -8.178173217954556e-03
1.412244897959200e+11 -1.067554192112152e+00 -7.910164620249681e-03
1.412653061224500e+11 -1.067174022128784e+00 -7.889877580254834e-03
1.413061224489800e+11 -1.067277699398248e+00 -8.831311180907421e-03
1.413469387755100e+11 -1.066966827745095e+00 -8.726737213915798e-03
1.413877551020400e+11 -1.066624792433370e+00 -1.039551537072086e-02
1.414285714285700e+11 -1.066798639068765e+00 -1.029239055088824e-02
1.414693877551000e+11 -1.066806948359799e+00 -1.009357240575933e-02
1.415102040816300e+11 -1.067351000302813e+00 -9.481312717078246e-03
1.415510204081600e+11 -1.066931560322809e+00 -1.044879673076058e-02
1.415918367346900e+11 -1.066617919327008e+00 -1.211696434571439e-02
1.416326530612200e+11 -1.066617105294405e+00 -1.188241289792520e-02
1.416734693877600e+11 -1.066875482185729e+00 -1.189970507143577e-02
1.417142857142900e+11 -1.066575362042746e+00 -1.337194138959788e-02
1.417551020408200e+11 -1.065824299648375e+00 -1.421662228459319e-02
1.417959183673500e+11 -1.066118709933510e+00 -1.571493337730808e-02
1.418367346938800e+11 -1.065623036439700e+00 -1.498520960801304e-02
1.418775510204100e+11 -1.065251787223618e+00 -1.557656733511979e-02
1.419183673469400e+11 -1.064485358451468e+00 -1.772766607839225e-02
1.419591836734700e+11 -1.064207292044792e+00 -1.816733942740421e-02
1.420000000000000e+11 -1.063769617485792e+00 -1.876161162411983e-02
1.420408163265300e+11 -1.064201757203517e+00 -1.825915676498936e-02
1.420816326530600e+11 -1.064135775011877e+00 -1.835842126602442e-02
1.421224489795900e+11 -1.064269513558667e+00 -1.698424166777948e-02
1.421632653061200e+11 -1.064086814635328e+00 -1.519894479998613e-02
1.422040816326500e+11 -1.063512132951798e+00 -1.482912177664700e-02
1.422448979591800e+11 -1.063382526139779e+00 -1.680434739882074e-02
1.422857142857100e+11 -1.063936771827327e+00 -1.535846094953542e-02
1.423265306122400e+11 -1.064143214955023e+00 -1.512868145918935e-02
1.423673469387800e+11 -1.064295825363123e+00 -1.362023671867025e-02
1.424081632653100e+11 -1.063988143693180e+00 -1.373949939816049e-02
1.424489795918400e+11 -1.063759044576031e+00 -1.431086991541638e-02
1.424897959183700e+11 -1.063749664009620e+00 -1.403511936440747e-02
1.425306122449000e+11 -1.064109035734718e+00 -1.425541056739758e-02
1.425714285714300e+11 -1.064144599461850e+00 -1.346228093797823e-02
1.426122448979600e+11 -1.064192008847439e+00 -1.248817557295182e-02
1.426530612244900e+11 -1.064536526532323e+00 -1.188015581902916e-02
1.426938775510200e+11 -1.064969123465211e+00 -1.081970791125610e-02
1.427346938775500e+11 -1.065387833386509e+00 -1.111682824283417e-02
1.427755102040800e+11 -1.065678834574491e+00 -1.008331613209522e-02
1.428163265306100e+11 -1.066021602063641e+00 -9.754055930708173e-03
1.428571428571400e+11 -1.066845686190200e+00 -7.753616391855522e-03
1.428979591836700e+11 -1.067952236863478e+00 -6.975589419884938e-03
1.429387755102000e+11 -1.068449796494115e+00 -6.464820010269542e-03
1.429795918367300e+11 -1.068657308104326e+00 -5.912456299365788e-03
1.430204081632700e+11 -1.068966760695069e+00 -6.307507275682341e-03
1.430612244898000e+11 -1.069324589528883e+00 -6.878220755266109e-03
1.431020408163300e+11 -1.069379176974940e+00 -6.194295830292457e-03
1.431428571428600e+11 -1.068895082978047e+00 -6.253370228218610e-03
1.431836734693900e+11 -1.068394397707805e+00 -6.718919066914242e-03
1.432244897959200e+11 -1.068250656510152e+00 -8.184866142504320e-03
1.432653061224500e+11 -1.067972371775697e+00 -9.237389488176460e-03
1.433061224489800e+11 -1.067407610850253e+00 -1.021750449878239e-02
1.433469387755100e+11 -1.066592278427564e+00 -1.042059320612172e-02
1.433877551020400e+11 -1.066646511463113e+00 -1.146468577057667e-02
1.434285714285700e+11 -1.066040992610863e+00 -1.146266711314824e-02
1.434693877551000e+11 -1.066368703548101e+00 -1.205296304426453e-02
1.435102040816300e+11 -1.066991554758645e+00 -8.805705965214586e-03
1.435510204081600e+11 -1.066781684300913e+00 -9.942576975143037e-03
1.435918367346900e+11 -1.067299092877321e+00 -9.978510404936919e-03
1.436326530612200e+11 -1.068050288083103e+00 -9.078910686465031e-03
1.436734693877600e+11 -1.068683081208853e+00 -6.842487636902234e-03
1.437142857142900e+11 -1.068849609582085e+00 -6.174014000910343e-03
1.437551020408200e+11 -1.069140985212605e+00 -7.302968364191633e-03
1.437959183673500e+11 -1.069599857716646e+00 -7.457435247445178e-03
1.438367346938800e+11 -1.069251873514759e+00 -7.305448084321178e-03
1.438775510204100e+11 -1.069451788405637e+00 -7.011204988242081e-03
1.439183673469400e+11 -1.069270694481179e+00 -7.216367295702945e-03
1.439591836734700e+11 -1.069103351495750e+00 -7.506056728817359e-03
1.440000000000000e+11 -1.068531382491553e+00 -8.006757899664003e-03
1.440408163265300e+11 -1.068571863223283e+00 -8.434246923375485e-03
1.440816326530600e+11 -1.067878972278489e+00 -8.532645479388378e-03
1.441224489795900e+11 -1.067543012045600e+00 -9.093095921985201e-03
1.441632653061200e+11 -1.066748579899024e+00 -9.341940862644355e-03
1.442040816326500e+11 -1.067588650308986e+00 -8.618261403324464e-03
1.442448979591800e+11 -1.067607376279681e+00 -8.813017187389029e-03
1.442857142857100e+11 -1.067928256126320e+00 -9.812168111081349e-03
1.443265306122400e+11 -1.068163460416035e+00 -8.482387595869159e-03
1.443673469387800e+11 -1.068504666728155e+00 -7.166608054119962e-03
1.444081632653100e+11 -1.069035458762913e+00 -6.862924879090124e-03
1.444489795918400e+11 -1.069597684008687e+00 -7.362783947734477e-03
1.444897959183700e+11 -1.070095996893371e+00 -8.153840065643850e-03
1.445306122449000e+11 -1.070660252982515e+00 -8.152263432710465e-03
1.445714285714300e+11 -1.071025898690221e+00 -7.515138254425319e-03
1.446122448979600e+11 -1.071202013650049e+00 -7.590128234981212e-03
1.446530612244900e+11 -1.071087505603378e+00 -7.521728911326399e-03
1.446938775510200e+11 -1.070458041515692e+00 -5.891875703000838e-03
1.447346938775500e+11 -1.070583502816838e+00 -6.200636982274005e-03
1.447755102040800e+11 -1.070341589831576e+00 -6.352808833642810e-03
1.448163265306100e+11 -1.069827763690737e+00 -7.585390890034711e-03
1.448571428571400e+11 -1.068829249490163e+00 -7.762948890129038e-03
1.448979591836700e+11 -1.068396003611511e+00 -7.333619209214622e-03
1.449387755102000e+11 -1.067911985622846e+00 -8.396324887836126e-03
1.449795918367300e+11 -1.067845813223012e+00 -9.241722149534023e-03
1.450204081632700e+11 -1.067929501397469e+00 -8.928706598287423e-03
1.450612244898000e+11 -1.068433852708297e+00 -8.299572125202171e-03
1.451020408163300e+11 -1.069005701782908e+00 -8.923987752698483e-03
1.451428571428600e+11 -1.069092743367569e+00 -9.970195885383093e-03
1.451836734693900e+11 -1.070270528542248e+00 -1.068450436239836e-02
1.452244897959200e+11 -1.070452078360044e+00 -9.748850534893338e-03
1.452653061224500e+11 -1.070719805496135e+00 -9.485007235961749e-03
1.453061224489800e+11 -1.071430661550294e+00 -1.056869663418818e-02
1.453469387755100e+11 -1.071556755185654e+00 -1.119061214338842e-02
1.453877551020400e+11 -1.072165657175788e+00 -1.074205976180188e-02
1.454285714285700e+11 -1.072339399330714e+00 -1.175257061124747e-02
1.454693877551000e+11 -1.071638364325368e+00 -1.212014825765439e-02
1.455102040816300e+11 -1.071934102927256e+00 -1.160865420194272e-02
1.455510204081600e+11 -1.071812436203110e+00 -1.145715378881654e-02
1.455918367346900e+11 -1.071352504320961e+00 -1.150672457747869e-02
1.456326530612200e+11 -1.070704196103194e+00 -1.337362161499348e-02
1.456734693877600e+11 -1.069826695830715e+00 -1.410369098118608e-02
1.457142857142900e+11 -1.068927128398880e+00 -1.340372412386368e-02
1.457551020408200e+11 -1.068873183025087e+00 -1.358544754372422e-02
1.457959183673500e+11 -1.069091405499799e+00 -1.449505121273090e-02
1.458367346938800e+11 -1.069160394767725e+00 -1.483670909024993e-02
1.458775510204100e+11 -1.069261167441037e+00 -1.498691349341332e-02
1.459183673469400e+11 -1.070051402628204e+00 -1.366513130757168e-02
1.459591836734700e+11 -1.070448748404100e+00 -1.251873362366602e-02
1.460000000000000e+11 -1.071149648198175e+00 -1.216921280276830e-02
1.460408163265300e+11 -1.071858663421367e+00 -1.210987166758148e-02
1.460816326530600e+11 -1.071691659402933e+00 -1.314985930297007e-02
1.461224489795900e+11 -1.072038883393507e+00 -1.191633248329954e-02
1.461632653061200e+11 -1.072701830988554e+00 -1.064984882053797e-02
1.462040816326500e+11 -1.073332822014814e+00 -1.047663384271164e-02
1.462448979591800e+11 -1.074049809651527e+00 -1.096238157893593e-02
1.462857142857100e+11 -1.074799347332648e+00 -1.038533798171597e-02
1.463265306122400e+11 -1.074697934741128e+00 -9.121789042693207e-03
1.463673469387800e+11 -1.074073705521082e+00 -8.680118772446897e-03
1.464081632653100e+11 -1.073684619654807e+00 -1.059707262129764e-02
1.464489795918400e+11 -1.073161781838203e+00 -1.084126254066618e-02
1.464897959183700e+11 -1.073138059127249e+00 -1.103413562652282e-02
1.465306122449000e+11 -1.072520483082527e+00 -9.534173723761958e-03
1.465714285714300e+11 -1.072991485718816e+00 -9.059795256055178e-03
1.466122448979600e+11 -1.072913394695833e+00 -9.235157168669754e-03
1.466530612244900e+11 -1.072922834366098e+00 -9.729484937866625e-03
1.466938775510200e+11 -1.073555821326722e+00 -9.654849646703028e-03
1.467346938775500e+11 -1.073798821338035e+00 -9.813217172305225e-03
1.467755102040800e+11 -1.073901786704625e+00 -1.089377766437454e-02
1.468163265306100e+11 -1.074214269044630e+00 -1.085007191949157e-02
1.468571428571400e+11 -1.074454898960761e+00 -1.111967920694612e-02
1.468979591836700e+11 -1.075442676353087e+00 -1.188774153644298e-02
1.469387755102000e+11 -1.075896070953083e+00 -1.242867893942357e-02
1.469795918367300e+11 -1.076941904586752e+00 -1.194412590985861e-02
1.470204081632700e+11 -1.076578746420821e+00 -1.201724405984510e-02
1.470612244898000e+11 -1.076633303726783e+00 -1.410539193189355e-02
1.471020408163300e+11 -1.076765324368114e+00 -1.431102401416352e-02
1.471428571428600e+11 -1.076454159418477e+00 -1.460087541002054e-02
1.471836734693900e+11 -1.076065679691145e+00 -1.484118941172457e-02
1.472244897959200e+11 -1.076072482903788e+00 -1.506474608052502e-02
1.472653061224500e+11 -1.075565690896528e+00 -1.631254314992167e-02
1.473061224489800e+11 -1.074760863002966e+00 -1.581979976356442e-02
1.473469387755100e+11 -1.075014566004624e+00 -1.641711144916247e-02
1.473877551020400e+11 -1.075001819704337e+00 -1.661543418447285e-02
1.474285714285700e+11 -1.075117578238091e+00 -1.585553070978628e-02
1.474693877551000e+11 -1.075479571772985e+00 -1.471018751434904e-02
1.475102040816300e+11 -1.076151093789678e+00 -1.529782004971628e-02
1.475510204081600e+11 -1.076309638836489e+00 -1.614816928099098e-02
1.475918367346900e+11 -1.077076861963826e+00 -1.700933738560409e-02
1.476326530612200e+11 -1.077317191347209e+00 -1.685437141300540e-02
1.476734693877600e+11 -1.077666387510329e+00 -1.713191911449164e-02
1.477142857142900e+11 -1.078199154410416e+00 -1.787132252842822e-02
1.477551020408200e+11 -1.078853093529542e+00 -2.184284901285498e-02
1.477959183673500e+11 -1.079104595042478e+00 -2.166923681256880e-02
1.478367346938800e+11 -1.079130049756050e+00 -2.070121949077915e-02
1.478775510204100e+11 -1.079020890761103e+00 -2.123575368044168e-02
1.479183673469400e+11 -1.078767969733349e+00 -2.209275559486887e-02
1.479591836734700e+11 -1.078571747623291e+00 -2.343643681829610e-02
1.480000000000000e+11 -1.078162673105630e+00 -2.366923974981475e-02
1.480408163265300e+11 -1.077485750965323e+00 -2.350638720450345e-02
1.480816326530600e+11 -1.076832285646103e+00 -2.413020953065891e-02
1.481224489795900e+11 -1.076218675348622e+00 -2.407983377525199e-02
1.481632653061200e+11 -1.076197683604091e+00 -2.387496071815409e-02
1.482040816326500e+11 -1.076414451681823e+00 -2.293615146322536e-02
1.482448979591800e+11 -1.076885608170414e+00 -2.197369796220302e-02
1.482857142857100e+11 -1.077444910679987e+00 -2.166040108908666e-02
1.483265306122400e+11 -1.077552553453483e+00 -2.049731084022922e-02
1.483673469387800e+11 -1.078260436120846e+00 -1.979701199502358e-02
1.484081632653100e+11 -1.078745024447941e+00 -2.166549266936580e-02
1.484489795918400e+11 -1.079335741235287e+00 -2.174843296291164e-02
1.484897959183700e+11 -1.079501780705683e+00 -2.245645150621442e-02
1.485306122449000e+11 -1.080001491540026e+00 -2.374184458722142e-02
1.485714285714300e+11 -1.080181964722639e+00 -2.462391635971597e-02
1.486122448979600e+11 -1.080323816077787e+00 -2.633199407703891e-02
1.486530612244900e+11 -1.080424510128773e+00 -2.824765975665233e-02
1.486938775510200e+11 -1.080152722604653e+00 -2.932913296923536e-02
1.487346938775500e+11 -1.079112254999762e+00 -3.041754242477763e-02
1.487755102040800e+11 -1.078599288681109e+00 -3.300137441586632e-02
1.488163265306100e+11 -1.078168861089514e+00 -3.570672436478295e-02
1.488571428571400e+11 -1.077294366393133e+00 -3.733342223301436e-02
1.488979591836700e+11 -1.076714928394075e+00 -3.715498156357885e-02
1.489387755102000e+11 -1.076365563274979e+00 -3.899158551161982e-02
1.489795918367300e+11 -1.075339711176794e+00 -4.022995193913408e-02
1.490204081632700e+11 -1.075805787068402e+00 -4.103295028926145e-02
1.490612244898000e+11 -1.075248205695669e+00 -4.247395558859468e-02
1.491020408163300e+11 -1.075256407995354e+00 -4.198902529852453e-02
1.491428571428600e+11 -1.075619389775970e+00 -4.232350170608908e-02
1.491836734693900e+11 -1.076027983706333e+00 -4.162056755890445e-02
1.492244897959200e+11 -1.076499836351696e+00 -3.946048043674870e-02
1.492653061224500e+11 -1.076871966563433e+00 -4.055801415966251e-02
1.493061224489800e+11 -1.076498284267370e+00 -4.164235722230921e-02
1.493469387755100e+11 -1.076468389550009e+00 -4.020412050577740e-02
1.493877551020400e+11 -1.076673522975835e+00 -4.053639134705193e-02
1.494285714285700e+11 -1.076636595098859e+00 -4.078744412836018e-02
1.494693877551000e+11 -1.075934532061295e+00 -3.978966221109068e-02
1.495102040816300e+11 -1.075694145499046e+00 -4.021444459223412e-02
1.495510204081600e+11 -1.075012198328335e+00 -4.028490779742809e-02
1.495918367346900e+11 -1.075332322967769e+00 -3.936277588507018e-02
1.496326530612200e+11 -1.075520690672281e+00 -3.893401507557268e-02
1.496734693877600e+11 -1.074897733902022e+00 -3.916120340403675e-02
1.497142857142900e+11 -1.073835239841963e+00 -3.930392253574835e-02
1.497551020408200e+11 -1.074030942503390e+00 -3.742504221748989e-02
1.497959183673500e+11 -1.073893627522504e+00 -3.723637644408658e-02
1.498367346938800e+11 -1.074222381109420e+00 -3.676665732293832e-02
1.498775510204100e+11 -1.074567470093857e+00 -3.602751490785686e-02
1.499183673469400e+11 -1.075101665305007e+00 -3.416740962797397e-02
1.499591836734700e+11 -1.075766460280775e+00 -3.504045851868984e-02
1.500000000000000e+11 -1.076734848389793e+00 -3.570120531092152e-02
1.500408163265300e+11 -1.076803162494429e+00 -3.496434436098334e-02
1.500816326530600e+11 -1.076838529026908e+00 -3.483955586069499e-02
1.501224489795900e+11 -1.077553561081623e+00 -3.412520061950278e-02
1.501632653061200e+11 -1.078410102243295e+00 -3.419929637337157e-02
1.502040816326500e+11 -1.078261238499130e+00 -3.554477294254849e-02
1.502448979591800e+11 -1.078210435800179e+00 -3.670337130698781e-02
1.502857142857100e+11 -1.078116942160464e+00 -3.928566694631737e-02
1.503265306122400e+11 -1.078603010133240e+00 -3.970450829465928e-02
1.503673469387800e+11 -1.077663092657088e+00 -4.018879861061223e-02
1.504081632653100e+11 -1.077722955809915e+00 -4.199484176300315e-02
1.504489795918400e+11 -1.076598961886830e+00 -4.407383671979129e-02
1.504897959183700e+11 -1.076269485478624e+00 -4.566186727798963e-02
1.505306122449000e+11 -1.076325336870132e+00 -4.392283424081601e-02
1.505714285714300e+11 -1.076336940566903e+00 -4.394670647472487e-02
1.506122448979600e+11 -1.075783033793172e+00 -4.508031226148596e-02
1.506530612244900e+11 -1.076015647455538e+00 -4.585411958544922e-02
1.506938775510200e+11 -1.076391393760702e+00 -4.266424961644077e-02
1.507346938775500e+11 -1.075843199412235e+00 -4.005655321183992e-02
1.507755102040800e+11 -1.076460529848556e+00 -4.032814406910878e-02
1.508163265306100e+11 -1.076407583292265e+00 -4.277630933141625e-02
1.508571428571400e+11 -1.075977061900876e+00 -4.202299922436138e-02
1.508979591836700e+11 -1.076604971926534e+00 -3.821354281308676e-02
1.509387755102000e+11 -1.077630199226626e+00 -3.446804044694832e-02
1.509795918367300e+11 -1.077428892871893e+00 -3.623995081380213e-02
1.510204081632700e+11 -1.076876177873133e+00 -3.901381377549849e-02
1.510612244898000e+11 -1.076902418837328e+00 -3.766907213840422e-02
1.511020408163300e+11 -1.077097973755499e+00 -3.413162170733022e-02
1.511428571428600e+11 -1.077433608046136e+00 -3.267966655162084e-02
1.511836734693900e+11 -1.077136363038247e+00 -3.327047360735052e-02
1.512244897959200e+11 -1.076435018827501e+00 -3.464791848329656e-02
1.512653061224500e+11 -1.076980149853707e+00 -3.456245868973248e-02
1.513061224489800e+11 -1.076178796044621e+00 -3.189701629015097e-02
1.513469387755100e+11 -1.076325657131330e+00 -3.107329346989776e-02
1.513877551020400e+11 -1.076270645279460e+00 -2.976432206116666e-02
1.514285714285700e+11 -1.076409768177223e+00 -2.950667836281392e-02
1.514693877551000e+11 -1.076695648620911e+00 -2.972898530649242e-02
1.515102040816300e+11 -1.077117056985806e+00 -2.803060372160725e-02
1.515510204081600e+11 -1.077112147020327e+00 -2.460154505792471e-02
1.515918367346900e+11 -1.077247832436629e+00 -2.181589718867499e-02
1.516326530612200e+11 -1.077083079694675e+00 -2.119342415789532e-02
1.516734693877600e+11 -1.077931266461564e+00 -2.270371775752680e-02
1.517142857142900e+11 -1.078644048886066e+00 -2.208577754088771e-02
1.517551020408200e+11 -1.078764085800131e+00 -2.155595902325268e-02
1.517959183673500e+11 -1.078815406280279e+00 -2.037245894480097e-02
1.518367346938800e+11 -1.078732950175803e+00 -2.015878252199698e-02
1.518775510204100e+11 -1.078783921562017e+00 -2.108278991650869e-02
1.519183673469400e+11 -1.078191320887018e+00 -2.182504699599364e-02
1.519591836734700e+11 -1.078093689806657e+00 -2.230623271493871e-02
1.520000000000000e+11 -1.077963154553963e+00 -2.012934526998263e-02
1.520408163265300e+11 -1.077849707079702e+00 -2.075770609771265e-02
1.520816326530600e+11 -1.076830045085631e+00 -2.026140879972388e-02
1.521224489795900e+11 -1.077073386075225e+00 -1.945189348806142e-02
1.521632653061200e+11 -1.076720357374514e+00 -1.798465298626979e-02
1.522040816326500e+11 -1.076113320623783e+00 -1.980041333168097e-02
1.522448979591800e+11 -1.076352406093066e+00 -1.846465523504130e-02
1.522857142857100e+11 -1.076039039249898e+00 -1.646688568780775e-02
1.523265306122400e+11 -1.076367243321305e+00 -1.558407954524147e-02
1.523673469387800e+11 -1.076495935091687e+00 -1.507142969957219e-02
1.524081632653100e+11 -1.076743885885652e+00 -1.520056833022204e-02
1.524489795918400e+11 -1.076852244213034e+00 -1.566703921223783e-02
1.524897959183700e+11 -1.076673174528708e+00 -1.511773203240572e-02
1.525306122449000e+11 -1.076174539436801e+00 -1.361032228456802e-02
1.525714285714300e+11 -1.076517710985398e+00 -1.232312639624395e-02
1.526122448979600e+11 -1.076622088065711e+00 -1.315176794743879e-02
1.526530612244900e+11 -1.076717592491174e+00 -1.603391689285023e-02
1.526938775510200e+11 -1.076812213127522e+00 -1.601225181097796e-02
1.527346938775500e+11 -1.076271665241888e+00 -1.444651550739697e-02
1.527755102040800e+11 -1.076169623439356e+00 -1.234599494146959e-02
1.528163265306100e+11 -1.075931805614119e+00 -1.286781534571631e-02
1.528571428571400e+11 -1.075928180426117e+00 -1.445064185061162e-02
1.528979591836700e+11 -1.075538399342064e+00 -1.336542123523735e-02
1.529387755102000e+11 -1.074706166232044e+00 -1.117006598788405e-02
1.529795918367300e+11 -1.074377156431813e+00 -8.038024859490419e-03
1.530204081632700e+11 -1.074432742757441e+00 -8.170325324449947e-03
1.530612244898000e+11 -1.074436361684348e+00 -9.275271212529102e-03
1.531020408163300e+11 -1.074269699867804e+00 -7.455827206616362e-03
1.531428571428600e+11 -1.074375495734101e+00 -4.872207386332949e-03
1.531836734693900e+11 -1.074160394476960e+00 -3.811261764765717e-03
1.532244897959200e+11 -1.074943282382901e+00 -1.698269568238470e-03
1.532653061224500e+11 -1.075573673342586e+00 3.657779185735484e-04
1.533061224489800e+11 -1.075491976816723e+00 1.596826721883131e-05
1.533469387755100e+11 -1.075753846407113e+00 1.965338319122886e-03
1.533877551020400e+11 -1.076179979873260e+00 3.760422595793177e-03
1.534285714285700e+11 -1.076931435485268e+00 5.782674152893394e-03
1.534693877551000e+11 -1.077171351249795e+00 6.668042358340196e-03
1.535102040816300e+11 -1.076704079684278e+00 6.703098475428717e-03
1.535510204081600e+11 -1.077184619999207e+00 8.075306644346273e-03
1.535918367346900e+11 -1.077490199379372e+00 1.029259340910940e-02
1.536326530612200e+11 -1.077920373556667e+00 1.137793660490335e-02
1.536734693877600e+11 -1.077472477499400e+00 8.969397108439603e-03
1.537142857142900e+11 -1.077822595027383e+00 9.310502921364937e-03
1.537551020408200e+11 -1.077911263869029e+00 9.949574875939447e-03
1.537959183673500e+11 -1.077866589564157e+00 9.483264125702585e-03
1.538367346938800e+11 -1.077711726323747e+00 7.693229227685436e-03
1.538775510204100e+11 -1.078031303732355e+00 7.496606916744144e-03
1.539183673469400e+11 -1.078083158866479e+00 7.501718743781059e-03
1.539591836734700e+11 -1.078208635107140e+00 8.246272947233761e-03
1.540000000000000e+11 -1.077999189822759e+00 6.629874057469010e-03
1.540408163265300e+11 -1.078027591179652e+00 4.384007628176596e-03
1.540816326530600e+11 -1.078447126845818e+00 5.960516131248075e-03
1.541224489795900e+11 -1.078958283030784e+00 6.221884930290166e-03
1.541632653061200e+11 -1.078182541629222e+00 6.408864008884995e-03
1.542040816326500e+11 -1.078523235820481e+00 6.437297380871096e-03
1.542448979591800e+11 -1.078358030365171e+00 5.329577961323467e-03
1.542857142857100e+11 -1.078373693432485e+00 7.268703054207619e-03
1.543265306122400e+11 -1.077806285466560e+00 8.060921220505111e-03
1.543673469387800e+11 -1.077617781636424e+00 8.211820578507894e-03
1.544081632653100e+11 -1.077294982433904e+00 1.064407373662779e-02
1.544489795918400e+11 -1.077531670319300e+00 1.350686729502081e-02
1.544897959183700e+11 -1.077266666340758e+00 1.476129248763746e-02
1.545306122449000e+11 -1.076941220767803e+00 1.419939256341735e-02
1.545714285714300e+11 -1.077460876057880e+00 1.723711563007294e-02
1.546122448979600e+11 -1.077837694931759e+00 1.813248441255081e-02
1.546530612244900e+11 -1.077859278878725e+00 1.904930301438285e-02
1.546938775510200e+11 -1.077962459189576e+00 1.961965666300195e-02
1.547346938775500e+11 -1.079012364992400e+00 2.109520272059921e-02
1.547755102040800e+11 -1.079450228992933e+00 2.347929849789612e-02
1.548163265306100e+11 -1.079679545086229e+00 2.491330406893011e-02
1.548571428571400e+11 -1.080242271192425e+00 2.573434590639076e-02
1.548979591836700e+11 -1.080922754220013e+00 2.628923824707117e-02
1.549387755102000e+11 -1.081750571465968e+00 2.513052506794243e-02
1.549795918367300e+11 -1.082150013846301e+00 2.484079130895817e-02
1.550204081632700e+11 -1.082380131748749e+00 2.594349591248292e-02
1.550612244898000e+11 -1.082760363793477e+00 2.691331862867460e-02
1.551020408163300e+11 -1.083117163089887e+00 2.736746946948151e-02
1.551428571428600e+11 -1.083194678198212e+00 2.503971057834209e-02
1.551836734693900e+11 -1.083577118260375e+00 2.435611966874158e-02
1.552244897959200e+11 -1.083130844186758e+00 2.258482135267985e-02
1.552653061224500e+11 -1.083835857422885e+00 2.034879971672597e-02
1.553061224489800e+11 -1.084020015556441e+00 2.210720807855759e-02
1.553469387755100e+11 -1.083952575458182e+00 2.126995760136144e-02
1.553877551020400e+11 -1.084035321556459e+00 1.841807208657611e-02
1.554285714285700e+11 -1.084284779462157e+00 1.728328204530423e-02
1.554693877551000e+11 -1.084782961025769e+00 1.725796550871999e-02
1.555102040816300e+11 -1.084672518455058e+00 1.781482968236961e-02
1.555510204081600e+11 -1.085064698864449e+00 1.957403454891021e-02
1.555918367346900e+11 -1.085285233421925e+00 1.820205091442967e-02
1.556326530612200e+11 -1.085633878451407e+00 1.834438489638522e-02
1.556734693877600e+11 -1.085900682483055e+00 1.812247408529077e-02
1.557142857142900e+11 -1.085823935346891e+00 1.863209028824931e-02
1.557551020408200e+11 -1.085916005448430e+00 1.937370784637970e-02
1.557959183673500e+11 -1.086368671000845e+00 2.074769236553771e-02
1.558367346938800e+11 -1.086360688236040e+00 2.065523004830981e-02
1.558775510204100e+11 -1.086452435729328e+00 1.992706776781645e-02
1.559183673469400e+11 -1.086318643037164e+00 2.091157052022041e-02
1.559591836734700e+11 -1.086309906907847e+00 2.265570523710018e-02
1.560000000000000e+11 -1.086981018050391e+00 2.223836007693402e-02
1.560408163265300e+11 -1.087702472644084e+00 2.360565149298304e-02
1.560816326530600e+11 -1.087147090800217e+00 2.168003232423902e-02
1.561224489795900e+11 -1.086317944361757e+00 2.286968622202785e-02
1.561632653061200e+11 -1.086737625903794e+00 2.231517678450506e-02
1.562040816326500e+11 -1.088217226099087e+00 2.158421201679609e-02
1.562448979591800e+11 -1.089330133497312e+00 2.294498287370796e-02
1.562857142857100e+11 -1.089879273173106e+00 2.303892160480444e-02
1.563265306122400e+11 -1.089504870859594e+00 2.142976696896171e-02
1.563673469387800e+11 -1.089911134447915e+00 1.824258108547391e-02
1.564081632653100e+11 -1.091092966272976e+00 1.669373652301129e-02
1.564489795918400e+11 -1.090951954357476e+00 1.519015097342729e-02
1.564897959183700e+11 -1.091247549834373e+00 1.430726009914619e-02
1.565306122449000e+11 -1.090818771235629e+00 1.237822683016370e-02
1.565714285714300e+11 -1.091254401359815e+00 1.159881505637024e-02
1.566122448979600e+11 -1.091800236390864e+00 8.640539905482254e-03
1.566530612244900e+11 -1.092138224705429e+00 6.308994622811819e-03
1.566938775510200e+11 -1.092240396624189e+00 4.797043160660429e-03
1.567346938775500e+11 -1.091936896703190e+00 2.985200446521420e-03
1.567755102040800e+11 -1.091670535542796e+00 3.211278598230045e-03
1.568163265306100e+11 -1.091636458134390e+00 3.563608662983537e-03
1.568571428571400e+11 -1.091626853100455e+00 1.685968331536554e-03
1.568979591836700e+11 -1.091606883490035e+00 -2.499645373560938e-04
1.569387755102000e+11 -1.091769194943608e+00 -1.804188665051149e-04
1.569795918367300e+11 -1.091663926628124e+00 2.122880573595001e-03
1.570204081632700e+11 -1.091571272197350e+00 2.443187851370312e-03
1.570612244898000e+11 -1.092040451639922e+00 1.603107251702909e-03
1.571020408163300e+11 -1.092712390678406e+00 -2.189761655689073e-03
1.571428571428600e+11 -1.093464080139956e+00 -3.847791712655572e-03
1.571836734693900e+11 -1.093357634711515e+00 -2.793777300878926e-03
1.572244897959200e+11 -1.093437384706719e+00 -1.303089543974045e-03
1.572653061224500e+11 -1.093850946334942e+00 -1.834396533463963e-03
1.573061224489800e+11 -1.094308213937195e+00 -4.648603149066408e-03
1.573469387755100e+11 -1.094696995536766e+00 -6.408983941722231e-03
1.573877551020400e+11 -1.094539386435724e+00 -6.035849386217850e-03
1.574285714285700e+11 -1.094482248717167e+00 -5.819186861466352e-03
1.574693877551000e+11 -1.094131749606819e+00 -7.793251775286873e-03
1.575102040816300e+11 -1.094137312951160e+00 -1.125875775596489e-02
1.575510204081600e+11 -1.094276703678913e+00 -1.093119748661527e-02
1.575918367346900e+11 -1.094310054591215e+00 -1.129322734880914e-02
1.576326530612200e+11 -1.093774604519614e+00 -1.279731469532438e-02
1.576734693877600e+11 -1.093770992674752e+00 -1.551697762214772e-02
1.577142857142900e+11 -1.093374023463045e+00 -1.668430713109113e-02
1.577551020408200e+11 -1.093863810588370e+00 -1.471672723288855e-02
1.577959183673500e+11 -1.093743018053127e+00 -1.449079054697056e-02
1.578367346938800e+11 -1.094188463932788e+00 -1.703241886010630e-02
1.578775510204100e+11 -1.094315570721000e+00 -1.923813750394240e-02
1.579183673469400e+11 -1.094357627546921e+00 -1.999609778910856e-02
1.579591836734700e+11 -1.095029868062573e+00 -2.009081977642141e-02
1.580000000000000e+11 -1.095591607434510e+00 -2.233553175767877e-02
1.580408163265300e+11 -1.095738229179104e+00 -2.254989627247666e-02
1.580816326530600e+11 -1.096380438414193e+00 -2.311352776822108e-02
1.581224489795900e+11 -1.096085537986082e+00 -2.405100177265331e-02
1.581632653061200e+11 -1.095628181572310e+00 -2.691950770172697e-02
1.582040816326500e+11 -1.095068637304188e+00 -2.648525279115569e-02
1.582448979591800e+11 -1.095698964786414e+00 -2.514086375303391e-02
1.582857142857100e+11 -1.095578336103086e+00 -2.651163659811253e-02
1.583265306122400e+11 -1.094942033462770e+00 -2.816338079109344e-02
1.583673469387800e+11 -1.093520127552619e+00 -2.861472113312398e-02
1.584081632653100e+11 -1.093530006078383e+00 -2.930471771467870e-02
1.584489795918400e+11 -1.093576047337547e+00 -2.981610353632206e-02
1.584897959183700e+11 -1.092834946445634e+00 -3.238161949482209e-02
1.585306122449000e+11 -1.092640187567735e+00 -3.294107084848606e-02
1.585714285714300e+11 -1.092775371321689e+00 -3.128425334548464e-02
1.586122448979600e+11 -1.093285121614446e+00 -3.109788365100729e-02
1.586530612244900e+11 -1.093464762868542e+00 -3.363269495337043e-02
1.586938775510200e+11 -1.094279222867437e+00 -3.492605668748872e-02
1.587346938775500e+11 -1.094747921464461e+00 -3.189256768325712e-02
1.587755102040800e+11 -1.095135482022730e+00 -3.274108664648036e-02
1.588163265306100e+11 -1.095653134657987e+00 -3.483631003932697e-02
1.588571428571400e+11 -1.096006963231815e+00 -3.493256888505040e-02
1.588979591836700e+11 -1.096582902690526e+00 -3.492112329251486e-02
1.589387755102000e+11 -1.096445899026370e+00 -3.336339143434030e-02
1.589795918367300e+11 -1.096522845076799e+00 -3.355559879722815e-02
1.590204081632700e+11 -1.096118304766711e+00 -3.521313967453177e-02
1.590612244898000e+11 -1.095782191647847e+00 -3.720393909471485e-02
1.591020408163300e+11 -1.094772505597143e+00 -3.820851275130455e-02
1.591428571428600e+11 -1.094822588260482e+00 -3.629974695432083e-02
1.591836734693900e+11 -1.094475541058752e+00 -3.590563705611821e-02
1.592244897959200e+11 -1.093620309528311e+00 -3.717894483435997e-02
1.592653061224500e+11 -1.092215698689563e+00 -4.004198426966796e-02
1.593061224489800e+11 -1.092019172432200e+00 -3.898348856189859e-02
1.593469387755100e+11 -1.093062679316464e+00 -3.566972842132021e-02
1.593877551020400e+11 -1.092724893335112e+00 -3.100839791018191e-02
1.594285714285700e+11 -1.092386023364419e+00 -2.997796711137120e-02
1.594693877551000e+11 -1.091724955000526e+00 -3.171035226261536e-02
1.595102040816300e+11 -1.091841592199084e+00 -3.150204229510326e-02
1.595510204081600e+11 -1.091763278139488e+00 -2.942902658783430e-02
1.595918367346900e+11 -1.091645643669474e+00 -2.801223305409901e-02
1.596326530612200e+11 -1.091758472721998e+00 -2.558661990429917e-02
1.596734693877600e+11 -1.091996837971530e+00 -2.522945631641829e-02
1.597142857142900e+11 -1.091843194917357e+00 -2.673075864154020e-02
1.597551020408200e+11 -1.091813526094641e+00 -2.767770481958925e-02
1.597959183673500e+11 -1.091637229617065e+00 -2.685735723416223e-02
1.598367346938800e+11 -1.092233852222817e+00 -2.496014920830666e-02
1.598775510204100e+11 -1.091977150783496e+00 -2.663046862631455e-02
1.599183673469400e+11 -1.091799064553548e+00 -2.756749764113310e-02
1.599591836734700e+11 -1.091169190976948e+00 -2.764617787136293e-02
1.600000000000000e+11 -1.090679155445802e+00 -2.939191664378779e-02
1.600408163265300e+11 -1.089878156395566e+00 -3.100277561991430e-02
1.600816326530600e+11 -1.090136359497453e+00 -3.197274033207839e-02
1.601224489795900e+11 -1.089537094624627e+00 -3.158555440343914e-02
1.601632653061200e+11 -1.089079624684568e+00 -3.198202078488607e-02
1.602040816326500e+11 -1.088880751008437e+00 -3.345637503571541e-02
1.602448979591800e+11 -1.088755154284528e+00 -3.570408297150843e-02
1.602857142857100e+11 -1.088659780194750e+00 -3.509312946789257e-02
1.603265306122400e+11 -1.088541961308980e+00 -3.441284083556506e-02
1.603673469387800e+11 -1.088096249329000e+00 -3.534032661909620e-02
1.604081632653100e+11 -1.087939231674681e+00 -3.533764092602724e-02
1.604489795918400e+11 -1.087875830893936e+00 -3.504039467187819e-02
1.604897959183700e+11 -1.087321798137581e+00 -3.742372853000808e-02
1.605306122449000e+11 -1.086892471707289e+00 -3.769739264550041e-02
1.605714285714300e+11 -1.086584491952242e+00 -3.493147906846838e-02
1.606122448979600e+11 -1.085762232654372e+00 -3.399069520377663e-02
1.606530612244900e+11 -1.085370045376050e+00 -3.455659344339337e-02
1.606938775510200e+11 -1.084887603013064e+00 -3.306137518869860e-02
1.607346938775500e+11 -1.084264466759803e+00 -3.036526850297002e-02
1.607755102040800e+11 -1.083491427471414e+00 -2.817516690917085e-02
1.608163265306100e+11 -1.083301690060932e+00 -2.778114403184292e-02
1.608571428571400e+11 -1.082338120536920e+00 -2.575905200695960e-02
1.608979591836700e+11 -1.081176962074679e+00 -2.299079299566743e-02
1.609387755102000e+11 -1.079894371302368e+00 -1.888048942097398e-02
1.609795918367300e+11 -1.079458277519816e+00 -1.530061550611231e-02
1.610204081632700e+11 -1.079190634011056e+00 -1.250228320846314e-02
1.610612244898000e+11 -1.079706625948747e+00 -8.706671250945293e-03
1.611020408163300e+11 -1.080126522363317e+00 -4.054829116763352e-03
1.611428571428600e+11 -1.080238067636054e+00 -1.316332257919417e-03
1.611836734693900e+11 -1.080904084296026e+00 5.294031867028126e-04
1.612244897959200e+11 -1.081610647720714e+00 3.094539644993690e-03
1.612653061224500e+11 -1.082085669397494e+00 4.348884322695520e-03
1.613061224489800e+11 -1.082599301486591e+00 5.438056373604946e-03
1.613469387755100e+11 -1.082847340187817e+00 6.804099707211670e-03
1.613877551020400e+11 -1.083379969180040e+00 7.639444992340136e-03
1.614285714285700e+11 -1.084253507626853e+00 8.758694402728960e-03
1.614693877551000e+11 -1.084721144464019e+00 8.804195707890587e-03
1.615102040816300e+11 -1.084755770591539e+00 8.632519681986082e-03
1.615510204081600e+11 -1.084791693388575e+00 7.548816227961377e-03
1.615918367346900e+11 -1.084928592985180e+00 6.992750563795517e-03
1.616326530612200e+11 -1.084095740213378e+00 6.074638479120971e-03
1.616734693877600e+11 -1.082943990088962e+00 5.983138676366673e-03
1.617142857142900e+11 -1.082592359632115e+00 5.921619256698350e-03
1.617551020408200e+11 -1.081934032727119e+00 3.357588541248353e-03
1.617959183673500e+11 -1.081593458080141e+00 2.635299164043435e-03
1.618367346938800e+11 -1.080746826399813e+00 2.893953851008341e-03
1.618775510204100e+11 -1.079775359731865e+00 1.798224355847674e-03
1.619183673469400e+11 -1.079297248331200e+00 1.027075255385544e-03
1.619591836734700e+11 -1.079523946459927e+00 3.487560495476693e-03
1.620000000000000e+11 -1.079932272222498e+00 5.934628549184534e-03
1.620408163265300e+11 -1.079826027527563e+00 6.825322220977328e-03
1.620816326530600e+11 -1.079253307434110e+00 8.245361309627584e-03
1.621224489795900e+11 -1.078987595990607e+00 1.033210134056217e-02
1.621632653061200e+11 -1.079223233455884e+00 1.295397779728292e-02
1.622040816326500e+11 -1.079116967844751e+00 1.468528724869781e-02
1.622448979591800e+11 -1.079691024836670e+00 1.781264355278174e-02
1.622857142857100e+11 -1.079288855878310e+00 2.211884735056722e-02
1.623265306122400e+11 -1.078782464466054e+00 2.667360246207941e-02
1.623673469387800e+11 -1.078087734419321e+00 2.979309701769119e-02
1.624081632653100e+11 -1.077903963824242e+00 3.402326179004724e-02
1.624489795918400e+11 -1.077795376324159e+00 3.702124668134951e-02
1.624897959183700e+11 -1.077311656587532e+00 4.041063537951840e-02
1.625306122449000e+11 -1.076575065059665e+00 4.337590487923964e-02
1.625714285714300e+11 -1.075975490753120e+00 4.500032403761407e-02
1.626122448979600e+11 -1.075774544953336e+00 4.726660713148243e-02
1.626530612244900e+11 -1.076209590026574e+00 5.171423640217580e-02
1.626938775510200e+11 -1.076519723760781e+00 5.397026591919318e-02
1.627346938775500e+11 -1.076389076247884e+00 5.402715725730385e-02
1.627755102040800e+11 -1.076614146340324e+00 5.542207285818681e-02
1.628163265306100e+11 -1.077628271448623e+00 5.831969508344678e-02
1.628571428571400e+11 -1.078395386362243e+00 6.102119438229512e-02
1.628979591836700e+11 -1.079004101744528e+00 6.208173688841546e-02
1.629387755102000e+11 -1.079680059022635e+00 6.275047728386690e-02
1.629795918367300e+11 -1.080528307659184e+00 6.524358646884527e-02
1.630204081632700e+11 -1.080370882230417e+00 6.821710097183989e-02
1.630612244898000e+11 -1.081038580003095e+00 6.892989557231989e-02
1.631020408163300e+11 -1.081132406259567e+00 6.834084614849645e-02
1.631428571428600e+11 -1.081210972944281e+00 6.974787306385818e-02
1.631836734693900e+11 -1.081263335360126e+00 7.109988595799706e-02
1.632244897959200e+11 -1.081101180164619e+00 7.121383694394083e-02
1.632653061224500e+11 -1.081446328113831e+00 7.103050710618822e-02
1.633061224489800e+11 -1.081015725039461e+00 7.128149381421757e-02
1.633469387755100e+11 -1.081118905424385e+00 7.527321289689934e-02
1.633877551020400e+11 -1.081024613853789e+00 7.592894667006131e-02
1.634285714285700e+11 -1.080932924950413e+00 7.503879026875818e-02
1.634693877551000e+11 -1.080997966335675e+00 7.646342980050344e-02
1.635102040816300e+11 -1.081512607642754e+00 7.642726663245893e-02
1.635510204081600e+11 -1.081331715316319e+00 7.694151457570864e-02
1.635918367346900e+11 -1.081129473325746e+00 7.799803733986833e-02
1.636326530612200e+11 -1.081156224348408e+00 7.839339610870046e-02
1.636734693877600e+11 -1.082169007886587e+00 7.974044567813487e-02
1.637142857142900e+11 -1.082759633133291e+00 7.896438458323020e-02
1.637551020408200e+11 -1.082619017339923e+00 7.985586475260477e-02
1.637959183673500e+11 -1.082714961079650e+00 8.092827159404646e-02
1.638367346938800e+11 -1.083031339856682e+00 8.273231640561129e-02
1.638775510204100e+11 -1.083727030415655e+00 8.526039491723296e-02
1.639183673469400e+11 -1.083122921010174e+00 8.290536052504115e-02
1.639591836734700e+11 -1.082578938443422e+00 8.240183141365305e-02
1.640000000000000e+11 -1.082324767084852e+00 8.415440438272435e-02
1.640408163265300e+11 -1.082412807301852e+00 8.707836441126875e-02
1.640816326530600e+11 -1.082225802389162e+00 8.759843416391981e-02
1.641224489795900e+11 -1.081706243448621e+00 8.750621161853889e-02
1.641632653061200e+11 -1.081231308890760e+00 8.887291099835162e-02
1.642040816326500e+11 -1.080763712855116e+00 9.091115556080835e-02
1.642448979591800e+11 -1.080458984248855e+00 9.267405950834014e-02
1.642857142857100e+11 -1.080293341364580e+00 9.199083023140303e-02
1.643265306122400e+11 -1.079576666066978e+00 9.177003903864463e-02
1.643673469387800e+11 -1.079919778522935e+00 9.514574303144238e-02
1.644081632653100e+11 -1.080760855958595e+00 9.767953059831187e-02
1.644489795918400e+11 -1.080643203288976e+00 9.848349970937964e-02
1.644897959183700e+11 -1.081064036502104e+00 1.003930237596297e-01
1.645306122449000e+11 -1.080864623229830e+00 1.043792842979921e-01
1.645714285714300e+11 -1.081048433612788e+00 1.077924829047268e-01
1.646122448979600e+11 -1.081491095353280e+00 1.091500584877378e-01
1.646530612244900e+11 -1.082130871354922e+00 1.092412917950181e-01
1.646938775510200e+11 -1.083025393500925e+00 1.096242360242903e-01
1.647346938775500e+11 -1.083000123765578e+00 1.131289238224336e-01
1.647755102040800e+11 -1.083293101052192e+00 1.165579035462548e-01
1.648163265306100e+11 -1.084437604569785e+00 1.179424657799101e-01
1.648571428571400e+11 -1.084374099499240e+00 1.174265328107033e-01
1.648979591836700e+11 -1.085188767027528e+00 1.182775559319745e-01
1.649387755102000e+11 -1.085486666062603e+00 1.213329442784630e-01
1.649795918367300e+11 -1.085495829188913e+00 1.233467809563857e-01
1.650204081632700e+11 -1.085731069842319e+00 1.210019332259876e-01
1.650612244898000e+11 -1.086317887886461e+00 1.175622856502578e-01
1.651020408163300e+11 -1.087453806965913e+00 1.165905893486618e-01
1.651428571428600e+11 -1.088387337281302e+00 1.175994997690605e-01
1.651836734693900e+11 -1.088485158366432e+00 1.152878599193947e-01
1.652244897959200e+11 -1.089732024060959e+00 1.120684973119524e-01
1.652653061224500e+11 -1.090571109557662e+00 1.114462061311174e-01
1.653061224489800e+11 -1.091419488598872e+00 1.077938010007912e-01
1.653469387755100e+11 -1.092256641533327e+00 1.068504472097124e-01
1.653877551020400e+11 -1.093032137252150e+00 1.042440293826197e-01
1.654285714285700e+11 -1.094376333701309e+00 1.018781088755186e-01
1.654693877551000e+11 -1.095237970681871e+00 9.908827281191805e-02
1.655102040816300e+11 -1.096036746216622e+00 9.652161696922229e-02
1.655510204081600e+11 -1.096104124406560e+00 9.407184660920155e-02
1.655918367346900e+11 -1.096184663035204e+00 9.363268966242672e-02
1.656326530612200e+11 -1.095728529306356e+00 9.397281377585714e-02
1.656734693877600e+11 -1.095746948473859e+00 9.300468483284376e-02
1.657142857142900e+11 -1.095353771754817e+00 9.199451227489251e-02
1.657551020408200e+11 -1.094619204396837e+00 9.019532303135361e-02
1.657959183673500e+11 -1.094416002545373e+00 9.010316254189350e-02
1.658367346938800e+11 -1.094300857341916e+00 9.194046290593572e-02
1.658775510204100e+11 -1.093811958112489e+00 9.381013596437474e-02
1.659183673469400e+11 -1.094112234760690e+00 9.420198880276820e-02
1.659591836734700e+11 -1.094392529462588e+00 9.690728149530609e-02
1.660000000000000e+11 -1.094538296994228e+00 1.007015915797597e-01
1.660408163265300e+11 -1.094589482018172e+00 1.047358101585473e-01
1.660816326530600e+11 -1.095139987903863e+00 1.085255192250028e-01
1.661224489795900e+11 -1.095584063658489e+00 1.114400817334696e-01
1.661632653061200e+11 -1.096540317714165e+00 1.134978336750731e-01
1.662040816326500e+11 -1.096589719342433e+00 1.164380634423590e-01
1.662448979591800e+11 -1.097322278497201e+00 1.171604175049184e-01
1.662857142857100e+11 -1.097630846137725e+00 1.206436638923516e-01
1.663265306122400e+11 -1.097778014656972e+00 1.222614233366706e-01
1.663673469387800e+11 -1.098756597052520e+00 1.227228799738100e-01
1.664081632653100e+11 -1.098759981921139e+00 1.206497625573906e-01
1.664489795918400e+11 -1.098439505510466e+00 1.189682873428166e-01
1.664897959183700e+11 -1.099407109796295e+00 1.178326218070122e-01
1.665306122449000e+11 -1.100611991761953e+00 1.156088307740845e-01
1.665714285714300e+11 -1.100975238199384e+00 1.140452257032170e-01
1.666122448979600e+11 -1.101198277148860e+00 1.112143518053531e-01
1.666530612244900e+11 -1.101997870952433e+00 1.074041335933086e-01
1.666938775510200e+11 -1.102982337766038e+00 1.055600352912010e-01
1.667346938775500e+11 -1.103387177885166e+00 1.033949816058712e-01
1.667755102040800e+11 -1.103826871427658e+00 1.003616580028923e-01
1.668163265306100e+11 -1.104515563963426e+00 9.936061633119499e-02
1.668571428571400e+11 -1.105815656103164e+00 9.728956366896066e-02
1.668979591836700e+11 -1.106762538814850e+00 9.463595007230410e-02
1.669387755102000e+11 -1.106803953340831e+00 9.308489295369135e-02
1.669795918367300e+11 -1.107334721716591e+00 9.169121731276489e-02
1.670204081632700e+11 -1.108201822398415e+00 8.796323793038588e-02
1.670612244898000e+11 -1.107988376715609e+00 8.616632150773486e-02
1.671020408163300e+11 -1.107947241680475e+00 8.487619419743879e-02
1.671428571428600e+11 -1.107857610745583e+00 8.407656367862926e-02
1.671836734693900e+11 -1.108350827970670e+00 8.062335976746114e-02
1.672244897959200e+11 -1.108135935497597e+00 7.777084963036979e-02
1.672653061224500e+11 -1.107886921514761e+00 7.699367516856923e-02
1.673061224489800e+11 -1.107088887031211e+00 7.841995749319776e-02
1.673469387755100e+11 -1.106979303612492e+00 7.705078942764004e-02
1.673877551020400e+11 -1.107218416049117e+00 7.570482674041952e-02
1.674285714285700e+11 -1.106844434169454e+00 7.372715243860060e-02
1.674693877551000e+11 -1.106561132319330e+00 7.309555962765939e-02
1.675102040816300e+11 -1.106927914660568e+00 7.288372025574850e-02
1.675510204081600e+11 -1.106830271258365e+00 7.253180232843731e-02
1.675918367346900e+11 -1.107069091046763e+00 7.183421314770783e-02
1.676326530612200e+11 -1.107394090805530e+00 7.071180693063153e-02
1.676734693877600e+11 -1.107829681869810e+00 7.003224388279786e-02
1.677142857142900e+11 -1.108343148573778e+00 6.986851782726577e-02
1.677551020408200e+11 -1.108726645834633e+00 7.047505655220779e-02
1.677959183673500e+11 -1.109176255035070e+00 7.151287928603808e-02
1.678367346938800e+11 -1.109751125161566e+00 7.059736732847041e-02
1.678775510204100e+11 -1.110151748144719e+00 6.711286923572915e-02
1.679183673469400e+11 -1.110365530863273e+00 6.484047653212600e-02
1.679591836734700e+11 -1.110579302090168e+00 6.464478630066010e-02
1.680000000000000e+11 -1.110988031962440e+00 6.493717679679589e-02
1.680408163265300e+11 -1.111270839833499e+00 6.561024246939627e-02
1.680816326530600e+11 -1.110706575171634e+00 6.625541479719289e-02
1.681224489795900e+11 -1.110170836547625e+00 6.458740894752268e-02
1.681632653061200e+11 -1.109255567711225e+00 6.058103656347093e-02
1.682040816326500e+11 -1.109464840142037e+00 5.732994612080412e-02
1.682448979591800e+11 -1.109216980310349e+00 5.838755476276082e-02
1.682857142857100e+11 -1.108441011006792e+00 5.984547395568960e-02
1.683265306122400e+11 -1.108118376622540e+00 6.017171786701071e-02
1.683673469387800e+11 -1.108130923235362e+00 5.863567960100408e-02
1.684081632653100e+11 -1.108269319490860e+00 5.692927642310407e-02
1.684489795918400e+11 -1.108234483182268e+00 5.829014608257827e-02
1.684897959183700e+11 -1.108280036221303e+00 5.750603295749907e-02
1.685306122449000e+11 -1.108171606321443e+00 5.809203305897837e-02
1.685714285714300e+11 -1.108270069630563e+00 5.732578173902881e-02
1.686122448979600e+11 -1.108595656591990e+00 5.816924015686187e-02
1.686530612244900e+11 -1.108744422867973e+00 5.895503270579178e-02
1.686938775510200e+11 -1.109247699307696e+00 5.656766462599144e-02
1.687346938775500e+11 -1.109352196698659e+00 5.371423689250835e-02
1.687755102040800e+11 -1.108893079820853e+00 5.437198769520604e-02
1.688163265306100e+11 -1.108803416176261e+00 5.412682680219837e-02
1.688571428571400e+11 -1.109160625187934e+00 5.264687564656223e-02
1.688979591836700e+11 -1.108816205421061e+00 4.997380666180849e-02
1.689387755102000e+11 -1.108475653399024e+00 4.621286022318948e-02
1.689795918367300e+11 -1.108530368672325e+00 4.460428610391078e-02
1.690204081632700e+11 -1.108107782964245e+00 4.534991010289913e-02
1.690612244898000e+11 -1.107896139863184e+00 4.322515251706267e-02
1.691020408163300e+11 -1.107025902710834e+00 4.220513308479856e-02
1.691428571428600e+11 -1.106668495877502e+00 4.068834851881321e-02
1.691836734693900e+11 -1.106322190072959e+00 3.984370081407174e-02
1.692244897959200e+11 -1.106070071779403e+00 3.784157938438890e-02
1.692653061224500e+11 -1.105329043749799e+00 3.542443358086757e-02
1.693061224489800e+11 -1.104916723426403e+00 3.606005483261319e-02
1.693469387755100e+11 -1.104306453555688e+00 3.670627463638774e-02
1.693877551020400e+11 -1.103480860021825e+00 3.578209261097318e-02
1.694285714285700e+11 -1.103134818236394e+00 3.531750641370940e-02
1.694693877551000e+11 -1.102830605357826e+00 3.513052695763232e-02
1.695102040816300e+11 -1.102673641514364e+00 3.656738852691450e-02
1.695510204081600e+11 -1.101985157088916e+00 3.714949354459207e-02
1.695918367346900e+11 -1.101570625581347e+00 3.857006680425969e-02
1.696326530612200e+11 -1.101103781848418e+00 4.024002511606135e-02
1.696734693877600e+11 -1.100473851963456e+00 4.027994604328782e-02
1.697142857142900e+11 -1.100064679155704e+00 4.124629093666809e-02
1.697551020408200e+11 -1.099463885643882e+00 4.166339317620265e-02
1.697959183673500e+11 -1.098690564383530e+00 4.290036824475364e-02
1.698367346938800e+11 -1.098729465512511e+00 4.392202002728031e-02
1.698775510204100e+11 -1.098232657900157e+00 4.414682226883857e-02
1.699183673469400e+11 -1.098289776318318e+00 4.353515846409987e-02
1.699591836734700e+11 -1.097644571789021e+00 4.543684603490778e-02
1.700000000000000e+11 -1.097648846394891e+00 4.669937217793989e-02
