! Generated by Phase I extraction
# Hz S RI R 50
6.700000000000000e+10 7.232598201310934e-02 -1.304487403195361e-02 2.423704363987368e-01 -8.969225777600885e-01 8.707182895294432e-01 -3.143286843414882e-01 4.502549665292032e-02 3.932592890039799e-02
6.704800000000000e+10 7.488261606125483e-02 -4.064029156763952e-03 2.387913193467798e-01 -8.991856500808615e-01 8.724274141319407e-01 -3.106112968522460e-01 4.388520656639606e-02 3.802050953924960e-02
6.709600000000000e+10 8.250623977205793e-02 -9.999324897090676e-04 2.419907165202375e-01 -8.971661450777553e-01 8.774756961246573e-01 -3.057141869323481e-01 4.834990561493419e-02 4.313561949313752e-02
6.714400000000000e+10 8.691777412936268e-02 -3.680040237519467e-03 2.403669488162398e-01 -9.004090491843492e-01 8.796914621300084e-01 -3.077723202318005e-01 4.353039824542958e-02 4.278618584417408e-02
6.719200000000000e+10 8.725353728659443e-02 -5.566373219478390e-03 2.461769845358368e-01 -8.980170192273461e-01 8.759133777541633e-01 -3.127366894056136e-01 4.417800696046147e-02 4.410232010689692e-02
6.724000000000000e+10 8.646970631281301e-02 -4.844458351954586e-03 2.541130119531200e-01 -8.980015044045233e-01 8.743494585420020e-01 -3.198163770569096e-01 4.116388380239357e-02 4.403675985825974e-02
6.728800000000000e+10 8.351189163199713e-02 -3.841313775969810e-03 2.601827764301886e-01 -8.963526551512350e-01 8.723714615011452e-01 -3.240854568896494e-01 4.309295765398929e-02 4.341865755788481e-02
6.733600000000000e+10 8.391198854484787e-02 -2.098273729374227e-03 2.568752257522378e-01 -8.980700238046461e-01 8.697378808011128e-01 -3.214724778128581e-01 4.223246198735564e-02 4.405966062878758e-02
6.738400000000000e+10 8.732478632981516e-02 -1.804317041734942e-03 2.548066942506138e-01 -8.971946083067813e-01 8.735286131731416e-01 -3.192185030498055e-01 4.017783041250854e-02 4.320802594215475e-02
6.743200000000000e+10 8.927114926425743e-02 -3.966912240774982e-03 2.412683171001387e-01 -8.995513551918309e-01 8.740837771807733e-01 -3.153862781612513e-01 3.890223168548424e-02 4.567793671204406e-02
6.748000000000000e+10 9.111330023089338e-02 -6.085330037671980e-03 2.401058841522768e-01 -9.013589849345974e-01 8.753858766743678e-01 -3.127994613737378e-01 3.850068840222944e-02 4.302359249144265e-02
6.752800000000000e+10 8.910613687507651e-02 -6.051145143608432e-03 2.403016085959806e-01 -9.027333491411091e-01 8.767634276001390e-01 -3.145009013238159e-01 3.895580143282221e-02 4.166105789138289e-02
6.757600000000000e+10 8.501773352505342e-02 -5.367955708997865e-03 2.432359367498122e-01 -9.005265716016678e-01 8.744068610440084e-01 -3.137704414499859e-01 3.985352649359924e-02 4.234568332590159e-02
6.762400000000000e+10 8.389983216475616e-02 -4.529605815537846e-03 2.460634659012743e-01 -9.013487484817512e-01 8.734016190426336e-01 -3.178187495683579e-01 3.964971212135381e-02 4.102211474878675e-02
6.767200000000000e+10 8.406229245193785e-02 -3.307061219500045e-03 2.461476246492294e-01 -8.981174390202323e-01 8.703141286083199e-01 -3.208220274789115e-01 3.858745182184568e-02 4.196527691588107e-02
6.772000000000000e+10 8.435978064108038e-02 -4.391967456191114e-03 2.445844161143088e-01 -8.992169256051654e-01 8.701925307664705e-01 -3.203498043220681e-01 3.830079081990000e-02 4.165518515654303e-02
6.776800000000000e+10 8.568431284191673e-02 -3.642124949260324e-03 2.426940484804351e-01 -8.985541196937523e-01 8.703595085527350e-01 -3.193719775841591e-01 3.718388538422392e-02 4.199773398056646e-02
6.781600000000000e+10 8.605642251541271e-02 -5.549903479239166e-03 2.415889653693343e-01 -9.021501651359880e-01 8.725407670695845e-01 -3.175374801418324e-01 3.656364198146184e-02 4.169209095506082e-02
6.786400000000000e+10 8.395643460763051e-02 -5.532325029290800e-03 2.402326329466654e-01 -9.038787514216436e-01 8.745784418262996e-01 -3.166042612813487e-01 3.618037313297382e-02 4.182551863662893e-02
6.791200000000000e+10 8.267663302148608e-02 -5.745496851713251e-03 2.406886151756048e-01 -9.008751658551887e-01 8.710133779221959e-01 -3.211086652769374e-01 3.722513177531044e-02 4.418055732983395e-02
6.796000000000000e+10 8.430238664861051e-02 -4.294136130010067e-03 2.427491450172438e-01 -8.984736367277723e-01 8.729909275380998e-01 -3.227053495898056e-01 3.899878337052994e-02 4.135546888780212e-02
6.800800000000000e+10 8.457730254612721e-02 -3.267780953822226e-03 2.417003936745494e-01 -8.962533065247443e-01 8.708803234688669e-01 -3.225268979232364e-01 3.936284044386967e-02 4.291400141250209e-02
6.805600000000000e+10 8.609514680657208e-02 -6.082664648962727e-03 2.423025022672172e-01 -8.986523670831221e-01 8.695863694412765e-01 -3.204803401607374e-01 3.896366577939400e-02 4.155227725471973e-02
6.810400000000000e+10 8.652569870824910e-02 -6.600322512224000e-03 2.451221189654455e-01 -8.982298004544605e-01 8.693137581507773e-01 -3.242574200623886e-01 3.983222258850927e-02 4.049719990041876e-02
6.815200000000000e+10 8.512645849188560e-02 -8.547471046167508e-03 2.468082120032565e-01 -8.983318609146207e-01 8.698777969541663e-01 -3.263112428369560e-01 3.935216244526529e-02 3.937089749933723e-02
6.820000000000000e+10 8.231130465036830e-02 -9.491671080210243e-03 2.452539605270257e-01 -8.964116969837448e-01 8.718027094177340e-01 -3.246706950216519e-01 3.880369980621465e-02 4.008767298699095e-02
6.824800000000000e+10 8.224345210171578e-02 -8.919206142186834e-03 2.357512442215498e-01 -8.982784042723513e-01 8.718064495630977e-01 -3.200012826690615e-01 3.693784202593335e-02 4.147111652931121e-02
6.829600000000000e+10 8.296312289008236e-02 -5.472292657557547e-03 2.309965708082022e-01 -9.002722244726867e-01 8.722452914504580e-01 -3.185840790107692e-01 3.759069902796321e-02 4.064622620962930e-02
6.834400000000000e+10 8.560477071072339e-02 -4.134889006480708e-03 2.301011096404671e-01 -9.001120182382777e-01 8.706372235373909e-01 -3.152622142145747e-01 3.926201106493124e-02 4.078821447256354e-02
6.839200000000000e+10 8.653408267158498e-02 -4.803925647205508e-03 2.299207893955803e-01 -8.998887303538491e-01 8.706123963005662e-01 -3.159110445541274e-01 3.908999090944552e-02 4.094030221335111e-02
6.844000000000000e+10 8.689941660054834e-02 -9.953015956604075e-03 2.359774676711240e-01 -8.993044893391475e-01 8.720735720994081e-01 -3.199601854198135e-01 4.082876899509127e-02 4.006796669063276e-02
6.848800000000000e+10 8.363025981639328e-02 -8.758983602614515e-03 2.377678097238780e-01 -8.953927393837329e-01 8.698655064975017e-01 -3.274111504648558e-01 3.819747970456527e-02 3.993452413894308e-02
6.853600000000000e+10 8.188551674314098e-02 -1.003153545560224e-02 2.391989136528316e-01 -8.980738848392418e-01 8.703069759623261e-01 -3.321107656737295e-01 3.915403109839388e-02 3.715627903779305e-02
6.858400000000000e+10 8.045039135322625e-02 -7.348659114405915e-03 2.399922835329103e-01 -8.976814339893158e-01 8.691059923558060e-01 -3.319233811841050e-01 3.816471533491742e-02 3.872349422166304e-02
6.863200000000000e+10 8.158565388997424e-02 -5.678823984327313e-03 2.409995149751038e-01 -8.983321167689978e-01 8.689533950809971e-01 -3.310802168066459e-01 3.886555762742721e-02 3.719302913496966e-02
6.868000000000000e+10 8.330346264307409e-02 -6.759383203521077e-03 2.381418829696384e-01 -9.006970060327152e-01 8.699489131622095e-01 -3.274737606593803e-01 3.938867576426110e-02 3.695632975956852e-02
6.872800000000000e+10 8.523690324521958e-02 -7.935449988169245e-03 2.300438152337411e-01 -9.005717712093151e-01 8.719599116843381e-01 -3.207672639487311e-01 3.855772123110610e-02 3.792015213329602e-02
6.877600000000000e+10 8.570000274090507e-02 -1.045870761084264e-02 2.225004567838186e-01 -9.022193911225634e-01 8.749601689573214e-01 -3.157226565163454e-01 3.923021585635320e-02 3.787475836978762e-02
6.882400000000000e+10 8.165348246331817e-02 -1.054115007476287e-02 2.169686683255725e-01 -9.017590080810004e-01 8.740778883670616e-01 -3.179032796857020e-01 3.758364496175551e-02 3.769915055671907e-02
6.887200000000000e+10 8.082048285703176e-02 -1.204139122163636e-02 2.192240622675815e-01 -9.034742868704942e-01 8.738594566668512e-01 -3.224398703729438e-01 3.770693850669107e-02 3.653600469486815e-02
6.892000000000000e+10 7.834671550592957e-02 -8.345871065352971e-03 2.267200913342248e-01 -9.001966121673639e-01 8.696555626331641e-01 -3.292058417930048e-01 3.712768900467377e-02 3.757079463859327e-02
6.896800000000000e+10 7.900072525337090e-02 -9.111964930477352e-03 2.362849518849266e-01 -9.002604415666600e-01 8.673119931763870e-01 -3.385726017335959e-01 3.871711020081835e-02 3.595199325011081e-02
6.901600000000000e+10 8.041630422767240e-02 -6.724922483680252e-03 2.422933218314215e-01 -8.987062893195711e-01 8.646234612490014e-01 -3.419173783089471e-01 3.867927442756763e-02 3.715651771778222e-02
6.906400000000000e+10 8.177260815552609e-02 -9.947611363708799e-03 2.354612723975522e-01 -9.012761189704398e-01 8.671325255387300e-01 -3.375670397332443e-01 4.043044295060318e-02 3.519486200870156e-02
6.911200000000000e+10 8.113644443281634e-02 -1.071037099861993e-02 2.262371022935318e-01 -9.027673040226885e-01 8.702230046279926e-01 -3.303195338645796e-01 3.955637939137944e-02 3.569891079783555e-02
6.916000000000000e+10 7.964411100951724e-02 -1.214639490925148e-02 2.150531313908590e-01 -9.060823014626830e-01 8.742976107547471e-01 -3.202569994344415e-01 4.008152558249927e-02 3.429960098206698e-02
6.920800000000000e+10 7.807511957478579e-02 -1.066498454214933e-02 2.077008729191126e-01 -9.061688046742251e-01 8.757539728271301e-01 -3.141076901480206e-01 3.938621772154225e-02 3.459023726582159e-02
6.925600000000000e+10 7.810453551629247e-02 -5.570337556144975e-03 2.135082407461234e-01 -9.036473786762469e-01 8.749470976012739e-01 -3.114221235744314e-01 4.241099272176491e-02 3.649253697208653e-02
6.930400000000000e+10 7.949166484560988e-02 -5.937971537458365e-03 2.155450108140052e-01 -9.035474205793265e-01 8.737036106638704e-01 -3.157431517808906e-01 4.120418188316109e-02 3.527632327052904e-02
6.935200000000000e+10 7.902146919317832e-02 -3.308024181690159e-03 2.184048564070873e-01 -9.005970878019233e-01 8.687907878392213e-01 -3.219115651323715e-01 3.873688163607286e-02 3.677355290242968e-02
6.940000000000000e+10 8.054677491743804e-02 -5.147095839429894e-03 2.225781614213518e-01 -8.985586737343739e-01 8.662696616038911e-01 -3.275126596169038e-01 3.832614464877206e-02 3.550706555590229e-02
6.944800000000000e+10 7.817860881789943e-02 -2.900573588699656e-03 2.276154670666988e-01 -8.975266496713142e-01 8.631950160457152e-01 -3.330282235442992e-01 3.947374698176818e-02 3.639550662488197e-02
6.949600000000000e+10 7.897576548081786e-02 -5.378111511136833e-03 2.307499690076129e-01 -8.978076267497773e-01 8.640840767166057e-01 -3.331171942204210e-01 4.120963429648530e-02 3.575753332961561e-02
6.954400000000000e+10 7.753428202979490e-02 -3.491889119793218e-03 2.283906729821072e-01 -8.976243783466706e-01 8.654449249066070e-01 -3.297421760554265e-01 4.106674242134125e-02 3.770474016984371e-02
6.959200000000000e+10 7.669393814322452e-02 -3.869067968474096e-03 2.195891860615516e-01 -9.000238577885429e-01 8.680348576163806e-01 -3.235984870132668e-01 4.081670122675636e-02 3.562857999019893e-02
6.964000000000000e+10 7.699793991659362e-02 -1.789344072926983e-03 2.101622785289775e-01 -9.027009428576865e-01 8.701286560588056e-01 -3.158863623258491e-01 4.068307204211616e-02 3.588175247275668e-02
6.968800000000000e+10 7.833540973974208e-02 -1.994306877393281e-03 2.058617506048853e-01 -9.037935750812627e-01 8.721940680819432e-01 -3.111112355907562e-01 4.110835743748521e-02 3.592084526390044e-02
6.973600000000000e+10 8.036244151333594e-02 -2.377324401972413e-03 2.071290339918484e-01 -9.024616691444787e-01 8.709371587885384e-01 -3.125366764296187e-01 4.105049160533428e-02 3.561035540431896e-02
6.978400000000000e+10 8.030883570908616e-02 -3.031324040220021e-03 2.107447414800027e-01 -9.005360094693459e-01 8.693927376596301e-01 -3.174658578307893e-01 4.066981059701387e-02 3.567680426268467e-02
6.983200000000000e+10 8.029691853164922e-02 -4.280126573938291e-03 2.126603471160058e-01 -8.997617251501642e-01 8.675675965402042e-01 -3.215690063361275e-01 3.980083310653738e-02 3.516822667790376e-02
6.988000000000000e+10 7.915779086070200e-02 -3.919669183997833e-03 2.134374673309470e-01 -8.987793795443683e-01 8.663953531647178e-01 -3.239715262552207e-01 3.912935406546778e-02 3.595671398062480e-02
6.992800000000000e+10 7.849424810105292e-02 -3.935018258983748e-03 2.127780729406754e-01 -8.994222411454018e-01 8.660588190655746e-01 -3.248813609371263e-01 3.957514965267206e-02 3.508426489344055e-02
6.997600000000000e+10 7.997540836588518e-02 -2.766287724235525e-03 2.146068408448837e-01 -8.984651184000243e-01 8.659148223556046e-01 -3.245833076157547e-01 4.006330926480810e-02 3.572031720255563e-02
7.002400000000000e+10 8.079967186436994e-02 -3.445488486218187e-03 2.141839760247050e-01 -9.005743204642025e-01 8.667445133546995e-01 -3.250370865096243e-01 4.156012242500351e-02 3.459413195501393e-02
7.007200000000000e+10 8.172067974497516e-02 -4.036690755275042e-03 2.125605684855095e-01 -9.017605474666887e-01 8.673964519269995e-01 -3.245262711619420e-01 4.179688313811123e-02 3.444308624099318e-02
7.012000000000000e+10 8.309023396545680e-02 -4.997216594350037e-03 2.104094167922595e-01 -9.019534538908328e-01 8.671450074410134e-01 -3.233479712060570e-01 4.156464037856682e-02 3.451644014421070e-02
7.016800000000000e+10 8.182545489681646e-02 -5.709957750480991e-03 2.074508174701140e-01 -9.030344816779776e-01 8.681502608796410e-01 -3.213861361654005e-01 4.208918278384199e-02 3.391693066810634e-02
7.021600000000000e+10 8.207640840094001e-02 -6.357172397501240e-03 2.054022650064132e-01 -9.032969195413670e-01 8.687608152002281e-01 -3.214064500868684e-01 4.216382427426116e-02 3.304541574210179e-02
7.026400000000000e+10 7.978844787494684e-02 -5.581141133507874e-03 2.050954539361763e-01 -9.012467256585092e-01 8.681296149736821e-01 -3.221456611198139e-01 4.117995295647572e-02 3.359985107106591e-02
7.031200000000000e+10 8.029079830998383e-02 -3.928420282226937e-03 2.040178912548067e-01 -9.009289995848889e-01 8.668218163160402e-01 -3.209262687847079e-01 4.111291293876192e-02 3.469528204500606e-02
7.036000000000000e+10 7.902589945665861e-02 -3.031305148445726e-03 2.010897562650404e-01 -9.014624798713640e-01 8.666861391280013e-01 -3.189718793380927e-01 4.087296935108164e-02 3.433026608240847e-02
7.040800000000000e+10 8.216800689941500e-02 -3.599978103748639e-03 1.979765832055504e-01 -9.033681771467655e-01 8.675971547769245e-01 -3.161483318110377e-01 4.181172070692851e-02 3.453054777146985e-02
7.045600000000000e+10 8.180320680139151e-02 -4.668507644598922e-03 1.966724969293024e-01 -9.048470494218143e-01 8.687875533797405e-01 -3.142782926355316e-01 4.257913163458968e-02 3.481721156437306e-02
7.050400000000000e+10 8.348853330141683e-02 -5.266450806498707e-03 1.956300624190976e-01 -9.047006335679141e-01 8.695949052679920e-01 -3.138450921685303e-01 4.315526623332096e-02 3.581279545968841e-02
7.055200000000000e+10 8.298711208086630e-02 -6.448426738702128e-03 1.970776619468725e-01 -9.052132862709790e-01 8.699476055098225e-01 -3.152820098230474e-01 4.347478938472410e-02 3.583991276253738e-02
7.060000000000000e+10 8.255625543404113e-02 -6.262910223087522e-03 1.987627100603251e-01 -9.054998375141146e-01 8.688278876073503e-01 -3.192601291568927e-01 4.465399957801101e-02 3.537962407352845e-02
7.064800000000000e+10 8.411077536875292e-02 -6.073858937748207e-03 2.012289092796177e-01 -9.052060017115842e-01 8.672612292967464e-01 -3.216214864258569e-01 4.416019686486598e-02 3.442898732179621e-02
7.069600000000000e+10 8.256487241781002e-02 -5.847097880945627e-03 1.998654853682083e-01 -9.049418816984813e-01 8.678310575010315e-01 -3.222672413703723e-01 4.429867599327695e-02 3.521034384077714e-02
7.074400000000000e+10 8.630867785138779e-02 -5.724942941590286e-03 1.955612799079118e-01 -9.053948592636814e-01 8.682476563470476e-01 -3.186552086007505e-01 4.347768478328784e-02 3.382202812886534e-02
7.079200000000000e+10 8.355091036189762e-02 -7.098939451141678e-03 1.919085774214093e-01 -9.064793449393799e-01 8.706948691113136e-01 -3.159082790060924e-01 4.446904272377444e-02 3.508695361279917e-02
7.084000000000000e+10 8.772796015861443e-02 -7.082554115149326e-03 1.892579302709816e-01 -9.068504471708078e-01 8.700701012827081e-01 -3.128763488947909e-01 4.432927030373783e-02 3.450105505440561e-02
7.088800000000000e+10 8.372845541192281e-02 -8.253494822593908e-03 1.862115880838887e-01 -9.075363416517437e-01 8.718916790461254e-01 -3.112975061349066e-01 4.483948360005989e-02 3.707795213416674e-02
7.093600000000000e+10 8.711643263240298e-02 -8.133333162326681e-03 1.835133647142731e-01 -9.077621674551581e-01 8.723590083387879e-01 -3.094254188115951e-01 4.551827907743605e-02 3.478244353711835e-02
7.098400000000000e+10 8.412142083352368e-02 -8.742719665894376e-03 1.817035074502288e-01 -9.085412685600958e-01 8.725214510205509e-01 -3.081681193342591e-01 4.613923153298845e-02 3.663263326990444e-02
7.103200000000000e+10 8.624108204054032e-02 -8.163065130804515e-03 1.844414533832940e-01 -9.084115933685741e-01 8.718984192968539e-01 -3.098875992991311e-01 4.716504991389273e-02 3.683678842491561e-02
7.108000000000000e+10 8.647458395512352e-02 -9.087881969642633e-03 1.877496278600189e-01 -9.082380920966199e-01 8.715301395575794e-01 -3.130850705035939e-01 4.816893711391822e-02 3.580387506174942e-02
7.112800000000000e+10 8.745885351717267e-02 -8.757482704585387e-03 1.903198326705141e-01 -9.076151885337069e-01 8.699296575616541e-01 -3.172638396012586e-01 4.820606384752311e-02 3.586862034222391e-02
7.117600000000000e+10 8.689223317693032e-02 -9.832311052127073e-03 1.926884003507192e-01 -9.070378479975811e-01 8.690939655716790e-01 -3.206829499975692e-01 4.840621628301472e-02 3.500261509885651e-02
7.122400000000000e+10 8.772903761896404e-02 -1.044625272102110e-02 1.938536370189193e-01 -9.064920015206849e-01 8.685959606942862e-01 -3.223819595186532e-01 4.929872954305010e-02 3.600456918452195e-02
7.127200000000000e+10 8.808536139700450e-02 -1.084655176621166e-02 1.948663525869629e-01 -9.064132409664125e-01 8.681665448439448e-01 -3.228195421730713e-01 4.829122947028483e-02 3.557869744262551e-02
7.132000000000000e+10 8.682181347781734e-02 -1.054023745097587e-02 1.926796695596517e-01 -9.050943500519038e-01 8.673651982908969e-01 -3.215935673175268e-01 4.804124526900559e-02 3.711619084218847e-02
7.136800000000000e+10 8.816573429118137e-02 -9.625693646960566e-03 1.905214883429470e-01 -9.062232946883811e-01 8.683700945808235e-01 -3.207487990976733e-01 4.774839127704852e-02 3.609874860050406e-02
7.141600000000000e+10 8.676070534186479e-02 -9.340547249957738e-03 1.858974454364160e-01 -9.051324301760200e-01 8.696307169431868e-01 -3.162636893251364e-01 4.789107076228392e-02 3.823058118031160e-02
7.146400000000000e+10 8.829225777321727e-02 -7.413992976749245e-03 1.784697160125678e-01 -9.062980910157739e-01 8.704906405358679e-01 -3.113892667425138e-01 4.728041291224301e-02 3.637939485428544e-02
7.151200000000000e+10 8.693675989662947e-02 -8.683599834869242e-03 1.731798874531766e-01 -9.068681913438603e-01 8.715055325094559e-01 -3.085596688983694e-01 4.722839965164741e-02 3.696548059782313e-02
7.156000000000000e+10 8.773153429208048e-02 -6.542695011049079e-03 1.706869472065354e-01 -9.058385437241803e-01 8.706761688554143e-01 -3.092014685173948e-01 4.673880697504072e-02 3.511434833052506e-02
7.160800000000000e+10 8.617260980958591e-02 -9.731394846568167e-03 1.736733510727092e-01 -9.072970492963106e-01 8.693412130991414e-01 -3.129295022367840e-01 4.746748685376954e-02 3.559068724727513e-02
7.165600000000000e+10 8.722158958318633e-02 -7.929148854160472e-03 1.782451715028166e-01 -9.061759905848081e-01 8.666557819072861e-01 -3.207958337132273e-01 4.770477331485331e-02 3.333093370064395e-02
7.170400000000000e+10 8.618138359246499e-02 -9.812591472242454e-03 1.884676481134034e-01 -9.055722091310363e-01 8.631222747318797e-01 -3.282790046012570e-01 4.788062483619085e-02 3.481824019441253e-02
7.175200000000000e+10 8.920172509882329e-02 -8.986905359850448e-03 1.984776944284113e-01 -9.073744670139414e-01 8.623086034284532e-01 -3.300399916703803e-01 5.038927953320867e-02 3.756210165255151e-02
7.180000000000000e+10 8.657330622039934e-02 -9.431790691728901e-03 1.930720883096772e-01 -9.062865456503270e-01 8.631646779562488e-01 -3.310362413399633e-01 4.975869790978547e-02 3.652095186172531e-02
7.184800000000000e+10 8.629561647392740e-02 -6.918870633156171e-03 1.832799576525810e-01 -9.028708897722982e-01 8.622886809863972e-01 -3.289228797577934e-01 4.688170662324827e-02 3.463930624219189e-02
7.189600000000000e+10 8.681760492643859e-02 -8.595761471730348e-03 1.772443209128471e-01 -9.052536617811847e-01 8.644502221718501e-01 -3.232485042169938e-01 4.800021133535108e-02 3.573796713072408e-02
7.194400000000000e+10 8.832509513012245e-02 -9.171002164514712e-03 1.705201916820437e-01 -9.067745214675446e-01 8.696896731092506e-01 -3.156338849411925e-01 4.890293447515860e-02 3.560449261856608e-02
7.199200000000000e+10 8.911334878901260e-02 -1.010422266721450e-02 1.644064564248462e-01 -9.078627748663124e-01 8.720650314443588e-01 -3.108790874467206e-01 4.979961726116216e-02 3.647529651706988e-02
7.204000000000000e+10 8.828710870396782e-02 -1.039933065547624e-02 1.626014381340161e-01 -9.080477671616786e-01 8.736822316748158e-01 -3.079892763997077e-01 5.034726035976120e-02 3.577763990315119e-02
7.208800000000000e+10 8.855464559669676e-02 -1.004766288755967e-02 1.659012257315028e-01 -9.101242627138987e-01 8.708702250152898e-01 -3.120449821937797e-01 5.115613575971566e-02 3.592570217518434e-02
7.213600000000000e+10 8.720653967651866e-02 -1.046474061136068e-02 1.721713801007318e-01 -9.108317318220452e-01 8.665068324722188e-01 -3.188109071378207e-01 5.087980463545291e-02 3.547371511163309e-02
7.218400000000000e+10 8.725711988723793e-02 -1.097356810821471e-02 1.776047084043769e-01 -9.116782358965169e-01 8.639498383400691e-01 -3.259834397287048e-01 5.097659485985830e-02 3.463776282930683e-02
7.223200000000000e+10 8.963339165076058e-02 -9.696135679950080e-03 1.844755414205646e-01 -9.080023917533383e-01 8.629660469201530e-01 -3.326172963047639e-01 5.061608045899837e-02 3.483976658475760e-02
7.228000000000000e+10 9.020599061801468e-02 -1.050692462758678e-02 1.886225553073526e-01 -9.076648712091556e-01 8.634484591598002e-01 -3.351878755747302e-01 5.015380628626316e-02 3.507069073093771e-02
7.232800000000000e+10 9.089973419366781e-02 -9.832924377557693e-03 1.834884020570569e-01 -9.062461027931090e-01 8.636574347462337e-01 -3.325342787984651e-01 5.063877761775942e-02 3.548180013954226e-02
7.237600000000000e+10 9.062275233688737e-02 -1.128579472006361e-02 1.739163678237330e-01 -9.100469665652487e-01 8.669996614860921e-01 -3.243670572404834e-01 5.079726521246727e-02 3.538401120489035e-02
7.242400000000000e+10 8.984969358597941e-02 -1.063110669464733e-02 1.616880628892105e-01 -9.089331561473757e-01 8.688155357590399e-01 -3.148057274809068e-01 5.029661252744483e-02 3.546657810208548e-02
7.247200000000000e+10 9.028105921639978e-02 -1.171117342161847e-02 1.539736971302272e-01 -9.120985982453063e-01 8.724652810823577e-01 -3.046119624302454e-01 5.169341545668627e-02 3.651469718410964e-02
7.252000000000000e+10 9.018938402410211e-02 -9.678715386764417e-03 1.493320359303201e-01 -9.125796960282885e-01 8.750181470106958e-01 -3.025014081849186e-01 5.149736398058745e-02 3.477855006680426e-02
7.256800000000000e+10 9.035732375414557e-02 -1.304922186195316e-02 1.505907738487001e-01 -9.144118656969085e-01 8.741001181719906e-01 -3.071466142568018e-01 5.305865582708513e-02 3.547214360394325e-02
7.261600000000000e+10 9.101341185635803e-02 -1.074844509044280e-02 1.575997578250968e-01 -9.132102100909293e-01 8.716035583208359e-01 -3.156202573170743e-01 5.178048269406409e-02 3.356777185432806e-02
7.266400000000000e+10 9.142190078515126e-02 -1.324410525500398e-02 1.678392997125550e-01 -9.111350692307748e-01 8.673410312470401e-01 -3.253583670764419e-01 5.245587475448836e-02 3.357598869266921e-02
7.271200000000000e+10 9.132787317542210e-02 -1.209593448499912e-02 1.740642127706776e-01 -9.096949339812890e-01 8.654919807537685e-01 -3.331258122028576e-01 5.137718874599689e-02 3.351278932775782e-02
7.276000000000000e+10 9.097960252757689e-02 -1.332088143686360e-02 1.736915786736008e-01 -9.094928794386675e-01 8.650744036028643e-01 -3.342324605875442e-01 5.110428954368180e-02 3.348589878788818e-02
7.280800000000000e+10 9.050239075041341e-02 -1.303344855375150e-02 1.673606640861565e-01 -9.111131009282336e-01 8.675152069399276e-01 -3.281601631695696e-01 5.095340481998670e-02 3.432946155051626e-02
7.285600000000000e+10 8.995235655578329e-02 -1.255972696266146e-02 1.570314107206646e-01 -9.125985545719986e-01 8.703031986177434e-01 -3.191800617215387e-01 5.050408724216825e-02 3.460324378369670e-02
7.290400000000000e+10 9.013577659567670e-02 -1.239371546272208e-02 1.487712559007474e-01 -9.146830585019028e-01 8.728692815459029e-01 -3.114489859987108e-01 5.112256170924355e-02 3.517454091617486e-02
7.295200000000000e+10 9.041439277928849e-02 -1.215507529726411e-02 1.446513167997049e-01 -9.155700400127015e-01 8.736972287079270e-01 -3.090350124484417e-01 5.141479175091763e-02 3.462471680837291e-02
7.300000000000000e+10 9.074364899128827e-02 -1.223505501464243e-02 1.489757284137032e-01 -9.154500965251712e-01 8.721658458685594e-01 -3.132820300802123e-01 5.188204789385999e-02 3.484682362036898e-02
7.304800000000000e+10 9.080706297762053e-02 -1.343599771920849e-02 1.569719598679078e-01 -9.141029924504620e-01 8.686737773388570e-01 -3.239523064515619e-01 5.196585478677339e-02 3.409774407704358e-02
7.309600000000000e+10 9.100463450832796e-02 -1.328148230149217e-02 1.660450097172056e-01 -9.124385884003797e-01 8.652883653664999e-01 -3.321318213706203e-01 5.216220005696209e-02 3.407681955254351e-02
7.314400000000000e+10 9.030848653930192e-02 -1.462032955780227e-02 1.695774265160296e-01 -9.113394784187361e-01 8.621229374878588e-01 -3.394975398394349e-01 5.158569571509832e-02 3.387543826173419e-02
7.319200000000000e+10 9.030473441705816e-02 -1.318362896618424e-02 1.694351548881279e-01 -9.118728190223366e-01 8.632372900211678e-01 -3.379454143310081e-01 5.127577233907737e-02 3.344208635309730e-02
7.324000000000000e+10 8.981357899006107e-02 -1.402172745100271e-02 1.631875315694497e-01 -9.126701782281333e-01 8.638129335952072e-01 -3.342678205295821e-01 5.095188113737523e-02 3.410170367365179e-02
7.328800000000000e+10 8.983498930818047e-02 -1.227442879074648e-02 1.566274717936459e-01 -9.129804048822558e-01 8.673581762004732e-01 -3.248635024617341e-01 5.045877002507188e-02 3.431459306427827e-02
7.333600000000000e+10 9.203480820354923e-02 -1.203497579021420e-02 1.503068972505357e-01 -9.127624428563580e-01 8.732967120836399e-01 -3.003798777001819e-01 4.850286833459522e-02 3.931619909168462e-02
7.338400000000000e+10 9.227188053728309e-02 -1.164808895569971e-02 1.496975178003619e-01 -9.116130453271460e-01 8.734704500746643e-01 -3.052054253699210e-01 4.912848781313948e-02 3.879773074118202e-02
7.343200000000000e+10 9.312805995365071e-02 -1.258680409248849e-02 1.548838050101509e-01 -9.108308357418241e-01 8.708303519360833e-01 -3.082670145804893e-01 4.874944298479226e-02 3.898141107756032e-02
7.348000000000000e+10 9.071069959593797e-02 -1.322769254730265e-02 1.600428142655376e-01 -9.089571690505243e-01 8.623423693955736e-01 -3.364868124291011e-01 5.092398796637120e-02 3.504445436027909e-02
7.352800000000000e+10 9.104567142165135e-02 -1.362556472572304e-02 1.658010343032881e-01 -9.077643170832241e-01 8.598972811512990e-01 -3.412521377683806e-01 5.088319459633397e-02 3.540356036904961e-02
7.357600000000000e+10 9.044241979678658e-02 -1.352874757593186e-02 1.669952658292047e-01 -9.075420304250764e-01 8.604797169300946e-01 -3.427704566348626e-01 5.131810901313623e-02 3.540666189998293e-02
7.362400000000000e+10 9.085532383853472e-02 -1.291241261006851e-02 1.638470936151260e-01 -9.075236630643859e-01 8.610723115994434e-01 -3.410811303412951e-01 5.090677121889559e-02 3.519537541929941e-02
7.367200000000000e+10 9.087411270853493e-02 -1.265568490181644e-02 1.562977878975091e-01 -9.073297261123717e-01 8.636483223435755e-01 -3.348374907438671e-01 5.062097711799488e-02 3.519664165530496e-02
7.372000000000000e+10 9.263018155673459e-02 -1.266745327599087e-02 1.484561514527284e-01 -9.093436316872296e-01 8.728724962775329e-01 -3.063257533676070e-01 4.668129556432155e-02 3.893117774222861e-02
7.376800000000000e+10 9.321955869912152e-02 -1.276420777398958e-02 1.431117586549786e-01 -9.092999182895893e-01 8.732667132646276e-01 -3.031493376363825e-01 4.709632512971614e-02 3.898756311276906e-02
7.381600000000000e+10 9.334494792547419e-02 -1.286486807965050e-02 1.409971818433496e-01 -9.111653799869232e-01 8.732708008709924e-01 -3.019451951696454e-01 4.697294875875700e-02 3.857700036456826e-02
7.386400000000000e+10 9.386555680982045e-02 -1.273203232353718e-02 1.434728821004212e-01 -9.111701284956946e-01 8.699799954310937e-01 -3.064656524025954e-01 4.738812113773743e-02 3.799234447390458e-02
7.391200000000000e+10 9.356195896573430e-02 -1.328853276886141e-02 1.507591552980639e-01 -9.122046348584114e-01 8.608332998947497e-01 -3.362363809666261e-01 5.317292503983599e-02 3.612423309154816e-02
7.396000000000000e+10 9.347746436334700e-02 -1.316654571111124e-02 1.596248770775682e-01 -9.098561362150679e-01 8.570414516978578e-01 -3.438312844483167e-01 5.320123363377349e-02 3.661604541341314e-02
7.400800000000000e+10 9.366027203337460e-02 -1.319034399263605e-02 1.639040518884819e-01 -9.107113449438210e-01 8.574796360962640e-01 -3.450388736204923e-01 5.332415803748360e-02 3.718232154183759e-02
7.405600000000000e+10 9.367931411810795e-02 -1.354155153631602e-02 1.611410151650656e-01 -9.108245626078710e-01 8.572359961298363e-01 -3.446904505917890e-01 5.359088244971642e-02 3.726940227064688e-02
7.410400000000000e+10 9.436174481234962e-02 -1.336604999462121e-02 1.569714866199432e-01 -9.112232100603848e-01 8.591910335476867e-01 -3.407396052705268e-01 5.410381970141331e-02 3.695680753769167e-02
7.415200000000000e+10 9.434749723482021e-02 -1.388474775670789e-02 1.492586485843281e-01 -9.116662304125243e-01 8.628957548027103e-01 -3.330394909607778e-01 5.386912663618222e-02 3.668331735523710e-02
7.420000000000000e+10 9.496347195362405e-02 -1.402039557004260e-02 1.413094961217729e-01 -9.133883391998776e-01 8.665483765396024e-01 -3.254248085852426e-01 5.412121938879134e-02 3.631082649641119e-02
7.424800000000000e+10 9.463792415575542e-02 -1.511263065068143e-02 1.369944689703324e-01 -9.144382796212011e-01 8.668617622195910e-01 -3.235799092792833e-01 5.385429075816120e-02 3.612747305734446e-02
7.429600000000000e+10 9.474125657974393e-02 -1.463131879024319e-02 1.399264728802697e-01 -9.152221836548531e-01 8.656008725355758e-01 -3.258077921665307e-01 5.396957436605052e-02 3.584109925814325e-02
7.434400000000000e+10 9.400211923033634e-02 -1.548182743574035e-02 1.465587878862403e-01 -9.139961561114320e-01 8.626237220275508e-01 -3.336880934142651e-01 5.368134987452918e-02 3.583124192761110e-02
7.439200000000000e+10 9.457803517282851e-02 -1.472243789467395e-02 1.535014936939242e-01 -9.129420060813909e-01 8.596381355548632e-01 -3.424589371711566e-01 5.355908483699516e-02 3.585895244863265e-02
7.444000000000000e+10 9.437935333807083e-02 -1.486225214567203e-02 1.575718437250542e-01 -9.110216592426276e-01 8.578865086873330e-01 -3.477318635738934e-01 5.347392590170053e-02 3.592017475271389e-02
7.448800000000000e+10 9.530492883447902e-02 -1.437842372672599e-02 1.572571893653701e-01 -9.116004525066186e-01 8.578980445967878e-01 -3.473146765487785e-01 5.351286636899295e-02 3.600628922570717e-02
7.453600000000000e+10 9.605209910925755e-02 -1.496046661203558e-02 1.491033934986362e-01 -9.117583141749230e-01 8.596925416395198e-01 -3.428439525514951e-01 5.331037539908787e-02 3.598129391797465e-02
7.458400000000000e+10 9.572245787499396e-02 -1.569053389971293e-02 1.403002826782060e-01 -9.138412766625005e-01 8.632254980340424e-01 -3.352543823866034e-01 5.322975222133444e-02 3.648597528420966e-02
7.463200000000000e+10 9.671195521152286e-02 -1.582431052665070e-02 1.318237899300951e-01 -9.146516263085764e-01 8.652014864003990e-01 -3.296685593152556e-01 5.330277043561187e-02 3.624021539600310e-02
7.468000000000000e+10 9.562451382100207e-02 -1.666991312222285e-02 1.301485841370521e-01 -9.148022650322958e-01 8.662926831763591e-01 -3.288229848265589e-01 5.325981464102341e-02 3.663198571097361e-02
7.472800000000000e+10 9.608879169357372e-02 -1.615025075588556e-02 1.346687561676682e-01 -9.137601876905888e-01 8.643546973875054e-01 -3.330467232678135e-01 5.333339538274293e-02 3.628380737149590e-02
7.477600000000000e+10 9.535077567773115e-02 -1.667546224910934e-02 1.423635648221410e-01 -9.129087495577770e-01 8.617517879767753e-01 -3.407504701955945e-01 5.307975825719981e-02 3.610742649214848e-02
7.482400000000000e+10 9.595235802530873e-02 -1.629351486812904e-02 1.492175191447430e-01 -9.117813978197944e-01 8.581814319794970e-01 -3.492800915752972e-01 5.296659488650482e-02 3.603511355980759e-02
7.487200000000000e+10 9.545659957439434e-02 -1.688915573764658e-02 1.508908466935124e-01 -9.114165080720036e-01 8.570327439913090e-01 -3.523680038846189e-01 5.260211092041730e-02 3.585458309574062e-02
7.492000000000000e+10 9.652815979256237e-02 -1.657411585598304e-02 1.467352457674137e-01 -9.118460146820774e-01 8.585058962740773e-01 -3.499014826266872e-01 5.214846129902942e-02 3.594681359887658e-02
7.496800000000000e+10 9.556064102399862e-02 -1.746654737669334e-02 1.418255171498446e-01 -9.138101099899619e-01 8.609361334976718e-01 -3.443077720480464e-01 5.151094928985364e-02 3.567736303668508e-02
7.501600000000000e+10 9.602875417734398e-02 -1.733824737566243e-02 1.364920158191622e-01 -9.146780683011765e-01 8.626753725690907e-01 -3.388092528643938e-01 5.130105374448098e-02 3.567383553333311e-02
7.506400000000000e+10 9.547353941289310e-02 -1.789971140687404e-02 1.339131685300737e-01 -9.152972950835020e-01 8.634066527031351e-01 -3.378510515277784e-01 5.079557655933158e-02 3.552932001778819e-02
7.511200000000000e+10 9.606434151503444e-02 -1.780674359060191e-02 1.357779952217778e-01 -9.153760200614895e-01 8.623498862980314e-01 -3.397481419861905e-01 5.090003716382039e-02 3.561377507665438e-02
7.516000000000000e+10 9.562044353108623e-02 -1.849094379840779e-02 1.375895721348038e-01 -9.145950664508117e-01 8.599311867636650e-01 -3.452604079197010e-01 5.001122408971179e-02 3.554492327062133e-02
7.520800000000000e+10 9.671379569499651e-02 -1.886457214719162e-02 1.424669684301678e-01 -9.135436200448198e-01 8.586269988691847e-01 -3.491423133706308e-01 5.154472358781755e-02 3.574580366344492e-02
7.525600000000000e+10 9.617560862048539e-02 -1.915721557320092e-02 1.408857616797363e-01 -9.132799365725481e-01 8.574942685160859e-01 -3.497254491847417e-01 5.102011173340002e-02 3.501133381034754e-02
7.530400000000000e+10 9.682345610343593e-02 -1.939985192960434e-02 1.386214923855364e-01 -9.141968431791019e-01 8.596980304114011e-01 -3.463788757727347e-01 5.199881319395045e-02 3.417486622018656e-02
7.535200000000000e+10 9.672201696958720e-02 -1.936287254741304e-02 1.324065405594482e-01 -9.156830001383158e-01 8.613063115117875e-01 -3.408362604088502e-01 5.163116447791684e-02 3.383418568904067e-02
7.540000000000000e+10 9.699427431137114e-02 -2.000275268154805e-02 1.278954751146041e-01 -9.165155133512707e-01 8.628211486654670e-01 -3.389030255943032e-01 5.153888661318964e-02 3.345745342716923e-02
7.544800000000000e+10 9.675549072712408e-02 -2.031717594791499e-02 1.271174167408592e-01 -9.174610186658284e-01 8.624243141441741e-01 -3.398201707758402e-01 5.113674248794671e-02 3.311124281227699e-02
7.549600000000000e+10 9.659023149979586e-02 -1.970601355855805e-02 1.297280252827191e-01 -9.164917765905448e-01 8.603901717841977e-01 -3.428722985698732e-01 5.127702907253982e-02 3.288830894788997e-02
7.554400000000000e+10 9.670934536778665e-02 -1.985297428095479e-02 1.336576276863949e-01 -9.172203890178378e-01 8.591789825121915e-01 -3.453134042733296e-01 5.134654271336304e-02 3.293906340586008e-02
7.559200000000000e+10 9.681399208124204e-02 -1.961165454041301e-02 1.337926362169573e-01 -9.156929713613555e-01 8.578969218521215e-01 -3.492032155189198e-01 5.089616024785285e-02 3.299202073758738e-02
7.564000000000000e+10 9.706066625356663e-02 -2.023274635714029e-02 1.325406831540427e-01 -9.164713109445441e-01 8.580426363142132e-01 -3.479206474852539e-01 5.091261285351659e-02 3.301152323192970e-02
7.568800000000000e+10 9.655100420842114e-02 -2.070320048494446e-02 1.277217454126065e-01 -9.165210466953247e-01 8.592018267761065e-01 -3.443544013861087e-01 5.066124521469467e-02 3.341309825142956e-02
7.573600000000000e+10 9.680015225444244e-02 -2.162158268169608e-02 1.218079364067763e-01 -9.170975370937410e-01 8.604860361236933e-01 -3.403071569767510e-01 5.028539541008348e-02 3.334836020156643e-02
7.578400000000000e+10 9.538758231072772e-02 -2.266972950620098e-02 1.179476565520333e-01 -9.178855142274176e-01 8.621941525935225e-01 -3.375388755016607e-01 5.037189433866774e-02 3.373157412424060e-02
7.583200000000000e+10 9.519457222651424e-02 -2.256357802812772e-02 1.156217285070867e-01 -9.174309276703013e-01 8.625817117088185e-01 -3.364335334846235e-01 4.990935554996608e-02 3.339433358293566e-02
7.588000000000000e+10 9.412507761952264e-02 -2.278702908026944e-02 1.171267388524758e-01 -9.183816455659531e-01 8.630869747814934e-01 -3.376394381594784e-01 4.987936900196056e-02 3.333762655924485e-02
7.592800000000000e+10 9.381145030394449e-02 -2.273212655953193e-02 1.201524022777716e-01 -9.173998252531185e-01 8.603123115459195e-01 -3.420881863163434e-01 4.919462742621240e-02 3.351722549670393e-02
7.597600000000000e+10 9.365578059778569e-02 -2.251134083389637e-02 1.201137310183267e-01 -9.168162526908508e-01 8.601006544416212e-01 -3.429399220209232e-01 4.967680674520048e-02 3.386962386970764e-02
7.602400000000000e+10 9.458887716459199e-02 -2.148516871425680e-02 1.232971139517423e-01 -9.183853092735820e-01 8.589156965973789e-01 -3.464897651877739e-01 4.901902367162787e-02 3.238897928501760e-02
7.607200000000000e+10 9.502174826223955e-02 -2.257770979372151e-02 1.231938318712179e-01 -9.179837808101027e-01 8.573428337165840e-01 -3.482185236884139e-01 4.874998318787291e-02 3.309982457410738e-02
7.612000000000000e+10 9.535084637727533e-02 -2.247727057058134e-02 1.215850092734379e-01 -9.185081272903256e-01 8.582890615560455e-01 -3.471553861875626e-01 4.803474403514875e-02 3.260520506700224e-02
7.616800000000000e+10 9.534412088158602e-02 -2.337654370043797e-02 1.176996497082939e-01 -9.185727800077791e-01 8.588979495411805e-01 -3.453767839960755e-01 4.778764311126142e-02 3.272737491904816e-02
7.621600000000000e+10 9.588064342877443e-02 -2.439648884633921e-02 1.126820895273000e-01 -9.192242051080951e-01 8.610976079513887e-01 -3.424160014871667e-01 4.840654701890858e-02 3.276554989958887e-02
7.626400000000000e+10 9.499120263965689e-02 -2.507451405729248e-02 1.089837930744769e-01 -9.191220764778083e-01 8.613045519547815e-01 -3.399193736794195e-01 4.828315627561124e-02 3.243148713154898e-02
7.631200000000000e+10 9.500763848343179e-02 -2.570151527591364e-02 1.059638709437198e-01 -9.206139552371485e-01 8.629168209557252e-01 -3.381236225462751e-01 4.898105372292708e-02 3.133537330225044e-02
7.636000000000000e+10 9.423762947739710e-02 -2.539553451198867e-02 1.055927313769270e-01 -9.207709925485945e-01 8.619672235767004e-01 -3.380106379629311e-01 4.869345367018478e-02 3.041815765164406e-02
7.640800000000000e+10 9.479288257272225e-02 -2.576436862835070e-02 1.087959383205420e-01 -9.214020538580733e-01 8.613942881066378e-01 -3.416470547262836e-01 4.999802076083081e-02 2.935186313205563e-02
7.645600000000000e+10 9.420629085720784e-02 -2.487893801791074e-02 1.137632621006865e-01 -9.195347077883267e-01 8.589586505895626e-01 -3.471143236502691e-01 4.944584705329287e-02 2.898707745656291e-02
7.650400000000000e+10 9.450916786407546e-02 -2.547511967919193e-02 1.179207050139211e-01 -9.200946793715562e-01 8.578192714503374e-01 -3.519794821564408e-01 5.003964228879620e-02 2.791497397891489e-02
7.655200000000000e+10 9.426564924690713e-02 -2.496315782500693e-02 1.173510658226037e-01 -9.214839295791718e-01 8.555477694634280e-01 -3.517764948240427e-01 4.968885676350265e-02 2.742752421338003e-02
7.660000000000000e+10 9.438025752472365e-02 -2.569688003613406e-02 1.130958031570094e-01 -9.208178610586052e-01 8.590251102298179e-01 -3.497139222453364e-01 4.988369883456446e-02 2.671670025292169e-02
7.664800000000000e+10 9.323014341800415e-02 -2.504284292192471e-02 1.081219834016839e-01 -9.209898409420054e-01 8.596119009435114e-01 -3.473331963930089e-01 4.951329223812649e-02 2.644841775888436e-02
7.669600000000000e+10 9.411294370429152e-02 -2.552199566667592e-02 1.039767685006622e-01 -9.222252038728959e-01 8.615417100448756e-01 -3.420614961256134e-01 4.977676525667776e-02 2.646764955905509e-02
7.674400000000000e+10 9.351315771792092e-02 -2.488005443879335e-02 1.004595980663438e-01 -9.214721701898092e-01 8.613625727974092e-01 -3.414106215010896e-01 4.941531985162944e-02 2.672774545139151e-02
7.679200000000000e+10 9.503758149251947e-02 -2.452949244069822e-02 1.054392996601699e-01 -9.196876289123131e-01 8.616994405843992e-01 -3.433192516151462e-01 5.079333176120770e-02 2.696141618961108e-02
7.684000000000000e+10 9.579041278573952e-02 -2.651647882393743e-02 1.091551004392168e-01 -9.213610481811381e-01 8.614619873425757e-01 -3.487290799886836e-01 5.213662428831084e-02 2.669484757140230e-02
7.688800000000000e+10 9.411833468606189e-02 -2.544433397977213e-02 1.090173434570458e-01 -9.200316529384182e-01 8.574823224923278e-01 -3.516687079716616e-01 5.036105625333617e-02 2.683600795675560e-02
7.693600000000000e+10 9.568481909354253e-02 -2.837612649169154e-02 1.071739150726249e-01 -9.224413819390227e-01 8.600245215971662e-01 -3.503274075928701e-01 5.228537791419839e-02 2.589564070641309e-02
7.698400000000000e+10 9.412644090955313e-02 -2.841377940488043e-02 1.008444985454733e-01 -9.226846134085445e-01 8.602706700261288e-01 -3.470670750520884e-01 5.072728584966262e-02 2.578350015635927e-02
7.703200000000000e+10 9.340785124482817e-02 -2.969946097484878e-02 9.604855315460274e-02 -9.230845821960676e-01 8.628140684063416e-01 -3.428505511575431e-01 5.132471243032425e-02 2.555201378203175e-02
7.708000000000000e+10 9.158724756678774e-02 -2.872485429938427e-02 9.267397732849962e-02 -9.226610026653438e-01 8.618778006278138e-01 -3.412624549847401e-01 5.022728528048191e-02 2.578520569058695e-02
7.712800000000000e+10 9.130226210117805e-02 -2.893025085249301e-02 9.427526800005002e-02 -9.221431673736797e-01 8.619567821684725e-01 -3.426430837412132e-01 5.057868427385096e-02 2.566934376273810e-02
7.717600000000000e+10 9.102777033083488e-02 -2.730508113130942e-02 9.965532637703685e-02 -9.206879662617771e-01 8.592255047209428e-01 -3.481306686605652e-01 4.970283992514698e-02 2.535816519120073e-02
7.722400000000000e+10 9.191133416812082e-02 -2.708233776195362e-02 1.071293840038114e-01 -9.214079558179969e-01 8.572482917563417e-01 -3.533795032585550e-01 5.062329430623240e-02 2.490021175666007e-02
7.727200000000000e+10 9.276683432381121e-02 -2.546380253779808e-02 1.072477968614959e-01 -9.192447080741301e-01 8.545485745091953e-01 -3.542510859113672e-01 4.962676902016560e-02 2.533050920670523e-02
7.732000000000000e+10 9.425955365764138e-02 -2.693428519459131e-02 1.070680929852502e-01 -9.197530308209032e-01 8.579848932711457e-01 -3.518744512832163e-01 5.010805404240819e-02 2.578525748099997e-02
7.736800000000000e+10 9.434446409963558e-02 -2.684342137854885e-02 1.005004516846784e-01 -9.200785718515138e-01 8.589629169590844e-01 -3.478447862096083e-01 5.051319050783332e-02 2.558283517932005e-02
7.741600000000000e+10 9.358244914396976e-02 -2.905405292726772e-02 9.195241115547727e-02 -9.220611018844298e-01 8.610855839288416e-01 -3.429829398877048e-01 4.973158617964438e-02 2.466824890386330e-02
7.746400000000000e+10 9.290555388927267e-02 -2.927168161467380e-02 8.739256808078216e-02 -9.224426799916476e-01 8.618507173243091e-01 -3.406808897827015e-01 4.901320926043659e-02 2.407905282187052e-02
7.751200000000000e+10 9.276853051731090e-02 -2.858202735065390e-02 8.842359555512881e-02 -9.230170008627706e-01 8.619482363590196e-01 -3.392671053923710e-01 5.045554944200977e-02 2.404154081715890e-02
7.756000000000000e+10 9.204279869682208e-02 -2.902269965982414e-02 9.158106006221965e-02 -9.222848499153239e-01 8.594998067852776e-01 -3.466388760539417e-01 4.900919782818033e-02 2.309221572244860e-02
7.760800000000000e+10 9.194589956634885e-02 -2.872638461945216e-02 9.622374336688898e-02 -9.226005992289370e-01 8.579075904006259e-01 -3.520348682362499e-01 4.909906140966667e-02 2.248736755645884e-02
7.765600000000000e+10 9.324444236472676e-02 -2.882604921268047e-02 9.814968192442383e-02 -9.218434624538097e-01 8.605043741149804e-01 -3.539807399597463e-01 5.056712386096581e-02 2.066236126392493e-02
7.770400000000000e+10 8.973341999721256e-02 -2.766053608476618e-02 9.253336992602984e-02 -9.202974895432593e-01 8.545786094556933e-01 -3.543439101084812e-01 4.690920073347714e-02 2.305278071814787e-02
7.775200000000000e+10 9.266964265388886e-02 -2.733015001926017e-02 9.443404823506107e-02 -9.213588177384209e-01 8.579417302079971e-01 -3.500835423985505e-01 4.894259605064240e-02 2.251045770406315e-02
7.780000000000000e+10 9.300291227258953e-02 -2.861808122321607e-02 9.126780853953501e-02 -9.231749106082283e-01 8.596921659051409e-01 -3.497899915310518e-01 4.939752760273252e-02 2.150826383634500e-02
7.784800000000000e+10 9.262290672238656e-02 -2.923248283042764e-02 8.911369909445972e-02 -9.227188639235268e-01 8.601511526751163e-01 -3.492350386430337e-01 4.909497910348829e-02 2.179558432447596e-02
7.789600000000000e+10 9.196215574220629e-02 -2.978813163639897e-02 8.815812010173865e-02 -9.231492289113652e-01 8.597079288236421e-01 -3.490701112227442e-01 4.917739921109759e-02 2.181595062697735e-02
7.794400000000000e+10 9.164834077016784e-02 -2.936057049734375e-02 8.746957939477065e-02 -9.229021525541083e-01 8.598717927797408e-01 -3.492085248349741e-01 4.879953600141508e-02 2.251960280619631e-02
7.799200000000000e+10 9.223455022119244e-02 -2.948898275376088e-02 8.701143370179105e-02 -9.240570868127189e-01 8.597340347962230e-01 -3.485154278322422e-01 4.984598140962607e-02 2.282679703143639e-02
7.804000000000000e+10 9.200318901590751e-02 -2.938419528007982e-02 8.566608823866384e-02 -9.230728367347457e-01 8.593811163818210e-01 -3.488196486116232e-01 4.929446323422038e-02 2.342757025337781e-02
7.808800000000000e+10 9.270244366453147e-02 -2.956074139754105e-02 8.503755622896643e-02 -9.239048690579376e-01 8.592703148059437e-01 -3.487794776696053e-01 5.004525832637986e-02 2.362584951050421e-02
7.813600000000000e+10 9.288529750668091e-02 -3.009753414932710e-02 8.450159934695335e-02 -9.236217648023629e-01 8.592760812058580e-01 -3.490080885809868e-01 5.021576972991128e-02 2.375522065504362e-02
7.818400000000000e+10 9.297879459633675e-02 -3.115195510683381e-02 8.598254105589760e-02 -9.239824425488737e-01 8.588687166159968e-01 -3.504809848570438e-01 5.037775372195502e-02 2.420948451998388e-02
7.823200000000000e+10 9.286755941968605e-02 -3.134997426962091e-02 8.858700749736466e-02 -9.237554492831083e-01 8.578602112790603e-01 -3.538021668516667e-01 5.049544614639796e-02 2.405490204452719e-02
7.828000000000000e+10 9.274746878488488e-02 -3.155482870687076e-02 8.917213879363567e-02 -9.235120734343270e-01 8.584490143439805e-01 -3.530593265409940e-01 5.184965923756238e-02 2.509791024953963e-02
7.832800000000000e+10 9.126141666625139e-02 -3.157199481952884e-02 8.578079620249986e-02 -9.240188400637308e-01 8.581267136732598e-01 -3.553051293359333e-01 5.060896372933287e-02 2.426650493393071e-02
7.837600000000000e+10 9.062505228067727e-02 -3.199801345093981e-02 7.984410836758270e-02 -9.244556991145574e-01 8.597407118371807e-01 -3.509371518631487e-01 5.004946739060880e-02 2.416917667992359e-02
7.842400000000000e+10 9.162465342632545e-02 -3.177782404577701e-02 7.601373697533539e-02 -9.250662715799615e-01 8.621238850773942e-01 -3.476850441339464e-01 5.115567206779668e-02 2.315903423771421e-02
7.847200000000000e+10 9.041950832046514e-02 -3.227604297057442e-02 7.237944644022219e-02 -9.247700833141526e-01 8.619954847828821e-01 -3.477716342273620e-01 5.017740480258924e-02 2.248900284043331e-02
7.852000000000000e+10 9.233771623471594e-02 -2.970991869130696e-02 7.804316306227417e-02 -9.214471103028112e-01 8.600592411746127e-01 -3.491360264451490e-01 5.014590154641484e-02 2.412318886758671e-02
7.856800000000000e+10 9.049658537477746e-02 -3.290392584184283e-02 7.798239245445145e-02 -9.273216384514138e-01 8.573357075432754e-01 -3.536585414507312e-01 5.062585334065737e-02 2.166838363028606e-02
7.861600000000000e+10 9.224448521918931e-02 -3.206620067065864e-02 8.226795157674199e-02 -9.266117241369851e-01 8.566394233156965e-01 -3.584784082542853e-01 5.080414022200622e-02 2.069266821858076e-02
7.866400000000000e+10 9.069306160939175e-02 -3.258595493765058e-02 8.083880123521293e-02 -9.248168886865274e-01 8.564844977301537e-01 -3.591666715551229e-01 5.021381636477641e-02 2.114821283487118e-02
7.871200000000000e+10 9.221320336666557e-02 -3.218325937839420e-02 7.696897241672743e-02 -9.253711181335107e-01 8.583142703345037e-01 -3.555985155503045e-01 5.062340885374760e-02 1.983488369339705e-02
7.876000000000000e+10 9.064943323116802e-02 -3.318208511251786e-02 7.106702272763840e-02 -9.267580947615064e-01 8.581730722915193e-01 -3.522830883356113e-01 4.981185472710974e-02 1.996696985584596e-02
7.880800000000000e+10 9.198307656660061e-02 -3.147036833921719e-02 6.771574613354964e-02 -9.261880801644297e-01 8.597550080737569e-01 -3.458151494828812e-01 4.997832129809664e-02 2.081370365395557e-02
7.885600000000000e+10 9.126103447877983e-02 -3.247107008514632e-02 6.893448095020890e-02 -9.257080778148776e-01 8.601209156101954e-01 -3.509052746771547e-01 5.093397217173072e-02 2.009389824249251e-02
7.890400000000000e+10 9.185833170957609e-02 -3.327725537707522e-02 7.285111601256312e-02 -9.263154089902432e-01 8.593826920890349e-01 -3.564412776008014e-01 5.137476699470574e-02 1.908562979584939e-02
7.895200000000000e+10 9.125418659970666e-02 -3.358940025981102e-02 7.707275623789057e-02 -9.268447551654023e-01 8.555053268347025e-01 -3.618569629538705e-01 5.142006825995560e-02 1.956505259753788e-02
7.900000000000000e+10 9.080585084879865e-02 -3.406623656633565e-02 7.762388069813317e-02 -9.260660549310920e-01 8.554820034186097e-01 -3.629799862691803e-01 5.214704490168057e-02 1.961552276537460e-02
7.904800000000000e+10 9.092698262013280e-02 -3.422500065077703e-02 7.378946107372637e-02 -9.276790458836046e-01 8.566767979040790e-01 -3.600933020848954e-01 5.267588095762241e-02 1.937131385596262e-02
7.909600000000000e+10 8.998697823423145e-02 -3.532907264622795e-02 6.630231018414562e-02 -9.279223484787090e-01 8.595491078873915e-01 -3.549747902632530e-01 5.344821688077647e-02 1.969450598558845e-02
7.914400000000000e+10 8.964538686983865e-02 -3.520070351922060e-02 5.926496483318773e-02 -9.288134925332275e-01 8.620822481832696e-01 -3.481872341252339e-01 5.425484371240802e-02 1.914565117850515e-02
7.919200000000000e+10 8.860216087708674e-02 -3.451363549493045e-02 5.540834841458153e-02 -9.274488320600627e-01 8.617385640377975e-01 -3.460038667708454e-01 5.408450689728541e-02 1.918012144370405e-02
7.924000000000000e+10 8.925564542421570e-02 -3.418857036130309e-02 5.902955535260453e-02 -9.268570726771779e-01 8.610068899003611e-01 -3.486063478277557e-01 5.492922862811384e-02 1.906802746188950e-02
7.928800000000000e+10 8.986737791486134e-02 -3.399362809311688e-02 6.683255915321794e-02 -9.257629094662613e-01 8.571548230199535e-01 -3.568862782861645e-01 5.448355686573463e-02 1.833859778807001e-02
7.933600000000000e+10 9.031689716632245e-02 -3.388574898023038e-02 7.313964772932152e-02 -9.257627984057796e-01 8.544802726698116e-01 -3.626281379773040e-01 5.469578357849694e-02 1.910061156234815e-02
7.938400000000000e+10 8.988097087595022e-02 -3.453739530791745e-02 7.239861740670347e-02 -9.250174118591930e-01 8.534536758104756e-01 -3.647707361452163e-01 5.414269415669482e-02 1.871391790985504e-02
7.943200000000000e+10 9.080252797852580e-02 -3.347514511186153e-02 6.805055969419506e-02 -9.253065647357215e-01 8.558617858777542e-01 -3.597204864681232e-01 5.455147493809717e-02 1.881373356108024e-02
7.948000000000000e+10 9.048986977075602e-02 -3.498107747664774e-02 6.057293154382083e-02 -9.266560238485941e-01 8.585693236133721e-01 -3.534715039970326e-01 5.362429878329555e-02 1.913916126052336e-02
7.952800000000000e+10 9.104824126066753e-02 -3.271166292552154e-02 5.238797999959194e-02 -9.270736135254729e-01 8.606327225108685e-01 -3.470937106272298e-01 5.291074851019224e-02 1.923408331317001e-02
7.957600000000000e+10 9.002337756495497e-02 -3.428857761461947e-02 4.705346382292439e-02 -9.271570662815402e-01 8.632775810162451e-01 -3.434144436765373e-01 5.315866037302126e-02 1.932438740707647e-02
7.962400000000000e+10 9.155901962017546e-02 -3.152081384611800e-02 4.891320486589856e-02 -9.279737381298875e-01 8.616926122974806e-01 -3.452565455973191e-01 5.405667660605794e-02 1.976631830966390e-02
7.967200000000000e+10 9.036804112672059e-02 -3.293038446263583e-02 5.535690630877255e-02 -9.275547419444977e-01 8.590241013027259e-01 -3.521627261351972e-01 5.432268063858751e-02 1.897660407126879e-02
7.972000000000000e+10 9.225744616458448e-02 -3.090138429735391e-02 6.233321156546946e-02 -9.272091366847304e-01 8.558876608701987e-01 -3.578575506871333e-01 5.472415196951180e-02 2.011216462932655e-02
7.976800000000000e+10 9.159711803158914e-02 -3.143709864174569e-02 6.342348866514287e-02 -9.265351156980359e-01 8.541584557148287e-01 -3.618640428070443e-01 5.337281527022523e-02 1.885773247975998e-02
7.981600000000000e+10 9.248908776607344e-02 -3.246472624500130e-02 6.074391112781852e-02 -9.292436306072811e-01 8.563293766966930e-01 -3.647154071990326e-01 5.528434074237231e-02 1.462054089298899e-02
7.986400000000000e+10 9.216928541865299e-02 -3.383443420783691e-02 5.617579234807200e-02 -9.281446803907103e-01 8.575072978366967e-01 -3.619579512089777e-01 5.384669216866318e-02 1.471527290845275e-02
7.991200000000000e+10 9.289926223657542e-02 -3.300928040811098e-02 5.301455143789186e-02 -9.274901716502605e-01 8.579760406327964e-01 -3.577987969462033e-01 5.324826184310633e-02 1.538588810747682e-02
7.996000000000000e+10 9.168128544713260e-02 -3.510823219132233e-02 4.786566604404818e-02 -9.268867279145722e-01 8.594623525854967e-01 -3.571113500879916e-01 5.303183481236912e-02 1.510199356507690e-02
8.000800000000000e+10 9.161419672424038e-02 -3.461620379769214e-02 4.481432187246825e-02 -9.253324073363765e-01 8.610193936061977e-01 -3.552858335875951e-01 5.310494943121571e-02 1.530935073720113e-02
8.005600000000000e+10 9.072303475457658e-02 -3.427598804239464e-02 4.497110358585916e-02 -9.269610117359589e-01 8.574460833838247e-01 -3.546258287488085e-01 5.203836823223738e-02 1.566901878050676e-02
8.010400000000000e+10 9.101422905447606e-02 -3.416676178091467e-02 4.489986989575558e-02 -9.292438889315948e-01 8.567420854874841e-01 -3.544680729338983e-01 5.340925716698285e-02 1.642906179907836e-02
8.015200000000000e+10 9.145280914349405e-02 -3.353361658839380e-02 4.596552658989360e-02 -9.272372165843497e-01 8.568057339449668e-01 -3.567752835936597e-01 5.331179879104924e-02 1.605513838944460e-02
8.020000000000000e+10 9.284500946521927e-02 -3.406007892214509e-02 4.943247701215162e-02 -9.278300959685444e-01 8.567735057175985e-01 -3.596193228165754e-01 5.408317560035632e-02 1.581833679879860e-02
8.024800000000000e+10 9.339402577996085e-02 -3.452468628834172e-02 5.093475328131893e-02 -9.273591498754632e-01 8.549773834343445e-01 -3.628906742705160e-01 5.404788398869836e-02 1.604026325812806e-02
8.029600000000000e+10 9.351564119364854e-02 -3.557930608768593e-02 5.251236251712602e-02 -9.277500126706099e-01 8.546691869978895e-01 -3.654928332593097e-01 5.467303105507490e-02 1.586622371094440e-02
8.034400000000000e+10 9.325577837882365e-02 -3.640096187118069e-02 5.160492140667206e-02 -9.287430581992058e-01 8.544183529623459e-01 -3.672261193363974e-01 5.512638653900160e-02 1.485217668819829e-02
8.039200000000000e+10 9.297346682557960e-02 -3.646888612820456e-02 4.928949442140056e-02 -9.272020588181674e-01 8.567689103760012e-01 -3.661858669660822e-01 5.527363733097439e-02 1.507704494005521e-02
8.044000000000000e+10 9.240750291308816e-02 -3.539002055315068e-02 4.224126551036284e-02 -9.284611786175706e-01 8.558486688136581e-01 -3.611859428361862e-01 5.434449249540897e-02 1.472860623139761e-02
8.048800000000000e+10 9.286637308020525e-02 -3.537871785490378e-02 3.910062364949980e-02 -9.279947146506247e-01 8.576601506117668e-01 -3.570005616517841e-01 5.540245004644696e-02 1.600547196523356e-02
8.053600000000000e+10 9.288760191735924e-02 -3.508867346803072e-02 3.671652762753994e-02 -9.288227995013099e-01 8.577207270755857e-01 -3.569412489076514e-01 5.600005543486011e-02 1.485906432077051e-02
8.058400000000000e+10 9.365716757722503e-02 -3.510845111966024e-02 3.873193260584046e-02 -9.275884880369268e-01 8.572255239830404e-01 -3.591581570077189e-01 5.657369737937439e-02 1.556884634039840e-02
8.063200000000000e+10 9.456540944677193e-02 -3.413168598033334e-02 4.159938929201992e-02 -9.262071668056536e-01 8.553741164473720e-01 -3.631865205782673e-01 5.620448861461889e-02 1.464233601553432e-02
8.068000000000000e+10 9.415396727894564e-02 -3.614199285462142e-02 4.364004073022897e-02 -9.257911289671600e-01 8.542178526614636e-01 -3.657905945741185e-01 5.614157153319725e-02 1.478713255672600e-02
8.072800000000000e+10 9.480756951605629e-02 -3.505603241336708e-02 4.180832416208084e-02 -9.261726077334191e-01 8.538520904929074e-01 -3.652118220556047e-01 5.584249525380136e-02 1.489844600649202e-02
8.077600000000000e+10 9.385069901564197e-02 -3.727156701924674e-02 3.587344593670060e-02 -9.264177558122958e-01 8.557447968587208e-01 -3.607248085163803e-01 5.591121019966534e-02 1.529503275282653e-02
8.082400000000000e+10 9.443839197197984e-02 -3.625097107002048e-02 3.032799387043656e-02 -9.270039681140013e-01 8.582973981636138e-01 -3.551490510805231e-01 5.648736953630765e-02 1.495998576957181e-02
8.087200000000000e+10 9.364158895436499e-02 -3.698470926063227e-02 2.691531760946352e-02 -9.285739006077065e-01 8.576038591999310e-01 -3.535910443574563e-01 5.617542708031464e-02 1.511335509539750e-02
8.092000000000000e+10 9.493119204450055e-02 -3.594492031143872e-02 3.017169323772868e-02 -9.280769289204324e-01 8.575774879374036e-01 -3.556902188159237e-01 5.631552953741607e-02 1.548009239412760e-02
8.096800000000000e+10 9.469414227597168e-02 -3.643298474743502e-02 3.618272762481442e-02 -9.280157150744779e-01 8.533451750395762e-01 -3.644160881963420e-01 5.650249004910406e-02 1.510834773209777e-02
8.101600000000000e+10 9.540613445138324e-02 -3.672238788924172e-02 4.161564664104872e-02 -9.287139199456642e-01 8.523682067464167e-01 -3.698495958553913e-01 5.768183362897607e-02 1.430980096105986e-02
8.106400000000000e+10 9.546295318831832e-02 -3.693157904274823e-02 4.049087546855985e-02 -9.277550886089302e-01 8.531002966975653e-01 -3.693225167266265e-01 5.799591567165701e-02 1.423317408075094e-02
8.111200000000000e+10 9.536447888983353e-02 -3.751133301733912e-02 3.287320386258696e-02 -9.287418132372903e-01 8.539581617678982e-01 -3.644174168628065e-01 5.746562907268860e-02 1.336244037252703e-02
8.116000000000000e+10 9.470282669049339e-02 -3.837486161632565e-02 2.080655539905429e-02 -9.278983307384293e-01 8.557929561018464e-01 -3.555961950756428e-01 5.587742224861552e-02 1.357720275594233e-02
8.120800000000000e+10 9.428210210393748e-02 -3.787378890281443e-02 1.182863739416208e-02 -9.262239867601981e-01 8.595553874051248e-01 -3.484018356233445e-01 5.528195147651924e-02 1.318411400588601e-02
8.125600000000000e+10 9.376961183779219e-02 -3.971099826711016e-02 8.972694752547692e-03 -9.274239746849353e-01 8.624883414884921e-01 -3.467250891384227e-01 5.726473396834881e-02 1.360028997077846e-02
8.130400000000000e+10 9.300927008399550e-02 -3.934146629823377e-02 1.359128068028619e-02 -9.284921300640376e-01 8.589765928187113e-01 -3.521739021686818e-01 5.703228011277740e-02 1.330412163492729e-02
8.135200000000000e+10 9.323751481490063e-02 -3.836483688814822e-02 2.674619134823802e-02 -9.264490600276166e-01 8.540569405051919e-01 -3.624918289010110e-01 5.571790616996565e-02 1.438481894096685e-02
8.140000000000000e+10 9.361209050608384e-02 -3.708793574109620e-02 3.924151957550956e-02 -9.253101868438890e-01 8.489733793551826e-01 -3.717349000972261e-01 5.589091581635482e-02 1.525073859229415e-02
8.144800000000000e+10 9.290267475690263e-02 -3.819120280851442e-02 3.790098658168532e-02 -9.279572074794635e-01 8.486975756024089e-01 -3.764740817372197e-01 5.665106270532982e-02 1.347983949671803e-02
8.149600000000000e+10 9.395225252013116e-02 -3.752009994472024e-02 3.201214496120654e-02 -9.304519085207554e-01 8.500065472572889e-01 -3.714727462557512e-01 5.775358817460756e-02 1.162143963339247e-02
8.154400000000000e+10 9.388744457481731e-02 -3.806221296116059e-02 1.839982621323669e-02 -9.275482602078418e-01 8.523734365276138e-01 -3.604795675985595e-01 5.684296606977748e-02 1.226933336895598e-02
8.159200000000000e+10 9.691795755265761e-02 -3.715981624560388e-02 4.949382226676476e-03 -9.245826225534349e-01 8.601179950026140e-01 -3.470943048519876e-01 5.573431242834806e-02 1.132278902191249e-02
8.164000000000000e+10 9.609021030359746e-02 -3.968103476687710e-02 -3.255073579934780e-03 -9.299337125264731e-01 8.634234002084039e-01 -3.415570099732995e-01 5.708810914987105e-02 9.240381307333574e-03
8.168800000000000e+10 9.671659227610689e-02 -3.968974117506208e-02 4.372578848765630e-04 -9.285501072349304e-01 8.651732547045419e-01 -3.438247978080942e-01 5.750685939896505e-02 9.192261319021594e-03
8.173600000000000e+10 9.662078660389108e-02 -3.946498742331641e-02 1.023404552761921e-02 -9.277806595106458e-01 8.591173505749948e-01 -3.512965722582233e-01 5.703994426626360e-02 1.101623045093770e-02
8.178400000000000e+10 9.716857654244543e-02 -3.873568484455327e-02 2.176079492091714e-02 -9.267685604353568e-01 8.540956090185015e-01 -3.623012629009218e-01 5.578702224434295e-02 1.078819289587928e-02
8.183200000000000e+10 9.627918079642969e-02 -3.852937891051111e-02 2.695385079414908e-02 -9.260234582765263e-01 8.513155125941133e-01 -3.704777390108729e-01 5.573392931487477e-02 9.908688655831457e-03
8.188000000000000e+10 9.691514180319784e-02 -3.851687203364924e-02 2.642260986612869e-02 -9.291226925029413e-01 8.510884336927915e-01 -3.724111728615411e-01 5.680148007043826e-02 8.715245973127558e-03
8.192800000000000e+10 9.701677244282852e-02 -3.915349483759861e-02 2.227985424308465e-02 -9.300049605991573e-01 8.523615912680961e-01 -3.700043833692795e-01 5.743895564823974e-02 9.175001960365397e-03
8.197600000000000e+10 9.757483796417681e-02 -3.941502720631668e-02 1.694548785895656e-02 -9.298454506318278e-01 8.546063659740226e-01 -3.649317448555328e-01 5.771942604538186e-02 9.575278660403665e-03
8.202400000000000e+10 9.702028901788634e-02 -4.012255377173594e-02 1.031345750528743e-02 -9.297280414920337e-01 8.574415963652806e-01 -3.602649465267740e-01 5.812819641090489e-02 9.986168499922099e-03
8.207200000000000e+10 9.688947446705844e-02 -3.981378741716537e-02 6.085230422752135e-03 -9.287691249354694e-01 8.596993973992796e-01 -3.547956354713886e-01 5.901619293960524e-02 1.110179772972191e-02
8.212000000000000e+10 9.668509538144780e-02 -3.940361524604175e-02 5.727629537875732e-03 -9.290112727279726e-01 8.592182181269488e-01 -3.540420836908563e-01 5.998188041735019e-02 1.076702541288451e-02
8.216800000000000e+10 9.687375620893346e-02 -4.005489014303693e-02 7.425128846014001e-03 -9.302896117166497e-01 8.584809755379058e-01 -3.585547188646965e-01 6.064828689804774e-02 1.011186950321096e-02
8.221600000000000e+10 9.728969946685259e-02 -3.995660985163842e-02 1.166440710113147e-02 -9.290409211722604e-01 8.583599689703751e-01 -3.616353387755983e-01 6.077225840557940e-02 1.035880226488914e-02
8.226400000000000e+10 9.787771159465602e-02 -4.076944928868727e-02 1.485532631346182e-02 -9.320265607067060e-01 8.569007201742539e-01 -3.667890745080877e-01 6.148494753665337e-02 1.038650523296853e-02
8.231200000000000e+10 9.814454377738396e-02 -4.082717856989887e-02 1.595098715077082e-02 -9.309542611097803e-01 8.542394554607359e-01 -3.701607155928480e-01 6.116314391425337e-02 1.105012917252902e-02
8.236000000000000e+10 9.913207381001078e-02 -4.166120473894819e-02 1.468984540541827e-02 -9.310707033937954e-01 8.552431279559318e-01 -3.692260875507239e-01 6.152364966385687e-02 1.218043665390366e-02
8.240800000000000e+10 9.950665448219777e-02 -4.289937174640369e-02 7.992286456151226e-03 -9.309548824343132e-01 8.571830643958839e-01 -3.654611794573296e-01 6.154712875657689e-02 1.166876448577932e-02
8.245600000000000e+10 9.962123280864207e-02 -4.399436127605524e-02 4.137346773248226e-04 -9.307186778105485e-01 8.599093691682543e-01 -3.592805392404910e-01 6.091619480538610e-02 1.192092567106343e-02
8.250400000000000e+10 9.913818141578835e-02 -4.478614618011984e-02 -6.448776231864554e-03 -9.305266888966798e-01 8.621440670158166e-01 -3.545180777446536e-01 6.025240006209264e-02 1.179823603674865e-02
8.255200000000000e+10 9.843660331657611e-02 -4.463368456849295e-02 -8.747092308823090e-03 -9.306017614887160e-01 8.618521214456369e-01 -3.536527568095657e-01 6.004470655026702e-02 1.233523161784248e-02
8.260000000000000e+10 9.862499145592787e-02 -4.418274214121804e-02 -3.906324618782165e-03 -9.304076365227447e-01 8.598225604073118e-01 -3.576505868686553e-01 6.001009737257289e-02 1.186154730647302e-02
8.264800000000000e+10 9.821511460822568e-02 -4.380620128213896e-02 6.494313145696192e-03 -9.313378239058718e-01 8.542743141050156e-01 -3.683101444221142e-01 5.883476651567744e-02 1.142227366499275e-02
8.269600000000000e+10 9.868728164068333e-02 -4.383362034439701e-02 1.674629960393529e-02 -9.307757086412308e-01 8.509330606332363e-01 -3.790450164408635e-01 5.847721391287550e-02 1.200503948303459e-02
8.274400000000000e+10 9.905450763259109e-02 -4.350240932418845e-02 1.873489341034251e-02 -9.310007936851252e-01 8.491477231701403e-01 -3.815636061898495e-01 5.844770687845863e-02 1.159777867874937e-02
8.279200000000000e+10 9.976725572862158e-02 -4.378486906532398e-02 1.020980341983587e-02 -9.304063205019615e-01 8.523068125680032e-01 -3.749421144282859e-01 5.826431762852034e-02 1.140599855147604e-02
8.284000000000000e+10 9.990114428482309e-02 -4.435951656249907e-02 -5.582114500181637e-03 -9.306638176786126e-01 8.584896587071572e-01 -3.608395881638587e-01 5.792841104553195e-02 1.090630975010269e-02
8.288800000000000e+10 9.995436350272655e-02 -4.523504361483502e-02 -2.483710601779602e-02 -9.313900483726733e-01 8.635043735105087e-01 -3.449423215614458e-01 5.728561833605400e-02 1.090741684742338e-02
8.293600000000000e+10 9.942363136117580e-02 -4.601399367896910e-02 -3.397237775057292e-02 -9.286111195654614e-01 8.679151846573003e-01 -3.378329884698925e-01 5.654967279189956e-02 1.088180890580413e-02
8.298400000000000e+10 9.965140719736847e-02 -4.628768693351753e-02 -2.795668029718676e-02 -9.296768883956011e-01 8.650458571696916e-01 -3.425873514276232e-01 5.681376943236662e-02 1.136985418733230e-02
8.303200000000000e+10 9.967074391630515e-02 -4.703767866397159e-02 -1.025309446347017e-02 -9.296537855763497e-01 8.584895656787426e-01 -3.591983730665179e-01 5.703915656982497e-02 1.158896745489887e-02
8.308000000000000e+10 9.918352813750655e-02 -4.747349896143511e-02 9.856772324988194e-03 -9.303613333131480e-01 8.500847946820332e-01 -3.782535002830688e-01 5.739312298536697e-02 1.156283161419531e-02
8.312800000000000e+10 9.875090610910500e-02 -4.735178005402155e-02 2.220268277001391e-02 -9.296721087547698e-01 8.435636908648225e-01 -3.908635551527855e-01 5.718066406868497e-02 1.136388732647183e-02
8.317600000000000e+10 9.885193773816300e-02 -4.761797441063241e-02 2.073983222095639e-02 -9.295834174027275e-01 8.447934652702944e-01 -3.916607299865253e-01 5.743393456516587e-02 1.071362489389359e-02
8.322400000000000e+10 9.879102674769577e-02 -4.790620272658829e-02 4.641441541831207e-03 -9.293133727084436e-01 8.510916680111774e-01 -3.796955697500236e-01 5.735545007029969e-02 1.018741354627494e-02
8.327200000000000e+10 9.922428435376560e-02 -4.834252550833782e-02 -1.872093594445279e-02 -9.304369421120574e-01 8.595943540104379e-01 -3.605946263329438e-01 5.831950695961764e-02 9.943306918592850e-03
8.332000000000000e+10 9.941627228865847e-02 -4.888321199695124e-02 -3.842269929506931e-02 -9.299841649774098e-01 8.675401165454979e-01 -3.413738169769834e-01 5.881409871186011e-02 9.682860419243478e-03
8.336800000000000e+10 9.899649374586345e-02 -4.954295848537509e-02 -4.847034471319167e-02 -9.305629191658868e-01 8.702904488292351e-01 -3.350383642111387e-01 5.879534166507318e-02 9.164102956782112e-03
8.341600000000000e+10 9.902626863602802e-02 -4.994969166954259e-02 -4.095649680617149e-02 -9.320418671178093e-01 8.677607072371385e-01 -3.428891297292376e-01 5.928829269519362e-02 9.455843544537960e-03
8.346400000000000e+10 9.934565876422016e-02 -5.056125825337853e-02 -2.294472621411280e-02 -9.336524693014214e-01 8.611256908951318e-01 -3.591588210662133e-01 5.962342004702520e-02 9.782018244005927e-03
8.351200000000000e+10 9.869923969081645e-02 -5.121843717879560e-02 -2.954134151509878e-03 -9.325720730079688e-01 8.542653980734314e-01 -3.792415516723940e-01 5.946230264379871e-02 9.356566686878905e-03
8.356000000000000e+10 9.802181278158235e-02 -5.102166235939642e-02 8.508133149825398e-03 -9.321877274802177e-01 8.476147384168347e-01 -3.907642122272589e-01 5.961515934216153e-02 9.339454072134042e-03
8.360800000000000e+10 9.762350126122693e-02 -5.071966948170534e-02 8.606333663488092e-03 -9.317695358572538e-01 8.453610374749881e-01 -3.926994178062453e-01 5.925139476605262e-02 9.201811773726082e-03
8.365600000000000e+10 9.773776968598170e-02 -5.091764644122485e-02 -7.331685976493852e-04 -9.322567645974181e-01 8.487620020560379e-01 -3.852057946280475e-01 5.908243417767891e-02 9.820095004630233e-03
8.370400000000000e+10 9.744659438791242e-02 -5.123145058466468e-02 -1.409696434970033e-02 -9.321539927336460e-01 8.531271500849111e-01 -3.749708418579509e-01 5.883587363340149e-02 9.738782271682761e-03
8.375200000000000e+10 9.788067788043886e-02 -5.142740107454487e-02 -2.708941156653960e-02 -9.323854717193197e-01 8.585019694329989e-01 -3.626548421083000e-01 5.836762667212833e-02 9.970649779896057e-03
8.380000000000000e+10 9.727305176401342e-02 -5.192300206406286e-02 -3.676903070605108e-02 -9.307112635327379e-01 8.614157986701635e-01 -3.555357918677476e-01 5.810310980633082e-02 1.031356849786734e-02
8.384800000000000e+10 9.742658349078663e-02 -5.242967198658458e-02 -3.648275895735868e-02 -9.314157084068420e-01 8.617271481174563e-01 -3.567004328618320e-01 5.820679880020469e-02 1.097169058317816e-02
8.389600000000000e+10 9.709821700784413e-02 -5.236598899998873e-02 -3.085251133655684e-02 -9.320842950068313e-01 8.598770793476682e-01 -3.612551081355060e-01 5.875181665989435e-02 1.082570425775054e-02
8.394400000000000e+10 9.722907678645996e-02 -5.257463517743463e-02 -2.195763042034911e-02 -9.340634024155665e-01 8.559087644816099e-01 -3.714759294885439e-01 5.977620664385663e-02 1.003053315294626e-02
8.399200000000000e+10 9.673120739566204e-02 -5.213837582856448e-02 -1.338905143265366e-02 -9.327975314233574e-01 8.520800411835789e-01 -3.813684297857127e-01 5.938434690458599e-02 9.477891683140664e-03
8.404000000000000e+10 9.714280544675899e-02 -5.184795910083884e-02 -8.334999177642667e-03 -9.328907209203753e-01 8.493301537944743e-01 -3.879268835576947e-01 5.889147194453391e-02 9.064243165090231e-03
8.408800000000000e+10 9.833073465999631e-02 -5.158126605614129e-02 -8.348144903137074e-03 -9.326604573317651e-01 8.506686312189480e-01 -3.868553908581392e-01 5.941604957040769e-02 8.578691021804122e-03
8.413600000000000e+10 9.903314018255276e-02 -5.150365898671350e-02 -1.498542448641877e-02 -9.323920456676887e-01 8.526673920808586e-01 -3.809411292031179e-01 5.920801936170814e-02 8.588310782770019e-03
8.418400000000000e+10 9.975804755806857e-02 -5.215581587683097e-02 -2.605616243698457e-02 -9.328531093924318e-01 8.559705443242749e-01 -3.724659032730667e-01 5.855325468456248e-02 7.626182126103159e-03
8.423200000000000e+10 9.949890805267592e-02 -5.380904263959223e-02 -4.075941955105462e-02 -9.301566769705639e-01 8.606557948244057e-01 -3.622563835622258e-01 5.704542964214414e-02 7.691469443160865e-03
8.428000000000000e+10 9.931799445036324e-02 -5.392092962597998e-02 -4.163673478136332e-02 -9.323580423929959e-01 8.605803574636609e-01 -3.590006639970122e-01 5.741026320764366e-02 7.158251758237134e-03
8.432800000000000e+10 9.880976152741594e-02 -5.551421476121934e-02 -4.166104123959975e-02 -9.323739543933419e-01 8.591968658810037e-01 -3.628873456631669e-01 5.681168903112191e-02 7.085163414431703e-03
8.437600000000000e+10 9.677145438070080e-02 -5.606539090342914e-02 -3.082831557476553e-02 -9.323303005956922e-01 8.538242487874517e-01 -3.739519580783491e-01 5.620454016688745e-02 6.922308277000955e-03
8.442400000000000e+10 9.623284030668190e-02 -5.644890051396018e-02 -1.980770237596064e-02 -9.322667099070883e-01 8.497430271922598e-01 -3.855391959460262e-01 5.578999316813941e-02 6.780777599881888e-03
8.447200000000000e+10 9.474787927519701e-02 -5.646454829285431e-02 -1.690788171787982e-02 -9.322324279519087e-01 8.471454522260210e-01 -3.900862819119240e-01 5.544804155749408e-02 6.807235345645699e-03
8.452000000000000e+10 9.449836561236551e-02 -5.576500736078409e-02 -2.262102243905127e-02 -9.308220461739758e-01 8.499952660542208e-01 -3.852895203882716e-01 5.546018309065640e-02 6.852010128728356e-03
8.456800000000000e+10 9.458611678240285e-02 -5.584291654027088e-02 -3.660363309735092e-02 -9.310820959880939e-01 8.555850363589319e-01 -3.729738840349127e-01 5.573368099019135e-02 7.035869351021507e-03
8.461600000000000e+10 9.525207000432702e-02 -5.541142713958540e-02 -5.125834459579890e-02 -9.311313488649846e-01 8.616448268354706e-01 -3.592620868236959e-01 5.620566979315399e-02 6.880756528863556e-03
8.466400000000000e+10 9.578739921155105e-02 -5.633561467113056e-02 -5.957665905372043e-02 -9.335956276452936e-01 8.628483100784287e-01 -3.511213116635414e-01 5.663141978753303e-02 6.405845041673061e-03
8.471200000000000e+10 9.595941111445767e-02 -5.595057721656901e-02 -5.747879652781360e-02 -9.297251611971246e-01 8.635234380995166e-01 -3.552281427357343e-01 5.654248957474941e-02 6.572237433013266e-03
8.476000000000000e+10 9.584180101093434e-02 -5.667698462984144e-02 -4.202614251384081e-02 -9.311205410295678e-01 8.568341385073510e-01 -3.713974216023663e-01 5.639842064363376e-02 5.595004477895328e-03
8.480800000000000e+10 9.542792181807366e-02 -5.632856293885782e-02 -2.176041061564865e-02 -9.318299204403757e-01 8.481955880508422e-01 -3.887377161602169e-01 5.649725656099029e-02 5.686496051792309e-03
8.485600000000000e+10 9.496428536252521e-02 -5.595946634345360e-02 -1.109824893335330e-02 -9.318272312849962e-01 8.428906485109671e-01 -3.986823507674240e-01 5.639522166410989e-02 5.214880795893612e-03
8.490400000000000e+10 9.456699843137271e-02 -5.490508799374094e-02 -1.313665684829555e-02 -9.298095759611648e-01 8.432485030575108e-01 -3.984981732956929e-01 5.621309994223780e-02 5.649360408694328e-03
8.495200000000000e+10 9.578458981383534e-02 -5.453171775676281e-02 -2.337999726901084e-02 -9.303797346323065e-01 8.479075658013850e-01 -3.888520344727278e-01 5.606748815875769e-02 5.605671940494629e-03
8.500000000000000e+10 9.696549354161052e-02 -5.576436442540164e-02 -4.357919352718657e-02 -9.323647153667626e-01 8.546583224275924e-01 -3.744829258184108e-01 5.508035307173679e-02 5.101199384054919e-03
8.504800000000000e+10 9.664075001656786e-02 -5.596740613752045e-02 -5.842472349353716e-02 -9.297265308195037e-01 8.589198072762836e-01 -3.611698086871895e-01 5.520388169075107e-02 5.451001668494689e-03
8.509600000000000e+10 9.584018452547274e-02 -5.731072266802183e-02 -6.082959248954723e-02 -9.302790429457407e-01 8.583553741227746e-01 -3.633350585975639e-01 5.447880824088044e-02 3.847942523195543e-03
8.514400000000000e+10 9.458546386867800e-02 -5.709288131820901e-02 -4.558201362447433e-02 -9.294177941645397e-01 8.549543409941670e-01 -3.739599568953488e-01 5.777920518459664e-02 4.513922264585306e-03
8.519200000000000e+10 9.467630306238441e-02 -6.043578855546871e-02 -3.446603215518876e-02 -9.364906987467820e-01 8.473408162453950e-01 -3.924681091770497e-01 5.405483767499338e-02 3.162767066858909e-03
8.524000000000000e+10 9.082350374666719e-02 -6.018963397952653e-02 -1.608177241980514e-02 -9.336321420148483e-01 8.365085657779114e-01 -4.177086779210565e-01 5.541655384824713e-02 1.886567052008171e-03
8.528800000000000e+10 9.341817262028108e-02 -5.938081804245078e-02 -1.615473061929886e-02 -9.315603917146213e-01 8.428039168533359e-01 -4.063836671009957e-01 5.566035809434008e-02 5.288053725906021e-03
8.533600000000000e+10 9.223099369057269e-02 -5.908837833144736e-02 -2.172931794756334e-02 -9.328170564949111e-01 8.437239792305267e-01 -4.093143180514763e-01 5.464568174928374e-02 2.294813105905672e-03
8.538400000000000e+10 9.331044047436823e-02 -5.695021899558968e-02 -4.033485100441903e-02 -9.318903932324631e-01 8.511849831984690e-01 -3.826943454682810e-01 5.707078162931004e-02 5.089680332307784e-03
8.543200000000000e+10 9.343279800528476e-02 -5.727645740850491e-02 -5.536903935279866e-02 -9.316251596446431e-01 8.564619374636183e-01 -3.728232379397337e-01 5.651003286886725e-02 3.710692523761656e-03
8.548000000000000e+10 9.433764977470423e-02 -5.657921264834405e-02 -6.173466706545717e-02 -9.319465800533139e-01 8.566457160064245e-01 -3.643664577732416e-01 5.668603552515951e-02 4.276857388574010e-03
8.552800000000000e+10 9.538733542074224e-02 -5.763764813632385e-02 -6.144717597137376e-02 -9.309547136656539e-01 8.602596681160126e-01 -3.675060876616993e-01 5.693332128362411e-02 3.123705195817569e-03
8.557600000000000e+10 9.362999062051430e-02 -6.014554114593276e-02 -5.275467765986000e-02 -9.301324030875517e-01 8.516582114647807e-01 -3.807455774907039e-01 5.529379908737604e-02 3.877389515681794e-03
8.562400000000000e+10 9.316195039457933e-02 -5.999439786516690e-02 -4.359493917118219e-02 -9.321390467752477e-01 8.478925937522226e-01 -3.889939686510978e-01 5.566853866111363e-02 3.193274343434420e-03
8.567200000000000e+10 9.227136937709828e-02 -6.032495282434151e-02 -4.025178038004959e-02 -9.323708013993323e-01 8.452923320521837e-01 -3.939860401160378e-01 5.521313827905006e-02 2.765533318887148e-03
8.572000000000000e+10 9.314617933313409e-02 -6.003062423698428e-02 -4.078652616479280e-02 -9.318886086586913e-01 8.475097632372066e-01 -3.937082234623739e-01 5.547663237485125e-02 2.413309487383385e-03
8.576800000000000e+10 9.071807297609827e-02 -5.974301270973838e-02 -4.626897371284242e-02 -9.316718286295823e-01 8.434287072603904e-01 -3.914238017150111e-01 5.397340219355890e-02 3.215523810746690e-03
8.581600000000000e+10 9.304500744479732e-02 -5.768738261851208e-02 -4.877681047723945e-02 -9.306264028254244e-01 8.498170468435077e-01 -3.841925929272455e-01 5.590509502552361e-02 3.592999520565621e-03
8.586400000000000e+10 9.190841785814510e-02 -5.989099212345573e-02 -5.918663316840802e-02 -9.315231368440489e-01 8.500067541590661e-01 -3.804400246195389e-01 5.506252094067052e-02 3.192021083841817e-03
8.591200000000000e+10 9.449382144695441e-02 -5.792774398824924e-02 -6.063759453196294e-02 -9.291753713708559e-01 8.546783077660997e-01 -3.754533997922823e-01 5.665576958521889e-02 3.584869960223933e-03
8.596000000000000e+10 9.455618631245619e-02 -5.938700782656962e-02 -6.074292767919188e-02 -9.305391108957622e-01 8.534830359132548e-01 -3.768145889732309e-01 5.698646346994592e-02 3.089523785202875e-03
8.600800000000000e+10 9.470180572549856e-02 -6.032241996168308e-02 -5.793026050223244e-02 -9.309827532036713e-01 8.521720267869949e-01 -3.812986803716373e-01 5.741273290682859e-02 1.906156371221772e-03
8.605600000000000e+10 9.399013514440530e-02 -6.131090047064912e-02 -5.784310390861023e-02 -9.313216237387208e-01 8.497751744468081e-01 -3.850815106694205e-01 5.596942556968625e-02 1.141856500539701e-03
8.610400000000000e+10 9.383287799489072e-02 -6.045967946551947e-02 -5.663387359247155e-02 -9.290960812209762e-01 8.492467524832741e-01 -3.845638652936494e-01 5.625395741739045e-02 1.363316099298701e-03
8.615200000000000e+10 9.419583251620486e-02 -6.034518557458227e-02 -5.775835069235769e-02 -9.292804794819315e-01 8.507030972531918e-01 -3.824394490300813e-01 5.677387653641038e-02 9.155947218078297e-04
8.620000000000000e+10 9.308497964029881e-02 -5.942481598912399e-02 -5.957409056271298e-02 -9.287423505570779e-01 8.479495494632073e-01 -3.817820538698857e-01 5.637802293071247e-02 1.292766228262453e-03
8.624800000000000e+10 9.212099311179307e-02 -6.640283011033335e-02 -8.633291266682594e-02 -9.266213806993596e-01 8.509831309519655e-01 -3.850140383998591e-01 4.637217815317765e-02 -3.550525589343621e-04
8.629600000000000e+10 8.883974904281920e-02 -6.581708690783464e-02 -8.565691633470840e-02 -9.237303628961472e-01 8.438419042618195e-01 -3.865811913239364e-01 4.494936582000532e-02 2.579354139490603e-03
8.634400000000000e+10 9.612197197985224e-02 -6.345420230089538e-02 -7.421032506507527e-02 -9.344002282734902e-01 8.513343516015679e-01 -3.784299688563606e-01 5.415197819397124e-02 -3.261138439218025e-03
8.639200000000000e+10 9.393838957128038e-02 -6.074359183894044e-02 -6.844110256912672e-02 -9.264442007558670e-01 8.489676567221444e-01 -3.805541099793399e-01 5.458230917466027e-02 1.578215158101382e-03
8.644000000000000e+10 9.378264102009949e-02 -6.052419972427321e-02 -6.748000314984667e-02 -9.266183020717171e-01 8.466249017161395e-01 -3.803741638883755e-01 5.502100084663426e-02 8.969937696399249e-04
8.648800000000000e+10 9.457500303111974e-02 -6.289575436891942e-02 -6.497132573097339e-02 -9.261922184923047e-01 8.498341083351774e-01 -3.851778401472407e-01 5.483136787895507e-02 1.310394695846585e-04
8.653600000000000e+10 9.357288818184746e-02 -6.295163800697599e-02 -6.746907310820831e-02 -9.285650322006880e-01 8.468344998971099e-01 -3.847436479997512e-01 5.499920061162775e-02 -3.703674731548554e-04
8.658400000000000e+10 9.343483543213622e-02 -6.604617784321504e-02 -7.225005470465544e-02 -9.291342718853751e-01 8.525342707538059e-01 -3.855246216966352e-01 5.527645105884200e-02 -2.930488885591493e-03
8.663200000000000e+10 9.169016898534120e-02 -6.316956450816159e-02 -7.622078317859673e-02 -9.271473736712129e-01 8.496351635408700e-01 -3.800563945166969e-01 5.509761827194579e-02 -9.304390051200808e-04
8.668000000000000e+10 9.071577840946816e-02 -6.382386726060632e-02 -7.994080316084000e-02 -9.281617602923516e-01 8.480144665801440e-01 -3.789077731713780e-01 5.432235792593991e-02 -2.983123446249865e-04
8.672800000000000e+10 9.338250877163105e-02 -6.411521486331932e-02 -7.574354226663213e-02 -9.327354939522383e-01 8.502185466985984e-01 -3.796164072653170e-01 5.550794930920060e-02 -3.483901056664296e-03
8.677600000000000e+10 9.421785188468819e-02 -6.667943169980964e-02 -8.053890604397941e-02 -9.321407784962287e-01 8.541290147382204e-01 -3.790345569707417e-01 5.612276422070810e-02 -5.041963109870316e-03
8.682400000000000e+10 9.238661900260485e-02 -6.512614942216410e-02 -7.526221378973305e-02 -9.273761912648687e-01 8.499809377667423e-01 -3.859104547197596e-01 5.525553232779574e-02 -3.182309185598553e-03
8.687200000000000e+10 9.323674231806187e-02 -6.638200679922976e-02 -7.270903796641583e-02 -9.295386700962492e-01 8.477080545240470e-01 -3.882937271962497e-01 5.557660536790442e-02 -3.718796943381223e-03
8.692000000000000e+10 9.289772190624875e-02 -6.634538722772323e-02 -6.894221230662424e-02 -9.282600057849324e-01 8.468337516052195e-01 -3.913135681395458e-01 5.522760797701126e-02 -2.838782564256644e-03
8.696800000000000e+10 9.249638907800088e-02 -6.534215357949681e-02 -7.115779173329372e-02 -9.258614714788601e-01 8.473046300837034e-01 -3.887322009338473e-01 5.538739904090375e-02 -1.677463474737467e-03
8.701600000000000e+10 9.104204616681234e-02 -6.573528423292324e-02 -7.691687623128191e-02 -9.251216660278893e-01 8.471620753001500e-01 -3.849232934606024e-01 5.431819939017984e-02 -1.381235254509898e-03
8.706400000000000e+10 9.032477497875185e-02 -6.561372418008209e-02 -8.103710841460955e-02 -9.278632609692158e-01 8.450876007900823e-01 -3.830764039601942e-01 5.445667709607910e-02 -1.833753290460901e-03
8.711200000000000e+10 8.889238129681111e-02 -6.944890997774975e-02 -8.518020220456519e-02 -9.295140192844046e-01 8.474593744718733e-01 -3.886556896578550e-01 5.352447768133790e-02 -4.023603896274038e-03
8.716000000000000e+10 8.957218894016829e-02 -6.722599558469838e-02 -8.059884934971905e-02 -9.277418134414870e-01 8.474031663211301e-01 -3.883694638977396e-01 5.487971143211562e-02 -2.981754578730927e-03
8.720800000000000e+10 8.998367352638671e-02 -6.814364387603997e-02 -7.981291413639041e-02 -9.295905217054111e-01 8.477033869761090e-01 -3.914592804202845e-01 5.525312018673116e-02 -4.679449444185455e-03
8.725600000000000e+10 9.130448601891590e-02 -6.818944966320621e-02 -7.554478850765453e-02 -9.297008893558154e-01 8.478382552333804e-01 -3.931383701570332e-01 5.686260604003260e-02 -4.806404001246825e-03
8.730400000000000e+10 9.127025219711124e-02 -6.715799434049312e-02 -7.377296418866576e-02 -9.302384226635961e-01 8.441857706790677e-01 -3.952053175916322e-01 5.673110883736285e-02 -5.000723943017058e-03
8.735200000000000e+10 9.115373279109731e-02 -6.795809786826768e-02 -7.686880847460514e-02 -9.297442522037160e-01 8.433601250801199e-01 -3.933430268532753e-01 5.656134157146948e-02 -4.288929506903037e-03
8.740000000000000e+10 8.935620923418391e-02 -6.687848850847668e-02 -8.245941070379821e-02 -9.273842904371070e-01 8.428665722811599e-01 -3.897654742688581e-01 5.548786675388437e-02 -2.841626468437062e-03
8.744800000000000e+10 9.024751227272848e-02 -6.836567008458361e-02 -8.842865426619975e-02 -9.254345699879389e-01 8.496359497697270e-01 -3.871553760687418e-01 5.506184311142493e-02 -4.899473560719582e-03
8.749600000000000e+10 8.800758329638447e-02 -6.840240142283360e-02 -8.823647591255862e-02 -9.256015836842466e-01 8.467079099060372e-01 -3.909935248936547e-01 5.392203420813623e-02 -5.133049635343199e-03
8.754400000000000e+10 8.913123867470897e-02 -6.862611968592040e-02 -8.506491121520338e-02 -9.287805129627081e-01 8.461327894445702e-01 -3.910095134786047e-01 5.550394274432788e-02 -7.339246995841258e-03
8.759200000000000e+10 8.741773648297847e-02 -6.768849667204381e-02 -8.349089034187641e-02 -9.273908486963652e-01 8.438958320978664e-01 -3.948754015467377e-01 5.564992487711649e-02 -6.503124982174740e-03
8.764000000000000e+10 8.877821145628832e-02 -6.961785326902536e-02 -8.138029200181764e-02 -9.282145959043177e-01 8.444484936706506e-01 -3.981314660587061e-01 5.542708654124681e-02 -8.980899069911584e-03
8.768800000000000e+10 8.553438447039431e-02 -6.479685943867880e-02 -7.831427805425804e-02 -9.228985345298920e-01 8.396880389044956e-01 -3.998091421300958e-01 5.396687113827332e-02 -4.047309545148073e-03
8.773600000000000e+10 8.745155324345148e-02 -7.007702578369322e-02 -8.392627276757136e-02 -9.295184610225681e-01 8.420706039854962e-01 -4.001295197878461e-01 5.460089811634473e-02 -9.566864186703080e-03
8.778400000000000e+10 8.708788912681326e-02 -6.923646746079104e-02 -8.966955152875412e-02 -9.308790192183591e-01 8.422750774550497e-01 -3.963083880839038e-01 5.529759849725816e-02 -1.025083004134999e-02
8.783200000000000e+10 8.851765082526339e-02 -6.876859979611993e-02 -9.386194217123273e-02 -9.291164154104402e-01 8.456832802797728e-01 -3.888831558672206e-01 5.694282738132304e-02 -8.406671773765084e-03
8.788000000000000e+10 8.810266245830481e-02 -6.925659873429332e-02 -9.576717283765135e-02 -9.276278579687628e-01 8.472935985755555e-01 -3.884006663280187e-01 5.647445932102968e-02 -9.300100473367049e-03
8.792800000000000e+10 8.678329614761282e-02 -7.023638295345692e-02 -1.034431286073604e-01 -9.263699804612903e-01 8.486127793579344e-01 -3.876222136611422e-01 5.586540689555783e-02 -1.094191475919950e-02
8.797600000000000e+10 8.862215734463015e-02 -6.982064610508018e-02 -9.603060909052470e-02 -9.267145675702804e-01 8.505799904117217e-01 -3.874232467502877e-01 5.796339711203087e-02 -1.071209464066996e-02
8.802400000000000e+10 8.527873655775808e-02 -7.115025106833833e-02 -1.012900261636158e-01 -9.272086779443556e-01 8.462641828071006e-01 -3.955483243361898e-01 5.486224542222282e-02 -1.311721108576125e-02
8.807200000000000e+10 8.733711045585547e-02 -6.878657617210575e-02 -9.211484100804709e-02 -9.260634819324335e-01 8.455057429843323e-01 -3.947192841518982e-01 5.661211497672003e-02 -1.126148241735695e-02
8.812000000000000e+10 8.591791282439683e-02 -6.976876678985271e-02 -9.206965388082219e-02 -9.300671566231703e-01 8.408732198772630e-01 -4.019325936822941e-01 5.561712613979895e-02 -1.501962962843768e-02
8.816800000000000e+10 8.917283992563975e-02 -6.712202290412356e-02 -7.986845812623686e-02 -9.283115070797553e-01 8.392644978703812e-01 -4.036761281959100e-01 5.735358042588358e-02 -1.034645865080616e-02
8.821600000000000e+10 8.715942541509304e-02 -6.601373498471376e-02 -8.503249204667115e-02 -9.232871552686017e-01 8.387153082571176e-01 -4.047047667465778e-01 5.415615176756600e-02 -1.057146390708706e-02
8.826400000000000e+10 8.676889567121135e-02 -6.778032818492861e-02 -9.921932077697930e-02 -9.257902065420225e-01 8.434705034945471e-01 -3.982728596300848e-01 5.394799693184152e-02 -1.437582765401382e-02
8.831200000000000e+10 8.709137219316471e-02 -7.040156269866084e-02 -1.116893063155050e-01 -9.260205709407175e-01 8.480649012615276e-01 -3.877020595876956e-01 5.381909508185951e-02 -1.486977201555323e-02
8.836000000000000e+10 8.759308083562060e-02 -6.947654310169502e-02 -1.191723827390145e-01 -9.243661360477274e-01 8.514057559997411e-01 -3.790155652104172e-01 5.465971424776023e-02 -1.387166722977686e-02
8.840800000000000e+10 8.724021326371277e-02 -7.042331386070295e-02 -1.204267365179027e-01 -9.245093139004050e-01 8.529664593830221e-01 -3.774580087231236e-01 5.482920345440292e-02 -1.403766301004312e-02
8.845600000000000e+10 8.634556231741776e-02 -6.988298367132495e-02 -1.157767859959289e-01 -9.261797504472974e-01 8.499214927815247e-01 -3.851587732006821e-01 5.485939355096743e-02 -1.468805619132172e-02
8.850400000000000e+10 8.670892255962236e-02 -6.985027375267941e-02 -1.007798207722352e-01 -9.285250180878836e-01 8.406630623382292e-01 -3.957424480089866e-01 5.614280415928383e-02 -1.238705773802481e-02
8.855200000000000e+10 8.502480443029642e-02 -6.728599884799051e-02 -9.474970965502812e-02 -9.264310978077273e-01 8.400256909033967e-01 -4.094509215666219e-01 5.263430714604088e-02 -1.687997555432314e-02
8.860000000000000e+10 8.120988679854142e-02 -6.795880946607884e-02 -1.005496287335081e-01 -9.279174424077434e-01 8.364408532608588e-01 -4.158211535961860e-01 5.161594948453315e-02 -2.390126297072880e-02
8.864800000000000e+10 8.080499844302363e-02 -6.176480244923467e-02 -1.025743141453624e-01 -9.276476486105405e-01 8.383922709239345e-01 -4.109615502363461e-01 5.747401872160519e-02 -3.383911592469548e-02
8.869600000000000e+10 7.968211109472183e-02 -7.009237484592795e-02 -1.300431612113237e-01 -9.233478957104230e-01 8.415727701728730e-01 -4.052050146605720e-01 4.275969660897563e-02 -2.693713074222067e-02
8.874400000000000e+10 8.145979658227187e-02 -7.004557096196799e-02 -1.412158536116749e-01 -9.197703604031138e-01 8.456570925842720e-01 -3.948482405450744e-01 4.348403393401010e-02 -2.595453366426763e-02
8.879200000000000e+10 8.272758341722559e-02 -7.089171222590869e-02 -1.476823491181232e-01 -9.182822199848317e-01 8.498418928084043e-01 -3.867130409676302e-01 4.368341215362641e-02 -2.543920968670842e-02
8.884000000000000e+10 8.303349540123867e-02 -7.211933945899192e-02 -1.444971653840327e-01 -9.225204351141144e-01 8.486791457664248e-01 -3.896755445107847e-01 4.598356368582911e-02 -2.642455866634686e-02
8.888800000000000e+10 8.535947052691777e-02 -6.724812771932556e-02 -1.147414512365642e-01 -9.254318794618435e-01 8.474298586376002e-01 -3.971859782180155e-01 5.943681385649549e-02 -2.444623756158255e-02
8.893600000000000e+10 9.057374371284124e-02 -6.818086838658870e-02 -9.032091523606474e-02 -9.255766487728601e-01 8.405409437242941e-01 -4.071866346549196e-01 5.715601634623349e-02 -1.383005877810050e-02
8.898400000000000e+10 8.968264751215643e-02 -6.901345666280122e-02 -8.902677108691998e-02 -9.254070734987812e-01 8.351158519056469e-01 -4.139766377624895e-01 5.536407047084378e-02 -1.362497343850560e-02
8.903200000000000e+10 8.905287024641743e-02 -6.820891483138990e-02 -9.108067095777453e-02 -9.285101353096193e-01 8.334175344670823e-01 -4.146694074255773e-01 5.496105440704874e-02 -1.626644781280654e-02
8.908000000000000e+10 8.870439391296410e-02 -6.908814274299685e-02 -9.921925507568488e-02 -9.275121532783214e-01 8.356436474301340e-01 -4.111726265586174e-01 5.336399616527887e-02 -1.663042070251227e-02
8.912800000000000e+10 8.981941159930568e-02 -6.881856938029142e-02 -1.097950882662952e-01 -9.243947531410805e-01 8.418170759021815e-01 -4.029811087670375e-01 5.358367186570069e-02 -1.644663268103779e-02
8.917600000000000e+10 9.070708100527265e-02 -7.040858955200778e-02 -1.160893292881795e-01 -9.255455515768367e-01 8.437546635396805e-01 -3.970474973934978e-01 5.489115975576916e-02 -1.625380857236283e-02
8.922400000000000e+10 9.130684256778149e-02 -7.016093606263898e-02 -1.175108065572124e-01 -9.235442765371209e-01 8.448454695113686e-01 -3.962453647593890e-01 5.458297000876595e-02 -1.611637768158723e-02
8.927200000000000e+10 9.216078766988717e-02 -7.177531211977232e-02 -1.116787748767220e-01 -9.257766447625765e-01 8.437523348699246e-01 -4.009783134770701e-01 5.575149400789650e-02 -1.641746971790994e-02
8.932000000000000e+10 9.117590231532040e-02 -7.256131732100851e-02 -1.073509180530929e-01 -9.262048217051057e-01 8.397191414774811e-01 -4.087354555115535e-01 5.491853815244237e-02 -1.653892530340365e-02
8.936800000000000e+10 9.193828865061060e-02 -7.230419298780413e-02 -1.012569596170465e-01 -9.257127172319234e-01 8.391819028455033e-01 -4.140372447337116e-01 5.514712237631193e-02 -1.650530721616689e-02
8.941600000000000e+10 9.105337227744509e-02 -7.218470142056917e-02 -1.015533557969979e-01 -9.273281050263726e-01 8.356274572620697e-01 -4.140432432813913e-01 5.506936085039431e-02 -1.661268545118563e-02
8.946400000000000e+10 9.200806152681325e-02 -7.108920253840720e-02 -1.024257848925841e-01 -9.271784052912747e-01 8.359156869645377e-01 -4.137349181459132e-01 5.495031117807553e-02 -1.712057367393660e-02
8.951200000000000e+10 9.329382924733620e-02 -7.138216648143485e-02 -1.011836413233705e-01 -9.262295846332633e-01 8.382016290189613e-01 -4.097541546943526e-01 5.611099305367512e-02 -1.619796702080195e-02
8.956000000000000e+10 9.304022093674578e-02 -7.084528610431107e-02 -1.071740985140694e-01 -9.256183341766351e-01 8.352704361319895e-01 -4.108165116763383e-01 5.429863074213552e-02 -1.559016303734631e-02
8.960800000000000e+10 9.230863814106031e-02 -7.355608777816201e-02 -1.132944562425311e-01 -9.268319491367176e-01 8.377614286842167e-01 -4.096503045069912e-01 5.486457680844740e-02 -1.767591156559703e-02
8.965600000000000e+10 9.493872803409618e-02 -7.200846089077648e-02 -1.110865119315139e-01 -9.252708649449638e-01 8.390348737340936e-01 -4.065152830358509e-01 5.517423468121943e-02 -1.509686613828484e-02
8.970400000000000e+10 9.262075691034663e-02 -7.498096137731416e-02 -1.163851384798567e-01 -9.266066114417759e-01 8.396931329993388e-01 -4.088575208057337e-01 5.560478693812896e-02 -1.807775012522497e-02
8.975200000000000e+10 9.401783111446280e-02 -7.504759824039957e-02 -1.164447684986752e-01 -9.258805727318777e-01 8.412051348287773e-01 -4.050846539867973e-01 5.598375101836899e-02 -1.534936790582827e-02
8.980000000000000e+10 9.202071486690774e-02 -7.662042225503077e-02 -1.216576300126564e-01 -9.260299827157369e-01 8.415534093333157e-01 -4.050173961742462e-01 5.567419806426674e-02 -1.647182093659778e-02
8.984800000000000e+10 9.272281643374829e-02 -7.517632875915228e-02 -1.208695310556807e-01 -9.261640379931738e-01 8.435300974455405e-01 -4.036799432135795e-01 5.650782867575022e-02 -1.748119007901667e-02
8.989600000000000e+10 9.261740268501567e-02 -7.444117940022092e-02 -1.237276889211640e-01 -9.241937658667686e-01 8.418916501643876e-01 -4.010106087735600e-01 5.438577462021647e-02 -1.572919632319800e-02
8.994400000000000e+10 9.384930360387982e-02 -7.669041313753439e-02 -1.195302137369512e-01 -9.274522432229505e-01 8.432341642755756e-01 -4.077550469876719e-01 5.754307662972166e-02 -1.699657710102303e-02
8.999200000000000e+10 9.244252931528529e-02 -7.864225470842434e-02 -1.201752432916304e-01 -9.281618889508637e-01 8.416254740037956e-01 -4.117026357321211e-01 5.757899792418245e-02 -1.712935131306248e-02
9.004000000000000e+10 9.261997761035741e-02 -7.785550511162445e-02 -1.220674735774322e-01 -9.276368933433287e-01 8.395211793588170e-01 -4.128910411089762e-01 5.791647939455936e-02 -1.882643498190753e-02
9.008800000000000e+10 9.225276001288071e-02 -7.818371559627363e-02 -1.263572152952645e-01 -9.256376843560643e-01 8.408430426451837e-01 -4.074487107034154e-01 5.812395578696996e-02 -1.706695431827918e-02
9.013600000000000e+10 9.387665805403565e-02 -7.693619146039760e-02 -1.298011480011001e-01 -9.215393649266216e-01 8.455891151859863e-01 -4.013147368295234e-01 5.888388788915395e-02 -1.681709238337143e-02
9.018400000000000e+10 9.463815231212340e-02 -7.851113635466145e-02 -1.342004762506806e-01 -9.219615791924803e-01 8.484063533471355e-01 -3.963194118927820e-01 5.681976031436675e-02 -1.718579516988523e-02
9.023200000000000e+10 9.195981826821385e-02 -7.987180149801831e-02 -1.415979251384271e-01 -9.246156810025575e-01 8.440883785501627e-01 -4.006641804776739e-01 5.595956075452772e-02 -2.028968353378944e-02
9.028000000000000e+10 9.186473970785283e-02 -8.053053745279030e-02 -1.374147235199842e-01 -9.241770544653141e-01 8.443595133527045e-01 -3.985425886241161e-01 5.606487844507049e-02 -1.624471474077447e-02
9.032800000000000e+10 9.161299108754341e-02 -8.062950029717664e-02 -1.340126052852361e-01 -9.247429157289402e-01 8.453255975217729e-01 -4.029283948772668e-01 5.782190175388449e-02 -1.622055495234512e-02
9.037600000000000e+10 9.029297598265436e-02 -8.062631058846226e-02 -1.312691885909982e-01 -9.252437974907416e-01 8.429465125838470e-01 -4.077203371654403e-01 5.790460561227348e-02 -1.638171022970795e-02
9.042400000000000e+10 9.089346899290993e-02 -7.939965702610369e-02 -1.319478172152668e-01 -9.240917388815940e-01 8.434069464884020e-01 -4.091254605104004e-01 5.865901355239619e-02 -1.662954473465836e-02
9.047200000000000e+10 9.122198339242588e-02 -7.944495187741539e-02 -1.365353990595241e-01 -9.233823930110622e-01 8.445381628458336e-01 -4.030392783599003e-01 5.835199123094800e-02 -1.593979560699780e-02
9.052000000000000e+10 9.334929512450567e-02 -7.889519959594296e-02 -1.349368482441420e-01 -9.266099606490369e-01 8.452236685197921e-01 -4.010170448150630e-01 6.090823279537881e-02 -1.611449326362153e-02
9.056800000000000e+10 9.049158923092845e-02 -8.093071043365889e-02 -1.450349533134190e-01 -9.276479546138737e-01 8.446878068915681e-01 -4.030699389138543e-01 6.034262025890894e-02 -2.035505770026692e-02
9.061600000000000e+10 9.395139498341655e-02 -7.996847887873970e-02 -1.440363464824262e-01 -9.247223743996937e-01 8.440131657643194e-01 -3.980117225388168e-01 5.783790247772164e-02 -1.846026037296623e-02
9.066400000000000e+10 9.241673781703516e-02 -8.455296364156130e-02 -1.428377396527951e-01 -9.242917788395834e-01 8.505072902804552e-01 -4.012035073802771e-01 5.945188658505053e-02 -1.736674693132892e-02
9.071200000000000e+10 8.945182615140714e-02 -8.509797864844300e-02 -1.436990214284881e-01 -9.239220459540139e-01 8.466855853194203e-01 -4.092290551395527e-01 5.833568880065060e-02 -1.835066548454729e-02
9.076000000000000e+10 8.831881758225935e-02 -8.281162147999584e-02 -1.428766015487081e-01 -9.217310578533381e-01 8.434883592135324e-01 -4.074653532945223e-01 5.760646611980303e-02 -1.836986254201995e-02
9.080800000000000e+10 8.968807571308771e-02 -8.272192111759910e-02 -1.402145967819696e-01 -9.251618062841340e-01 8.433040632046416e-01 -4.088482449647926e-01 5.852335799339780e-02 -1.917570976165345e-02
9.085600000000000e+10 8.830816607326751e-02 -8.227042454954124e-02 -1.458458076883185e-01 -9.225765215314087e-01 8.434481947526391e-01 -4.062260758813768e-01 5.693350654362736e-02 -1.928357669732728e-02
9.090400000000000e+10 8.975189640353730e-02 -8.136660250031390e-02 -1.467722334120005e-01 -9.229596952783006e-01 8.429858087853116e-01 -4.047007642904811e-01 5.689420747732093e-02 -1.880292907076212e-02
9.095200000000000e+10 8.881227789130289e-02 -8.227912989244675e-02 -1.467344821946851e-01 -9.227124629128980e-01 8.424311684650043e-01 -4.042068033073505e-01 5.622677611381016e-02 -1.758839496172565e-02
9.100000000000000e+10 9.095892140861206e-02 -8.151188139554268e-02 -1.436071667577564e-01 -9.229774930900884e-01 8.424857743638929e-01 -4.062542497134377e-01 5.721385363715319e-02 -1.693868292979512e-02
9.104800000000000e+10 8.881055543694674e-02 -8.358680854347447e-02 -1.413093466052477e-01 -9.245316027498479e-01 8.409647795259637e-01 -4.124532534064644e-01 5.809857627530384e-02 -1.776795312815664e-02
9.109600000000000e+10 9.042657355176899e-02 -8.264203655885206e-02 -1.386078075890806e-01 -9.243526375273481e-01 8.410646280340636e-01 -4.132694732115611e-01 5.836249192091915e-02 -1.713719440576619e-02
9.114400000000000e+10 8.898160583941297e-02 -8.394559790220110e-02 -1.401462915286865e-01 -9.257720852941991e-01 8.406798822682487e-01 -4.139784198716565e-01 5.927816572871203e-02 -1.766567056591975e-02
9.119200000000000e+10 8.864503188426141e-02 -8.367641691931134e-02 -1.454485333077799e-01 -9.242362594354255e-01 8.425709015616250e-01 -4.115845998744289e-01 5.908293953010659e-02 -1.814597119651814e-02
9.124000000000000e+10 8.776458310771655e-02 -8.345984208818330e-02 -1.503883785914798e-01 -9.237292695733765e-01 8.440296212068853e-01 -4.095138794371408e-01 6.001547400407090e-02 -1.937503537369043e-02
9.128800000000000e+10 8.623811932606285e-02 -8.374092739045377e-02 -1.529099960592314e-01 -9.216941338566045e-01 8.429099174848536e-01 -4.090610883071621e-01 5.792166773071993e-02 -1.852241901605251e-02
9.133600000000000e+10 8.762284216856132e-02 -8.238044530952277e-02 -1.523010717079142e-01 -9.227335092012985e-01 8.438226003728538e-01 -4.075791356258496e-01 5.978853228719346e-02 -1.875201007236312e-02
9.138400000000000e+10 8.678740482604864e-02 -8.239649023193103e-02 -1.523012530370732e-01 -9.214132783849536e-01 8.432512210582589e-01 -4.086023905285841e-01 5.936868143513117e-02 -1.809967684233220e-02
9.143200000000000e+10 8.788621974658173e-02 -8.173021113078445e-02 -1.504717120493390e-01 -9.212029951674054e-01 8.410230232394308e-01 -4.123437585865887e-01 5.960194860638720e-02 -1.850055774249442e-02
9.148000000000000e+10 8.724519311896214e-02 -8.268012982434708e-02 -1.518921486446912e-01 -9.211301163832902e-01 8.403754869187671e-01 -4.120206768361910e-01 5.884381968576727e-02 -1.819131713544374e-02
9.152800000000000e+10 8.856727105456753e-02 -8.258698368862680e-02 -1.517585778218066e-01 -9.205054306642518e-01 8.399930833159185e-01 -4.121171868237747e-01 5.899176132179943e-02 -1.797628528925018e-02
9.157600000000000e+10 8.799032998946128e-02 -8.373333302048160e-02 -1.534609930420882e-01 -9.208268065220923e-01 8.404289086748999e-01 -4.116012708758742e-01 5.902503797411669e-02 -1.796152638730400e-02
9.162400000000000e+10 8.819225933160070e-02 -8.429068230334308e-02 -1.543783771499389e-01 -9.206124523834990e-01 8.402977289752421e-01 -4.118331957849158e-01 5.867303809061308e-02 -1.760910135377932e-02
9.167200000000000e+10 8.735304386065523e-02 -8.458897911288343e-02 -1.560424503431396e-01 -9.200166879124146e-01 8.403377009950029e-01 -4.105800488527540e-01 5.838481567936558e-02 -1.724618697029365e-02
9.172000000000000e+10 8.714789264641520e-02 -8.426751676768517e-02 -1.577314504770807e-01 -9.208602651113016e-01 8.393792566200693e-01 -4.114124843216557e-01 5.921148637882469e-02 -1.763193176823523e-02
9.176800000000000e+10 8.775495108516936e-02 -8.431767432332969e-02 -1.584392230518196e-01 -9.208531788812743e-01 8.414056365423493e-01 -4.087967837875940e-01 5.945190581287863e-02 -1.672551077673664e-02
9.181600000000000e+10 8.708998892847510e-02 -8.379480805003960e-02 -1.594072018018470e-01 -9.206604437848092e-01 8.398511284700292e-01 -4.109236862470415e-01 6.012454171953422e-02 -1.739676261787984e-02
9.186400000000000e+10 8.728243319415738e-02 -8.338843165352916e-02 -1.609605831720161e-01 -9.204745667054254e-01 8.402490181568617e-01 -4.120640030679131e-01 6.063985022666188e-02 -1.834989663735227e-02
9.191200000000000e+10 8.774849425102070e-02 -8.393161214073040e-02 -1.611798873430945e-01 -9.205354819506403e-01 8.400453517986203e-01 -4.121388870775727e-01 6.031727958473147e-02 -1.804535350030164e-02
9.196000000000000e+10 8.838551947606788e-02 -8.316474037862874e-02 -1.636590913599228e-01 -9.189303232635664e-01 8.393429978128764e-01 -4.122503959749528e-01 6.030426604476270e-02 -1.937369731023628e-02
9.200800000000000e+10 8.868696622273688e-02 -8.383561435140963e-02 -1.624786873710058e-01 -9.189975926253376e-01 8.387306169407993e-01 -4.120961961932052e-01 6.033246946263419e-02 -1.859092931545261e-02
9.205600000000000e+10 8.826670366065704e-02 -8.430346999912205e-02 -1.618961261852090e-01 -9.184276830397217e-01 8.377003333826569e-01 -4.143899257355624e-01 5.980816021476040e-02 -1.933159639762185e-02
9.210400000000000e+10 8.757694817733837e-02 -8.488682698127212e-02 -1.638489922207634e-01 -9.179112222292783e-01 8.389296277562581e-01 -4.128035949146607e-01 5.996032026693859e-02 -1.876508550782790e-02
9.215200000000000e+10 8.693903235517744e-02 -8.451199876958249e-02 -1.650190116565790e-01 -9.180120974611020e-01 8.371016662630474e-01 -4.156913171564598e-01 5.952453976239716e-02 -1.971540491128574e-02
9.220000000000000e+10 8.605467531928436e-02 -8.574964078176936e-02 -1.662140386843604e-01 -9.173306609876971e-01 8.383049235255274e-01 -4.133907658491011e-01 5.910377544224293e-02 -1.866557263698293e-02
9.224800000000000e+10 8.698066932482086e-02 -8.406454896714961e-02 -1.661224517480779e-01 -9.166355702776333e-01 8.368361756555577e-01 -4.133985391379638e-01 5.916464419383115e-02 -1.891556065436071e-02
9.229600000000000e+10 8.618978589911540e-02 -8.578790075849785e-02 -1.666132831353040e-01 -9.164366070445482e-01 8.376028801260450e-01 -4.134535105539260e-01 5.929459438448763e-02 -1.837416429049483e-02
9.234400000000000e+10 8.754488002122210e-02 -8.470981059884820e-02 -1.674971032955561e-01 -9.181027945113057e-01 8.358008765084999e-01 -4.144517079395922e-01 6.041797623883755e-02 -1.920317777839122e-02
9.239200000000000e+10 8.669633771648272e-02 -8.702321646258748e-02 -1.681881732609635e-01 -9.182846188630597e-01 8.360079037767766e-01 -4.149625999946656e-01 6.066704939929152e-02 -1.881538222325643e-02
9.244000000000000e+10 8.807561098571172e-02 -8.676694681889045e-02 -1.671883590890587e-01 -9.184136267193815e-01 8.355037304057181e-01 -4.159292030464132e-01 6.140124217840044e-02 -1.935817322268213e-02
9.248800000000000e+10 8.750711204680270e-02 -8.848480598752706e-02 -1.683973714290499e-01 -9.191965755056042e-01 8.370363866665036e-01 -4.151130733463062e-01 6.229729104841605e-02 -1.952152750147862e-02
9.253600000000000e+10 8.795704865654405e-02 -8.856285526278726e-02 -1.706194843714587e-01 -9.194704124959913e-01 8.378008058193748e-01 -4.164724936818460e-01 6.291838069756253e-02 -2.050927556522563e-02
9.258400000000000e+10 8.774973072391182e-02 -8.909726312100787e-02 -1.716297719238795e-01 -9.188641207220221e-01 8.386355250710441e-01 -4.149846731043347e-01 6.267913520042498e-02 -2.054666536440965e-02
9.263200000000000e+10 8.747545989818620e-02 -8.868147986411978e-02 -1.729511991115189e-01 -9.183264759747913e-01 8.374619204774804e-01 -4.160651749762687e-01 6.288018624725178e-02 -2.146314087942761e-02
9.268000000000000e+10 8.724203861853069e-02 -8.869806940950463e-02 -1.763536306284151e-01 -9.183558817120975e-01 8.393194040557480e-01 -4.140801399223333e-01 6.303921505307095e-02 -2.193081648260885e-02
9.272800000000000e+10 8.724234444740811e-02 -8.821664511127884e-02 -1.789954979470755e-01 -9.172462478521645e-01 8.394336270290467e-01 -4.129902868215364e-01 6.247903147307574e-02 -2.203055002565479e-02
9.277600000000000e+10 8.703310816019644e-02 -8.815046430626727e-02 -1.809820077660626e-01 -9.163371329493369e-01 8.401802751149053e-01 -4.127069025002832e-01 6.220418859792212e-02 -2.211449428404767e-02
9.282400000000000e+10 8.746095308004273e-02 -8.810360482523101e-02 -1.797352299771104e-01 -9.166719792628800e-01 8.389975089610449e-01 -4.141700322050269e-01 6.206233171721842e-02 -2.199537094109321e-02
9.287200000000000e+10 8.687308781237436e-02 -8.873171146101870e-02 -1.778473644761501e-01 -9.163885516733664e-01 8.369947212325186e-01 -4.177714013620861e-01 6.159665014415259e-02 -2.205239949059917e-02
9.292000000000000e+10 8.755325913802259e-02 -8.914654402347968e-02 -1.753351648982676e-01 -9.178041931694491e-01 8.361408106544129e-01 -4.195973402370745e-01 6.183920670779285e-02 -2.252412161564233e-02
9.296800000000000e+10 8.640910152626513e-02 -9.051630017027457e-02 -1.751369133337976e-01 -9.181507252182934e-01 8.339330546321205e-01 -4.221771672531668e-01 6.142828225760872e-02 -2.234771904537990e-02
9.301600000000000e+10 8.664592852527481e-02 -9.036483856882081e-02 -1.754622288906622e-01 -9.183957003516651e-01 8.358386717922867e-01 -4.209718101651075e-01 6.189897970839989e-02 -2.301028662060258e-02
9.306400000000000e+10 8.451242593789678e-02 -9.175502772841515e-02 -1.811803841754114e-01 -9.175474273220137e-01 8.355493355793638e-01 -4.192556409276837e-01 6.088321485747152e-02 -2.260220810010836e-02
9.311200000000000e+10 8.468863518068348e-02 -9.170043026330965e-02 -1.867925397994074e-01 -9.170678789565494e-01 8.403722914851287e-01 -4.137236874596119e-01 6.200222341894019e-02 -2.333966391692525e-02
9.316000000000000e+10 8.330914819625293e-02 -9.193767436845830e-02 -1.952751973594496e-01 -9.156422354924384e-01 8.408487793010492e-01 -4.082885134278283e-01 6.093863954850744e-02 -2.287438361278636e-02
9.320800000000000e+10 8.352259807811872e-02 -9.148682208670367e-02 -1.976873333911433e-01 -9.146627558260864e-01 8.431866969875654e-01 -4.061127578371805e-01 6.186493785746097e-02 -2.371527041847313e-02
9.325600000000000e+10 8.331019171470430e-02 -9.118208705321555e-02 -1.952810801685174e-01 -9.147680629387303e-01 8.413339400077510e-01 -4.100063474807298e-01 6.159740726262598e-02 -2.396115930227366e-02
9.330400000000000e+10 8.310809911239113e-02 -9.170841145266904e-02 -1.885825959812264e-01 -9.162540938594279e-01 8.385944412011569e-01 -4.172668683138169e-01 6.148837217975276e-02 -2.462812530661578e-02
9.335200000000000e+10 8.400026875815442e-02 -9.167256377990333e-02 -1.816586258510772e-01 -9.179446599437243e-01 8.351195168141424e-01 -4.242957377779054e-01 6.136539642570366e-02 -2.521849230708921e-02
9.340000000000000e+10 8.291500925598286e-02 -9.252079420053581e-02 -1.783037187220154e-01 -9.178581668307551e-01 8.323466397566758e-01 -4.309836409762137e-01 6.044708472411456e-02 -2.559204300098832e-02
9.344800000000000e+10 8.381851600890169e-02 -9.138005949944654e-02 -1.768454245025464e-01 -9.181924017545333e-01 8.309157892758391e-01 -4.299126023623888e-01 6.065363705305341e-02 -2.561879819568966e-02
9.349600000000000e+10 8.467822801295154e-02 -9.202262808431375e-02 -1.823458422891586e-01 -9.178696206683645e-01 8.353052912602398e-01 -4.247966405391531e-01 6.051002909839795e-02 -2.619067410444854e-02
9.354400000000000e+10 8.370348563372061e-02 -9.194361758329471e-02 -1.892202142954776e-01 -9.150077991296259e-01 8.378004048270961e-01 -4.210078231708091e-01 5.981742991250476e-02 -2.566377454720271e-02
9.359200000000000e+10 8.270918498048745e-02 -9.178655831308200e-02 -1.957161639966156e-01 -9.123210288661197e-01 8.367302226252253e-01 -4.169345031500900e-01 5.851772424068043e-02 -2.603694596449427e-02
9.364000000000000e+10 8.254384542777835e-02 -9.140123811995496e-02 -1.992074835466533e-01 -9.128180890531692e-01 8.375858863129956e-01 -4.124065831661511e-01 5.832774215736611e-02 -2.546535963644068e-02
9.368800000000000e+10 8.230167142489676e-02 -9.133794362338137e-02 -2.008548638377810e-01 -9.136904971947279e-01 8.371365170207679e-01 -4.111975294342851e-01 5.864400902271179e-02 -2.508383625755133e-02
9.373600000000000e+10 8.266975165133521e-02 -9.053435889397318e-02 -2.008962533577713e-01 -9.141636926037436e-01 8.381905131438689e-01 -4.109675577476546e-01 5.946087658785698e-02 -2.507950379377362e-02
9.378400000000000e+10 8.233051259224514e-02 -9.179047206895946e-02 -2.013770061428224e-01 -9.135605489385701e-01 8.375839329556136e-01 -4.129112628018588e-01 5.964106802801292e-02 -2.508286839030050e-02
9.383200000000000e+10 8.212327346338660e-02 -9.129363645723887e-02 -2.012412371194520e-01 -9.138819930204930e-01 8.373451201976944e-01 -4.141296399621298e-01 6.031627727865953e-02 -2.585043971155655e-02
9.388000000000000e+10 8.228057626083413e-02 -9.244105291365252e-02 -1.992139599230552e-01 -9.147169627315079e-01 8.368240298174286e-01 -4.172755072050262e-01 6.064635074877435e-02 -2.588640288848345e-02
9.392800000000000e+10 8.135410633341877e-02 -9.242040576762772e-02 -1.964679510407096e-01 -9.155486614834522e-01 8.339123523271880e-01 -4.230495349248899e-01 6.022427596388791e-02 -2.683296540407119e-02
9.397600000000000e+10 8.177184586568061e-02 -9.220019175653729e-02 -1.896744722912573e-01 -9.161503984775697e-01 8.326267677445124e-01 -4.270906616111462e-01 6.041477450535582e-02 -2.704063717757948e-02
9.402400000000000e+10 8.114148429771029e-02 -9.242239453828247e-02 -1.876640515033598e-01 -9.162829086409102e-01 8.298567864455102e-01 -4.318861412213821e-01 5.963601776051753e-02 -2.747701872283493e-02
9.407200000000000e+10 8.082400145325169e-02 -9.183034279913811e-02 -1.875812516874134e-01 -9.162081548496477e-01 8.297368859824773e-01 -4.321313462153321e-01 5.916719210025619e-02 -2.750475650326909e-02
9.412000000000000e+10 8.098368780909902e-02 -9.187439531725561e-02 -1.934228481318906e-01 -9.144231529625986e-01 8.314250507710926e-01 -4.286570607176691e-01 5.853158718371841e-02 -2.739012993360580e-02
9.416800000000000e+10 8.128730934835174e-02 -9.151113424154288e-02 -2.028703351506817e-01 -9.119017722628798e-01 8.361846642174409e-01 -4.205283128681320e-01 5.814027190078279e-02 -2.773899176227463e-02
9.421600000000000e+10 8.224121649784888e-02 -9.191768824323317e-02 -2.127768627754156e-01 -9.097973383050766e-01 8.396289816748677e-01 -4.129918079271380e-01 5.779880281972204e-02 -2.761174597322223e-02
9.426400000000000e+10 8.238531947138938e-02 -9.160490040930425e-02 -2.170731481363701e-01 -9.090971200761608e-01 8.408415819589966e-01 -4.092991641438022e-01 5.757281661834680e-02 -2.799913967858004e-02
9.431200000000000e+10 8.256747870742297e-02 -9.204507400746439e-02 -2.176630083913060e-01 -9.093718171878148e-01 8.382673764788291e-01 -4.111798727484205e-01 5.697820762603090e-02 -2.770338275716013e-02
9.436000000000000e+10 8.257420552933165e-02 -9.218867194708559e-02 -2.083212246709507e-01 -9.095414480855107e-01 8.352891050020633e-01 -4.199079384193596e-01 5.696542276371520e-02 -2.760183910150620e-02
9.440800000000000e+10 8.240987303725174e-02 -9.216052563090150e-02 -1.987435228124180e-01 -9.119723491444396e-01 8.297371871297390e-01 -4.300443789827533e-01 5.688997375148969e-02 -2.764640857325353e-02
9.445600000000000e+10 8.208710347952457e-02 -9.249641277927188e-02 -1.924619341961032e-01 -9.130781313584715e-01 8.271871950235580e-01 -4.356581770628619e-01 5.708940628344435e-02 -2.775587967537598e-02
9.450400000000000e+10 8.171461368401675e-02 -9.166514749066984e-02 -1.930557883017091e-01 -9.127446507947458e-01 8.268169644376142e-01 -4.347410886681549e-01 5.716010560139317e-02 -2.747199245060629e-02
9.455200000000000e+10 8.138416420533340e-02 -9.203903169447222e-02 -2.000788092065445e-01 -9.113671857671514e-01 8.299121423872601e-01 -4.294441421332669e-01 5.740625987548028e-02 -2.790882515573749e-02
9.460000000000000e+10 8.054857605054039e-02 -9.168403079690376e-02 -2.112491651909669e-01 -9.086204232882249e-01 8.339870466960060e-01 -4.211447371947609e-01 5.709527303732176e-02 -2.759771164579268e-02
9.464800000000000e+10 8.076250989916817e-02 -9.089439863642167e-02 -2.172059256997358e-01 -9.077056935782011e-01 8.364338855372119e-01 -4.148845171589531e-01 5.750715197871874e-02 -2.818081634667445e-02
9.469600000000000e+10 8.042232958718169e-02 -9.117764588072341e-02 -2.189785613659859e-01 -9.068277240481728e-01 8.362453227934097e-01 -4.151265411216687e-01 5.717694373036537e-02 -2.786911987323129e-02
9.474400000000000e+10 8.087457992879027e-02 -9.118899199882209e-02 -2.142572592273828e-01 -9.080193147761791e-01 8.341396645922174e-01 -4.211555864066389e-01 5.712429456986407e-02 -2.908641591907817e-02
9.479200000000000e+10 8.063593471841606e-02 -9.220875918518277e-02 -2.069196744243245e-01 -9.100514229939686e-01 8.292686648504525e-01 -4.290702552871001e-01 5.677379829779926e-02 -2.895077789877877e-02
9.484000000000000e+10 8.148664624953161e-02 -9.273846400778436e-02 -2.020416589177003e-01 -9.101713723901385e-01 8.268554185017888e-01 -4.347779447449113e-01 5.628867855377012e-02 -2.908811159560071e-02
9.488800000000000e+10 8.289791996932457e-02 -9.139101456821540e-02 -1.982417607960605e-01 -9.128348375497122e-01 8.250568047465123e-01 -4.352999628506137e-01 5.637747865332488e-02 -2.996943432744065e-02
9.493600000000000e+10 8.500930383514013e-02 -9.432183974984562e-02 -2.055113680255149e-01 -9.159063291702518e-01 8.260978520521962e-01 -4.272666361868949e-01 5.590387228474608e-02 -2.976356300174663e-02
9.498400000000000e+10 8.263494915425111e-02 -9.660068208218432e-02 -2.216838462317777e-01 -9.104123035535427e-01 8.324632766653474e-01 -4.270779371173949e-01 5.335948395629216e-02 -3.128839068230108e-02
9.503200000000000e+10 8.246440702340914e-02 -9.607937550347780e-02 -2.183438425164881e-01 -9.041480655775448e-01 8.312683394230784e-01 -4.272418006526433e-01 5.306492640391003e-02 -2.934727961882153e-02
9.508000000000000e+10 8.231129193451091e-02 -9.425274534737448e-02 -2.158042254175124e-01 -9.066802858611522e-01 8.297896949889116e-01 -4.261411421313959e-01 5.432054876217327e-02 -2.927374863431199e-02
9.512800000000000e+10 8.364418685124592e-02 -9.509101893951369e-02 -2.141702585162356e-01 -9.077836322676490e-01 8.287220842034655e-01 -4.279561984073473e-01 5.467437266880183e-02 -2.981710986696848e-02
9.517600000000000e+10 8.337019769520396e-02 -9.429077529704030e-02 -2.119684070570072e-01 -9.093907753262398e-01 8.273057439296063e-01 -4.312052788530908e-01 5.463970311432820e-02 -3.048380435607577e-02
9.522400000000000e+10 8.373672742736842e-02 -9.528306407101816e-02 -2.117069959343894e-01 -9.094133780689112e-01 8.264226594459764e-01 -4.321624700736669e-01 5.503557059338198e-02 -3.044825467773182e-02
9.527200000000000e+10 8.373279761596382e-02 -9.368696281768212e-02 -2.130060419003849e-01 -9.101479798647794e-01 8.267877094909212e-01 -4.308496782060547e-01 5.549509591324899e-02 -3.078642407265498e-02
9.532000000000000e+10 8.381429604999611e-02 -9.499613977684095e-02 -2.163823530069115e-01 -9.092844994735321e-01 8.280644153897990e-01 -4.297995090752306e-01 5.561465391279531e-02 -3.129665621109477e-02
9.536800000000000e+10 8.361410715128703e-02 -9.394458939041360e-02 -2.184682405797517e-01 -9.089389985937395e-01 8.283641417936641e-01 -4.293771507293562e-01 5.551684205841387e-02 -3.208557841922832e-02
9.541600000000000e+10 8.366647550294182e-02 -9.482655639048473e-02 -2.210239727229976e-01 -9.078801699240516e-01 8.297174633587671e-01 -4.283171155952492e-01 5.541148888458588e-02 -3.247130288035662e-02
9.546400000000000e+10 8.339978731396980e-02 -9.420301330473566e-02 -2.232720953230762e-01 -9.062255740720830e-01 8.304438414354017e-01 -4.272095946707067e-01 5.478137247847488e-02 -3.255875683059690e-02
9.551200000000000e+10 8.359473790165241e-02 -9.507137535098044e-02 -2.280866856836601e-01 -9.051457603954878e-01 8.319927374049764e-01 -4.247556592373362e-01 5.426016528102592e-02 -3.312193291615515e-02
9.556000000000000e+10 8.298964340358246e-02 -9.466329158314930e-02 -2.345682899113153e-01 -9.031002150708435e-01 8.342413890390490e-01 -4.192806459104272e-01 5.389769962680546e-02 -3.307134933528181e-02
9.560800000000000e+10 8.392219901827667e-02 -9.526298693132371e-02 -2.379425690292898e-01 -9.017699289949439e-01 8.356839121541825e-01 -4.165203704538790e-01 5.365519069677953e-02 -3.288800520857134e-02
9.565600000000000e+10 8.325860494783685e-02 -9.572234186807177e-02 -2.367309094818403e-01 -9.017188036322394e-01 8.341170334222502e-01 -4.195934157133162e-01 5.341123546543333e-02 -3.258122738276480e-02
9.570400000000000e+10 8.410664631045606e-02 -9.709195457807564e-02 -2.299337691553106e-01 -9.030069924584538e-01 8.308763529396784e-01 -4.266272135178856e-01 5.360842355201834e-02 -3.217707978822364e-02
9.575200000000000e+10 8.356148875059792e-02 -9.726635581668124e-02 -2.170719558195194e-01 -9.053538155433830e-01 8.250625265284389e-01 -4.391491214144823e-01 5.410958346779311e-02 -3.228856263829815e-02
9.580000000000000e+10 8.407561309749635e-02 -9.820285182184615e-02 -2.063088292958896e-01 -9.077423517200184e-01 8.187132148651928e-01 -4.478855925747365e-01 5.428221488008163e-02 -3.180665742193412e-02
9.584800000000000e+10 8.426641277948357e-02 -9.809909047350533e-02 -2.036912871169656e-01 -9.107208213617292e-01 8.164750421823266e-01 -4.500449918303708e-01 5.493143615885596e-02 -3.230811657028764e-02
9.589600000000000e+10 8.463059403191435e-02 -9.990346396188711e-02 -2.123351492595760e-01 -9.103412941259844e-01 8.201378394357022e-01 -4.446523117471750e-01 5.518848327346224e-02 -3.278572963310819e-02
9.594400000000000e+10 8.424184574346734e-02 -9.945336627465021e-02 -2.288983866267100e-01 -9.062725081553612e-01 8.275344146705571e-01 -4.314590687352373e-01 5.503867377323050e-02 -3.316758771972098e-02
9.599200000000000e+10 8.461942581838360e-02 -1.003171820890022e-01 -2.480530631117684e-01 -9.020148617610891e-01 8.366643003125142e-01 -4.155235988938362e-01 5.528068532767823e-02 -3.358690820092319e-02
9.604000000000000e+10 8.503333254187845e-02 -1.008994749229390e-01 -2.620050002015801e-01 -8.982675621834710e-01 8.431072896044758e-01 -4.045422771511627e-01 5.517348610368191e-02 -3.387881765399211e-02
9.608800000000000e+10 8.501448989655883e-02 -9.989469529865916e-02 -2.633530887920427e-01 -8.976342732249246e-01 8.435785234698620e-01 -4.042545283974101e-01 5.514517810150117e-02 -3.422788957210791e-02
9.613600000000000e+10 8.567941168981259e-02 -1.008766892974546e-01 -2.520285338093843e-01 -9.010889519587004e-01 8.387519532295291e-01 -4.155709725484932e-01 5.511833410639522e-02 -3.482387043531879e-02
9.618400000000000e+10 8.471881881394705e-02 -1.000512808069870e-01 -2.351435679908905e-01 -9.051116540203477e-01 8.302581848728823e-01 -4.328923418646742e-01 5.426566936927642e-02 -3.520116609569843e-02
9.623200000000000e+10 8.586720733542763e-02 -1.008340075866248e-01 -2.178644061868831e-01 -9.095436756167359e-01 8.223021365331056e-01 -4.482686766891397e-01 5.456279536870019e-02 -3.511388151313108e-02
9.628000000000000e+10 8.484319017309855e-02 -1.009489170500973e-01 -2.112090218854632e-01 -9.108914844758584e-01 8.180794140385186e-01 -4.559080226480415e-01 5.426032478826288e-02 -3.510507390126125e-02
9.632800000000000e+10 8.521405133507791e-02 -1.017435865593580e-01 -2.160324777220864e-01 -9.097794362069382e-01 8.197898275661912e-01 -4.525342601797784e-01 5.451667563001926e-02 -3.492391697861205e-02
9.637600000000000e+10 8.474675433739493e-02 -1.020707091298239e-01 -2.279700303353710e-01 -9.071153702686960e-01 8.250530910977545e-01 -4.426934758724653e-01 5.407514249246800e-02 -3.509099653006844e-02
9.642400000000000e+10 8.423578613532340e-02 -1.021600757642269e-01 -2.427522362965849e-01 -9.020039336233562e-01 8.312378995446543e-01 -4.301760068469377e-01 5.388173409775146e-02 -3.499336971968859e-02
9.647200000000000e+10 8.348069986168424e-02 -1.029614000500165e-01 -2.510115008543942e-01 -9.002513229889256e-01 8.355148404773771e-01 -4.246405999773899e-01 5.339949508594982e-02 -3.565591115188146e-02
9.652000000000000e+10 8.313599899192248e-02 -1.032798514544005e-01 -2.511595735285217e-01 -9.006968450401113e-01 8.319108377115162e-01 -4.256198905264547e-01 5.345389598818361e-02 -3.519071678699152e-02
9.656800000000000e+10 8.405617534192356e-02 -1.054219457455918e-01 -2.494788517009997e-01 -9.116708376569380e-01 8.277807665317831e-01 -4.254527889087635e-01 5.645912435630884e-02 -3.798457349456413e-02
9.661600000000000e+10 8.283271282586196e-02 -1.036095595052772e-01 -2.361982437537425e-01 -9.004894531436892e-01 8.301144551158598e-01 -4.391098648595446e-01 5.432981764044907e-02 -3.575678473030313e-02
9.666400000000000e+10 8.372978355617967e-02 -1.048028327456544e-01 -2.298668855312311e-01 -9.072187081031975e-01 8.244571003218432e-01 -4.448597727312911e-01 5.520856835385855e-02 -3.675992515341132e-02
9.671200000000000e+10 8.348426505079128e-02 -1.045142973581897e-01 -2.289833292234938e-01 -9.082320618416093e-01 8.222798252741277e-01 -4.479958915383787e-01 5.541250154727231e-02 -3.738684570644998e-02
9.676000000000000e+10 8.351055632062473e-02 -1.057980574143821e-01 -2.340023204029650e-01 -9.070053456579121e-01 8.240507392747241e-01 -4.454371145240076e-01 5.511369331844507e-02 -3.843209906190603e-02
9.680800000000000e+10 8.323668767129280e-02 -1.042280676280794e-01 -2.402151360872300e-01 -9.052087610865562e-01 8.254496325345156e-01 -4.402627404938544e-01 5.549653648800976e-02 -3.830581032821220e-02
9.685600000000000e+10 8.396602697120986e-02 -1.061493864344330e-01 -2.462340860903742e-01 -9.052951232950706e-01 8.286112956023305e-01 -4.354939905260076e-01 5.525810067084021e-02 -3.976060085058592e-02
9.690400000000000e+10 8.370837546770593e-02 -1.052419952111558e-01 -2.471808852683697e-01 -9.032652183997173e-01 8.296575367774481e-01 -4.350788419182171e-01 5.649369012605041e-02 -3.921275543296155e-02
9.695200000000000e+10 8.344335735097753e-02 -1.053989301448226e-01 -2.462473365345428e-01 -9.027752759643471e-01 8.294463350450672e-01 -4.376146814358619e-01 5.563951365642424e-02 -3.995634302691307e-02
9.700000000000000e+10 8.268656354995056e-02 -1.051553397752529e-01 -2.450342267339408e-01 -9.029013799949291e-01 8.268468348540073e-01 -4.392863866128561e-01 5.617103285385835e-02 -3.927844775030418e-02
9.704800000000000e+10 8.235239023483648e-02 -1.051888659700037e-01 -2.442303433709199e-01 -9.041660278609124e-01 8.252760885391691e-01 -4.419114886794337e-01 5.517156975042008e-02 -3.974051171855578e-02
9.709600000000000e+10 8.134408609003840e-02 -1.066573248051861e-01 -2.480955914397354e-01 -9.026339210575142e-01 8.267018226897666e-01 -4.415725164586649e-01 5.628263959317399e-02 -4.089701222758412e-02
9.714400000000000e+10 8.139494930285150e-02 -1.059720853916301e-01 -2.499021908400108e-01 -9.026309925910420e-01 8.283702294045082e-01 -4.379951952771619e-01 5.716023050622460e-02 -3.984980221119588e-02
9.719200000000000e+10 8.009526289194463e-02 -1.070489942542920e-01 -2.542746194659913e-01 -9.010347643952550e-01 8.290891291837388e-01 -4.384349026385371e-01 5.607496920864600e-02 -4.131385096672758e-02
9.724000000000000e+10 7.872805770499260e-02 -1.053508243349811e-01 -2.543035839859093e-01 -8.977711318205528e-01 8.267175584490927e-01 -4.378723108493240e-01 5.525954191493203e-02 -4.034475046201803e-02
9.728800000000000e+10 7.985725063780530e-02 -1.074864455236898e-01 -2.530843602451490e-01 -9.007061150775837e-01 8.285023009846226e-01 -4.388003254535719e-01 5.722874152618289e-02 -4.038528764384653e-02
9.733600000000000e+10 7.924061199017546e-02 -1.073553074614752e-01 -2.533131576520793e-01 -9.000047452955957e-01 8.277594044562913e-01 -4.395104601239533e-01 5.706730084543565e-02 -4.104897857133579e-02
9.738400000000000e+10 7.877929964384643e-02 -1.076273984638092e-01 -2.548315299009909e-01 -8.990740291384390e-01 8.279319715029401e-01 -4.399000553154889e-01 5.724287840189824e-02 -4.133892510023079e-02
9.743200000000000e+10 7.916433915199914e-02 -1.086691589065323e-01 -2.574383902635861e-01 -8.989091066493774e-01 8.284459749751277e-01 -4.376676808201655e-01 5.726818352772599e-02 -4.157995121362264e-02
9.748000000000000e+10 7.893554488330262e-02 -1.079612958865528e-01 -2.602592657486265e-01 -8.982610450004990e-01 8.282472122055673e-01 -4.359870403975795e-01 5.730854972135579e-02 -4.186970554527424e-02
9.752800000000000e+10 7.895696634420041e-02 -1.094587069844579e-01 -2.622906826613874e-01 -8.984433958026224e-01 8.290429117057633e-01 -4.359770978279795e-01 5.712845265793055e-02 -4.266334070946709e-02
9.757600000000000e+10 7.957721939537787e-02 -1.077657348095860e-01 -2.614396559352512e-01 -8.969516293288234e-01 8.281714753473586e-01 -4.358172605995556e-01 5.700918281005406e-02 -4.168796444599057e-02
9.762400000000000e+10 7.949519270059510e-02 -1.090605434736554e-01 -2.624433243172457e-01 -8.983086059243081e-01 8.273669132425733e-01 -4.379439048456051e-01 5.744438338159386e-02 -4.261124685019350e-02
9.767200000000000e+10 7.966524762069327e-02 -1.078205719932216e-01 -2.618447809162260e-01 -8.990439575528000e-01 8.273359167430594e-01 -4.382927581591742e-01 5.756291583303078e-02 -4.315147755564931e-02
9.772000000000000e+10 7.990054528510591e-02 -1.080827742335220e-01 -2.635974850309019e-01 -8.979742164920361e-01 8.273507349706344e-01 -4.386928525714138e-01 5.744753350865978e-02 -4.332993089954770e-02
9.776800000000000e+10 7.976709240733942e-02 -1.065756002365779e-01 -2.631765158915638e-01 -8.956974223689185e-01 8.277283387015939e-01 -4.359725090432606e-01 5.737589287547673e-02 -4.255441907465599e-02
9.781600000000000e+10 8.043011872728684e-02 -1.056916186645879e-01 -2.645713670014830e-01 -8.984292859335301e-01 8.247651152912278e-01 -4.342884982941919e-01 5.566429680851399e-02 -4.267941423772625e-02
9.786400000000000e+10 8.025077953252613e-02 -1.065536552608018e-01 -2.685177949499710e-01 -8.947280487782612e-01 8.320417186729619e-01 -4.344002553585982e-01 5.848460958810137e-02 -4.255483132593767e-02
9.791200000000000e+10 7.854546626696129e-02 -1.080937090743852e-01 -2.672629899504293e-01 -8.978975537585234e-01 8.281298850637430e-01 -4.425167818845117e-01 5.998835818693408e-02 -4.540663492013885e-02
9.796000000000000e+10 7.811474950985452e-02 -1.053907495196485e-01 -2.635265249180857e-01 -8.971300572139643e-01 8.233513884244096e-01 -4.431979317148367e-01 5.691276647078302e-02 -4.410367966137298e-02
9.800800000000000e+10 7.776305162333023e-02 -1.065812104221248e-01 -2.616119772931088e-01 -9.001232554702686e-01 8.216924491255365e-01 -4.460793309717431e-01 5.836397334871138e-02 -4.481319642040150e-02
9.805600000000000e+10 7.717910486278347e-02 -1.058103808681042e-01 -2.644994417222203e-01 -8.995359486343694e-01 8.194807537916434e-01 -4.442272540761033e-01 5.668767915405799e-02 -4.436934264427018e-02
9.810400000000000e+10 7.740699910868418e-02 -1.068048856439793e-01 -2.662659398889530e-01 -8.984458502211212e-01 8.221986953828910e-01 -4.421592230646659e-01 5.738410374802767e-02 -4.429179780775809e-02
9.815200000000000e+10 7.643101249581294e-02 -1.060649887602721e-01 -2.698146134167752e-01 -8.947797965593467e-01 8.246909291979232e-01 -4.408367599700069e-01 5.728634574499727e-02 -4.484476067484790e-02
9.820000000000000e+10 7.628811743216068e-02 -1.073763641151029e-01 -2.713516231491288e-01 -8.962161106081085e-01 8.250136555744587e-01 -4.413416224282058e-01 5.838206650724328e-02 -4.575748857051007e-02
9.824800000000000e+10 7.614983916918534e-02 -1.075733940016567e-01 -2.696580971600590e-01 -8.945507703959121e-01 8.258154825860839e-01 -4.450071948037886e-01 5.897469131630905e-02 -4.615454212454986e-02
9.829600000000000e+10 7.710448739434256e-02 -1.084955808481938e-01 -2.641125312782212e-01 -8.963856603829624e-01 8.227691892129675e-01 -4.472738348976252e-01 5.890608921404140e-02 -4.514492709425011e-02
9.834400000000000e+10 7.712014050262404e-02 -1.065583550966722e-01 -2.633295530144843e-01 -8.956960175820181e-01 8.184703952515332e-01 -4.498139036022608e-01 5.775396803034807e-02 -4.634739277538118e-02
9.839200000000000e+10 7.718820653840966e-02 -1.080983820755720e-01 -2.624660952646158e-01 -8.968757316224422e-01 8.189837283071278e-01 -4.500105050881372e-01 5.855192599429974e-02 -4.644223578564913e-02
9.844000000000000e+10 7.853549314974659e-02 -1.076036239016463e-01 -2.683327746857064e-01 -8.942053532623080e-01 8.213271278084850e-01 -4.440280715798650e-01 5.894681116261430e-02 -4.577108752183490e-02
9.848800000000000e+10 7.731060668790150e-02 -1.093961199911396e-01 -2.783740414710001e-01 -8.932665474578581e-01 8.262904959153383e-01 -4.382314540428758e-01 5.970631007292173e-02 -4.690040795151344e-02
9.853600000000000e+10 7.787003429228130e-02 -1.085602988076061e-01 -2.853589053484245e-01 -8.904855540208970e-01 8.277281082919381e-01 -4.336736730985092e-01 5.936640828047241e-02 -4.734025513218075e-02
9.858400000000000e+10 7.698183242963670e-02 -1.088688564280881e-01 -2.864688553442194e-01 -8.892455607011951e-01 8.281224594876864e-01 -4.343469482451681e-01 5.870944469149289e-02 -4.722841227018328e-02
9.863200000000000e+10 7.686912234368345e-02 -1.072157308022895e-01 -2.810910408230458e-01 -8.892702747076400e-01 8.228964697955156e-01 -4.419137951405958e-01 5.774201309228749e-02 -4.743807267252734e-02
9.868000000000000e+10 7.676659520477393e-02 -1.074228500393981e-01 -2.704883599638024e-01 -8.926657647810304e-01 8.185358900899067e-01 -4.505487127782597e-01 5.806548152171296e-02 -4.641315560186247e-02
9.872800000000000e+10 7.770659281112217e-02 -1.062847409413400e-01 -2.613771268514826e-01 -8.952590141012896e-01 8.151316755158665e-01 -4.579793909954356e-01 5.868680773998524e-02 -4.596212435140906e-02
9.877600000000000e+10 7.749435817480643e-02 -1.061480909609411e-01 -2.581967663384297e-01 -8.957389503008775e-01 8.136606491636257e-01 -4.622318711758185e-01 5.960610338586862e-02 -4.614865944864283e-02
9.882400000000000e+10 7.703115847486282e-02 -1.067633966777230e-01 -2.635868338311628e-01 -8.949688482722936e-01 8.174754054156053e-01 -4.592711252282318e-01 6.057984459729213e-02 -4.715169842731315e-02
9.887200000000000e+10 7.679359195523858e-02 -1.058710639083419e-01 -2.744565502535583e-01 -8.911383872950502e-01 8.204804546495631e-01 -4.498046934638510e-01 6.005725989782432e-02 -4.759696868481778e-02
9.892000000000000e+10 7.755250250620006e-02 -1.064923343675799e-01 -2.871623067442806e-01 -8.886804883170253e-01 8.265454992719400e-01 -4.378534818653453e-01 5.992858739977446e-02 -4.763542532534171e-02
9.896800000000000e+10 7.704376388404395e-02 -1.063575931919213e-01 -2.969331797481471e-01 -8.852541231413099e-01 8.300211760387620e-01 -4.314706467122057e-01 5.956891980768985e-02 -4.776968232326403e-02
9.901600000000000e+10 7.739181638783139e-02 -1.073964722484125e-01 -2.966884438958023e-01 -8.846649150975103e-01 8.309408901184293e-01 -4.324966918154446e-01 6.015981807110034e-02 -4.821349468850295e-02
9.906400000000000e+10 7.584210067034272e-02 -1.077307342934751e-01 -2.929067620117310e-01 -8.877224052854219e-01 8.264468144733493e-01 -4.397920169623304e-01 6.017283439156143e-02 -4.861354818019998e-02
9.911200000000000e+10 7.714674660996011e-02 -1.078282759814324e-01 -2.813328058108289e-01 -8.904780293533319e-01 8.205868992824440e-01 -4.484497433139647e-01 5.893446538289063e-02 -4.833480555963932e-02
9.916000000000000e+10 7.637426635163394e-02 -1.083564695254323e-01 -2.775504167581176e-01 -8.962746037789516e-01 8.151889260446901e-01 -4.528380640704256e-01 6.001291143389133e-02 -4.863247259793047e-02
9.920800000000000e+10 7.726032030771027e-02 -1.077585450151619e-01 -2.759346024696460e-01 -8.958005768230397e-01 8.140191435577497e-01 -4.569096716000495e-01 6.081056296963550e-02 -4.928535162779795e-02
9.925600000000000e+10 7.748024363965686e-02 -1.081701259541659e-01 -2.780419462754367e-01 -8.940036753786024e-01 8.162257184246644e-01 -4.543936389108676e-01 6.058988459224613e-02 -4.912524229555312e-02
9.930400000000000e+10 7.778826605063090e-02 -1.077283835794206e-01 -2.846168913390241e-01 -8.906286867265605e-01 8.187891718922556e-01 -4.496126626310989e-01 6.021822236526828e-02 -4.888384487848812e-02
9.935200000000000e+10 7.894233392071072e-02 -1.088163266180004e-01 -2.895761382190041e-01 -8.896463047566326e-01 8.251270552736147e-01 -4.446184139311934e-01 6.242392971355782e-02 -4.900488245216281e-02
9.940000000000000e+10 7.728178384176133e-02 -1.085118265276520e-01 -2.961459011386985e-01 -8.881736843873895e-01 8.237391620259495e-01 -4.430902413428656e-01 6.102379157756881e-02 -5.004756014829195e-02
9.944800000000000e+10 7.850184898396362e-02 -1.081603461117141e-01 -2.969045762283291e-01 -8.903007719123542e-01 8.230986844206897e-01 -4.413180131962947e-01 6.187575711521535e-02 -4.975753257781838e-02
9.949600000000000e+10 7.784201986771926e-02 -1.075348949446398e-01 -2.976864871882845e-01 -8.874754626318127e-01 8.215077679242822e-01 -4.423367125030204e-01 6.057644265664237e-02 -5.051162224165739e-02
9.954400000000000e+10 7.860942085008377e-02 -1.079265630855772e-01 -2.951664071924619e-01 -8.898765110882917e-01 8.208303637903354e-01 -4.445452293145334e-01 6.148038932365549e-02 -4.987443294678059e-02
9.959200000000000e+10 7.904398155655844e-02 -1.080108004001313e-01 -2.937174172703398e-01 -8.892610689703317e-01 8.213616249739540e-01 -4.458085302707071e-01 6.203693767309629e-02 -4.957093542280723e-02
9.964000000000000e+10 7.722896337258052e-02 -1.074571839240106e-01 -2.933549709321481e-01 -8.898244259137429e-01 8.194818815828770e-01 -4.501934461705938e-01 6.281662735537930e-02 -4.987813809239310e-02
9.968800000000000e+10 7.810339272735600e-02 -1.072147831625585e-01 -2.933997732964560e-01 -8.868409744706029e-01 8.211584961581065e-01 -4.497019107177723e-01 6.249487449546618e-02 -4.987344744193434e-02
9.973600000000000e+10 7.791688471988259e-02 -1.067176389193411e-01 -2.935219079502244e-01 -8.855004838743672e-01 8.201719226278418e-01 -4.510866628401060e-01 6.289620766184108e-02 -5.043380743279055e-02
9.978400000000000e+10 7.837296311910061e-02 -1.083532631059543e-01 -2.932054541361773e-01 -8.861189721258972e-01 8.199513017197491e-01 -4.497342393676648e-01 6.236463657041426e-02 -4.967216372130994e-02
9.983200000000000e+10 7.769833870042146e-02 -1.092066968963024e-01 -2.955083142428491e-01 -8.889479737070878e-01 8.186727979107220e-01 -4.499632271510838e-01 6.332094170673758e-02 -4.963928798769961e-02
9.988000000000000e+10 7.904064800549217e-02 -1.092728916072810e-01 -2.932276142271982e-01 -8.852969366406895e-01 8.180953762901157e-01 -4.510171275601989e-01 6.184201383044683e-02 -5.064426560410933e-02
9.992800000000000e+10 7.735840065179052e-02 -1.109918316274602e-01 -2.946940914596465e-01 -8.871451972225101e-01 8.180189373044583e-01 -4.516433541341685e-01 6.239648453037393e-02 -4.927526258293500e-02
9.997600000000000e+10 7.654883564298157e-02 -1.112354689723746e-01 -2.978205698304814e-01 -8.880293297448812e-01 8.164351844049346e-01 -4.527772251340992e-01 6.294034770427294e-02 -4.959260078709068e-02
1.000240000000000e+11 7.849221645926185e-02 -1.124385364045190e-01 -2.946442581886726e-01 -8.864302904724665e-01 8.184070317058987e-01 -4.522719123225489e-01 6.190619533742181e-02 -5.015093499551246e-02
1.000720000000000e+11 7.637611987836053e-02 -1.113254699653011e-01 -2.987698058041798e-01 -8.832321314784830e-01 8.181119048290535e-01 -4.524370362276537e-01 6.191370453715024e-02 -4.903886540716462e-02
1.001200000000000e+11 7.801192602310666e-02 -1.117588705434518e-01 -3.020880006924920e-01 -8.820592877404964e-01 8.199319159497473e-01 -4.492120905670558e-01 6.215834485384183e-02 -5.034389499805448e-02
1.001680000000000e+11 7.749467584766234e-02 -1.124499610190768e-01 -3.069203942555271e-01 -8.809884193398633e-01 8.214014102408769e-01 -4.454866499663333e-01 6.169905890062403e-02 -5.023453295696929e-02
1.002160000000000e+11 7.966139519814749e-02 -1.118727729203243e-01 -3.108167687358483e-01 -8.788826521029403e-01 8.231826172955783e-01 -4.416399403350355e-01 6.145726283579370e-02 -5.076814543347791e-02
1.002640000000000e+11 7.973422744399365e-02 -1.117739870914524e-01 -3.108620317200488e-01 -8.787778561825769e-01 8.232895013017731e-01 -4.398761225157747e-01 6.196808977284773e-02 -5.037275312422022e-02
1.003120000000000e+11 7.992748771895984e-02 -1.106982704147253e-01 -3.066225433309233e-01 -8.777921709576879e-01 8.207156164584921e-01 -4.454978805663845e-01 6.151518178336449e-02 -4.996288683903954e-02
1.003600000000000e+11 8.020471554496277e-02 -1.125295885189210e-01 -3.042644142901552e-01 -8.882132884105060e-01 8.157567131453322e-01 -4.492395768345637e-01 6.283108084665236e-02 -5.162342080407482e-02
1.004080000000000e+11 7.819790798696354e-02 -1.092024659156478e-01 -2.988250292371230e-01 -8.858138763942656e-01 8.079767854645065e-01 -4.544574306637175e-01 6.109286120709342e-02 -5.031138392197380e-02
1.004560000000000e+11 7.922115625991276e-02 -1.093465666476399e-01 -2.951437735001505e-01 -8.850861948085942e-01 8.114932159243846e-01 -4.622492998927408e-01 6.275554446379687e-02 -5.256392923243101e-02
1.005040000000000e+11 7.703450525741544e-02 -1.137547351131503e-01 -2.994613229342722e-01 -8.866717623728793e-01 8.120903236923082e-01 -4.598973632918702e-01 6.053061011214995e-02 -5.242011821436476e-02
1.005520000000000e+11 7.979457511172106e-02 -1.119902001786969e-01 -3.088294003261867e-01 -8.828825311582307e-01 8.197318871736033e-01 -4.511105087624344e-01 6.296272825773661e-02 -5.278080776919463e-02
1.006000000000000e+11 7.550376265913189e-02 -1.103551539644726e-01 -3.175684178983461e-01 -8.724574535647656e-01 8.231603308566066e-01 -4.434330391752511e-01 6.088193512093878e-02 -5.128379529634045e-02
1.006480000000000e+11 8.076441450684708e-02 -1.115605967826921e-01 -3.242402133572654e-01 -8.722816491793405e-01 8.252586631610200e-01 -4.340159982506902e-01 6.062428586605464e-02 -5.304864941749847e-02
1.006960000000000e+11 7.448310854044797e-02 -1.081141539899449e-01 -3.293092861524709e-01 -8.735315656584984e-01 8.189990461087343e-01 -4.330844518410467e-01 6.182379607535035e-02 -5.089679992137249e-02
1.007440000000000e+11 7.598981416062613e-02 -1.120869280368465e-01 -3.234065410233494e-01 -8.766614079209245e-01 8.246203400244234e-01 -4.447705376766686e-01 6.367691076982898e-02 -5.221420057765563e-02
1.007920000000000e+11 7.769750466563004e-02 -1.128175100318006e-01 -3.147550882039531e-01 -8.751463368387156e-01 8.198664164712962e-01 -4.478886082881164e-01 6.141180100472329e-02 -5.279258871100829e-02
1.008400000000000e+11 7.783929538766415e-02 -1.120506500074508e-01 -3.079898316446168e-01 -8.794074184940962e-01 8.151063756029634e-01 -4.537649824966678e-01 6.280186885491942e-02 -5.256467773456502e-02
1.008880000000000e+11 7.759155616492432e-02 -1.126841265245687e-01 -3.058560069052227e-01 -8.796542192435026e-01 8.103368894644917e-01 -4.573893263004916e-01 6.114675958634617e-02 -5.226816575033034e-02
1.009360000000000e+11 7.723738884108496e-02 -1.133386231080724e-01 -3.084156341335096e-01 -8.819915519245382e-01 8.117689487814926e-01 -4.576015638353386e-01 6.298586226913785e-02 -5.169465012861332e-02
1.009840000000000e+11 7.677981170325704e-02 -1.137188665421595e-01 -3.136290832039375e-01 -8.803100544854847e-01 8.126230921591010e-01 -4.554260120548838e-01 6.259650644893300e-02 -5.174360699410366e-02
1.010320000000000e+11 7.915268787400133e-02 -1.141589075467268e-01 -3.162144500919999e-01 -8.789701992299157e-01 8.143422595716169e-01 -4.506131499229031e-01 6.287587552881679e-02 -5.180748617288937e-02
1.010800000000000e+11 7.832061999845633e-02 -1.147452978884422e-01 -3.210571677107443e-01 -8.773149510035909e-01 8.162712084678432e-01 -4.483718690494350e-01 6.252046893590119e-02 -5.179984752508383e-02
1.011280000000000e+11 7.942496630368265e-02 -1.147679342843918e-01 -3.226494047376766e-01 -8.768099551304626e-01 8.173559119639590e-01 -4.481169343825346e-01 6.295209717324117e-02 -5.167167606516571e-02
1.011760000000000e+11 8.035235384573211e-02 -1.167147425856099e-01 -3.248274328417671e-01 -8.783405674308677e-01 8.184006279498119e-01 -4.459307476946134e-01 6.292086960212041e-02 -5.288888279789507e-02
1.012240000000000e+11 8.010854633673935e-02 -1.132601972032545e-01 -3.223372262810315e-01 -8.732728528561847e-01 8.182372841897579e-01 -4.477169162093301e-01 6.352214066574771e-02 -5.144246358418924e-02
1.012720000000000e+11 8.055095253086947e-02 -1.150457809340911e-01 -3.228519651739177e-01 -8.759046083074110e-01 8.174028711729135e-01 -4.491682357018896e-01 6.273569257100686e-02 -5.279680396678995e-02
1.013200000000000e+11 7.980425761505612e-02 -1.149439081677143e-01 -3.238033103321749e-01 -8.750085617324962e-01 8.183867205931604e-01 -4.478447902679726e-01 6.223338504746693e-02 -5.257479358708966e-02
1.013680000000000e+11 8.119896182812271e-02 -1.142750934118012e-01 -3.226393712145975e-01 -8.752165528656628e-01 8.176438992468636e-01 -4.489545299723182e-01 6.246445743282171e-02 -5.278629893312007e-02
1.014160000000000e+11 8.028467821918617e-02 -1.161181475385465e-01 -3.205668738520875e-01 -8.784562448827553e-01 8.138993674556600e-01 -4.511872274967813e-01 6.139414053835588e-02 -5.332445186268130e-02
1.014640000000000e+11 8.026070938815570e-02 -1.163078063894394e-01 -3.193085837402275e-01 -8.779036241484163e-01 8.148227861407511e-01 -4.542684543262714e-01 6.135721096716644e-02 -5.231727844231800e-02
1.015120000000000e+11 7.943406526203729e-02 -1.173399892952752e-01 -3.171982304785179e-01 -8.795324584545867e-01 8.122238881457411e-01 -4.605628029855292e-01 6.161805932406834e-02 -5.303337479112220e-02
1.015600000000000e+11 8.053035943639529e-02 -1.162395140370364e-01 -3.152548308741853e-01 -8.772150683610017e-01 8.098020960132197e-01 -4.592425929403611e-01 6.216417360720231e-02 -5.323399867644990e-02
1.016080000000000e+11 8.014224812166186e-02 -1.162037139029217e-01 -3.163131684605551e-01 -8.751997414563171e-01 8.100803941849812e-01 -4.559298726240963e-01 6.200220723125701e-02 -5.382442970055493e-02
1.016560000000000e+11 7.956506996219279e-02 -1.185365389040455e-01 -3.238861306561878e-01 -8.718532585072427e-01 8.142056596601777e-01 -4.546218848338443e-01 6.153737314301305e-02 -5.488674778874614e-02
1.017040000000000e+11 7.974568912012710e-02 -1.184603765166698e-01 -3.247743377675739e-01 -8.719706905573267e-01 8.149649788819637e-01 -4.506920845438136e-01 6.165386993989463e-02 -5.456539535103471e-02
1.017520000000000e+11 7.996299499149953e-02 -1.192215872675928e-01 -3.271611785467082e-01 -8.749533842969547e-01 8.188404864924079e-01 -4.483532893750019e-01 6.199843607344585e-02 -5.408392086668994e-02
1.018000000000000e+11 7.951957480775053e-02 -1.195196779672848e-01 -3.317009373851488e-01 -8.779483064627202e-01 8.206760045169961e-01 -4.509307566220597e-01 6.289036971367667e-02 -5.432923418391733e-02
1.018480000000000e+11 8.629459213559255e-02 -1.185304537223350e-01 -3.260857901266651e-01 -8.730105451065683e-01 8.246875073910559e-01 -4.488009078118504e-01 6.464029563242189e-02 -5.576990339895246e-02
1.018960000000000e+11 8.562667626108762e-02 -1.206264421764195e-01 -3.243144095366715e-01 -8.724067858081199e-01 8.181689220649146e-01 -4.544433482310464e-01 6.278887770020704e-02 -5.711159259811176e-02
1.019440000000000e+11 7.953434328055757e-02 -1.202563776729450e-01 -3.293346740368860e-01 -8.756096713253869e-01 8.157871592560424e-01 -4.485874384618459e-01 6.062979001354663e-02 -5.502781016376030e-02
1.019920000000000e+11 8.582790523999599e-02 -1.189981950655466e-01 -3.244937447310165e-01 -8.826317715515950e-01 8.184389993322002e-01 -4.537176515419438e-01 6.354554719311771e-02 -5.559057816455295e-02
1.020400000000000e+11 8.472435948480248e-02 -1.178725953803869e-01 -3.174130295030491e-01 -8.746476364005208e-01 8.145986847722916e-01 -4.620168349028403e-01 6.316807397131764e-02 -5.564035390990482e-02
1.020880000000000e+11 8.133592770458303e-02 -1.197726904262160e-01 -3.185101649113478e-01 -8.726218825801659e-01 8.074504641191820e-01 -4.682477436694147e-01 6.112224568086917e-02 -5.642531261435019e-02
1.021360000000000e+11 7.819339138121985e-02 -1.199922060529226e-01 -3.198291693223899e-01 -8.731810030630320e-01 8.070310905212901e-01 -4.631868331819559e-01 5.995286546018513e-02 -5.645132068447071e-02
1.021840000000000e+11 7.886648968633532e-02 -1.199978797192772e-01 -3.265585141225688e-01 -8.731575161395823e-01 8.123925141247356e-01 -4.598087785262256e-01 5.951748490748296e-02 -5.602675884642469e-02
1.022320000000000e+11 7.820043474632815e-02 -1.200626957512287e-01 -3.378953107365659e-01 -8.705283035836753e-01 8.178399255154811e-01 -4.514050752112034e-01 5.941678869413556e-02 -5.630705385887830e-02
1.022800000000000e+11 7.913835887770099e-02 -1.203893823301744e-01 -3.476305363262521e-01 -8.683454645734562e-01 8.216730654979498e-01 -4.454872566814505e-01 5.915173896537255e-02 -5.607098799106268e-02
1.023280000000000e+11 8.010297211509686e-02 -1.196037567047177e-01 -3.492825190194524e-01 -8.689846438619659e-01 8.245402702625212e-01 -4.398010131650485e-01 5.896207304967433e-02 -5.641458858168708e-02
1.023760000000000e+11 8.151340732286229e-02 -1.191231096215443e-01 -3.497027124246513e-01 -8.699719541749508e-01 8.218628137924020e-01 -4.440961356238548e-01 5.966595141871885e-02 -5.561593255679213e-02
1.024240000000000e+11 7.864137710803623e-02 -1.217734879901470e-01 -3.371848856908033e-01 -8.685435842365818e-01 8.137340622430961e-01 -4.588507378704186e-01 5.838935687746236e-02 -5.637683621402974e-02
1.024720000000000e+11 7.712078578455918e-02 -1.234075545445496e-01 -3.264200414267430e-01 -8.719241864051979e-01 8.064939334777365e-01 -4.716312744534754e-01 5.717180264430537e-02 -5.523948340603688e-02
1.025200000000000e+11 7.458876834349534e-02 -1.226091827258139e-01 -3.173646615801602e-01 -8.746684904172827e-01 7.999906543371308e-01 -4.803984869399200e-01 5.733445460844398e-02 -5.587242106757211e-02
1.025680000000000e+11 7.516232548562468e-02 -1.243866455322899e-01 -3.228045338117032e-01 -8.742403318812918e-01 8.019362154058728e-01 -4.725507106695990e-01 5.696515144571170e-02 -5.454512409408430e-02
1.026160000000000e+11 7.662700810541012e-02 -1.224692774077551e-01 -3.348898924704372e-01 -8.711737412733870e-01 8.121230620311742e-01 -4.599354799823535e-01 5.818097200643731e-02 -5.701534878008101e-02
1.026640000000000e+11 7.578379707107945e-02 -1.249989289686470e-01 -3.495936459929164e-01 -8.659995848620908e-01 8.156604583893207e-01 -4.509727639123565e-01 5.691958134158695e-02 -5.491180068105279e-02
1.027120000000000e+11 7.656492136064216e-02 -1.211738668333379e-01 -3.543565627616511e-01 -8.631767492504815e-01 8.201592447703218e-01 -4.473467470406504e-01 5.787561744980088e-02 -5.610733859723845e-02
1.027600000000000e+11 7.750809400837423e-02 -1.238785155687453e-01 -3.521646424198716e-01 -8.629517408924344e-01 8.193033757866781e-01 -4.483604554500339e-01 5.758411582161926e-02 -5.582775474054428e-02
1.028080000000000e+11 7.698060764032620e-02 -1.252798612650673e-01 -3.485386789336273e-01 -8.656172965876843e-01 8.150458372632092e-01 -4.572408654195678e-01 5.638298015196539e-02 -5.744034428748067e-02
1.028560000000000e+11 7.787097425559039e-02 -1.249382984998892e-01 -3.376692753589743e-01 -8.685845532432769e-01 8.095867189039765e-01 -4.616839310374449e-01 5.709556491773471e-02 -5.705325805800381e-02
1.029040000000000e+11 7.935378753742227e-02 -1.246711297772068e-01 -3.298639250117013e-01 -8.713224427979210e-01 8.046296508963606e-01 -4.737438037188460e-01 5.638837303319324e-02 -5.775501809041474e-02
1.029520000000000e+11 7.733496294093582e-02 -1.274385065882613e-01 -3.351668858800901e-01 -8.694323429248723e-01 8.052411963575178e-01 -4.732556212642038e-01 5.541926207697434e-02 -5.714308243746828e-02
1.030000000000000e+11 7.955421622078160e-02 -1.237140014888627e-01 -3.353842329831236e-01 -8.669987212662551e-01 8.098294808056608e-01 -4.663063052464106e-01 5.676394975461098e-02 -5.766721411711388e-02
1.030480000000000e+11 7.809682995206926e-02 -1.264811841406852e-01 -3.524538727707648e-01 -8.633201353439200e-01 8.133670494852127e-01 -4.559974846098230e-01 5.610885445136236e-02 -5.711303300448226e-02
1.030960000000000e+11 7.764872396439983e-02 -1.253698304812114e-01 -3.554664280373195e-01 -8.655740879469006e-01 8.139837945982402e-01 -4.538347091304417e-01 5.661606389472420e-02 -5.824975270560871e-02
1.031440000000000e+11 7.702703679876917e-02 -1.264167475487369e-01 -3.534247416965975e-01 -8.668326178348406e-01 8.113852832331133e-01 -4.570882245292315e-01 5.626060070828846e-02 -5.716388455891945e-02
1.031920000000000e+11 7.655625886433955e-02 -1.237793492451158e-01 -3.472740365657727e-01 -8.678450115140112e-01 8.098568785203369e-01 -4.608783883918700e-01 5.735931907884215e-02 -5.858184084198878e-02
1.032400000000000e+11 7.474046849174047e-02 -1.265587497456017e-01 -3.444094487029153e-01 -8.679606852284709e-01 8.064673428062009e-01 -4.682213435971105e-01 5.628407484340860e-02 -5.715692778457191e-02
1.032880000000000e+11 7.442803726085059e-02 -1.252731949757683e-01 -3.438698196929610e-01 -8.670286571816422e-01 8.057142395178243e-01 -4.711752400541718e-01 5.615018800050001e-02 -5.869507784219224e-02
1.033360000000000e+11 7.480085111074794e-02 -1.278738552373671e-01 -3.478865025186299e-01 -8.642132573834460e-01 8.073095062355558e-01 -4.697212443941990e-01 5.588519400446166e-02 -5.758056350874554e-02
1.033840000000000e+11 7.430574400552263e-02 -1.261575850460783e-01 -3.513129555083160e-01 -8.629434409478857e-01 8.100289256977459e-01 -4.645547019013017e-01 5.571345234208786e-02 -5.881766357864012e-02
1.034320000000000e+11 7.358550328509643e-02 -1.279085490975683e-01 -3.566452816442222e-01 -8.603335069002556e-01 8.102418396540444e-01 -4.612834545314600e-01 5.554543818471571e-02 -5.759089132268548e-02
1.034800000000000e+11 7.370911023873802e-02 -1.275158679932547e-01 -3.578380934245929e-01 -8.611808735576992e-01 8.111575955189321e-01 -4.585722684514398e-01 5.515797496606700e-02 -5.843858314290488e-02
1.035280000000000e+11 7.472756076537652e-02 -1.294922846580053e-01 -3.563438687224645e-01 -8.638618850268949e-01 8.070932125223244e-01 -4.632585518580929e-01 5.452942299570650e-02 -5.791684301078522e-02
1.035760000000000e+11 7.502364929562713e-02 -1.282655137850941e-01 -3.467241492997813e-01 -8.658745611985577e-01 8.051740695416679e-01 -4.696161183024067e-01 5.491054625214842e-02 -5.837482843802861e-02
1.036240000000000e+11 7.527061167483121e-02 -1.295438093636309e-01 -3.449304435903418e-01 -8.665615141871859e-01 8.025411418567221e-01 -4.739825373677163e-01 5.428134740858539e-02 -5.812127510874570e-02
1.036720000000000e+11 7.586063401859217e-02 -1.306019282035978e-01 -3.442826272159793e-01 -8.675948678720579e-01 8.009578319490831e-01 -4.772156166115316e-01 5.368560648490640e-02 -5.800676345728972e-02
1.037200000000000e+11 7.601197001645640e-02 -1.307985923987958e-01 -3.457636184169787e-01 -8.663301120396560e-01 8.016473980461754e-01 -4.762622014530465e-01 5.357065344978069e-02 -5.800776648378029e-02
1.037680000000000e+11 7.670098602655251e-02 -1.316330297055471e-01 -3.501513521017808e-01 -8.638859995047499e-01 8.030940016063570e-01 -4.740706375417924e-01 5.311852711144106e-02 -5.769754773322660e-02
1.038160000000000e+11 7.620765817989943e-02 -1.316237243635379e-01 -3.568123190959613e-01 -8.610598643111812e-01 8.043016260702597e-01 -4.701871089588248e-01 5.261591521584488e-02 -5.760124993889145e-02
1.038640000000000e+11 7.730530967075444e-02 -1.325506006180321e-01 -3.644730803650663e-01 -8.578564446937549e-01 8.101302968899585e-01 -4.616062503966989e-01 5.293562144211909e-02 -5.809204135960289e-02
1.039120000000000e+11 7.510865978693254e-02 -1.302738243591672e-01 -3.679708680295994e-01 -8.547179348328300e-01 8.106224983957344e-01 -4.572805914683751e-01 5.334960922575165e-02 -5.779698440839090e-02
1.039600000000000e+11 7.630191562544206e-02 -1.322302815915233e-01 -3.720501840478992e-01 -8.541267858615608e-01 8.145871449412535e-01 -4.539946400311987e-01 5.395355004372094e-02 -5.865282561793720e-02
1.040080000000000e+11 7.676581009901307e-02 -1.281845101884655e-01 -3.646651678943000e-01 -8.573386217890147e-01 8.127136962036797e-01 -4.557907228143343e-01 5.484553916514449e-02 -5.894896399900664e-02
1.040560000000000e+11 7.441111146336225e-02 -1.334974081246457e-01 -3.682224492802718e-01 -8.567244169097280e-01 8.095628429931009e-01 -4.631557096085007e-01 5.319788533385685e-02 -5.962582207838518e-02
1.041040000000000e+11 7.221986126225677e-02 -1.321547531289014e-01 -3.591427888624757e-01 -8.600312766622593e-01 8.027714451361908e-01 -4.749298887606405e-01 5.178932473802846e-02 -6.065446142061064e-02
1.041520000000000e+11 7.529620304970494e-02 -1.322981606590305e-01 -3.476085956817268e-01 -8.641770441973415e-01 7.990721261682430e-01 -4.818434543742086e-01 5.278131773413661e-02 -6.061982068626121e-02
1.042000000000000e+11 7.279294367267236e-02 -1.323310098022029e-01 -3.474986887391888e-01 -8.671598869285576e-01 7.941384572239544e-01 -4.858444335571016e-01 5.213258485323536e-02 -6.219113182014904e-02
1.042480000000000e+11 7.398328512560874e-02 -1.330495345636531e-01 -3.547720496354940e-01 -8.634934734492423e-01 7.993300022633731e-01 -4.798116869762013e-01 5.136868892093439e-02 -6.304851456227681e-02
1.042960000000000e+11 7.195428315934851e-02 -1.336922308089409e-01 -3.707532108721474e-01 -8.539190194872714e-01 8.051461618651385e-01 -4.686304318769385e-01 5.018459888625475e-02 -6.274431139822098e-02
1.043440000000000e+11 7.226071831409077e-02 -1.344860285624393e-01 -3.871969024315784e-01 -8.449912285067861e-01 8.134816756281628e-01 -4.519044856841687e-01 5.020293848806790e-02 -6.227531532592275e-02
1.043920000000000e+11 7.161457947012922e-02 -1.345031564839611e-01 -3.985075934123250e-01 -8.387870862577501e-01 8.196021874121120e-01 -4.398665309586866e-01 5.081942943038846e-02 -6.221343342789090e-02
1.044400000000000e+11 7.241141526583680e-02 -1.354646884189650e-01 -4.001703718538449e-01 -8.392790569151677e-01 8.205013394423455e-01 -4.388028226606913e-01 5.134918352188027e-02 -6.261730642506994e-02
1.044880000000000e+11 7.259166457228441e-02 -1.359850586926895e-01 -3.886672086959049e-01 -8.461560997013512e-01 8.152337517785957e-01 -4.496032079589138e-01 5.224261019798552e-02 -6.364237457449499e-02
1.045360000000000e+11 7.221366503693405e-02 -1.355276500839145e-01 -3.709717925250217e-01 -8.514822196746576e-01 8.076057690260318e-01 -4.663174991394065e-01 5.250991052561825e-02 -6.366339569528286e-02
1.045840000000000e+11 7.087458100378785e-02 -1.361430855300598e-01 -3.591394309348690e-01 -8.590919219010955e-01 7.959326567055360e-01 -4.823410842700658e-01 5.109949949246444e-02 -6.486124404346903e-02
1.046320000000000e+11 7.209184840133810e-02 -1.351298962055554e-01 -3.523274544068802e-01 -8.598519534948335e-01 7.933400149518346e-01 -4.840763821716011e-01 5.254716149772634e-02 -6.324625624064768e-02
1.046800000000000e+11 7.127001875256911e-02 -1.365866882037108e-01 -3.642724883723703e-01 -8.582516071064201e-01 7.987346092201978e-01 -4.796956118270486e-01 5.256427020922424e-02 -6.608619226013669e-02
1.047280000000000e+11 7.151660701606986e-02 -1.352026730625575e-01 -3.812989827386138e-01 -8.523842823444167e-01 8.042380047008989e-01 -4.636872486740004e-01 5.172828838616488e-02 -6.546897854152937e-02
1.047760000000000e+11 7.169310455168101e-02 -1.358218479103097e-01 -3.969380282627992e-01 -8.443561422524520e-01 8.134096093923864e-01 -4.527415522296090e-01 5.119501161857714e-02 -6.664437771674193e-02
1.048240000000000e+11 7.334740663705817e-02 -1.359068878783171e-01 -4.025411091542146e-01 -8.415838352267920e-01 8.228586549371296e-01 -4.426519289608917e-01 5.417458540142937e-02 -6.776990248869152e-02
1.048720000000000e+11 7.192534700791550e-02 -1.366744944660628e-01 -4.017698157972854e-01 -8.407233438731676e-01 8.198416102173078e-01 -4.476965130487661e-01 5.256521069518107e-02 -6.798586475317010e-02
1.049200000000000e+11 7.126825698023094e-02 -1.351730356449088e-01 -3.904280655614378e-01 -8.413360082620116e-01 8.118816816250615e-01 -4.563808323567506e-01 5.059702346853763e-02 -6.478081069398949e-02
1.049680000000000e+11 7.113842022088204e-02 -1.349413408687963e-01 -3.788678585304793e-01 -8.541153243576926e-01 8.033988406653034e-01 -4.680794104304165e-01 5.160409824403586e-02 -6.849848059792434e-02
1.050160000000000e+11 6.936577153166104e-02 -1.358090470801601e-01 -3.737867432960507e-01 -8.533524092519491e-01 7.995591823130819e-01 -4.764897540333700e-01 5.106339954256936e-02 -6.733262467916375e-02
1.050640000000000e+11 7.127367242113064e-02 -1.356195177678398e-01 -3.740374917797535e-01 -8.552701324719604e-01 8.028086456723001e-01 -4.748905351732046e-01 5.118451760480631e-02 -6.911635416928862e-02
1.051120000000000e+11 6.886358322871444e-02 -1.350739350186174e-01 -3.808895450394137e-01 -8.487613757917780e-01 8.037676333344258e-01 -4.723343623348082e-01 4.938083658160160e-02 -6.785724618592545e-02
1.051600000000000e+11 7.022109926523858e-02 -1.361657596638011e-01 -3.862726251585148e-01 -8.470481243468394e-01 8.071862665504377e-01 -4.665603082386426e-01 4.954474164006629e-02 -6.820533653204404e-02
1.052080000000000e+11 6.903919211325855e-02 -1.356310661071197e-01 -3.898918304420441e-01 -8.452122095392454e-01 8.081512501590765e-01 -4.646872004956740e-01 5.025219300473294e-02 -6.805192393204244e-02
1.052560000000000e+11 7.010719427336858e-02 -1.377983754174056e-01 -3.861070284439465e-01 -8.474987465244990e-01 8.066611605936478e-01 -4.688511952471441e-01 5.078579600858335e-02 -6.850844543173819e-02
1.053040000000000e+11 6.942946673864603e-02 -1.371950350301357e-01 -3.810179319879774e-01 -8.503129220155243e-01 8.025770838014092e-01 -4.744463145810411e-01 5.089236094354859e-02 -6.858636609600671e-02
1.053520000000000e+11 6.973738255841071e-02 -1.387502974444627e-01 -3.768349902263148e-01 -8.517913470242854e-01 8.011168771240581e-01 -4.799243113671606e-01 5.064034243336495e-02 -6.949380610447176e-02
1.054000000000000e+11 6.903267369022686e-02 -1.377261288266059e-01 -3.748892071414456e-01 -8.529054534490053e-01 8.005340462041743e-01 -4.827340090057815e-01 5.108385236615103e-02 -7.000054223841137e-02
1.054480000000000e+11 6.885158655511298e-02 -1.389971787916862e-01 -3.780313926226970e-01 -8.500476184959717e-01 8.003460470900213e-01 -4.812671405953209e-01 5.042250351284319e-02 -7.004630010839037e-02
1.054960000000000e+11 6.815586173468026e-02 -1.372620852885685e-01 -3.806806512532596e-01 -8.480114216057248e-01 8.060441369866609e-01 -4.784949759087386e-01 5.140265606217525e-02 -7.088782022414035e-02
1.055440000000000e+11 6.955660179153726e-02 -1.390536920724009e-01 -3.924849333768913e-01 -8.479708994827670e-01 8.063688208843854e-01 -4.683794774919889e-01 5.129042003994818e-02 -7.181406857452774e-02
1.055920000000000e+11 6.839813427596993e-02 -1.351919294896572e-01 -3.929901519532917e-01 -8.437405816367338e-01 8.070445300917536e-01 -4.649047987299759e-01 5.027335214953013e-02 -6.999403761154864e-02
1.056400000000000e+11 6.943424132892108e-02 -1.375817079703381e-01 -3.984492191773683e-01 -8.459076257171678e-01 8.069521944970476e-01 -4.652638679491570e-01 5.044944811773715e-02 -7.347073267841152e-02
1.056880000000000e+11 6.803411712429587e-02 -1.356561896366772e-01 -3.948242156636109e-01 -8.468388244649261e-01 8.052641856754091e-01 -4.691419006403167e-01 5.091441704419929e-02 -7.384702598084764e-02
1.057360000000000e+11 7.013386968848764e-02 -1.366485185308210e-01 -3.856630270451041e-01 -8.442973954528001e-01 8.004238417794224e-01 -4.779489452338985e-01 4.940146719284651e-02 -7.002537987717072e-02
1.057840000000000e+11 6.889382694517845e-02 -1.347111206519117e-01 -3.761214853895007e-01 -8.546056367661901e-01 7.964112995318172e-01 -4.862877868786694e-01 5.171796952778150e-02 -7.553864230647803e-02
1.058320000000000e+11 6.994764663138235e-02 -1.366271652958923e-01 -3.677043352727812e-01 -8.565466544368310e-01 7.901604506657420e-01 -4.954413136490455e-01 5.037487448761810e-02 -7.381024516297503e-02
1.058800000000000e+11 6.911915687046605e-02 -1.351492858751402e-01 -3.659421069053000e-01 -8.584909241546025e-01 7.884098217419041e-01 -4.971036172050442e-01 5.022480103293574e-02 -7.396521814919946e-02
1.059280000000000e+11 6.911696361166872e-02 -1.377805121405979e-01 -3.745170699665145e-01 -8.541911178213852e-01 7.913746308442718e-01 -4.928750518852207e-01 4.931856975659098e-02 -7.411530595480678e-02
1.059760000000000e+11 6.783600953924286e-02 -1.361707801876146e-01 -3.891677147141867e-01 -8.449176443964100e-01 7.997786899518943e-01 -4.802437562867712e-01 4.877064701547040e-02 -7.364658692759070e-02
1.060240000000000e+11 6.757874969844482e-02 -1.379085571762622e-01 -4.073007059799545e-01 -8.380564896736206e-01 8.088302798582712e-01 -4.635263611684298e-01 4.894720645261277e-02 -7.377450520075976e-02
1.060720000000000e+11 6.716973363871737e-02 -1.372148871355535e-01 -4.211430619083309e-01 -8.327911692280344e-01 8.155629630012980e-01 -4.497661984472286e-01 5.105541423908568e-02 -7.383015077490404e-02
1.061200000000000e+11 6.654433721386896e-02 -1.400949962944785e-01 -4.265042976790896e-01 -8.312675171985879e-01 8.195104023465490e-01 -4.464381443346465e-01 5.295088571752744e-02 -7.474435484588585e-02
1.061680000000000e+11 6.704953720296387e-02 -1.373019351684238e-01 -4.128373787422800e-01 -8.344254184997908e-01 8.119115116417192e-01 -4.576397299059262e-01 5.208075319866122e-02 -7.363597139756763e-02
1.062160000000000e+11 6.783739274429496e-02 -1.393501401449658e-01 -3.911050901782207e-01 -8.481232355835452e-01 8.044690417989897e-01 -4.761471355046371e-01 5.588911849725266e-02 -7.552545044523301e-02
1.062640000000000e+11 6.673596778451536e-02 -1.374587250450693e-01 -3.812974155029082e-01 -8.530721454562767e-01 7.887949779253653e-01 -4.941113364702262e-01 5.040792415615131e-02 -7.756422567542778e-02
1.063120000000000e+11 6.765008553896250e-02 -1.405156290396065e-01 -3.686318641552696e-01 -8.609826736175790e-01 7.861060071202449e-01 -5.056797929688766e-01 5.372068279365971e-02 -7.831448059437503e-02
1.063600000000000e+11 6.704241356181175e-02 -1.379552500933624e-01 -3.747862451251163e-01 -8.522076355630591e-01 7.873979703783333e-01 -5.033312789551636e-01 4.885817520900712e-02 -7.843836845043750e-02
1.064080000000000e+11 6.700878338390345e-02 -1.385261889485943e-01 -3.959359354512316e-01 -8.426433532193136e-01 7.931086585321294e-01 -4.801841298952477e-01 4.759088697443950e-02 -7.483543317453258e-02
1.064560000000000e+11 6.842731672400607e-02 -1.428849221222098e-01 -4.225821887189885e-01 -8.378275678520335e-01 8.219853589399813e-01 -4.551943802056121e-01 5.919470358439635e-02 -8.010020850150004e-02
1.065040000000000e+11 6.300858930939614e-02 -1.359097137052628e-01 -4.450408341637584e-01 -8.098076998113706e-01 8.228145579162490e-01 -4.412270175889920e-01 4.424489385689390e-02 -7.923257374751484e-02
1.065520000000000e+11 6.771886941836260e-02 -1.381488697693660e-01 -4.426292749935439e-01 -8.191864645815670e-01 8.237945179242102e-01 -4.328614148517579e-01 5.113952337306368e-02 -7.649275935506350e-02
1.066000000000000e+11 6.737766126234665e-02 -1.418187356979490e-01 -4.331504607592478e-01 -8.358527069566857e-01 8.158766288283321e-01 -4.479731781058500e-01 5.764974456226660e-02 -7.859117195805139e-02
1.066480000000000e+11 6.728271583779695e-02 -1.400827653029773e-01 -4.056218670739654e-01 -8.314513209009976e-01 8.107702967667160e-01 -4.736637143425506e-01 5.259695488207936e-02 -7.807595592877606e-02
1.066960000000000e+11 6.965332475049520e-02 -1.354701719419680e-01 -3.845123636033606e-01 -8.514215629071248e-01 7.841770817324896e-01 -4.900467064426133e-01 4.937501576742170e-02 -7.524157175459566e-02
1.067440000000000e+11 6.577156671369139e-02 -1.410351243417327e-01 -3.795669841274069e-01 -8.556474846431859e-01 7.846371342137302e-01 -5.027052469255775e-01 5.567277989907211e-02 -8.064836394484998e-02
1.067920000000000e+11 6.632119169966026e-02 -1.376107115960228e-01 -3.797333493697844e-01 -8.479740932849578e-01 7.882079768653539e-01 -4.979076967965810e-01 5.310076178927398e-02 -7.966695781628992e-02
1.068400000000000e+11 6.650476689257309e-02 -1.385151902715707e-01 -3.941809653677646e-01 -8.462518187119383e-01 7.925474665335738e-01 -4.863401600808672e-01 5.423139077047908e-02 -7.992107276901091e-02
1.068880000000000e+11 6.744660863291338e-02 -1.398126741697313e-01 -4.062278077448544e-01 -8.376784776674919e-01 8.046282846670219e-01 -4.760200466375840e-01 5.491763680887494e-02 -7.990055695670353e-02
1.069360000000000e+11 6.619169573744518e-02 -1.378032832334169e-01 -4.157084632601631e-01 -8.291635181551351e-01 8.003829281728765e-01 -4.724254757293959e-01 4.917846820186317e-02 -7.976857895867712e-02
1.069840000000000e+11 6.486337081175815e-02 -1.413509839691058e-01 -4.152063930667660e-01 -8.385198294330419e-01 8.018963513777758e-01 -4.771264681210695e-01 5.586815391383620e-02 -8.168496229149441e-02
1.070320000000000e+11 6.444187056237979e-02 -1.393131759743086e-01 -4.091845569584034e-01 -8.378290246337448e-01 7.953750428671794e-01 -4.859721774973037e-01 5.327292222531363e-02 -8.230968267576234e-02
1.070800000000000e+11 6.584570508330077e-02 -1.398961000361988e-01 -3.994791315483397e-01 -8.402898243472111e-01 7.930318141569151e-01 -4.921607344729217e-01 5.358575568999220e-02 -8.031244727646729e-02
1.071280000000000e+11 6.586145194955420e-02 -1.381743685320240e-01 -3.955448356189868e-01 -8.408607358839701e-01 7.899969193652014e-01 -4.955387140115892e-01 5.323041387948431e-02 -8.111621791280116e-02
1.071760000000000e+11 6.730841503124664e-02 -1.373250075491821e-01 -3.984854761138034e-01 -8.399284501704425e-01 7.913738141409232e-01 -4.896258122219967e-01 5.339680032284551e-02 -8.314219128121875e-02
1.072240000000000e+11 6.765832821337725e-02 -1.392509051043200e-01 -4.022055215261051e-01 -8.408138031795293e-01 7.943513402618284e-01 -4.867574761594370e-01 5.553415008158467e-02 -8.174051067481196e-02
1.072720000000000e+11 6.860759790527750e-02 -1.389396700759561e-01 -4.084824257408210e-01 -8.374654535275589e-01 7.976825104954103e-01 -4.811573178947927e-01 5.538539478479378e-02 -8.307496052817503e-02
1.073200000000000e+11 6.806876633365383e-02 -1.408922158500807e-01 -4.128355278899528e-01 -8.347961113014954e-01 8.014250229197418e-01 -4.789822532197479e-01 5.507625366324208e-02 -8.301889522204156e-02
1.073680000000000e+11 6.890848944305873e-02 -1.407362691641369e-01 -4.113642610165697e-01 -8.332803467802435e-01 8.003868999203254e-01 -4.811212944903737e-01 5.443198369737964e-02 -8.198348732799599e-02
1.074160000000000e+11 6.799748162681640e-02 -1.414191277262229e-01 -4.116700371654078e-01 -8.333445757795076e-01 7.973328517005775e-01 -4.811475615525761e-01 5.293844555231058e-02 -8.227772195435296e-02
1.074640000000000e+11 6.887435510180058e-02 -1.410943746324222e-01 -4.056814041958911e-01 -8.411389893833729e-01 7.930357108454015e-01 -4.833429476549999e-01 5.509443500617385e-02 -8.085265995095377e-02
1.075120000000000e+11 6.632992033579570e-02 -1.424722223022046e-01 -4.008000647332560e-01 -8.442511332164391e-01 7.924496149463439e-01 -4.915696547476140e-01 5.811796083539893e-02 -8.156137209926052e-02
1.075600000000000e+11 6.861370522175086e-02 -1.393240974894539e-01 -3.949064116472470e-01 -8.397733469080099e-01 7.880108744199786e-01 -4.968621933433702e-01 5.447647516649230e-02 -8.327756404732897e-02
1.076080000000000e+11 6.773815862513892e-02 -1.403803273081353e-01 -3.949765774989376e-01 -8.433961770670825e-01 7.880571712144062e-01 -4.967792411972142e-01 5.633578369251887e-02 -8.289077471043670e-02
1.076560000000000e+11 6.945641067129187e-02 -1.402914251121960e-01 -4.010219158958229e-01 -8.407140949942110e-01 7.929149768470009e-01 -4.863274230864325e-01 5.663132278006871e-02 -8.056742163734520e-02
1.077040000000000e+11 6.659518747855515e-02 -1.402199868562294e-01 -4.228883026208927e-01 -8.299615505355097e-01 7.978068251311786e-01 -4.800560028518711e-01 5.518351747933189e-02 -8.661131804321724e-02
1.077520000000000e+11 6.820259821603174e-02 -1.399862669729914e-01 -4.281243990747843e-01 -8.286845788342585e-01 8.032455399155312e-01 -4.692264336237473e-01 5.561815012667676e-02 -8.529071973687022e-02
1.078000000000000e+11 6.748085848087532e-02 -1.410485996123761e-01 -4.429217877755472e-01 -8.226434528879680e-01 8.070164631725673e-01 -4.598291833447055e-01 5.507320530482727e-02 -8.704221727026035e-02
1.078480000000000e+11 6.746666447012405e-02 -1.417601114771386e-01 -4.428189294386641e-01 -8.216001460464057e-01 8.085616238927652e-01 -4.593030453656596e-01 5.483746525146584e-02 -8.621285770053369e-02
1.078960000000000e+11 6.716116785439114e-02 -1.419148964343241e-01 -4.315294031926063e-01 -8.263327865559013e-01 8.026794785560003e-01 -4.717072947660082e-01 5.397645395748311e-02 -8.675057418215029e-02
1.079440000000000e+11 6.670346309891460e-02 -1.414030260938227e-01 -4.057309976809622e-01 -8.315665270561744e-01 7.892111622715546e-01 -4.944421913152862e-01 5.081050133873173e-02 -8.423073358672255e-02
1.079920000000000e+11 6.742922323510142e-02 -1.426756396771223e-01 -3.861764837396441e-01 -8.469889331876849e-01 7.791340532535975e-01 -5.105558880710382e-01 5.465542144014546e-02 -8.472150854114827e-02
1.080400000000000e+11 6.680865785571369e-02 -1.439256882734866e-01 -3.826779348874141e-01 -8.501511889703233e-01 7.768720681912258e-01 -5.150992151510059e-01 5.416988800772581e-02 -8.519237507068741e-02
1.080880000000000e+11 6.691250543049623e-02 -1.404209095230969e-01 -3.861376223941763e-01 -8.413140729403046e-01 7.789215077249912e-01 -5.139546251319936e-01 5.220596817109465e-02 -8.664925296451308e-02
1.081360000000000e+11 6.719063313555598e-02 -1.431998994327059e-01 -4.092516531693737e-01 -8.382270973336983e-01 7.885216341912419e-01 -4.935692335856408e-01 5.441944519276475e-02 -8.698110809557531e-02
1.081840000000000e+11 6.692080161455100e-02 -1.428288775231896e-01 -4.345085050720839e-01 -8.276159973828952e-01 8.007452433047541e-01 -4.707241517775018e-01 5.580153221098199e-02 -8.637678557426172e-02
1.082320000000000e+11 6.787338340347149e-02 -1.440879463099881e-01 -4.514620744013210e-01 -8.176089951830304e-01 8.133096234572678e-01 -4.530699280302476e-01 5.739104168935216e-02 -8.761984139676494e-02
1.082800000000000e+11 6.814197094519524e-02 -1.438477255557956e-01 -4.531131667276040e-01 -8.147130583734309e-01 8.128454001514909e-01 -4.525914767706750e-01 5.628219821022781e-02 -8.653439734022723e-02
1.083280000000000e+11 6.843609631681621e-02 -1.450732764839281e-01 -4.402040676773639e-01 -8.210586280417164e-01 8.071772983179804e-01 -4.622512295293410e-01 5.605336061411590e-02 -8.640515298137695e-02
1.083760000000000e+11 6.913281720047709e-02 -1.452015041186778e-01 -4.193748889958289e-01 -8.307877930656206e-01 7.986612075171321e-01 -4.800971660492761e-01 5.706220733594565e-02 -8.479428302331019e-02
1.084240000000000e+11 6.852900522064810e-02 -1.458140479864936e-01 -4.011479722354160e-01 -8.411215294394339e-01 7.919866099442464e-01 -5.005424885664369e-01 5.804023764164233e-02 -8.662708251066786e-02
1.084720000000000e+11 6.707222463453565e-02 -1.443504250914134e-01 -3.983705547643147e-01 -8.384645947136413e-01 7.804472720615424e-01 -5.163572062851983e-01 5.428762768751646e-02 -9.142386283191384e-02
1.085200000000000e+11 6.651679866019580e-02 -1.436847566161166e-01 -3.984559570652468e-01 -8.384956781221132e-01 7.770145855068801e-01 -5.121402677021250e-01 5.187413326980738e-02 -8.976820375292559e-02
1.085680000000000e+11 6.715490871169025e-02 -1.429609834483472e-01 -4.151440554863668e-01 -8.313188016489580e-01 7.850138709869388e-01 -4.969308639340539e-01 5.193350201212967e-02 -8.983308476610821e-02
1.086160000000000e+11 6.755290316503088e-02 -1.434181887431622e-01 -4.282575298318783e-01 -8.242080914773376e-01 7.941526530706006e-01 -4.817717082641537e-01 5.141625797380159e-02 -8.767426499564920e-02
1.086640000000000e+11 6.844021750200596e-02 -1.442081014412921e-01 -4.375936011704047e-01 -8.216134612883824e-01 8.015116010814110e-01 -4.700021050466680e-01 5.248632344638414e-02 -8.549622020449740e-02
1.087120000000000e+11 6.851352995375640e-02 -1.450166383026096e-01 -4.366385619818056e-01 -8.272033827967984e-01 7.980815043553560e-01 -4.731319803260166e-01 5.424931065532059e-02 -8.582238494097437e-02
1.087600000000000e+11 6.828922531375194e-02 -1.458405940663378e-01 -4.283070975442063e-01 -8.292925029593663e-01 7.948217678021574e-01 -4.831785181030351e-01 5.416381667075700e-02 -8.582026821732307e-02
1.088080000000000e+11 6.721363017394262e-02 -1.475450041392567e-01 -4.191117505365189e-01 -8.337010083728563e-01 7.901519230810481e-01 -4.935896388038457e-01 5.412919345203358e-02 -8.610508361203209e-02
1.088560000000000e+11 6.777459023096878e-02 -1.476436932459350e-01 -4.140398440879164e-01 -8.351212550288537e-01 7.883307139836887e-01 -4.987750510388393e-01 5.481986347821279e-02 -8.610472013725386e-02
1.089040000000000e+11 6.565381556758598e-02 -1.489145321996425e-01 -4.126564236721425e-01 -8.349102164344554e-01 7.883949161449491e-01 -5.023216162636547e-01 5.465048743829733e-02 -8.616182432865177e-02
1.089520000000000e+11 6.641604030823756e-02 -1.481635026813284e-01 -4.151317523920539e-01 -8.328253854145922e-01 7.870377764874746e-01 -5.030988073260435e-01 5.465639155895371e-02 -8.769946317735650e-02
1.090000000000000e+11 6.391815035304511e-02 -1.476908590842969e-01 -4.195429596331638e-01 -8.291740366293080e-01 7.854106277819799e-01 -5.025455430591760e-01 5.338490738472274e-02 -8.951061756888069e-02
1.090480000000000e+11 6.699709767999373e-02 -1.453956617691733e-01 -4.232320706026445e-01 -8.275864130669932e-01 7.837498980601524e-01 -4.979255569488823e-01 5.154102617274938e-02 -8.954522063445432e-02
1.090960000000000e+11 6.653143192362249e-02 -1.450253479051911e-01 -4.264165991288363e-01 -8.268089290800851e-01 7.869189949071942e-01 -4.964671949958152e-01 5.349386502360664e-02 -8.947428322814287e-02
1.091440000000000e+11 6.915667019955120e-02 -1.443025807640962e-01 -4.278755526106566e-01 -8.272608463083275e-01 7.875205264612883e-01 -4.957949355237545e-01 5.524302444315866e-02 -8.912801318555912e-02
1.091920000000000e+11 6.494005715307340e-02 -1.457450658836634e-01 -4.370752329290598e-01 -8.236326055535330e-01 7.883651683791062e-01 -4.951467153501584e-01 5.380189913054075e-02 -9.105620903660012e-02
1.092400000000000e+11 6.501475072603759e-02 -1.471787858610933e-01 -4.296329873925543e-01 -8.276536316055992e-01 7.861333074710007e-01 -4.981433024685036e-01 5.200418472370884e-02 -8.891264421531275e-02
1.092880000000000e+11 6.470443759195618e-02 -1.483450835601605e-01 -4.283599272355353e-01 -8.278131203317627e-01 7.855492439622327e-01 -4.995925028039077e-01 5.136977847152742e-02 -8.845376568076097e-02
1.093360000000000e+11 6.497877399536571e-02 -1.488794323369734e-01 -4.271542366599447e-01 -8.275977568675648e-01 7.830091547408963e-01 -5.020273271943292e-01 5.028922557850649e-02 -8.865807847840139e-02
1.093840000000000e+11 6.392913876035848e-02 -1.505486708692568e-01 -4.262137011225601e-01 -8.306638605762838e-01 7.831145770286616e-01 -5.032708394101251e-01 5.066868519374514e-02 -8.802288301017189e-02
1.094320000000000e+11 6.360178720292954e-02 -1.510987085200902e-01 -4.270014777016892e-01 -8.292423425732550e-01 7.847684488400359e-01 -5.020915660158372e-01 5.047411572251648e-02 -8.784012804726429e-02
1.094800000000000e+11 6.556391292140290e-02 -1.524421888217236e-01 -4.295379702932662e-01 -8.278732538340093e-01 7.946596242108525e-01 -4.866226926143664e-01 5.149483468184636e-02 -8.393047271234706e-02
1.095280000000000e+11 6.317992577428529e-02 -1.527241986666438e-01 -4.415281977275197e-01 -8.201225596299452e-01 7.972361440083290e-01 -4.831084442950846e-01 5.057360546689554e-02 -8.641819075242790e-02
1.095760000000000e+11 6.178850497347632e-02 -1.497229301807848e-01 -4.520336832341199e-01 -8.148962761914667e-01 7.936425835240700e-01 -4.859284676264118e-01 5.054196102227265e-02 -9.153650404145323e-02
1.096240000000000e+11 6.078779017535969e-02 -1.498218935027468e-01 -4.610403924360590e-01 -8.151402385876284e-01 7.977488139296213e-01 -4.821397093491592e-01 5.335299943416934e-02 -9.220010806288222e-02
1.096720000000000e+11 6.199106377073926e-02 -1.505562066001913e-01 -4.573499654257109e-01 -8.145566206282736e-01 7.976721089988338e-01 -4.850066559023092e-01 5.330952087870187e-02 -9.325163470116161e-02
1.097200000000000e+11 6.382716176935017e-02 -1.492285949039736e-01 -4.561504797098425e-01 -8.137566799039211e-01 7.929247702839167e-01 -4.921615936534038e-01 5.548211870860350e-02 -9.502991891877328e-02
1.097680000000000e+11 6.088139923142705e-02 -1.531128387922807e-01 -4.402439785212049e-01 -8.213714244388015e-01 7.895394208242245e-01 -5.026332599396891e-01 5.215967751477436e-02 -9.178088638352985e-02
1.098160000000000e+11 6.308576830699786e-02 -1.525678628544815e-01 -4.329916748643839e-01 -8.222207810207592e-01 7.860564877935450e-01 -5.058580503657921e-01 5.118681656491809e-02 -9.105723383779794e-02
1.098640000000000e+11 6.040193722871381e-02 -1.527269001960740e-01 -4.361890913702014e-01 -8.222091406792588e-01 7.853727327598234e-01 -5.063993820298194e-01 5.120043705230005e-02 -9.096056421866669e-02
1.099120000000000e+11 6.140550742132301e-02 -1.526232523714668e-01 -4.458334893853837e-01 -8.197556557258647e-01 7.912993001144708e-01 -4.973971845569458e-01 5.020254667212955e-02 -9.022979241816419e-02
1.099600000000000e+11 5.937878963362873e-02 -1.521419899620015e-01 -4.555889616974094e-01 -8.100427027040238e-01 7.944572869027811e-01 -4.902353020130968e-01 4.931859218627505e-02 -9.067166786178468e-02
1.100080000000000e+11 6.130947862760491e-02 -1.520383074138429e-01 -4.615997058862689e-01 -8.143143125278954e-01 7.989617926004128e-01 -4.806414221632995e-01 4.901571697705764e-02 -8.886080058445882e-02
1.100560000000000e+11 5.973971876300583e-02 -1.522730528645645e-01 -4.621928258744388e-01 -8.107109916193054e-01 7.952843024668402e-01 -4.839328658689718e-01 4.835479114397601e-02 -8.967630976969589e-02
1.101040000000000e+11 6.091557986761706e-02 -1.523861628303384e-01 -4.532425976665279e-01 -8.182457948787134e-01 7.927697597585384e-01 -4.887874213650805e-01 4.733767038287461e-02 -8.860523176940314e-02
1.101520000000000e+11 5.817985645572303e-02 -1.542751559454181e-01 -4.494323431586477e-01 -8.191267695694522e-01 7.866562907679380e-01 -5.021123345555298e-01 4.705560679586571e-02 -8.808086086137767e-02
1.102000000000000e+11 5.827703986183539e-02 -1.525612819844469e-01 -4.373279410880644e-01 -8.195724470000731e-01 7.813966895195601e-01 -5.079455456798322e-01 4.664496752760740e-02 -8.916323231958422e-02
1.102480000000000e+11 5.750121916544688e-02 -1.541287655881103e-01 -4.313820355732281e-01 -8.258868181069186e-01 7.785570890606293e-01 -5.111538665205517e-01 4.584226630362256e-02 -8.681573980464985e-02
1.102960000000000e+11 5.779508215374490e-02 -1.531394463823596e-01 -4.358423513718804e-01 -8.270928057911600e-01 7.804612936356893e-01 -5.089135066480269e-01 4.811168265006614e-02 -8.742174772551915e-02
1.103440000000000e+11 5.590960011200995e-02 -1.545572667104484e-01 -4.428009674298044e-01 -8.233084753232126e-01 7.822326477663286e-01 -5.066314100321431e-01 4.770620718824269e-02 -8.665035708435717e-02
1.103920000000000e+11 5.669629237360369e-02 -1.531961673684429e-01 -4.466181206213728e-01 -8.217684409213994e-01 7.852715889504693e-01 -5.041711489336690e-01 4.881228057522381e-02 -8.861013422565966e-02
1.104400000000000e+11 5.374783783039964e-02 -1.540970880997290e-01 -4.518620324609123e-01 -8.190658707016849e-01 7.862704194965585e-01 -5.033146042554485e-01 4.755041276522116e-02 -8.888417434999051e-02
1.104880000000000e+11 5.615007735358874e-02 -1.526746079107773e-01 -4.478920870460794e-01 -8.204354225690601e-01 7.855616068264401e-01 -5.034383702534474e-01 4.828647502353481e-02 -8.961329165417348e-02
1.105360000000000e+11 5.547770474640347e-02 -1.525894687605183e-01 -4.419350577310019e-01 -8.206762018588215e-01 7.844329926610144e-01 -5.101205331703574e-01 4.801275741654739e-02 -8.988996525381303e-02
1.105840000000000e+11 5.256420562872381e-02 -1.537279093125642e-01 -4.481731832525928e-01 -8.216181583609364e-01 7.830102716362243e-01 -5.123258152025025e-01 4.673060860976001e-02 -9.099160842882011e-02
1.106320000000000e+11 5.542721171001121e-02 -1.510445586908625e-01 -4.449695920605961e-01 -8.204971255177906e-01 7.817765180337484e-01 -5.127441803217169e-01 4.643882809519349e-02 -9.038951096075043e-02
1.106800000000000e+11 5.668565520298137e-02 -1.503321098228813e-01 -4.414079891664122e-01 -8.218757299394659e-01 7.798481452988815e-01 -5.142819139930995e-01 4.666740201097645e-02 -8.950067064523853e-02
1.107280000000000e+11 5.748994770786972e-02 -1.500635474771821e-01 -4.427975205002727e-01 -8.207615652076026e-01 7.791512168149444e-01 -5.156116075484924e-01 4.639671446560893e-02 -8.970879959824202e-02
1.107760000000000e+11 5.817860858184883e-02 -1.515768463136815e-01 -4.423324502467382e-01 -8.214778124169055e-01 7.768663778152028e-01 -5.161655806862788e-01 4.553527994574470e-02 -8.910846621939009e-02
1.108240000000000e+11 5.695187855970414e-02 -1.520556765368486e-01 -4.428958673749416e-01 -8.197431764815750e-01 7.772804680133142e-01 -5.157663625957039e-01 4.517567200890124e-02 -8.846515402239707e-02
1.108720000000000e+11 5.759967119261775e-02 -1.535739098568338e-01 -4.412444113898901e-01 -8.213275632820159e-01 7.753902622707484e-01 -5.194606132266150e-01 4.516940456400228e-02 -8.809480384505911e-02
1.109200000000000e+11 5.471532125693632e-02 -1.544369464637727e-01 -4.447366520432317e-01 -8.200765756341968e-01 7.722137940014836e-01 -5.223958671869652e-01 4.512556177754915e-02 -8.854751703801403e-02
1.109680000000000e+11 5.516189233502691e-02 -1.543276827859854e-01 -4.402812351431346e-01 -8.231508690677621e-01 7.717601840433694e-01 -5.222230207519556e-01 4.559938232476768e-02 -8.786723115168028e-02
1.110160000000000e+11 5.635884226463585e-02 -1.540029430423590e-01 -4.439475608631788e-01 -8.237120076747477e-01 7.724809800684944e-01 -5.225123257685695e-01 4.741974955961745e-02 -8.735432610955735e-02
1.110640000000000e+11 5.662990413887290e-02 -1.539273614095036e-01 -4.501140732978791e-01 -8.176084217048559e-01 7.777003992235699e-01 -5.163446544261907e-01 4.817443987432090e-02 -8.788710820104927e-02
1.111120000000000e+11 5.651051510253823e-02 -1.544524768382706e-01 -4.581403873955952e-01 -8.124095017010190e-01 7.815752694816291e-01 -5.102934935661234e-01 4.781245830756928e-02 -8.702725767335111e-02
1.111600000000000e+11 5.680806166423175e-02 -1.540450577540648e-01 -4.656213688919208e-01 -8.072727837705785e-01 7.866123148564085e-01 -5.023463077890603e-01 4.799505892703605e-02 -8.726980576562691e-02
1.112080000000000e+11 5.765679690235095e-02 -1.553892191710873e-01 -4.739319696855265e-01 -8.063813192550183e-01 7.906479479118013e-01 -4.948710738449359e-01 4.769959465577196e-02 -8.628642145208899e-02
1.112560000000000e+11 5.586585892791345e-02 -1.553367796860927e-01 -4.801980945557870e-01 -8.012873412721753e-01 7.912244239228604e-01 -4.942365753055929e-01 4.724058135220413e-02 -8.599727812149374e-02
1.113040000000000e+11 5.573115995836861e-02 -1.563506175762870e-01 -4.703041428229772e-01 -8.048295829683200e-01 7.869366622586206e-01 -5.032717016816193e-01 4.577635245082284e-02 -8.524178977429446e-02
1.113520000000000e+11 5.615833786192290e-02 -1.562784072208347e-01 -4.630367204344117e-01 -8.099174205292193e-01 7.780932600721391e-01 -5.122875271333663e-01 4.571943587576652e-02 -8.481433647742140e-02
1.114000000000000e+11 5.702985201496978e-02 -1.561722225067725e-01 -4.493698100517031e-01 -8.162036548933187e-01 7.716783256508657e-01 -5.227208470227777e-01 4.524814173995940e-02 -8.514238136428058e-02
1.114480000000000e+11 5.671205618224023e-02 -1.567596350942653e-01 -4.461646095237528e-01 -8.188272970353528e-01 7.706733630621518e-01 -5.250067162880432e-01 4.456226607030911e-02 -8.545278166701877e-02
1.114960000000000e+11 5.661342031991400e-02 -1.567276172603324e-01 -4.574573090776166e-01 -8.124888186908082e-01 7.756703835513158e-01 -5.178157016498992e-01 4.371815114084054e-02 -8.630162707147845e-02
1.115440000000000e+11 5.659574227251446e-02 -1.569966212043961e-01 -4.750823737491729e-01 -8.030782303745758e-01 7.862712780085394e-01 -5.024266022877929e-01 4.319128741633819e-02 -8.628326584948746e-02
1.115920000000000e+11 5.631944111392048e-02 -1.574951524837541e-01 -4.945797677239178e-01 -7.900737694057173e-01 7.967764130651328e-01 -4.846975160043664e-01 4.249999246154072e-02 -8.682558043894723e-02
1.116400000000000e+11 5.582823575059653e-02 -1.571294301688454e-01 -5.048223436554087e-01 -7.828722482861998e-01 8.044164865105723e-01 -4.731395669224205e-01 4.291079373607852e-02 -8.776062535818942e-02
1.116880000000000e+11 5.532697351246298e-02 -1.584680346955719e-01 -5.029448326889182e-01 -7.853476740791028e-01 8.004034777081818e-01 -4.772580184231492e-01 4.308360188647328e-02 -8.793454719448637e-02
1.117360000000000e+11 5.551087865446910e-02 -1.569947237487334e-01 -4.969976884985169e-01 -7.918097430162832e-01 7.944992683227017e-01 -4.832037458911250e-01 4.352517022530576e-02 -8.841183990403505e-02
1.117840000000000e+11 5.586736145055921e-02 -1.576421679850308e-01 -4.790794799171101e-01 -8.015425329065020e-01 7.844413510354142e-01 -5.025059132711373e-01 4.385868918582377e-02 -8.881486749449284e-02
1.118320000000000e+11 5.572954260023667e-02 -1.584157086878193e-01 -4.615040080272222e-01 -8.116941459299025e-01 7.745408094071334e-01 -5.186327286463270e-01 4.474558740602932e-02 -8.976351695595540e-02
1.118800000000000e+11 5.640522750784367e-02 -1.592181827100108e-01 -4.562665135921331e-01 -8.150810921542654e-01 7.702361813948216e-01 -5.255243318420708e-01 4.470529670545924e-02 -9.015720358358215e-02
1.119280000000000e+11 5.492413286333687e-02 -1.595436805183869e-01 -4.611278051002507e-01 -8.113732160080668e-01 7.739803874464273e-01 -5.221899061274350e-01 4.530029948786704e-02 -9.117250621158464e-02
1.119760000000000e+11 5.683310934441910e-02 -1.592527978996559e-01 -4.726911367826149e-01 -8.055461952050534e-01 7.811251091863037e-01 -5.115236100469468e-01 4.522498547759968e-02 -9.155277332321000e-02
1.120240000000000e+11 5.382022086168808e-02 -1.565922696334258e-01 -4.853431789280550e-01 -7.963812444220284e-01 7.885815955622651e-01 -4.980360108312517e-01 4.513160321429990e-02 -9.454440718814087e-02
1.120720000000000e+11 5.595858402539051e-02 -1.573081432279992e-01 -4.930714817613167e-01 -7.920633147151368e-01 7.927588954612225e-01 -4.910553568219703e-01 4.329992557182968e-02 -9.336144580736720e-02
1.121200000000000e+11 5.461523801375488e-02 -1.569354614955220e-01 -4.927453226394704e-01 -7.911114179100803e-01 7.924090592269699e-01 -4.924021864332402e-01 4.331371696508949e-02 -9.429791347912551e-02
1.121680000000000e+11 5.746126968503508e-02 -1.578814448992143e-01 -4.833848805119541e-01 -7.973339576841162e-01 7.887957879945864e-01 -4.997877859186441e-01 4.412844938662427e-02 -9.401503292091934e-02
1.122160000000000e+11 5.699186876333784e-02 -1.596273502433971e-01 -4.740041724406865e-01 -8.029745194852862e-01 7.796401869290341e-01 -5.133313312814307e-01 4.294296317793932e-02 -9.430541931377012e-02
1.122640000000000e+11 5.704649648188599e-02 -1.613834128884813e-01 -4.617852522370796e-01 -8.072608410805436e-01 7.733166653561594e-01 -5.255816659285573e-01 4.281805510068298e-02 -9.269819491020022e-02
1.123120000000000e+11 5.515436835225987e-02 -1.549268707381753e-01 -4.462703210222549e-01 -8.184308233647839e-01 7.582630902560127e-01 -5.299892643780022e-01 4.661128464101857e-02 -9.140280277071927e-02
1.123600000000000e+11 5.972970241233558e-02 -1.620551086187545e-01 -4.562189498406628e-01 -8.198680184440998e-01 7.639970039741739e-01 -5.296572361241154e-01 4.397038351485284e-02 -9.324034671826381e-02
1.124080000000000e+11 5.644804130722000e-02 -1.646010523597517e-01 -4.658622709651251e-01 -8.081319315046133e-01 7.692620230070732e-01 -5.282406729354749e-01 4.363650973507854e-02 -9.142685629551514e-02
1.124560000000000e+11 5.730138336472362e-02 -1.640463878249443e-01 -4.698302676219481e-01 -8.065011582707551e-01 7.726312075135933e-01 -5.175927255191450e-01 4.460497333939584e-02 -9.081046416073189e-02
1.125040000000000e+11 5.249364600612194e-02 -1.620425845600036e-01 -4.841327720538376e-01 -7.934370485081882e-01 7.803291981092725e-01 -5.078873608944546e-01 4.493598491389814e-02 -9.000277780326689e-02
1.125520000000000e+11 5.585957535227433e-02 -1.619614750254682e-01 -4.880908863902470e-01 -7.903891498101879e-01 7.866625221691668e-01 -5.007463973185087e-01 4.529036124461052e-02 -9.015047923221159e-02
1.126000000000000e+11 5.673240189939280e-02 -1.608057481416537e-01 -4.836147581552731e-01 -7.915359249972489e-01 7.879475409156913e-01 -5.034121634027114e-01 4.565003382266535e-02 -8.999715532408524e-02
1.126480000000000e+11 5.620281508355977e-02 -1.614614190090525e-01 -4.702958565057679e-01 -7.988461190478475e-01 7.768969360179835e-01 -5.174121870700764e-01 4.533256714231487e-02 -8.826384300519950e-02
1.126960000000000e+11 5.429302215646808e-02 -1.588086939895345e-01 -4.552600578357308e-01 -8.147791417290849e-01 7.602067950856743e-01 -5.313492653596978e-01 4.639081831768613e-02 -8.780398597633414e-02
1.127440000000000e+11 5.775066916204141e-02 -1.605622843615448e-01 -4.461251357017371e-01 -8.240013311911828e-01 7.531656865363373e-01 -5.431435588150065e-01 4.599041840398765e-02 -8.846258280068375e-02
1.127920000000000e+11 5.640384040634906e-02 -1.626634342861336e-01 -4.502761986189119e-01 -8.195103456169136e-01 7.539589072724773e-01 -5.468194859214972e-01 4.413449994070456e-02 -8.839378978637859e-02
1.128400000000000e+11 5.767908736852328e-02 -1.643032809811955e-01 -4.672965711632955e-01 -8.097771241200413e-01 7.623813406231910e-01 -5.341879513711405e-01 4.267583786518415e-02 -8.701426443047162e-02
1.128880000000000e+11 5.708619923517395e-02 -1.658892592532861e-01 -4.855586849948236e-01 -7.921972417327895e-01 7.799768186156192e-01 -5.147411457234551e-01 4.230523521686962e-02 -8.736312108827216e-02
1.129360000000000e+11 5.882612144495878e-02 -1.673289653924361e-01 -5.183938444538511e-01 -7.761362981937687e-01 7.958090720644824e-01 -4.851958379384235e-01 4.045151582431689e-02 -8.680681196352566e-02
1.129840000000000e+11 5.800855818140916e-02 -1.666225889862685e-01 -5.315583323305043e-01 -7.667554246738432e-01 8.061596404369715e-01 -4.681467755772282e-01 4.013048727667628e-02 -8.915248381307468e-02
1.130320000000000e+11 6.081037648091076e-02 -1.668590924696196e-01 -5.223365253399085e-01 -7.749864544780071e-01 8.007299443177461e-01 -4.758073865331461e-01 4.079466636577606e-02 -8.925116003492720e-02
1.130800000000000e+11 5.881538670896930e-02 -1.670783660601399e-01 -4.956413291809313e-01 -7.932568503688043e-01 7.827691813942534e-01 -5.034112117152975e-01 3.967492427786690e-02 -9.090600804317922e-02
1.131280000000000e+11 6.038059692964463e-02 -1.682351431967720e-01 -4.580458196088841e-01 -8.146175755793058e-01 7.591648070355603e-01 -5.425994768675647e-01 3.901808262707375e-02 -9.135897241624254e-02
1.131760000000000e+11 5.744398323614298e-02 -1.696452301139705e-01 -4.353313450146791e-01 -8.260816565870320e-01 7.407209856601599e-01 -5.696323130205322e-01 3.672322813213365e-02 -9.218174875984479e-02
1.132240000000000e+11 5.677093620591525e-02 -1.705642509195121e-01 -4.390165909017622e-01 -8.252369025555961e-01 7.386511118315526e-01 -5.680601794990457e-01 3.639668225757441e-02 -9.280460410321677e-02
1.132720000000000e+11 5.680741296546871e-02 -1.682327768073639e-01 -4.684791293453267e-01 -8.094492355212674e-01 7.611395053688776e-01 -5.410033359498636e-01 3.559392206504242e-02 -9.539727208574478e-02
1.133200000000000e+11 5.672422910520938e-02 -1.721611367609644e-01 -5.175800272818691e-01 -7.771161797431395e-01 7.909141276854645e-01 -4.969820387276807e-01 3.625037591955532e-02 -9.431491794176923e-02
1.133680000000000e+11 5.482840193667821e-02 -1.730371002164822e-01 -5.666539665252843e-01 -7.442856162907737e-01 8.228678066408275e-01 -4.438276827774529e-01 3.838118087662384e-02 -9.676466614746644e-02
1.134160000000000e+11 5.469780302871478e-02 -1.742345392454538e-01 -5.912823193391570e-01 -7.243618338891177e-01 8.367653565492333e-01 -4.171221517038288e-01 3.937907480647057e-02 -9.605005290880514e-02
1.134640000000000e+11 5.267866585592128e-02 -1.725113252734675e-01 -5.809070402644214e-01 -7.334034308176797e-01 8.314772925211242e-01 -4.280505318745413e-01 3.935514890139783e-02 -9.867299365550151e-02
1.135120000000000e+11 5.341802306823824e-02 -1.738004304871357e-01 -5.396252447492579e-01 -7.652587014340257e-01 8.044571778793752e-01 -4.761893661949164e-01 4.002043877373120e-02 -9.776757408540307e-02
1.135600000000000e+11 5.267245017951892e-02 -1.713478341118823e-01 -4.830066643384519e-01 -8.010996399880733e-01 7.710217554670402e-01 -5.302436218890101e-01 3.972663638578949e-02 -9.913336871755303e-02
1.136080000000000e+11 5.239282920298661e-02 -1.733928690609348e-01 -4.434764892049761e-01 -8.238163634581821e-01 7.410678076676293e-01 -5.708991300482678e-01 3.987385404825686e-02 -9.916995050474328e-02
1.136560000000000e+11 5.190472205299205e-02 -1.705930656982201e-01 -4.324058961989676e-01 -8.289552502317360e-01 7.337304481555191e-01 -5.814691709580205e-01 3.791202115030985e-02 -1.007307123040655e-01
1.137040000000000e+11 5.208707380755075e-02 -1.718376761788773e-01 -4.549683359066842e-01 -8.169789539794248e-01 7.470475079382385e-01 -5.635818383038040e-01 3.839088792560387e-02 -1.016691958816495e-01
1.137520000000000e+11 5.175449501277242e-02 -1.731566055525868e-01 -4.950540961945478e-01 -7.949072716527045e-01 7.716422812561635e-01 -5.291229154818411e-01 3.741489350581725e-02 -1.004410889526575e-01
1.138000000000000e+11 5.331465185162945e-02 -1.733116296163864e-01 -5.371886318487814e-01 -7.661561585806604e-01 8.014007865244244e-01 -4.842604491661021e-01 3.830627029246206e-02 -1.001063541060188e-01
1.138480000000000e+11 5.343570994578716e-02 -1.731050525888291e-01 -5.683198554509238e-01 -7.436580218679161e-01 8.201771402779432e-01 -4.500011801149661e-01 3.879126657002731e-02 -9.917069288558479e-02
1.138960000000000e+11 5.235783595336372e-02 -1.743206734519708e-01 -5.723997540675821e-01 -7.401784176711322e-01 8.223280217409429e-01 -4.461712672883722e-01 3.909927773823622e-02 -9.834794620102150e-02
1.139440000000000e+11 5.355889837591577e-02 -1.753380563294541e-01 -5.527586262637856e-01 -7.575398321115836e-01 8.104338964064353e-01 -4.675988808214150e-01 3.994928487406203e-02 -9.783072556491737e-02
1.139920000000000e+11 5.146057240225890e-02 -1.751492037671178e-01 -5.180533859175440e-01 -7.812727087700704e-01 7.869165897966489e-01 -5.055636594202041e-01 3.940837971592509e-02 -9.771947103910718e-02
1.140400000000000e+11 4.962776160201728e-02 -1.752530661624070e-01 -4.813736340451409e-01 -8.042903426169763e-01 7.622685957044997e-01 -5.438452019209083e-01 3.899323544700486e-02 -9.813096587597424e-02
1.140880000000000e+11 5.288436919276166e-02 -1.755537879296568e-01 -4.566960312129945e-01 -8.185069785196516e-01 7.461516908381850e-01 -5.662045412013322e-01 3.987249412924720e-02 -9.764595958762623e-02
1.141360000000000e+11 4.950788659353450e-02 -1.751083415233559e-01 -4.518406182738341e-01 -8.213752642921398e-01 7.408845568945959e-01 -5.731173221001399e-01 3.851827432923868e-02 -9.800207516378165e-02
1.141840000000000e+11 5.142567006137672e-02 -1.745093088336766e-01 -4.655357529086944e-01 -8.137947582475131e-01 7.493876558432354e-01 -5.626687477241116e-01 3.829367643463295e-02 -9.830914597749364e-02
1.142320000000000e+11 4.846216110820900e-02 -1.736194141024111e-01 -4.951781126457047e-01 -7.964580058142581e-01 7.654618641015581e-01 -5.394336960989610e-01 3.552546552346707e-02 -9.927865493989718e-02
1.142800000000000e+11 4.986107381320359e-02 -1.736164350843639e-01 -5.211409144676437e-01 -7.783663498865572e-01 7.836797288206562e-01 -5.136114534067316e-01 3.423366008059811e-02 -9.916224554932002e-02
1.143280000000000e+11 5.022943791669307e-02 -1.738742257283602e-01 -5.421435705335704e-01 -7.628871360722451e-01 7.963788012257231e-01 -4.921352335548321e-01 3.411359199341429e-02 -9.838945693677977e-02
1.143760000000000e+11 5.021298827922156e-02 -1.726696705494270e-01 -5.488198032794370e-01 -7.580169847811026e-01 8.016943319393069e-01 -4.833484308858177e-01 3.268961225488405e-02 -9.846260607746225e-02
1.144240000000000e+11 5.015454572420919e-02 -1.751484693518015e-01 -5.387357133802689e-01 -7.654645263248702e-01 7.942476249226450e-01 -4.953311782944952e-01 3.308852901025290e-02 -9.740314287502594e-02
1.144720000000000e+11 4.900551043220261e-02 -1.740027439088720e-01 -5.137489486846225e-01 -7.824340697963085e-01 7.775108805903401e-01 -5.210570169435456e-01 3.153372046085159e-02 -9.789003388195588e-02
1.145200000000000e+11 4.809752937961504e-02 -1.743309892785300e-01 -4.868461526612141e-01 -7.996907326928254e-01 7.593204836765028e-01 -5.475745999776866e-01 3.081538805812029e-02 -9.783419951537251e-02
1.145680000000000e+11 4.718828735319973e-02 -1.740737533914930e-01 -4.705010586550544e-01 -8.092879961955938e-01 7.463395662148141e-01 -5.651974793112829e-01 3.031756850247479e-02 -9.858343441707895e-02
1.146160000000000e+11 4.580189317955581e-02 -1.737388231109606e-01 -4.727689587071465e-01 -8.079466738708323e-01 7.462349312490903e-01 -5.661865431839415e-01 2.931778258238607e-02 -9.969340838382354e-02
1.146640000000000e+11 4.567537670765198e-02 -1.739629194101008e-01 -4.920668744517846e-01 -7.963324423324698e-01 7.571372962098940e-01 -5.514971428382190e-01 2.905633729131878e-02 -1.002484697868647e-01
1.147120000000000e+11 4.587470078313346e-02 -1.737812085902189e-01 -5.186352226165812e-01 -7.787148099527317e-01 7.750153304898950e-01 -5.241934297143196e-01 3.025323439498618e-02 -1.000948343023165e-01
1.147600000000000e+11 4.616445835743512e-02 -1.748514311883771e-01 -5.414720344171993e-01 -7.645823728927367e-01 7.901110928897681e-01 -5.024936697615260e-01 3.159334416920408e-02 -1.017399046677150e-01
1.148080000000000e+11 4.673980479968165e-02 -1.743170498924224e-01 -5.474439681047689e-01 -7.604804951891049e-01 7.940922473154103e-01 -4.955475206812359e-01 3.318041819944936e-02 -1.014004508582883e-01
1.148560000000000e+11 4.678761126648778e-02 -1.747786017991829e-01 -5.326125776361136e-01 -7.719035793709373e-01 7.847737048685143e-01 -5.112436068161932e-01 3.392728164130444e-02 -1.021449114434477e-01
1.149040000000000e+11 4.665942714876041e-02 -1.739892091855526e-01 -5.073839100029298e-01 -7.881906837627509e-01 7.658088715337141e-01 -5.389134281874102e-01 3.394969818109209e-02 -1.034089071778343e-01
1.149520000000000e+11 4.602654356979278e-02 -1.745471734290558e-01 -4.916121781268219e-01 -8.007509723870688e-01 7.515138708351233e-01 -5.600276768643881e-01 3.517690785628540e-02 -1.056188881799099e-01
1.150000000000000e+11 4.703218333156656e-02 -1.731104291581472e-01 -4.844642999476972e-01 -8.019820129513020e-01 7.481734524720625e-01 -5.639752359164123e-01 3.369851736486987e-02 -1.055740955928391e-01
