! Generated by Phase I extraction
# Hz S RI R 50
6.700000000000000e+10 -8.733599233933463e-02 7.744962349713858e-02 9.515459999328602e-01 -8.669583671782997e-02 9.527342647487010e-01 -9.385759221224521e-02 -3.852503061661693e-02 -3.094849907629917e-02
6.704800000000000e+10 -7.943936895154571e-02 8.376897458988387e-02 9.520331189389090e-01 -8.732002547501304e-02 9.525816018589996e-01 -9.321470825420826e-02 -4.257766937011596e-02 -3.532352449427065e-02
6.709600000000000e+10 -7.933578331517478e-02 8.414916149001457e-02 9.520658452095843e-01 -8.819902954485424e-02 9.513141359790539e-01 -9.293827195930764e-02 -4.311733424501896e-02 -3.473923544910032e-02
6.714400000000000e+10 -7.880147840890871e-02 8.528913694521466e-02 9.524175153723796e-01 -8.739356599788962e-02 9.515033301461738e-01 -9.336318533629799e-02 -4.314344473047083e-02 -3.620871358659822e-02
6.719200000000000e+10 -7.864076280273723e-02 8.464032225463486e-02 9.536490958926936e-01 -8.732485127347761e-02 9.526633273892676e-01 -9.354540938489955e-02 -4.418343348862849e-02 -3.754461822317755e-02
6.724000000000000e+10 -7.938464526072715e-02 8.588493147957120e-02 9.518290572422905e-01 -8.638033404000109e-02 9.521732652374230e-01 -9.302800951544725e-02 -4.285425578077351e-02 -3.472189994340643e-02
6.728800000000000e+10 -7.839162705614158e-02 8.423895679256697e-02 9.526220831614662e-01 -8.773117727893705e-02 9.520123860666156e-01 -9.256023989850611e-02 -4.401681262404452e-02 -3.684326876957950e-02
6.733600000000000e+10 -7.768251745253069e-02 8.602849372178625e-02 9.531349215362580e-01 -8.691273549074280e-02 9.533523605171053e-01 -9.357936239367334e-02 -4.471501410356239e-02 -3.774594478399100e-02
6.738400000000000e+10 -7.767005456154719e-02 8.721814828722485e-02 9.513230160006164e-01 -8.703747634332670e-02 9.522105321841070e-01 -9.336424423504823e-02 -4.320580932770567e-02 -3.621198998846802e-02
6.743200000000000e+10 -7.858462543621172e-02 8.938420511415131e-02 9.523889745065592e-01 -8.539265523601913e-02 9.506042898159933e-01 -9.308439757616183e-02 -4.233354573083193e-02 -3.474519707738678e-02
6.748000000000000e+10 -7.900216542443536e-02 8.848998590369414e-02 9.503544822224772e-01 -8.551443976703618e-02 9.505294738998068e-01 -9.246908595613484e-02 -4.236514508178363e-02 -3.436035254287073e-02
6.752800000000000e+10 -7.932043133014520e-02 8.856336737580028e-02 9.514446971944998e-01 -8.754863732317127e-02 9.496744189002470e-01 -9.207876174168279e-02 -4.287392064752695e-02 -3.280503553221172e-02
6.757600000000000e+10 -7.802847730410385e-02 8.936748516764655e-02 9.521160030125703e-01 -8.724281488874493e-02 9.521407236236501e-01 -9.215964197419295e-02 -4.290282696911839e-02 -3.502611681101858e-02
6.762400000000000e+10 -7.692911722910503e-02 9.160564947234395e-02 9.517646504612639e-01 -8.717271834185911e-02 9.501013095269938e-01 -9.225373782546299e-02 -4.309781818157912e-02 -3.388952525669476e-02
6.767200000000000e+10 -7.696469542272058e-02 9.205201076577191e-02 9.521303126946286e-01 -8.738489365253890e-02 9.513905235332532e-01 -9.212592867147458e-02 -4.322750750626213e-02 -3.435784487085336e-02
6.772000000000000e+10 -7.628224642735595e-02 9.263403825560364e-02 9.525716565472145e-01 -8.741003234784971e-02 9.514787313353137e-01 -9.186183024202307e-02 -4.294728176479804e-02 -3.332022980171064e-02
6.776800000000000e+10 -7.650039088249917e-02 9.396983012170149e-02 9.518581770862089e-01 -8.830294734311769e-02 9.525778151589515e-01 -9.196194829075097e-02 -4.184708298698758e-02 -3.388789365034023e-02
6.781600000000000e+10 -7.687120215604042e-02 9.249107757763787e-02 9.508709873244385e-01 -8.792103410113630e-02 9.508003571395859e-01 -9.208067046734165e-02 -4.193664734116171e-02 -3.142020435583889e-02
6.786400000000000e+10 -7.723465449688600e-02 9.191395352757586e-02 9.506537756551322e-01 -8.779125762695726e-02 9.507833545440699e-01 -9.322182398893424e-02 -4.291223289770390e-02 -3.190734520960694e-02
6.791200000000000e+10 -7.759922507806380e-02 9.039770990986801e-02 9.516694052762638e-01 -8.821823454997528e-02 9.508515602070351e-01 -9.325593021527961e-02 -4.296699928024930e-02 -3.402911744336429e-02
6.796000000000000e+10 -7.735379231791424e-02 8.938569551342522e-02 9.508493559896757e-01 -8.887827226285709e-02 9.500129610624453e-01 -9.369843089905418e-02 -4.372699266077902e-02 -3.381253224047494e-02
6.800800000000000e+10 -7.774418716723420e-02 8.993272322965559e-02 9.525214552082940e-01 -9.019341933042986e-02 9.497950897358808e-01 -9.297170144864580e-02 -4.351177054054241e-02 -3.331926684230144e-02
6.805600000000000e+10 -7.879974253841386e-02 8.965831170626377e-02 9.510886866939128e-01 -9.090949117725755e-02 9.504607097429858e-01 -9.337269342100184e-02 -4.340894565190111e-02 -3.264811808715579e-02
6.810400000000000e+10 -7.866080662606849e-02 8.960355430314743e-02 9.520678100585942e-01 -9.153735985377710e-02 9.507284205083706e-01 -9.356241656707703e-02 -4.267180561446147e-02 -3.279770864948710e-02
6.815200000000000e+10 -7.852596172265740e-02 9.058912405486406e-02 9.502933930446978e-01 -9.159461211895870e-02 9.492325977542161e-01 -9.377020620853989e-02 -4.324473270303319e-02 -2.974960140788878e-02
6.820000000000000e+10 -7.854436324874964e-02 9.263617276214925e-02 9.488450551560002e-01 -9.296152847606973e-02 9.488799367067985e-01 -9.452759503688737e-02 -4.410783267775238e-02 -2.990882056376724e-02
6.824800000000000e+10 -7.765805308397736e-02 9.309688391988225e-02 9.496956226056982e-01 -9.294293237780867e-02 9.502041719997656e-01 -9.495393580262972e-02 -4.351064214472371e-02 -3.186196023732273e-02
6.829600000000000e+10 -7.661273100979650e-02 9.472937226427512e-02 9.489813469835886e-01 -9.247380782071431e-02 9.499350224415529e-01 -9.229077892175933e-02 -4.242222186245804e-02 -3.180826729024110e-02
6.834400000000000e+10 -7.581972567735709e-02 9.433743926859546e-02 9.475680050847444e-01 -9.248938625766058e-02 9.481419412494771e-01 -9.412907144003421e-02 -4.128982122527849e-02 -3.121337838073998e-02
6.839200000000000e+10 -7.664363110570037e-02 9.442292843451228e-02 9.468858420921308e-01 -9.093865911375809e-02 9.469376585876033e-01 -9.376022796837656e-02 -4.077165563650902e-02 -3.056400043279325e-02
6.844000000000000e+10 -7.862461716804896e-02 9.292643705241378e-02 9.456953516276951e-01 -8.940683459040021e-02 9.454678074670126e-01 -9.343817043990084e-02 -4.244405311207842e-02 -3.012282884182031e-02
6.848800000000000e+10 -7.934352172050699e-02 9.321280341647981e-02 9.489836657770752e-01 -8.940038839801664e-02 9.466373264540134e-01 -9.233179678785249e-02 -4.196333636106775e-02 -2.974422368037960e-02
6.853600000000000e+10 -7.945510186951070e-02 9.111536840612595e-02 9.485466477360408e-01 -8.855595954668438e-02 9.459828707448146e-01 -9.123730479527088e-02 -4.324296464145413e-02 -2.833215851137817e-02
6.858400000000000e+10 -7.939066383856136e-02 9.241400187637316e-02 9.490353219418465e-01 -8.935379534487516e-02 9.465049256503477e-01 -9.167456837612678e-02 -4.307248299536298e-02 -2.918605725715948e-02
6.863200000000000e+10 -7.786827543851028e-02 9.488475067491528e-02 9.486106804567613e-01 -8.996364059755230e-02 9.465081752699879e-01 -9.151882809842735e-02 -4.148882669084429e-02 -2.853720231324453e-02
6.868000000000000e+10 -7.750264551354431e-02 9.508549117834354e-02 9.469218094755952e-01 -9.045097915003185e-02 9.459430047593822e-01 -9.094669833937605e-02 -4.107607981556016e-02 -2.791415386745389e-02
6.872800000000000e+10 -7.873874416100690e-02 9.434201513647048e-02 9.460894308813708e-01 -9.110113382083615e-02 9.452705536274969e-01 -9.120225175605672e-02 -4.135939424375808e-02 -2.921837962810301e-02
6.877600000000000e+10 -8.020908495306180e-02 9.129140289981505e-02 9.460835756327622e-01 -8.959481054520381e-02 9.457910433031190e-01 -9.110729814732538e-02 -4.154140186265776e-02 -3.090050645109641e-02
6.882400000000000e+10 -8.181608365027498e-02 9.387816490826599e-02 9.510892301699744e-01 -8.235002779429408e-02 9.479899747068549e-01 -8.809026294144096e-02 -4.148143978778822e-02 -3.075826369569068e-02
6.887200000000000e+10 -8.280385967186259e-02 9.164809743643863e-02 9.523397157239814e-01 -8.008348166814358e-02 9.495857995830533e-01 -8.563428867431785e-02 -3.914103967174202e-02 -2.992008807695818e-02
6.892000000000000e+10 -8.235515323760413e-02 9.535868372423900e-02 9.569818515364242e-01 -7.772754140077177e-02 9.527907233077382e-01 -8.414001154276732e-02 -3.711750056824752e-02 -3.100313505551987e-02
6.896800000000000e+10 -8.066222363948290e-02 8.886938888340785e-02 9.519560523431668e-01 -8.609191906507377e-02 9.483587834279179e-01 -8.683390446706703e-02 -4.218540689060232e-02 -2.862467825117677e-02
6.901600000000000e+10 -8.060573216307176e-02 9.217206989461306e-02 9.524379311882695e-01 -8.824018237298259e-02 9.486977880955250e-01 -8.800431609954529e-02 -4.137474237438907e-02 -2.949360985932099e-02
6.906400000000000e+10 -8.065841762973058e-02 8.932107645699659e-02 9.505851872877020e-01 -8.714934464514265e-02 9.479204634759433e-01 -8.775319208361637e-02 -4.104231060534611e-02 -2.785593699823926e-02
6.911200000000000e+10 -8.061157408373143e-02 8.966954750769043e-02 9.510735929646603e-01 -8.836163527500636e-02 9.484195203042933e-01 -8.750381184645127e-02 -4.083901332170928e-02 -2.906642618038528e-02
6.916000000000000e+10 -7.962064257521319e-02 8.946055096557211e-02 9.502975066898928e-01 -8.743751298782791e-02 9.481380542613150e-01 -8.721370671640197e-02 -4.073600251914413e-02 -2.698708071503440e-02
6.920800000000000e+10 -8.026074067636220e-02 8.661800056413106e-02 9.498929589906426e-01 -8.822965954408843e-02 9.477010695124544e-01 -8.801008078556002e-02 -4.195518436554479e-02 -2.939467424101306e-02
6.925600000000000e+10 -8.115492152593441e-02 9.225823078997374e-02 9.518371703071445e-01 -8.904991200679832e-02 9.492500108675780e-01 -8.832585463087672e-02 -4.252770663713810e-02 -3.046294714140656e-02
6.930400000000000e+10 -8.223540472532277e-02 8.967153947551661e-02 9.516734807296436e-01 -8.756551221257002e-02 9.484291827288949e-01 -8.767331389037789e-02 -4.292107105048538e-02 -3.024538579675962e-02
6.935200000000000e+10 -8.028586446326694e-02 9.571914943504901e-02 9.538210698234130e-01 -8.855713438537786e-02 9.499267112910289e-01 -8.826716484057420e-02 -4.159369720669437e-02 -2.909562605584636e-02
6.940000000000000e+10 -8.042224332727604e-02 9.551651139304755e-02 9.540913644937463e-01 -8.737764449604801e-02 9.499705819593737e-01 -8.776315207703564e-02 -4.066546753006257e-02 -2.683368095343191e-02
6.944800000000000e+10 -7.842373387024232e-02 9.788821744092745e-02 9.553641218179451e-01 -8.842705256027780e-02 9.518437023633286e-01 -8.816515523585461e-02 -3.892079528509091e-02 -2.563352401605597e-02
6.949600000000000e+10 -7.855641846073322e-02 9.596163921292561e-02 9.539261339766445e-01 -8.858642237116884e-02 9.503855059874067e-01 -8.868601332438536e-02 -3.967647003483774e-02 -2.456755977399471e-02
6.954400000000000e+10 -7.909192922820867e-02 9.638465316238701e-02 9.550181804888795e-01 -9.031101996769732e-02 9.516709263443108e-01 -8.988149424630702e-02 -3.997280458736768e-02 -2.592544788635388e-02
6.959200000000000e+10 -7.794063827990348e-02 9.474075994831643e-02 9.541292323829363e-01 -8.942935677365538e-02 9.514146503047252e-01 -8.916333900785048e-02 -3.886634624983743e-02 -2.477627777632068e-02
6.964000000000000e+10 -7.708516470252581e-02 9.444710669337207e-02 9.540293751258020e-01 -9.030106024945324e-02 9.516794638260696e-01 -9.054214719211762e-02 -3.890315158436366e-02 -2.540033457489558e-02
6.968800000000000e+10 -7.807845357836997e-02 9.324153045283719e-02 9.525450753110457e-01 -8.985207814538025e-02 9.500917063206291e-01 -9.069810323554305e-02 -3.966299485850950e-02 -2.608754657113510e-02
6.973600000000000e+10 -7.739566513692554e-02 9.476933397245577e-02 9.530168491645837e-01 -8.933692119210926e-02 9.506470143547110e-01 -9.071429907346303e-02 -3.870743600438083e-02 -2.518214360235479e-02
6.978400000000000e+10 -7.783721672392196e-02 9.570099885579454e-02 9.542855203835441e-01 -8.939549257670552e-02 9.509602526877580e-01 -9.094435840177205e-02 -3.883118975968117e-02 -2.540181754161193e-02
6.983200000000000e+10 -7.834369770381126e-02 9.518005631166244e-02 9.541847078784124e-01 -8.873870064691587e-02 9.506251977836370e-01 -9.092889119981240e-02 -3.904572599806196e-02 -2.564326455028665e-02
6.988000000000000e+10 -7.713721998577965e-02 9.723390496052116e-02 9.554835742778125e-01 -8.914036308994706e-02 9.519559550831939e-01 -9.155772376931287e-02 -3.826750397166042e-02 -2.475572372537352e-02
6.992800000000000e+10 -7.692104822961214e-02 9.659423402315688e-02 9.554553680646486e-01 -8.906409489748542e-02 9.511863269608316e-01 -9.110176644284387e-02 -3.804331868436991e-02 -2.427106953346040e-02
6.997600000000000e+10 -7.655438021798584e-02 9.848053004570123e-02 9.552066574200208e-01 -8.993150974136185e-02 9.517433445280156e-01 -9.142507095449012e-02 -3.734202686942036e-02 -2.289799375819941e-02
7.002400000000000e+10 -7.630866768838093e-02 9.668664119990990e-02 9.545131771117307e-01 -9.022370282669313e-02 9.512633601385678e-01 -9.133788909540813e-02 -3.700232324519782e-02 -2.322147843797957e-02
7.007200000000000e+10 -7.705703139725599e-02 9.618816735083387e-02 9.538080633103098e-01 -9.098012613400727e-02 9.506770620455780e-01 -9.240570200395341e-02 -3.797854027382798e-02 -2.381940504685988e-02
7.012000000000000e+10 -7.728734756228826e-02 9.589241871311803e-02 9.533771662661720e-01 -9.082388319173189e-02 9.509422987601862e-01 -9.224682865679137e-02 -3.732388026157438e-02 -2.409832260434742e-02
7.016800000000000e+10 -7.716709569805991e-02 9.454367382898247e-02 9.536616453186979e-01 -9.015026623235169e-02 9.509567395704179e-01 -9.222206118513852e-02 -3.733375135846062e-02 -2.385883823173731e-02
7.021600000000000e+10 -7.664930587624839e-02 9.540305592581111e-02 9.524371397120506e-01 -8.995974206441983e-02 9.498612542376348e-01 -9.276456125748891e-02 -3.762839229574098e-02 -2.258365520445710e-02
7.026400000000000e+10 -7.642654946606890e-02 9.529251466013916e-02 9.539019047296831e-01 -8.952037049304878e-02 9.495793488713818e-01 -9.204396027876466e-02 -3.814796302091470e-02 -2.452134256405127e-02
7.031200000000000e+10 -7.685738085584652e-02 9.692568978131441e-02 9.548541182170593e-01 -8.977882382292408e-02 9.516393086033013e-01 -9.271006391316307e-02 -3.808914800123169e-02 -2.474538943047332e-02
7.036000000000000e+10 -7.624026768620075e-02 9.723203149049686e-02 9.545575651764256e-01 -8.965246807200938e-02 9.510785804765810e-01 -9.251357546844656e-02 -3.777000659507351e-02 -2.504527802386829e-02
7.040800000000000e+10 -7.620262593846418e-02 9.761972366273085e-02 9.548508243295339e-01 -8.992409881260659e-02 9.511126413321720e-01 -9.317235084752429e-02 -3.635894917314348e-02 -2.341299266717958e-02
7.045600000000000e+10 -7.642282252923871e-02 9.687968358253989e-02 9.536579114803851e-01 -8.961622515328456e-02 9.520369232737474e-01 -9.348923048944942e-02 -3.698844976986260e-02 -2.356561428722331e-02
7.050400000000000e+10 -7.646715244528521e-02 9.763682611815436e-02 9.557187219573772e-01 -9.082003563237213e-02 9.519371858418557e-01 -9.416522502142187e-02 -3.606784370932060e-02 -2.317664063192633e-02
7.055200000000000e+10 -7.766187388070489e-02 9.454272827027434e-02 9.539559781876134e-01 -9.080123671352033e-02 9.516571825869590e-01 -9.457848990115046e-02 -3.683785535937604e-02 -2.574682392952494e-02
7.060000000000000e+10 -7.713966652514755e-02 9.512559215356256e-02 9.547651119388999e-01 -9.099256511238453e-02 9.513569210542243e-01 -9.443005281909447e-02 -3.688922354627980e-02 -2.479390597897529e-02
7.064800000000000e+10 -7.715155984643872e-02 9.321922801983704e-02 9.536184811795920e-01 -9.005005558661575e-02 9.519811638688176e-01 -9.447520670362025e-02 -3.623691562542927e-02 -2.583825227969639e-02
7.069600000000000e+10 -7.645356990186576e-02 9.297912292159317e-02 9.551018499167844e-01 -9.027834786735191e-02 9.521201309414296e-01 -9.476666650273130e-02 -3.637222931206208e-02 -2.609927135987597e-02
7.074400000000000e+10 -7.621149034603128e-02 9.427898788221223e-02 9.526910094268431e-01 -8.876936281044294e-02 9.505838126043210e-01 -9.470215632811965e-02 -3.520770478839226e-02 -2.410032547421542e-02
7.079200000000000e+10 -7.643798979366857e-02 9.494420759551990e-02 9.550384429333961e-01 -8.943918137948362e-02 9.515493954881310e-01 -9.553013669208983e-02 -3.641758904862872e-02 -2.488562069171758e-02
7.084000000000000e+10 -7.685707540467912e-02 9.607080687515099e-02 9.528574634860758e-01 -8.855370313332894e-02 9.505206761185707e-01 -9.532868298428458e-02 -3.489856327433117e-02 -2.331478012974864e-02
7.088800000000000e+10 -7.777817130143178e-02 9.577957957194351e-02 9.555536198840467e-01 -8.966634792045786e-02 9.521410513181413e-01 -9.615943376772212e-02 -3.647202115965144e-02 -2.571223252229056e-02
7.093600000000000e+10 -7.615062536133925e-02 9.404099251830762e-02 9.535276540911641e-01 -8.924931103402808e-02 9.502677678920604e-01 -9.561142263620026e-02 -3.393222814281348e-02 -2.180306881864322e-02
7.098400000000000e+10 -7.619303460729944e-02 9.534326014679992e-02 9.550392748192893e-01 -9.038723758775866e-02 9.518169650739728e-01 -9.627452360301061e-02 -3.522790111533042e-02 -2.353997984477145e-02
7.103200000000000e+10 -7.634472283111564e-02 9.543185915855444e-02 9.532541296103191e-01 -9.131508484278657e-02 9.507577956172982e-01 -9.639336165609209e-02 -3.496347644123592e-02 -2.376965609882264e-02
7.108000000000000e+10 -7.581786982038193e-02 9.529414045255831e-02 9.516946706763776e-01 -9.122747601260771e-02 9.504160083950900e-01 -9.641862240879663e-02 -3.482415110685745e-02 -2.148502020356016e-02
7.112800000000000e+10 -7.535955297271157e-02 9.489590368131354e-02 9.528571955212641e-01 -9.134651720700029e-02 9.501286680494744e-01 -9.690231053734660e-02 -3.456200657790547e-02 -2.069200645280836e-02
7.117600000000000e+10 -7.590899549407601e-02 9.492778104426376e-02 9.507497634599962e-01 -9.108996039240688e-02 9.496715155413343e-01 -9.736440909373859e-02 -3.553016580735371e-02 -2.142792672720184e-02
7.122400000000000e+10 -7.470132155103211e-02 9.613455189076756e-02 9.528351692908701e-01 -9.098766268090201e-02 9.501243897467692e-01 -9.766802407701516e-02 -3.426465382792653e-02 -2.067947725608724e-02
7.127200000000000e+10 -7.595114773989396e-02 9.398932780133437e-02 9.505197389622402e-01 -9.058851391057282e-02 9.492857836533903e-01 -9.801522478574046e-02 -3.482119302379268e-02 -1.955558963237959e-02
7.132000000000000e+10 -7.611901195967020e-02 9.691994324581897e-02 9.533634463022603e-01 -9.105545983875335e-02 9.493640843834573e-01 -9.910238589398912e-02 -3.542143577043408e-02 -2.090799150974268e-02
7.136800000000000e+10 -7.642623624413819e-02 9.314185835305396e-02 9.497489541583194e-01 -9.112454386311881e-02 9.488794522826209e-01 -9.873230935245342e-02 -3.410988975033449e-02 -2.111576221052904e-02
7.141600000000000e+10 -7.570528162932783e-02 9.352253406945496e-02 9.536987234102686e-01 -9.161181022281781e-02 9.512579023683247e-01 -9.854892355106354e-02 -3.409574727961817e-02 -2.335883441979299e-02
7.146400000000000e+10 -7.527061658122816e-02 9.221472641662988e-02 9.513780058765958e-01 -9.187563686960282e-02 9.502735234712292e-01 -9.852805366276095e-02 -3.308739743258574e-02 -2.296149442308217e-02
7.151200000000000e+10 -7.565368573652675e-02 9.118233109037911e-02 9.527764882830113e-01 -9.204147547726965e-02 9.508456462683962e-01 -9.831048856122072e-02 -3.343754082131238e-02 -2.481544407283752e-02
7.156000000000000e+10 -7.528873849702912e-02 9.172441650270448e-02 9.526027219284684e-01 -9.217604398763152e-02 9.499313325681741e-01 -9.841687333974232e-02 -3.285243319701681e-02 -2.318053418659247e-02
7.160800000000000e+10 -7.569324030206202e-02 9.048856145064808e-02 9.528413122401841e-01 -9.127737751913940e-02 9.518540356033449e-01 -9.757898711435266e-02 -3.273695368921389e-02 -2.251895664882596e-02
7.165600000000000e+10 -7.495127274195552e-02 9.005993903083688e-02 9.512450211087491e-01 -9.124022165124833e-02 9.500102976994150e-01 -9.705476452877683e-02 -3.168437175308120e-02 -1.908028557402783e-02
7.170400000000000e+10 -7.510045061923154e-02 9.139896258621959e-02 9.510474963990342e-01 -9.195213921535683e-02 9.510850270774885e-01 -9.743921132224535e-02 -3.240505349181450e-02 -1.965145205784890e-02
7.175200000000000e+10 -7.491447248959479e-02 9.181302189827382e-02 9.489227012876558e-01 -9.286619234895088e-02 9.488930585312939e-01 -9.945404894498580e-02 -3.174784479800557e-02 -1.528896908833900e-02
7.180000000000000e+10 -7.554886579252892e-02 9.206449099221582e-02 9.490417648713744e-01 -9.206778750784927e-02 9.489994475966124e-01 -9.968618362895933e-02 -3.272069610529107e-02 -1.442760950854687e-02
7.184800000000000e+10 -7.458911636736584e-02 9.107006894939884e-02 9.517982858627994e-01 -9.107568851651006e-02 9.499199088793583e-01 -9.938806208070118e-02 -3.203975078728943e-02 -1.850601132163401e-02
7.189600000000000e+10 -7.529016358073345e-02 9.374128759484687e-02 9.522769240031748e-01 -9.070120219580989e-02 9.502429031508357e-01 -9.894109265292816e-02 -3.173148584212845e-02 -1.827513831458581e-02
7.194400000000000e+10 -7.556672961740828e-02 9.361642927552534e-02 9.511768069422066e-01 -9.079939383954648e-02 9.482528876413880e-01 -9.999310716581414e-02 -3.197017666651617e-02 -1.846903116409784e-02
7.199200000000000e+10 -7.606548112589769e-02 9.342370552067487e-02 9.525066876104340e-01 -9.093382203778479e-02 9.500131971594800e-01 -9.837526021273460e-02 -3.141742073677695e-02 -1.892450608560715e-02
7.204000000000000e+10 -7.559755230154117e-02 9.298376014438202e-02 9.516800025764995e-01 -9.210151336579180e-02 9.491490608463442e-01 -9.923150800705748e-02 -3.291670132701759e-02 -1.951128115422779e-02
7.208800000000000e+10 -7.697770740011088e-02 9.322553010506011e-02 9.505975470295315e-01 -9.234425962190315e-02 9.488870961708878e-01 -9.939095106016729e-02 -3.312192640905561e-02 -1.920176206534553e-02
7.213600000000000e+10 -7.696535481287650e-02 9.297113307667099e-02 9.497814620045217e-01 -9.300906995047972e-02 9.501391499545092e-01 -9.920462338783433e-02 -3.408160877898213e-02 -1.840101458929133e-02
7.218400000000000e+10 -7.640696325833583e-02 9.318493263042113e-02 9.495605124798596e-01 -9.297275253043902e-02 9.494015063114617e-01 -1.002411043529933e-01 -3.352792855077296e-02 -1.757815149456136e-02
7.223200000000000e+10 -7.676515605512096e-02 9.490589535870420e-02 9.489612331727786e-01 -9.292329445619743e-02 9.493274298594508e-01 -1.002248953123639e-01 -3.378119485091114e-02 -1.872721835627199e-02
7.228000000000000e+10 -7.871751765149557e-02 9.391214589440201e-02 9.482348650367346e-01 -9.368433979044818e-02 9.479199983408831e-01 -1.017882327408571e-01 -3.536975456255839e-02 -2.145433034215962e-02
7.232800000000000e+10 -7.998528011381652e-02 9.641547206515244e-02 9.488508395440499e-01 -9.419093405706577e-02 9.482529017371761e-01 -1.019144186132038e-01 -3.605168168396077e-02 -2.369353939002113e-02
7.237600000000000e+10 -8.097044566094176e-02 9.657488283512181e-02 9.489678538004965e-01 -9.428829258062205e-02 9.480183061891994e-01 -1.022159987879683e-01 -3.746778516118205e-02 -2.465134853958225e-02
7.242400000000000e+10 -8.081296998622500e-02 9.714670038401721e-02 9.489985733613879e-01 -9.465374081449816e-02 9.481412266219335e-01 -1.019138973124807e-01 -3.666299899094831e-02 -2.746714910478726e-02
7.247200000000000e+10 -8.254600603078603e-02 1.002290894105867e-01 9.512143701670343e-01 -9.490321659753582e-02 9.481787445962661e-01 -1.027953132418928e-01 -3.846522970583064e-02 -2.961498052703674e-02
7.252000000000000e+10 -8.318225201571473e-02 9.811269727683010e-02 9.493873144213244e-01 -9.581727506407810e-02 9.479997724285549e-01 -1.031182183515418e-01 -3.923650727483757e-02 -2.938126345559697e-02
7.256800000000000e+10 -8.591327291735983e-02 9.748704402858173e-02 9.525736364095447e-01 -9.583372981870909e-02 9.501603514040863e-01 -1.025530810756283e-01 -4.126381438972358e-02 -3.361931332480447e-02
7.261600000000000e+10 -8.431183411843525e-02 9.706232204297550e-02 9.512746393981000e-01 -9.559204566608637e-02 9.482003224095374e-01 -1.026941522828401e-01 -3.953017223731031e-02 -3.323077979347337e-02
7.266400000000000e+10 -8.476980915405798e-02 9.840853127238169e-02 9.516580262660306e-01 -9.583465281670776e-02 9.482820568942562e-01 -1.032811034374073e-01 -4.021312830062420e-02 -3.301510564459695e-02
7.271200000000000e+10 -8.304915638863627e-02 9.822075546144067e-02 9.509755884328978e-01 -9.546175934567050e-02 9.483325557635324e-01 -1.022754310739837e-01 -3.851134282531157e-02 -3.172685909204361e-02
7.276000000000000e+10 -8.377554763281000e-02 9.875286218476068e-02 9.511133458767586e-01 -9.556655145439628e-02 9.475309715592797e-01 -1.029744566448160e-01 -3.915061682656384e-02 -3.110488633199162e-02
7.280800000000000e+10 -8.379566244993346e-02 9.869429997366928e-02 9.514445884103195e-01 -9.518841495317545e-02 9.473151088897240e-01 -1.031317930835875e-01 -3.916144966351306e-02 -3.098382077105880e-02
7.285600000000000e+10 -8.481972043250835e-02 9.817116466036800e-02 9.504475954203064e-01 -9.608608383372697e-02 9.470091908721274e-01 -1.036490142046601e-01 -3.986786029075590e-02 -3.216570503464788e-02
7.290400000000000e+10 -8.444037280468633e-02 9.862685557283100e-02 9.515506937864229e-01 -9.528217688243544e-02 9.476748043256694e-01 -1.025515680640894e-01 -3.952940083012195e-02 -3.069463384881407e-02
7.295200000000000e+10 -8.504191725596713e-02 9.751513732527485e-02 9.506039905532732e-01 -9.580112140559384e-02 9.470929426173160e-01 -1.032262890715652e-01 -4.006740615730839e-02 -3.137663534907042e-02
7.300000000000000e+10 -8.409518122388907e-02 9.876973862886407e-02 9.505614607808568e-01 -9.568007229925883e-02 9.465969348068414e-01 -1.025777871949855e-01 -3.906756389574975e-02 -2.904601690527086e-02
7.304800000000000e+10 -8.397591833518379e-02 9.726570957831275e-02 9.504132044340542e-01 -9.608739141469518e-02 9.466799842708545e-01 -1.026165392205675e-01 -3.888985558892370e-02 -3.029492382646510e-02
7.309600000000000e+10 -8.391245381094684e-02 9.818882840908075e-02 9.509201326398835e-01 -9.528647481405893e-02 9.470453317211296e-01 -1.020785719076930e-01 -3.930508592872941e-02 -2.843095948082997e-02
7.314400000000000e+10 -8.384514771591237e-02 9.851680150724457e-02 9.513926838199968e-01 -9.471626114262686e-02 9.470952198732321e-01 -1.024374027724445e-01 -3.868805690826198e-02 -3.003717779261385e-02
7.319200000000000e+10 -8.318104812845047e-02 9.813904149051648e-02 9.490448994370921e-01 -9.598974338372221e-02 9.465436828883769e-01 -1.029924157489114e-01 -3.806007232824309e-02 -2.874708826763325e-02
7.324000000000000e+10 -8.291780352592977e-02 9.821668416046579e-02 9.502748086177633e-01 -9.482104996206341e-02 9.469473785739616e-01 -1.022265207422318e-01 -3.855967607535665e-02 -2.851956035511810e-02
7.328800000000000e+10 -8.205998498259302e-02 9.872314514581587e-02 9.497795390420301e-01 -9.564868346369264e-02 9.462635797166044e-01 -1.058522994161439e-01 -3.810167394860538e-02 -2.734167340896113e-02
7.333600000000000e+10 -8.198802173389624e-02 9.754401354562608e-02 9.498781197410533e-01 -9.492584390129311e-02 9.467570771336528e-01 -1.016129183147830e-01 -3.718300578372789e-02 -2.654781447838654e-02
7.338400000000000e+10 -8.049004243634113e-02 9.752817880544583e-02 9.493710300783672e-01 -9.430048029480396e-02 9.460710914834001e-01 -1.014853664508439e-01 -3.650408628655473e-02 -2.409121908512447e-02
7.343200000000000e+10 -7.973433918711480e-02 9.742595144888605e-02 9.507520211336329e-01 -9.389923254755911e-02 9.471715056507427e-01 -1.019649102471207e-01 -3.548447272865226e-02 -2.834849011179079e-02
7.348000000000000e+10 -7.943629142240206e-02 9.577136462959071e-02 9.505897213355474e-01 -9.241938535074473e-02 9.461637879090533e-01 -1.014308125504951e-01 -3.400293015318955e-02 -2.289181886593029e-02
7.352800000000000e+10 -7.922081397240033e-02 9.610524165097410e-02 9.495664962967375e-01 -9.256832512093410e-02 9.456382102797823e-01 -1.015130386949433e-01 -3.308692131354415e-02 -2.056938635665075e-02
7.357600000000000e+10 -7.917830071001714e-02 9.556493923336781e-02 9.491499461904854e-01 -9.223857131888087e-02 9.447433462193564e-01 -1.020716615216967e-01 -3.300155190902418e-02 -1.924710682631203e-02
7.362400000000000e+10 -7.970796270576268e-02 9.635818879063918e-02 9.490195914528547e-01 -9.234100570033842e-02 9.451776504447543e-01 -1.015579668700481e-01 -3.269884890869062e-02 -1.953548592800271e-02
7.367200000000000e+10 -7.980383641385377e-02 9.806122067134083e-02 9.492396478509862e-01 -9.254389055219897e-02 9.447968728800195e-01 -1.016914695702063e-01 -3.228769073349157e-02 -1.892811630446222e-02
7.372000000000000e+10 -7.918211363679846e-02 9.761977206712015e-02 9.489899837935234e-01 -9.317997320940066e-02 9.450823531527021e-01 -1.018715388814171e-01 -3.190832873468082e-02 -2.520200079395481e-02
7.376800000000000e+10 -7.978386199814234e-02 9.864420462356026e-02 9.475468237333893e-01 -9.382286677138228e-02 9.443263068585537e-01 -1.011166945520057e-01 -3.234805271328923e-02 -1.788292734519954e-02
7.381600000000000e+10 -7.953241782619681e-02 9.682838234840190e-02 9.465109915488433e-01 -9.337123561260390e-02 9.439064238447182e-01 -1.015714267540450e-01 -3.260712873334264e-02 -1.713025682893883e-02
7.386400000000000e+10 -7.971773928782945e-02 9.892629489379609e-02 9.461788437140606e-01 -9.322553463518596e-02 9.447702813141461e-01 -1.017077819513388e-01 -3.260116739193056e-02 -1.927238774669293e-02
7.391200000000000e+10 -8.124032217808783e-02 9.797061570739392e-02 9.457570096923957e-01 -9.324507778860736e-02 9.431878350516283e-01 -1.023270468220980e-01 -3.352514373224417e-02 -1.670841322572669e-02
7.396000000000000e+10 -8.133511450615927e-02 9.800607866800323e-02 9.448647402885868e-01 -9.329682742088000e-02 9.445064071881066e-01 -1.006098802677453e-01 -3.275102158732784e-02 -1.630310307309487e-02
7.400800000000000e+10 -8.100033487658735e-02 9.830676166492212e-02 9.459743663669781e-01 -9.380984739998481e-02 9.429841225206219e-01 -1.019667930718514e-01 -3.246035788137972e-02 -1.480371745579026e-02
7.405600000000000e+10 -8.112262785949845e-02 9.845475379441981e-02 9.451591518161316e-01 -9.478718742715656e-02 9.435058603316581e-01 -1.012207426516521e-01 -3.282929977071780e-02 -1.509877940513396e-02
7.410400000000000e+10 -8.102697791177957e-02 9.750166981980861e-02 9.454421639883032e-01 -9.502445175869428e-02 9.423698077253013e-01 -1.015512812549384e-01 -3.260714688615520e-02 -1.539217317170660e-02
7.415200000000000e+10 -8.119894628647115e-02 9.871026634017331e-02 9.466865531083447e-01 -9.495200696207182e-02 9.438872774660065e-01 -1.006552956309618e-01 -3.246518227276570e-02 -1.548223891689391e-02
7.420000000000000e+10 -8.081866681005440e-02 9.724258688634659e-02 9.454666583502750e-01 -9.561333102860604e-02 9.422978221399769e-01 -1.023222876746594e-01 -3.186240333640005e-02 -1.474592454854862e-02
7.424800000000000e+10 -8.094621391672693e-02 9.818692607532352e-02 9.466789957392904e-01 -9.476033590998660e-02 9.435456199253682e-01 -1.010947607687977e-01 -3.141381684858222e-02 -1.464544142766711e-02
7.429600000000000e+10 -8.027150505444228e-02 9.662371756782809e-02 9.455598737815599e-01 -9.507493815481104e-02 9.428643540533065e-01 -1.019802613794082e-01 -3.095445084685533e-02 -1.453570955741978e-02
7.434400000000000e+10 -8.054178579098428e-02 9.677392291407998e-02 9.459920078970138e-01 -9.461663209768414e-02 9.436274307165060e-01 -1.015095642344528e-01 -3.090712755215461e-02 -1.523325362749343e-02
7.439200000000000e+10 -8.002885832544622e-02 9.689804267867717e-02 9.464784973902304e-01 -9.385913976625440e-02 9.433023321119660e-01 -1.016501370728783e-01 -3.037729786284019e-02 -1.454320110662964e-02
7.444000000000000e+10 -7.973506562118252e-02 9.660893864946044e-02 9.465334064759022e-01 -9.373704953522538e-02 9.437618776990084e-01 -1.011475738368281e-01 -3.011265672520402e-02 -1.478421996283151e-02
7.448800000000000e+10 -7.932051921807572e-02 9.679593111624257e-02 9.471546934608875e-01 -9.333020050952749e-02 9.440010649299829e-01 -1.004848408037037e-01 -2.914029095142475e-02 -1.482924662562084e-02
7.453600000000000e+10 -7.981919364942507e-02 9.686046279565175e-02 9.478799588565818e-01 -9.236883456031170e-02 9.441374251768607e-01 -1.002771819172939e-01 -2.884798935242241e-02 -1.463223089794731e-02
7.458400000000000e+10 -7.907646789103769e-02 9.607281311194295e-02 9.477973652926484e-01 -9.221709190495918e-02 9.437767441693006e-01 -1.004525508288984e-01 -2.808618322425348e-02 -1.379588124912270e-02
7.463200000000000e+10 -7.985747633721146e-02 9.685163802296534e-02 9.483147734127537e-01 -9.181211521204687e-02 9.440774470680022e-01 -1.002246828515972e-01 -2.832382235716719e-02 -1.407084157129126e-02
7.468000000000000e+10 -8.035380072455170e-02 9.617253999516578e-02 9.490577725012767e-01 -9.155229880629477e-02 9.442786585790491e-01 -1.000600518031984e-01 -2.858670466304203e-02 -1.540408761839894e-02
7.472800000000000e+10 -8.025098470900788e-02 9.614935581658975e-02 9.496174515510747e-01 -9.188508241364839e-02 9.447085144278986e-01 -9.999427142032580e-02 -2.854677708437033e-02 -1.567431944428627e-02
7.477600000000000e+10 -8.003858050208727e-02 9.531811166766896e-02 9.501139149232641e-01 -9.174561851895771e-02 9.442917826066938e-01 -1.004700975252669e-01 -2.867147308809895e-02 -1.500038749972454e-02
7.482400000000000e+10 -7.953392943261617e-02 9.576817182582184e-02 9.503333816818277e-01 -9.217657928264048e-02 9.446525164356189e-01 -9.976571454801465e-02 -2.812361526880258e-02 -1.490135363006827e-02
7.487200000000000e+10 -7.942786111657461e-02 9.713353194454778e-02 9.499586650377589e-01 -9.256723702169620e-02 9.442252081686303e-01 -9.986647905065317e-02 -2.809995379038154e-02 -1.488295905241761e-02
7.492000000000000e+10 -7.929624120020509e-02 9.740443261923971e-02 9.504423594527361e-01 -9.185015925703677e-02 9.439396392237026e-01 -9.990741251499834e-02 -2.765043507217054e-02 -1.411427952401452e-02
7.496800000000000e+10 -7.901161754866839e-02 9.699291257975512e-02 9.491134670999993e-01 -9.229429784174406e-02 9.439829118665037e-01 -9.990228835843357e-02 -2.752839408850309e-02 -1.318804251864254e-02
7.501600000000000e+10 -7.886345791225303e-02 9.714695752660675e-02 9.494461076231794e-01 -9.216181741870161e-02 9.451374670408068e-01 -9.928524835335487e-02 -2.687765742853643e-02 -1.349332515844771e-02
7.506400000000000e+10 -7.915178092667430e-02 9.725593727092144e-02 9.496873458950170e-01 -9.192784327479052e-02 9.455321050373876e-01 -9.942965608483324e-02 -2.719385252985804e-02 -1.351040401373867e-02
7.511200000000000e+10 -7.921005238535432e-02 9.692504839049050e-02 9.485633652553608e-01 -9.322878938747951e-02 9.450318921819481e-01 -1.003777409599027e-01 -2.728019800291569e-02 -1.281812186252650e-02
7.516000000000000e+10 -7.958660025787581e-02 9.882978282874777e-02 9.496422518225357e-01 -9.245697804417786e-02 9.450863274849217e-01 -1.001002179546020e-01 -2.790569502694571e-02 -1.266990933707979e-02
7.520800000000000e+10 -8.006683434008523e-02 9.691349342100931e-02 9.496178594357610e-01 -9.326136383147439e-02 9.444500312351403e-01 -1.004860761460811e-01 -2.771349130860259e-02 -1.268975029564379e-02
7.525600000000000e+10 -8.012259934369993e-02 9.813162844076739e-02 9.503723103333725e-01 -9.269139597187366e-02 9.445546778261101e-01 -9.998876961406719e-02 -2.795037496793531e-02 -1.225595541166613e-02
7.530400000000000e+10 -7.997619819712350e-02 9.631524500655135e-02 9.498118187635930e-01 -9.399268444312975e-02 9.434688954288455e-01 -1.006159732060224e-01 -2.800639867994068e-02 -1.096233618527704e-02
7.535200000000000e+10 -7.989641114061806e-02 9.675302292505704e-02 9.513550136896268e-01 -9.283693107609130e-02 9.441183836734528e-01 -1.005195967730282e-01 -2.745351794853499e-02 -1.140438144964763e-02
7.540000000000000e+10 -8.010212777146497e-02 9.641356584006931e-02 9.505714189664944e-01 -9.372701586756560e-02 9.439828178851347e-01 -1.003781496267423e-01 -2.706055134303119e-02 -1.180194603160189e-02
7.544800000000000e+10 -7.978847333585519e-02 9.689105812250412e-02 9.511736352262918e-01 -9.346271341559381e-02 9.447303402237752e-01 -9.970610663232365e-02 -2.715372770070498e-02 -1.139541383567822e-02
7.549600000000000e+10 -7.912024517439487e-02 9.640612620710087e-02 9.505742266250256e-01 -9.426884601998556e-02 9.449077576036806e-01 -1.000404877483265e-01 -2.697823220900223e-02 -1.173483408406930e-02
7.554400000000000e+10 -7.892581985066391e-02 9.665803477016900e-02 9.499522653824158e-01 -9.419883803780316e-02 9.456094292923373e-01 -1.007365013169630e-01 -2.598874483355916e-02 -1.251601761133147e-02
7.559200000000000e+10 -7.907698563530963e-02 9.758668928541370e-02 9.498180345927408e-01 -9.349407252802699e-02 9.464319498383373e-01 -1.004214799213105e-01 -2.603279740352223e-02 -1.257890869487250e-02
7.564000000000000e+10 -7.944013522678206e-02 9.701372275594429e-02 9.496655829222617e-01 -9.296964627364088e-02 9.456947933995598e-01 -1.016500092373513e-01 -2.662141018499275e-02 -1.186883718119012e-02
7.568800000000000e+10 -8.012073794993280e-02 9.701235499541688e-02 9.480766285474953e-01 -9.430339208580624e-02 9.455334192434361e-01 -1.024605732339407e-01 -2.714399205102000e-02 -1.235360730928150e-02
7.573600000000000e+10 -8.175060894268091e-02 9.881164123450534e-02 9.504705243034071e-01 -9.273884326200130e-02 9.456720927257203e-01 -1.019451067795220e-01 -2.706010092120337e-02 -1.333922664370535e-02
7.578400000000000e+10 -8.154191284160568e-02 9.750969919522769e-02 9.501825844955554e-01 -9.344786550856424e-02 9.456737686248708e-01 -1.015171318589234e-01 -2.718529683194587e-02 -1.217069966487421e-02
7.583200000000000e+10 -8.176795020596439e-02 9.757230325627612e-02 9.506156734978664e-01 -9.377543404551802e-02 9.450653520798618e-01 -1.013170561247785e-01 -2.736154748062862e-02 -1.145974959407095e-02
7.588000000000000e+10 -8.133829174829882e-02 9.689285583950456e-02 9.513331210308724e-01 -9.427587939749736e-02 9.443629619187083e-01 -1.016010402384884e-01 -2.671709783654156e-02 -1.140627277130768e-02
7.592800000000000e+10 -8.129598565368593e-02 9.723453943183719e-02 9.520931533602832e-01 -9.433463520104528e-02 9.458041889673554e-01 -1.001174226994020e-01 -2.652815201980771e-02 -1.177745297938184e-02
7.597600000000000e+10 -8.118945265002771e-02 9.544448263276745e-02 9.522486610086400e-01 -9.411272830108661e-02 9.450469820658500e-01 -1.021491580089243e-01 -2.697597401981772e-02 -1.196913894743966e-02
7.602400000000000e+10 -8.085903455835332e-02 9.666113939926121e-02 9.509858355571414e-01 -9.483624007174500e-02 9.457925476330182e-01 -1.015258195520030e-01 -2.643766305979488e-02 -1.188121577145379e-02
7.607200000000000e+10 -8.090284202088245e-02 9.606377392148777e-02 9.505149536726333e-01 -9.455429507609561e-02 9.448760414670008e-01 -1.019925198200801e-01 -2.603088535341080e-02 -1.151805574838788e-02
7.612000000000000e+10 -8.117833683910464e-02 9.640728918570445e-02 9.496350739687239e-01 -9.485874690420390e-02 9.459752313713519e-01 -1.011779418745091e-01 -2.588041328768506e-02 -1.132329858839768e-02
7.616800000000000e+10 -8.115196416293527e-02 9.664011363325588e-02 9.500614690408582e-01 -9.448583481444177e-02 9.452550874315918e-01 -1.011833097347641e-01 -2.596650769676888e-02 -1.074721134917785e-02
7.621600000000000e+10 -8.194184803386724e-02 9.495914066181464e-02 9.499397840541490e-01 -9.531461767684880e-02 9.460093668441059e-01 -1.009595511596743e-01 -2.631363010125256e-02 -1.231224289268713e-02
7.626400000000000e+10 -8.246619131688816e-02 9.539196330069584e-02 9.505835491637690e-01 -9.523136735692816e-02 9.455342968052534e-01 -1.011728200219262e-01 -2.719803253530288e-02 -1.176597965845777e-02
7.631200000000000e+10 -8.229558476154675e-02 9.395321762565975e-02 9.502784359354750e-01 -9.533569994956367e-02 9.453915987706083e-01 -1.011397476696279e-01 -2.715864372838386e-02 -1.157495466988175e-02
7.636000000000000e+10 -8.192853217844308e-02 9.535689660794934e-02 9.509033510636633e-01 -9.484373222765446e-02 9.457467792747626e-01 -1.012714312465353e-01 -2.710238504509593e-02 -1.068569934980222e-02
7.640800000000000e+10 -8.181378484619274e-02 9.394219203686106e-02 9.501006892311230e-01 -9.507151343660174e-02 9.450221819634256e-01 -1.018779341736585e-01 -2.738533185118337e-02 -9.415877336350912e-03
7.645600000000000e+10 -8.213497108561429e-02 9.431005768072911e-02 9.511184297909399e-01 -9.486476070332760e-02 9.455393163759854e-01 -1.019505390755859e-01 -2.761996822990098e-02 -9.523430459449551e-03
7.650400000000000e+10 -8.170384454708290e-02 9.346516748966362e-02 9.508877535507754e-01 -9.528050564699737e-02 9.453124918323912e-01 -1.019219354650057e-01 -2.700211643864769e-02 -9.116889478614899e-03
7.655200000000000e+10 -8.099418384675250e-02 9.478845846321354e-02 9.508044737879812e-01 -9.564184787218656e-02 9.461535182679920e-01 -1.016950885244618e-01 -2.641007984228073e-02 -8.561589073649010e-03
7.660000000000000e+10 -8.097825747495940e-02 9.381256274044229e-02 9.508395529807439e-01 -9.586244487079827e-02 9.454609815593479e-01 -1.016996319935234e-01 -2.643152053390882e-02 -7.293582526202220e-03
7.664800000000000e+10 -8.068332358601471e-02 9.375283554487703e-02 9.510625188182601e-01 -9.597990473473771e-02 9.453763965885061e-01 -1.018181530042619e-01 -2.589674905882016e-02 -8.192064041442876e-03
7.669600000000000e+10 -8.076159507561369e-02 9.438179691806883e-02 9.503770125508550e-01 -9.604937790778355e-02 9.454764597365719e-01 -1.021071158318631e-01 -2.534902207969049e-02 -6.970303873296973e-03
7.674400000000000e+10 -8.093320761114632e-02 9.417359148287639e-02 9.498842634364759e-01 -9.616407318072090e-02 9.452817597174913e-01 -1.030581064215718e-01 -2.577968898857765e-02 -8.106930303415411e-03
7.679200000000000e+10 -8.156183894461341e-02 9.374215578395048e-02 9.502539682883298e-01 -9.694806964393546e-02 9.455987021644020e-01 -1.037946541944791e-01 -2.580932974386167e-02 -7.475993728269287e-03
7.684000000000000e+10 -8.183992205886974e-02 9.188436701184539e-02 9.485643269559766e-01 -9.720500400231534e-02 9.432482540358452e-01 -1.039900226310127e-01 -2.579468406985617e-02 -7.012401293276221e-03
7.688800000000000e+10 -8.159392327451884e-02 9.394694481511383e-02 9.502995452080669e-01 -9.650815714361903e-02 9.448863459371137e-01 -1.027873117291969e-01 -2.503869360776550e-02 -7.498170365650339e-03
7.693600000000000e+10 -8.212813316700657e-02 9.130655040335167e-02 9.500367643061691e-01 -9.658962766935329e-02 9.436157635299914e-01 -1.034679487881515e-01 -2.499930151613920e-02 -6.403178375618272e-03
7.698400000000000e+10 -8.234201389577223e-02 9.226740073938614e-02 9.495754621913876e-01 -9.645608027432608e-02 9.433630224676315e-01 -1.032897209442881e-01 -2.573703354271434e-02 -4.899023176428412e-03
7.703200000000000e+10 -8.198174332964847e-02 9.038781644963871e-02 9.493380451262887e-01 -9.647027012915220e-02 9.422073797359549e-01 -1.035039259426126e-01 -2.587116685074300e-02 -3.668109426387664e-03
7.708000000000000e+10 -8.077982313758288e-02 9.155450462772917e-02 9.499987242935913e-01 -9.623249945501680e-02 9.435705194241575e-01 -1.024135176596272e-01 -2.454006524622981e-02 -3.376910354059011e-03
7.712800000000000e+10 -8.102254131497427e-02 9.049691277509843e-02 9.498889424719328e-01 -9.653781244527174e-02 9.433536920397623e-01 -1.023723790780469e-01 -2.505978891052021e-02 -3.330434334303777e-03
7.717600000000000e+10 -8.112476207230082e-02 9.128884124425742e-02 9.498804836878056e-01 -9.652926801400513e-02 9.435393690140690e-01 -1.021946610656132e-01 -2.521883282367334e-02 -3.825226505471828e-03
7.722400000000000e+10 -8.086605105128496e-02 9.127547602139829e-02 9.494700026372654e-01 -9.718303207812140e-02 9.432266121648381e-01 -1.026591622604049e-01 -2.484159788739437e-02 -4.115640730471910e-03
7.727200000000000e+10 -8.056073566811817e-02 9.302957168541184e-02 9.503069013510178e-01 -9.762534686329441e-02 9.446047045418839e-01 -1.029486147774702e-01 -2.435280905081067e-02 -4.523483227502133e-03
7.732000000000000e+10 -8.028553264310552e-02 9.280075018689952e-02 9.493359227530038e-01 -1.075000113735294e-01 9.441480961771823e-01 -1.059114702076824e-01 -2.347015136786976e-02 -6.650682049818077e-03
7.736800000000000e+10 -8.113117678624163e-02 9.429573054564395e-02 9.496059845014939e-01 -9.733658287547409e-02 9.437834089426327e-01 -1.038679689180426e-01 -2.333885297042962e-02 -4.464549903322416e-03
7.741600000000000e+10 -8.094848041349480e-02 9.415813191032700e-02 9.506228295595032e-01 -9.658877597139316e-02 9.430734166566900e-01 -1.037906504378447e-01 -2.286797304090548e-02 -4.113008441521100e-03
7.746400000000000e+10 -8.108687961002692e-02 9.461690143302477e-02 9.504651797323578e-01 -9.736353106650084e-02 9.441323782312994e-01 -1.037134849255839e-01 -2.336131534854754e-02 -4.552108026436896e-03
7.751200000000000e+10 -8.087987548938634e-02 9.440290146265247e-02 9.498551708905063e-01 -9.777052038820472e-02 9.431162938323175e-01 -1.045663288763866e-01 -2.294358765702563e-02 -3.924292728192616e-03
7.756000000000000e+10 -8.071981046936029e-02 9.455288163131527e-02 9.497556216643775e-01 -9.780368347187281e-02 9.439964590384243e-01 -1.031974571521631e-01 -2.274694603896336e-02 -3.582967900591869e-03
7.760800000000000e+10 -8.021117873463655e-02 9.339886643303433e-02 9.501068613976990e-01 -9.779976280729596e-02 9.429507764103662e-01 -1.044469530400810e-01 -2.231758528344509e-02 -3.024686885426177e-03
7.765600000000000e+10 -8.095905400101508e-02 9.613279071299072e-02 9.484507260998342e-01 -9.824668488476235e-02 9.413257890736998e-01 -1.050753952173999e-01 -2.277564929828698e-02 -1.592713643983745e-04
7.770400000000000e+10 -8.153738692027654e-02 9.386786474819270e-02 9.506085212024666e-01 -9.691041141709231e-02 9.438060116928932e-01 -1.030739029348069e-01 -2.238950523770141e-02 -7.056414513716116e-03
7.775200000000000e+10 -8.187615578068155e-02 9.382651491779667e-02 9.505210761985888e-01 -9.789344796221001e-02 9.441503989571748e-01 -1.046069347058742e-01 -2.235414655536945e-02 -5.556381614527824e-03
7.780000000000000e+10 -8.220257005040109e-02 9.468600063340547e-02 9.498644312310887e-01 -9.786981484827481e-02 9.428266835315692e-01 -1.045959505206738e-01 -2.211822153560517e-02 -4.265569297138972e-03
7.784800000000000e+10 -8.213358313486850e-02 9.517015949511025e-02 9.494070689396501e-01 -9.794474085769643e-02 9.433537156730465e-01 -1.042508322950532e-01 -2.191274822814689e-02 -4.150175961229556e-03
7.789600000000000e+10 -8.260053411679399e-02 9.515198257913203e-02 9.493268401816577e-01 -9.834412105241101e-02 9.425425601736981e-01 -1.042096493719057e-01 -2.235991807001032e-02 -4.272577396682507e-03
7.794400000000000e+10 -8.289646372962740e-02 9.576091823215091e-02 9.498921208853207e-01 -9.893734611167464e-02 9.432239545486383e-01 -1.038357669804735e-01 -2.209598797498792e-02 -4.492626998917233e-03
7.799200000000000e+10 -8.303590242459247e-02 9.478854713003390e-02 9.493365244238816e-01 -9.995207712989057e-02 9.426886227700337e-01 -1.046397426612655e-01 -2.237603684047066e-02 -4.947706426386811e-03
7.804000000000000e+10 -8.300947403487115e-02 9.569756277140075e-02 9.501093865903969e-01 -9.922132631543938e-02 9.434705085115289e-01 -1.045040053324465e-01 -2.195690329122841e-02 -5.124116176202674e-03
7.808800000000000e+10 -8.306656113197047e-02 9.513622335680441e-02 9.495501069018123e-01 -9.931353928266944e-02 9.429280374405273e-01 -1.054102636824068e-01 -2.189625608459675e-02 -5.121863091836130e-03
7.813600000000000e+10 -8.271575705641318e-02 9.484128238853262e-02 9.494883114565472e-01 -9.885130517756198e-02 9.430262253047228e-01 -1.053321933250749e-01 -2.148278395599239e-02 -4.162308491975487e-03
7.818400000000000e+10 -8.336847435807208e-02 9.445318978524278e-02 9.499879835325906e-01 -9.885057204214488e-02 9.429899405074947e-01 -1.057003979100834e-01 -2.181374523409040e-02 -4.787767635817151e-03
7.823200000000000e+10 -8.310171042452419e-02 9.551586642262108e-02 9.493258918038912e-01 -9.900982714547185e-02 9.430022593705547e-01 -1.050659244284239e-01 -2.151782974304915e-02 -3.295122570664540e-03
7.828000000000000e+10 -8.302276068117836e-02 9.426052958333293e-02 9.491745698019110e-01 -9.946104697534608e-02 9.428442213737703e-01 -1.066891299300841e-01 -2.191461932704890e-02 -3.523688470581873e-03
7.832800000000000e+10 -8.210336174697139e-02 9.427316011634208e-02 9.498612371275974e-01 -9.969947695994164e-02 9.431953626542006e-01 -1.053846159551802e-01 -2.147807345350011e-02 -2.959696097508168e-03
7.837600000000000e+10 -8.228684031769375e-02 9.312969955878278e-02 9.500346619623371e-01 -1.001577614246376e-01 9.434349327691968e-01 -1.055588886111003e-01 -2.161396800664669e-02 -2.962683242825299e-03
7.842400000000000e+10 -8.133786621179279e-02 9.379451197068277e-02 9.499810002062264e-01 -9.996791037898488e-02 9.425760303315990e-01 -1.058017592968734e-01 -2.121734164436568e-02 -3.252625441295170e-04
7.847200000000000e+10 -8.101755479635560e-02 9.362525813033819e-02 9.502803050558907e-01 -9.909061288103353e-02 9.423581762121067e-01 -1.067236811394363e-01 -2.080290375734172e-02 -4.425584792483806e-04
7.852000000000000e+10 -8.099539684981685e-02 9.238523137859243e-02 9.499672942305450e-01 -1.005085491008134e-01 9.431469615519800e-01 -1.073345323565770e-01 -2.090368618629607e-02 -2.652893688433242e-03
7.856800000000000e+10 -8.078609373138305e-02 9.280844590287857e-02 9.484900288438445e-01 -9.963082038887462e-02 9.425942776815630e-01 -1.075327696156550e-01 -2.025988849368740e-02 4.534646681561421e-04
7.861600000000000e+10 -8.025429471484762e-02 9.158195538865019e-02 9.480310300138781e-01 -9.960300931875876e-02 9.411981086661627e-01 -1.077076745329368e-01 -1.967808530071855e-02 1.303400990051598e-03
7.866400000000000e+10 -8.110070042869177e-02 9.173774608300091e-02 9.483770313721945e-01 -9.972213817770759e-02 9.417903965646236e-01 -1.071050694558938e-01 -2.000529571315823e-02 -8.819263980107591e-05
7.871200000000000e+10 -8.099286061421125e-02 9.078673438058056e-02 9.470151737113203e-01 -1.003133044795693e-01 9.402349169162588e-01 -1.072243910237971e-01 -2.018566867370759e-02 -3.239222222114867e-04
7.876000000000000e+10 -8.120892278737465e-02 9.169804033124535e-02 9.481094850069204e-01 -9.957938025427572e-02 9.417045865037121e-01 -1.061625328385636e-01 -2.009015604165107e-02 -4.179279244654195e-04
7.880800000000000e+10 -8.138101717918646e-02 9.125669732832228e-02 9.474336131876704e-01 -9.989915038696406e-02 9.413813935121446e-01 -1.075710692330024e-01 -2.031082872722322e-02 -2.251235362379873e-03
7.885600000000000e+10 -8.147599898810866e-02 9.136846339782498e-02 9.477380702258429e-01 -9.948655088471836e-02 9.412539638924995e-01 -1.070713518253987e-01 -2.033005361223297e-02 -5.733213149707413e-04
7.890400000000000e+10 -8.137214105971874e-02 9.056368111390882e-02 9.474360203767452e-01 -9.929475673706693e-02 9.399685099688976e-01 -1.077248197502656e-01 -2.006663561381022e-02 1.310304704127269e-03
7.895200000000000e+10 -8.183120597928754e-02 9.037222909633012e-02 9.478605835624272e-01 -9.984455742943492e-02 9.405381292339434e-01 -1.075127531989224e-01 -2.022597175663177e-02 6.531687496483593e-04
7.900000000000000e+10 -8.225449942133599e-02 8.833426365227627e-02 9.476968894740263e-01 -1.005816314056597e-01 9.410401343557652e-01 -1.073747289259061e-01 -2.059802630883789e-02 2.789987647467565e-04
7.904800000000000e+10 -8.261298280187843e-02 8.754987318871064e-02 9.477345471697201e-01 -1.001953187826192e-01 9.408013669305589e-01 -1.074322662216844e-01 -2.064608938260721e-02 7.073119609796679e-04
7.909600000000000e+10 -8.279028450627268e-02 8.675268744434833e-02 9.474866274802844e-01 -1.005457039758970e-01 9.404921010600621e-01 -1.075445829528687e-01 -2.094668865768521e-02 6.209750608259949e-04
7.914400000000000e+10 -8.191872063328764e-02 8.497862128508792e-02 9.458281098944539e-01 -1.010853756788533e-01 9.398788914112767e-01 -1.073566141327207e-01 -2.052521874853025e-02 6.614186959695407e-04
7.919200000000000e+10 -8.166051643104809e-02 8.701968672318949e-02 9.462071326022397e-01 -1.002812944190205e-01 9.406843970555385e-01 -1.064668954686746e-01 -1.989420419323671e-02 2.204280104613522e-04
7.924000000000000e+10 -8.116332365001812e-02 8.759078205535097e-02 9.454584268777264e-01 -1.001287453956052e-01 9.398921189481602e-01 -1.068441390167172e-01 -1.930435604246748e-02 1.297179452357551e-05
7.928800000000000e+10 -8.113994392267290e-02 8.886304201807103e-02 9.454239386658042e-01 -9.952242181535592e-02 9.387091326139343e-01 -1.070527793026702e-01 -1.881559004590106e-02 -3.498248535442621e-05
7.933600000000000e+10 -8.143182895118296e-02 8.884204929345577e-02 9.443498515976289e-01 -9.981978097613046e-02 9.395352077647164e-01 -1.065282459456766e-01 -1.845602088148649e-02 -5.984803093666448e-04
7.938400000000000e+10 -8.094596306423191e-02 8.917145263800250e-02 9.457621528428323e-01 -9.844158031069199e-02 9.394272166756749e-01 -1.062845933490391e-01 -1.826823334832044e-02 5.057526850878838e-04
7.943200000000000e+10 -8.155878208104132e-02 8.949842113937553e-02 9.449113499401963e-01 -9.916970541970693e-02 9.392686917537294e-01 -1.065106011014223e-01 -1.890004112440932e-02 1.029232636097316e-03
7.948000000000000e+10 -8.261603594009266e-02 9.005988909865430e-02 9.456076777529899e-01 -9.866513435898028e-02 9.394062003732809e-01 -1.065979196180648e-01 -1.958754985769686e-02 5.649133213292723e-04
7.952800000000000e+10 -8.322272753170254e-02 9.157687046055102e-02 9.454559535112598e-01 -9.940181626403707e-02 9.406297037886681e-01 -1.060224569452289e-01 -1.965052807458361e-02 9.822174939348427e-05
7.957600000000000e+10 -8.347221499687500e-02 9.286886442996264e-02 9.465830483549065e-01 -9.886417582036078e-02 9.401900746039294e-01 -1.062860036630649e-01 -2.000097108709438e-02 1.679897178564348e-03
7.962400000000000e+10 -8.361828872737709e-02 9.367514480162513e-02 9.452387137874433e-01 -9.958610414124638e-02 9.402712372644921e-01 -1.063498983935970e-01 -1.995515154833159e-02 2.604293269231055e-03
7.967200000000000e+10 -8.340979071188415e-02 9.336011560074184e-02 9.450392292960065e-01 -9.961112043553641e-02 9.397913755200054e-01 -1.068580411714204e-01 -2.041437163620974e-02 2.984851650173665e-03
7.972000000000000e+10 -8.386924380040553e-02 9.395037750483727e-02 9.444268992911788e-01 -1.001075815350004e-01 9.404420387694020e-01 -1.074819559415547e-01 -2.026092041746861e-02 1.467405187944482e-03
7.976800000000000e+10 -8.373090189638394e-02 9.428557708041360e-02 9.454920233989044e-01 -9.910838523838075e-02 9.414959222558110e-01 -1.071907790481689e-01 -1.997213423223151e-02 -1.332649495677912e-03
7.981600000000000e+10 -8.407456332148433e-02 9.548686901237577e-02 9.429011911232154e-01 -9.915910837696894e-02 9.391052715701205e-01 -1.071092992202382e-01 -2.003101889616088e-02 3.517731071877727e-03
7.986400000000000e+10 -8.424619968369747e-02 9.653999983249499e-02 9.440386418864141e-01 -9.812585663279552e-02 9.389349547888942e-01 -1.064048548850791e-01 -1.933022012534349e-02 3.302876515863312e-03
7.991200000000000e+10 -8.380029113680115e-02 9.671480113098806e-02 9.437989017643724e-01 -9.888435349680574e-02 9.396424147726943e-01 -1.064590020065060e-01 -1.836122542954108e-02 8.127520408277970e-04
7.996000000000000e+10 -8.430417749638877e-02 9.721328899205713e-02 9.444335716266707e-01 -9.797180222313082e-02 9.389619850670311e-01 -1.057193201054339e-01 -1.851256732576066e-02 1.177960377617020e-03
8.000800000000000e+10 -8.391149985997043e-02 9.617804764992231e-02 9.449694254857751e-01 -9.827341871706431e-02 9.379457734652569e-01 -1.060979474068587e-01 -1.882654297193282e-02 7.449971736214320e-04
8.005600000000000e+10 -8.401674800315968e-02 9.821048666101553e-02 9.461657011316505e-01 -9.824630419268726e-02 9.403162960745282e-01 -1.045997525107196e-01 -1.886422698570878e-02 -2.062508940811128e-04
8.010400000000000e+10 -8.430110211842429e-02 9.740550378221431e-02 9.458558291201407e-01 -9.829474065250256e-02 9.405438136853889e-01 -1.049041195291928e-01 -1.884849602117692e-02 5.064551963740614e-04
8.015200000000000e+10 -8.437671429662157e-02 9.795299025964392e-02 9.468726332322176e-01 -9.780308516166120e-02 9.406511545120184e-01 -1.053874954416543e-01 -1.827865907323338e-02 1.312225645338783e-03
8.020000000000000e+10 -8.432104795727391e-02 9.793730791368749e-02 9.467264270813633e-01 -9.800815823558685e-02 9.404287622468513e-01 -1.060546942968561e-01 -1.759302669141222e-02 3.554171307489507e-03
8.024800000000000e+10 -8.442121793156654e-02 9.829436122798729e-02 9.470843895071765e-01 -9.811374307512420e-02 9.410083872086106e-01 -1.056736489109088e-01 -1.629124721939757e-02 4.127173245998060e-03
8.029600000000000e+10 -8.495395970530242e-02 9.875751542805337e-02 9.468301437931975e-01 -9.834167575256059e-02 9.413924308384490e-01 -1.052607820607457e-01 -1.519742080185097e-02 4.069631746996323e-03
8.034400000000000e+10 -8.493651512102320e-02 9.745464839857286e-02 9.465570997867786e-01 -9.888237621521725e-02 9.411688798247333e-01 -1.054889810473226e-01 -1.520732873577992e-02 3.438899939940450e-03
8.039200000000000e+10 -8.461423440462859e-02 9.711403092068217e-02 9.466460909093050e-01 -9.960782144771689e-02 9.421267417483852e-01 -1.050542508349550e-01 -1.525431755820337e-02 4.118586010636314e-03
8.044000000000000e+10 -8.413684525300898e-02 9.655447192871291e-02 9.461804980059652e-01 -1.006116015261425e-01 9.422899425496389e-01 -1.058992618008766e-01 -1.503001123953315e-02 5.748281448990424e-04
8.048800000000000e+10 -8.347079050898076e-02 9.577801402035878e-02 9.461574710905779e-01 -1.000295112727022e-01 9.430178308360920e-01 -1.058359400243634e-01 -1.424646331610885e-02 8.672167179233069e-04
8.053600000000000e+10 -8.248413081997186e-02 9.462574384560445e-02 9.453842568946157e-01 -9.931619712916499e-02 9.417154502860224e-01 -1.067910720713696e-01 -1.373789854107494e-02 2.801015680920719e-03
8.058400000000000e+10 -8.256346421110643e-02 9.486232918874882e-02 9.460234493520009e-01 -9.825704008981191e-02 9.415743025743755e-01 -1.070532434725871e-01 -1.381199348502995e-02 1.739439870846592e-03
8.063200000000000e+10 -8.233761231672328e-02 9.492482461835894e-02 9.465578166394296e-01 -9.801083060968421e-02 9.413150750715631e-01 -1.072922657217840e-01 -1.399105731427266e-02 1.099099991759585e-03
8.068000000000000e+10 -8.245206166642086e-02 9.549149847985169e-02 9.472959837807742e-01 -9.751833200178268e-02 9.409301998858558e-01 -1.070550673483874e-01 -1.364560306523512e-02 3.967514773550324e-03
8.072800000000000e+10 -8.253415628707766e-02 9.617184644956087e-02 9.474977361837248e-01 -9.776187236001227e-02 9.412123269459850e-01 -1.064960868835214e-01 -1.325868277663616e-02 4.720919197101435e-03
8.077600000000000e+10 -8.342169334932564e-02 9.554635151015554e-02 9.481647345713333e-01 -9.817590616396346e-02 9.408698956381655e-01 -1.070196050796287e-01 -1.323762449691805e-02 4.651909342810894e-03
8.082400000000000e+10 -8.358249191298726e-02 9.567751576298669e-02 9.472523171383576e-01 -9.915935985061290e-02 9.410465506992937e-01 -1.068366602260945e-01 -1.377682418476519e-02 5.340751840992534e-03
8.087200000000000e+10 -8.332389008076858e-02 9.478591851050469e-02 9.477062903998008e-01 -9.908612503288582e-02 9.413932083345891e-01 -1.066560667722588e-01 -1.338852259048478e-02 5.093568900467060e-03
8.092000000000000e+10 -8.303252951786698e-02 9.471833180094343e-02 9.469538611217295e-01 -9.950834467149643e-02 9.415483133735472e-01 -1.070408092256253e-01 -1.263557725032085e-02 4.267701024885096e-03
8.096800000000000e+10 -8.310017416447725e-02 9.421512448020150e-02 9.470102852817731e-01 -9.973271929818148e-02 9.421129047078421e-01 -1.070395856903714e-01 -1.252522459762842e-02 3.354494431625803e-03
8.101600000000000e+10 -8.315670139598530e-02 9.344875135271105e-02 9.450672895054721e-01 -1.002478824768946e-01 9.409210334708872e-01 -1.072325592826573e-01 -1.277079630645115e-02 4.453958963888999e-03
8.106400000000000e+10 -8.306224248478865e-02 9.285254502855832e-02 9.453860132390515e-01 -9.989830785464725e-02 9.414135229150740e-01 -1.070301273808521e-01 -1.253469673584179e-02 4.887088956674603e-03
8.111200000000000e+10 -8.292933099507735e-02 9.357998665121221e-02 9.441670550864230e-01 -9.985659166961196e-02 9.407711815989779e-01 -1.072064428055223e-01 -1.178890140886615e-02 5.669092569818051e-03
8.116000000000000e+10 -8.324623782317583e-02 9.494065535546441e-02 9.453113006571663e-01 -9.951624678267111e-02 9.423672286679246e-01 -1.069753058419088e-01 -1.113021034500211e-02 3.793702488812387e-03
8.120800000000000e+10 -8.363581984671584e-02 9.445703945089212e-02 9.455423592768232e-01 -9.991900490804462e-02 9.419023288737630e-01 -1.074042806081511e-01 -1.134339003668211e-02 2.263501817721606e-03
8.125600000000000e+10 -8.383926431106765e-02 9.441716256774009e-02 9.441883768876547e-01 -9.975649047434677e-02 9.402384432817258e-01 -1.070188608478656e-01 -1.184135220357384e-02 7.681313978225283e-03
8.130400000000000e+10 -8.354472448186100e-02 9.398161338796565e-02 9.444724517112372e-01 -9.912465307116260e-02 9.398988110718791e-01 -1.073766431754974e-01 -1.201809743661318e-02 7.886094366779511e-03
8.135200000000000e+10 -8.391949093118901e-02 9.488410047159657e-02 9.458836675943654e-01 -9.937707984662381e-02 9.410650397269450e-01 -1.081938400740657e-01 -1.186225185975325e-02 5.144064116160052e-03
8.140000000000000e+10 -8.429706523321005e-02 9.428540805232755e-02 9.473392122856122e-01 -9.948595927499464e-02 9.422149863798092e-01 -1.088672850369664e-01 -1.241108861240836e-02 2.474012274899333e-03
8.144800000000000e+10 -8.521259421105520e-02 9.375203580892476e-02 9.468212790771383e-01 -9.949775157834193e-02 9.412449797004979e-01 -1.090921240924136e-01 -1.302343440365275e-02 2.406962858312556e-03
8.149600000000000e+10 -8.511574128552765e-02 9.429120700100296e-02 9.458484754603512e-01 -9.953397706768254e-02 9.408453986785058e-01 -1.082721446156670e-01 -1.314430731697103e-02 3.351437443704015e-03
8.154400000000000e+10 -8.447822705203335e-02 9.329301090163855e-02 9.470223572652006e-01 -9.945225383256069e-02 9.422900962815985e-01 -1.073906349698938e-01 -1.250607736308494e-02 3.426958933900427e-03
8.159200000000000e+10 -8.415532944725780e-02 9.285728603329750e-02 9.479091282458634e-01 -9.976100972830397e-02 9.441779445455660e-01 -1.079803322334186e-01 -1.214524811735297e-02 -1.462203815005270e-03
8.164000000000000e+10 -8.465258110263787e-02 9.374743368321518e-02 9.461688591055825e-01 -9.966424808632782e-02 9.424161677981703e-01 -1.074703799647314e-01 -1.164891707760467e-02 3.562657080509529e-03
8.168800000000000e+10 -8.425774407812785e-02 9.361587225505430e-02 9.454491492437954e-01 -1.003092260500995e-01 9.405936956089638e-01 -1.085085607523766e-01 -1.090679820349471e-02 5.995804123058948e-03
8.173600000000000e+10 -8.439658651412353e-02 9.566701170129190e-02 9.472095011777240e-01 -1.000914311411997e-01 9.432595287501937e-01 -1.084595937952726e-01 -1.104290868461110e-02 2.275073278536663e-03
8.178400000000000e+10 -8.409303620314527e-02 9.480336669918932e-02 9.474398645108841e-01 -1.012072220007279e-01 9.435690648285294e-01 -1.095878516005010e-01 -1.142687831443199e-02 -1.789038550960255e-03
8.183200000000000e+10 -8.436656282509399e-02 9.562861730771435e-02 9.484633424662651e-01 -1.007581764433327e-01 9.438699741050964e-01 -1.100247341877241e-01 -1.206478795577763e-02 -2.302722694614938e-03
8.188000000000000e+10 -8.423471668471252e-02 9.446846024349093e-02 9.464931005866899e-01 -1.005761419103128e-01 9.420910158333742e-01 -1.105968589953734e-01 -1.206932520329235e-02 7.259897665593860e-04
8.192800000000000e+10 -8.531537628941895e-02 9.557869579937024e-02 9.465717688053223e-01 -1.003178660092088e-01 9.422828956741869e-01 -1.104183573932997e-01 -1.225942836047643e-02 1.812053701111465e-03
8.197600000000000e+10 -8.665277024583525e-02 9.620277849000065e-02 9.462421698127749e-01 -1.010288708508518e-01 9.418220026436872e-01 -1.106227432710474e-01 -1.248059462021736e-02 6.808380743118706e-04
8.202400000000000e+10 -8.786796758345608e-02 9.707292441045323e-02 9.470462849059518e-01 -1.014308756964959e-01 9.412246137099911e-01 -1.104002632388880e-01 -1.306483791297121e-02 -8.703987291805451e-04
8.207200000000000e+10 -8.850252848854120e-02 9.732394114796680e-02 9.476279179291893e-01 -1.018369553831282e-01 9.409325596256211e-01 -1.110074972616122e-01 -1.295990084694741e-02 -2.175999388593437e-03
8.212000000000000e+10 -8.832831116421952e-02 9.583471759947255e-02 9.472943364702844e-01 -1.017323038169322e-01 9.421514344840495e-01 -1.107266996602232e-01 -1.268825431075003e-02 -2.806309987952080e-03
8.216800000000000e+10 -8.808848250877106e-02 9.524834816970716e-02 9.467639158294641e-01 -1.008076799122035e-01 9.414920189608771e-01 -1.103886582676874e-01 -1.196065016264672e-02 -1.091306265460150e-03
8.221600000000000e+10 -8.765895843160122e-02 9.400390468956203e-02 9.463825102781875e-01 -1.009483000887983e-01 9.416186794124003e-01 -1.105076172352230e-01 -1.135265905418261e-02 -1.401616769663883e-03
8.226400000000000e+10 -8.754956450988106e-02 9.475254378342873e-02 9.465507311448310e-01 -1.004337078813733e-01 9.412229647208790e-01 -1.106483483830297e-01 -1.082984492401020e-02 -2.059140681962965e-04
8.231200000000000e+10 -8.679107386548837e-02 9.536530401956127e-02 9.467139391247884e-01 -1.003999773611824e-01 9.421849703074078e-01 -1.100890949016771e-01 -1.021791578595601e-02 6.479108636848486e-04
8.236000000000000e+10 -8.629236066814733e-02 9.598886180302167e-02 9.467692849630313e-01 -1.006096336404989e-01 9.413876765904873e-01 -1.102681745378650e-01 -9.462355964970149e-03 1.349028280492945e-03
8.240800000000000e+10 -8.583631590178223e-02 9.466510216149354e-02 9.459263282516502e-01 -1.013287659966185e-01 9.407325811554893e-01 -1.103736778602502e-01 -9.237170723465542e-03 1.406447156847343e-03
8.245600000000000e+10 -8.569990697256895e-02 9.452843504381392e-02 9.465793279273392e-01 -1.008456828030653e-01 9.412816949899520e-01 -1.098079728993924e-01 -8.834286249167737e-03 2.012155310608367e-03
8.250400000000000e+10 -8.670647688776689e-02 9.412221266124506e-02 9.462471698245746e-01 -1.008503619130398e-01 9.406104097331635e-01 -1.104973182753112e-01 -9.441500105813839e-03 2.210905421761658e-03
8.255200000000000e+10 -8.705968132412806e-02 9.421027979505261e-02 9.466674926387700e-01 -1.005197407093351e-01 9.410243592390961e-01 -1.104916299927714e-01 -9.910658153292789e-03 3.264859475937082e-03
8.260000000000000e+10 -8.801951004920676e-02 9.497910280971256e-02 9.464521852668362e-01 -1.006186174627840e-01 9.400719996948032e-01 -1.115334176116155e-01 -1.100585056578714e-02 4.073883503856224e-03
8.264800000000000e+10 -8.856550975578002e-02 9.549740428814361e-02 9.471309828192465e-01 -1.009891444519609e-01 9.413285756317169e-01 -1.110195186014391e-01 -1.108542832466346e-02 4.327095091978194e-03
8.269600000000000e+10 -8.873728771866081e-02 9.534481814395228e-02 9.472263213052980e-01 -1.018164670385751e-01 9.403637549371315e-01 -1.116496209374746e-01 -1.030272146441633e-02 4.077987136867828e-03
8.274400000000000e+10 -8.868189521596898e-02 9.484901510608963e-02 9.467880625594425e-01 -1.021898333299742e-01 9.402757351666562e-01 -1.117666975070337e-01 -9.731612827737565e-03 3.670033915271564e-03
8.279200000000000e+10 -8.819525144381851e-02 9.366574500405969e-02 9.464164034591570e-01 -1.018456107972892e-01 9.404301491438983e-01 -1.115806112914264e-01 -8.736056066224423e-03 3.580546878578175e-03
8.284000000000000e+10 -8.773950049783691e-02 9.278587087016288e-02 9.460786502132419e-01 -1.018162039183089e-01 9.401996923520748e-01 -1.115654257350195e-01 -7.658957994094287e-03 3.843422290895907e-03
8.288800000000000e+10 -8.745108511291028e-02 9.280631124272291e-02 9.459845181233821e-01 -1.013657950522462e-01 9.402719817222639e-01 -1.116793763861435e-01 -6.501078779487497e-03 3.370403448696007e-03
8.293600000000000e+10 -8.687951037744836e-02 9.240865083359009e-02 9.466979472494154e-01 -1.012283868591373e-01 9.405457094894248e-01 -1.109797480822430e-01 -5.751737043146715e-03 2.814680589960937e-03
8.298400000000000e+10 -8.688172868801373e-02 9.256388495815006e-02 9.459632065330057e-01 -1.014995726615838e-01 9.402693141742166e-01 -1.109479452300804e-01 -5.436427342373615e-03 2.847237353627026e-03
8.303200000000000e+10 -8.702433265652225e-02 9.312138817238762e-02 9.453447433281026e-01 -1.014156144390203e-01 9.393982022031566e-01 -1.108834379149566e-01 -5.461810720372638e-03 3.464085988136703e-03
8.308000000000000e+10 -8.737195603039374e-02 9.303144857494354e-02 9.449538232356548e-01 -1.014815070621143e-01 9.400146731363788e-01 -1.111201783323483e-01 -5.999446061022045e-03 3.691992163714081e-03
8.312800000000000e+10 -8.802821320024115e-02 9.427826361750011e-02 9.453717425741879e-01 -1.012341253303467e-01 9.412452508416193e-01 -1.113927659988818e-01 -6.737236219884556e-03 3.358260438997816e-03
8.317600000000000e+10 -8.873109322626006e-02 9.392161090906839e-02 9.449022500308911e-01 -1.014344791133900e-01 9.395916637152415e-01 -1.129609048393725e-01 -7.979785919332096e-03 2.921757652811127e-03
8.322400000000000e+10 -8.929020328125735e-02 9.386629285605526e-02 9.461413945779850e-01 -1.018422302652714e-01 9.393245825743548e-01 -1.135219272185280e-01 -8.988328358761939e-03 3.311822324805997e-03
8.327200000000000e+10 -8.993845192232450e-02 9.279208301413058e-02 9.465291324441030e-01 -1.023320887142590e-01 9.384366652527584e-01 -1.132014163935363e-01 -9.712204173629970e-03 4.436407391000262e-03
8.332000000000000e+10 -9.085748132718865e-02 9.363105046640270e-02 9.457795738016481e-01 -1.035654829886493e-01 9.375509795914019e-01 -1.129154919387983e-01 -9.956295008741844e-03 4.634885557784085e-03
8.336800000000000e+10 -9.136567638164056e-02 9.323465515068642e-02 9.454910363019686e-01 -1.032080972745671e-01 9.367524082904775e-01 -1.117807945169350e-01 -9.430331497519137e-03 5.175088350591690e-03
8.341600000000000e+10 -9.101512031873928e-02 9.259656343765965e-02 9.447488734525203e-01 -1.037579120584172e-01 9.372711915904604e-01 -1.110534506057799e-01 -8.728409367789920e-03 6.000024180650006e-03
8.346400000000000e+10 -9.060356221500666e-02 9.123840546606367e-02 9.449515310158604e-01 -1.040218568745170e-01 9.373749699700007e-01 -1.111979321990806e-01 -8.110804945360038e-03 5.456915142187465e-03
8.351200000000000e+10 -8.982895925935193e-02 9.162052228590505e-02 9.442423099673593e-01 -1.039906989768644e-01 9.370693243135035e-01 -1.111104749551699e-01 -7.499734821929981e-03 6.333784949137307e-03
8.356000000000000e+10 -8.936118278214276e-02 9.199777145419226e-02 9.435896847066810e-01 -1.030803061146261e-01 9.366492954074295e-01 -1.118759811696006e-01 -7.243214263580412e-03 6.202568292279657e-03
8.360800000000000e+10 -8.875744165388691e-02 9.253550844727892e-02 9.435786909919638e-01 -1.024167338034235e-01 9.372226459622894e-01 -1.119966464346804e-01 -6.912593436503292e-03 6.118362726209333e-03
8.365600000000000e+10 -8.876937352453865e-02 9.297379439272882e-02 9.427292953062999e-01 -1.020565144181749e-01 9.373230420280533e-01 -1.115608279884281e-01 -6.415106151894165e-03 5.867423067908117e-03
8.370400000000000e+10 -8.885336125789413e-02 9.349032722723717e-02 9.417910307692574e-01 -1.017703060454728e-01 9.373267581003860e-01 -1.105857563555358e-01 -6.507371777775838e-03 6.573991669229447e-03
8.375200000000000e+10 -8.945594134539929e-02 9.369163588076375e-02 9.417620510216347e-01 -1.016236307474766e-01 9.375959142470424e-01 -1.103786952916488e-01 -6.899382933312142e-03 6.600936067681160e-03
8.380000000000000e+10 -9.070242808340762e-02 9.482468800492565e-02 9.428543114489626e-01 -1.011804239044867e-01 9.385886771978361e-01 -1.100553956538910e-01 -7.718026920536263e-03 5.921909249635800e-03
8.384800000000000e+10 -9.193970143075535e-02 9.395425364061155e-02 9.431108190340043e-01 -1.017322713125449e-01 9.375760497218617e-01 -1.108715618488898e-01 -8.618836675591070e-03 4.529616115683759e-03
8.389600000000000e+10 -9.289444756720767e-02 9.460242404113128e-02 9.445389035461130e-01 -1.012298129763305e-01 9.370142670138513e-01 -1.114245822489750e-01 -9.237779694084387e-03 4.552284939173041e-03
8.394400000000000e+10 -9.240869353660924e-02 9.321748510799524e-02 9.442499163619958e-01 -1.015770247795483e-01 9.365850667282801e-01 -1.114379349475232e-01 -9.415921321616040e-03 5.741008004711946e-03
8.399200000000000e+10 -9.165400389026229e-02 9.318937159661754e-02 9.452063526964876e-01 -1.010994791825468e-01 9.360882221880695e-01 -1.110195690583869e-01 -8.698477033515093e-03 7.684152477316878e-03
8.404000000000000e+10 -9.052604989981800e-02 9.218628540677243e-02 9.443626853270585e-01 -1.019910251938210e-01 9.350223507512837e-01 -1.106387876519975e-01 -7.060914412864356e-03 9.358060953377342e-03
8.408800000000000e+10 -8.945864603111714e-02 9.231452413020247e-02 9.444572866599343e-01 -1.027288546660278e-01 9.354226836720473e-01 -1.097634151180104e-01 -5.694864274555026e-03 1.048605677929337e-02
8.413600000000000e+10 -8.848746456703782e-02 9.133621208377904e-02 9.443381009642235e-01 -1.036902520492646e-01 9.368674008990014e-01 -1.085890345826989e-01 -4.205843598953531e-03 1.024322665723021e-02
8.418400000000000e+10 -8.770178531197362e-02 9.089135323526001e-02 9.433329517609339e-01 -1.035653501267900e-01 9.353357766855130e-01 -1.095139044188520e-01 -3.262992857589269e-03 1.116167870021102e-02
8.423200000000000e+10 -8.794180164654085e-02 9.073852088092993e-02 9.428598994450831e-01 -1.027059565479881e-01 9.365667417018012e-01 -1.094885700125260e-01 -2.831504151588557e-03 9.483819782590358e-03
8.428000000000000e+10 -8.769270059521227e-02 9.058023277038997e-02 9.408130054163903e-01 -1.032377130806752e-01 9.366061825166354e-01 -1.093918974826653e-01 -2.744124943802806e-03 1.093526025074526e-02
8.432800000000000e+10 -8.848428126821657e-02 9.079226065702500e-02 9.400243874516980e-01 -1.019340163081618e-01 9.366495206282476e-01 -1.097241127349733e-01 -2.987266329245113e-03 1.057624764294897e-02
8.437600000000000e+10 -8.928821071052680e-02 9.004213617930995e-02 9.401742862544619e-01 -1.020017659345014e-01 9.362695709779013e-01 -1.102911733489362e-01 -4.642893874895891e-03 8.695935522606411e-03
8.442400000000000e+10 -9.009183301615124e-02 8.992915021481961e-02 9.414620944556190e-01 -1.022364329282115e-01 9.368863366172924e-01 -1.097016375806190e-01 -6.110930840713345e-03 7.858967567274949e-03
8.447200000000000e+10 -9.077868043800520e-02 9.041100172217759e-02 9.432318679795567e-01 -1.026318269056248e-01 9.366734592996326e-01 -1.108805679409616e-01 -7.207044957060827e-03 8.295958658395467e-03
8.452000000000000e+10 -9.135399318513980e-02 9.066929686338884e-02 9.443575369702536e-01 -1.034568232963560e-01 9.360591693067186e-01 -1.102974600698824e-01 -7.559123067929252e-03 8.517947753758984e-03
8.456800000000000e+10 -9.160804855669792e-02 9.093836034953738e-02 9.454906748801511e-01 -1.033403621686150e-01 9.352674381712094e-01 -1.104430920825527e-01 -7.498225434286939e-03 9.240858410249944e-03
8.461600000000000e+10 -9.142234629767873e-02 9.103011647177055e-02 9.444326080110180e-01 -1.039726588689075e-01 9.353630464726391e-01 -1.100642546346449e-01 -6.718421959587328e-03 9.935391408468389e-03
8.466400000000000e+10 -9.144413796811861e-02 8.968518837395163e-02 9.433030023332664e-01 -1.040752609225413e-01 9.350926465234768e-01 -1.105943797568103e-01 -6.164859433122598e-03 1.031500914387404e-02
8.471200000000000e+10 -9.118183877744304e-02 8.871360038361813e-02 9.429003460526557e-01 -1.037136295859504e-01 9.350803911014632e-01 -1.109279193401321e-01 -5.129696850022374e-03 1.035834769000133e-02
8.476000000000000e+10 -9.076866311003409e-02 8.867942129305004e-02 9.429302101609778e-01 -1.030079047399692e-01 9.353848273493376e-01 -1.106089794647071e-01 -4.254410748457638e-03 1.082107700863455e-02
8.480800000000000e+10 -9.045351036708645e-02 8.966387557536107e-02 9.422684175158037e-01 -1.039207935715259e-01 9.358318016067855e-01 -1.101383909281842e-01 -3.378698091925081e-03 1.133156612936484e-02
8.485600000000000e+10 -9.037289735309117e-02 9.020367626615669e-02 9.410654652147473e-01 -1.046501351097486e-01 9.360525058627327e-01 -1.102966976145119e-01 -3.188621978243373e-03 1.146025008651532e-02
8.490400000000000e+10 -9.009082464685628e-02 8.972725176169917e-02 9.410423661056371e-01 -1.037759834329920e-01 9.373239714780329e-01 -1.104894417220807e-01 -3.181970174034595e-03 1.020800026556053e-02
8.495200000000000e+10 -8.965010077028393e-02 8.990622226698664e-02 9.405413477449077e-01 -1.030541199753871e-01 9.380755286972179e-01 -1.106874364023983e-01 -3.030981995082112e-03 9.417627562826209e-03
8.500000000000000e+10 -9.006027957276883e-02 9.081148459511076e-02 9.386736443300083e-01 -1.020150078468945e-01 9.370139771746927e-01 -1.105337805180685e-01 -3.039788809248979e-03 1.068435962164314e-02
8.504800000000000e+10 -9.094084301665425e-02 9.093339678591984e-02 9.396925902589394e-01 -1.018389554802119e-01 9.367144430139503e-01 -1.113270281066463e-01 -3.879945373310438e-03 8.910157442903639e-03
8.509600000000000e+10 -9.216156553264578e-02 9.208489886493240e-02 9.407933343122720e-01 -1.001482372961265e-01 9.363753991215595e-01 -1.105823230134357e-01 -4.691602286818457e-03 1.074060583908349e-02
8.514400000000000e+10 -9.281509559320790e-02 9.088905111686781e-02 9.433235050333831e-01 -1.015647693339783e-01 9.363243252131178e-01 -1.118584222050375e-01 -5.363878565097118e-03 8.468759656536227e-03
8.519200000000000e+10 -9.354027758916411e-02 9.214930819896618e-02 9.414599720409339e-01 -1.007612685996730e-01 9.335757101382369e-01 -1.105664400856617e-01 -5.130552854586610e-03 1.153622167606243e-02
8.524000000000000e+10 -9.372850075460142e-02 9.176522788977567e-02 9.435581559898424e-01 -1.025224916094516e-01 9.338887491423319e-01 -1.098787153157468e-01 -5.498962689074656e-03 1.110243640294749e-02
8.528800000000000e+10 -9.379859836964612e-02 9.028466554289732e-02 9.441624533822045e-01 -1.010239970945380e-01 9.341071637946047e-01 -1.058306684684291e-01 -4.852956101225155e-03 1.017469868871039e-02
8.533600000000000e+10 -9.329243919268729e-02 9.082015341663587e-02 9.423961600692479e-01 -1.027657922724041e-01 9.331897174901254e-01 -1.084061254014329e-01 -4.446275929724628e-03 1.233170203223998e-02
8.538400000000000e+10 -9.275943568316106e-02 9.005302923779757e-02 9.432492433337577e-01 -1.032060169636313e-01 9.347326444668124e-01 -1.109798732665494e-01 -4.199721877541362e-03 9.906826823663723e-03
8.543200000000000e+10 -9.227005220173060e-02 9.049118950080595e-02 9.417097203686412e-01 -1.025625224754495e-01 9.357596016427127e-01 -1.103378965787678e-01 -3.254279501844143e-03 1.084491691255485e-02
8.548000000000000e+10 -9.246843362744880e-02 9.053525809676347e-02 9.410686659152938e-01 -1.022421264427772e-01 9.366799812534102e-01 -1.113014876407578e-01 -2.431685055586652e-03 1.176119640798761e-02
8.552800000000000e+10 -9.242827687661877e-02 9.142778732322614e-02 9.393231879203974e-01 -1.024946195530774e-01 9.348028719430144e-01 -1.114443994061820e-01 -1.624030837167172e-03 1.292465121216456e-02
8.557600000000000e+10 -9.312020809783550e-02 9.035944725178750e-02 9.405587119472274e-01 -1.022809149320931e-01 9.361214084086406e-01 -1.084979261743163e-01 -1.817277858240363e-03 1.028848879212141e-02
8.562400000000000e+10 -9.334500443006234e-02 8.997793726338649e-02 9.393243540159661e-01 -1.020345526849746e-01 9.359658391176885e-01 -1.082734438657452e-01 -2.137924408811851e-03 1.099870126079695e-02
8.567200000000000e+10 -9.356356440548923e-02 9.094163891858618e-02 9.406257604378573e-01 -1.001789882943139e-01 9.358801160063455e-01 -1.093247410259202e-01 -2.166623799090093e-03 1.254276751203143e-02
8.572000000000000e+10 -9.388491950485654e-02 9.179468312830347e-02 9.397077465994927e-01 -1.007943952722472e-01 9.343735020297241e-01 -1.102328723291033e-01 -2.528728907332072e-03 1.453037511327713e-02
8.576800000000000e+10 -9.546092255253834e-02 9.393890898146597e-02 9.431194326325829e-01 -9.557699387626770e-02 9.364377717882311e-01 -1.075022755990374e-01 -1.023942141598783e-03 1.531508402398325e-02
8.581600000000000e+10 -9.331329680096322e-02 9.390662767915378e-02 9.417290068365300e-01 -1.012822590837523e-01 9.345822366097568e-01 -1.143844430951285e-01 -2.546464175456402e-03 1.532937810143789e-02
8.586400000000000e+10 -9.380571678646851e-02 9.397353950735687e-02 9.429040802037417e-01 -1.003544811223130e-01 9.350879003955727e-01 -1.101983256972834e-01 -1.481540144766948e-03 1.605305146606622e-02
8.591200000000000e+10 -9.331947357920542e-02 9.307864233744439e-02 9.419309204599942e-01 -1.020290066822440e-01 9.347524809090330e-01 -1.103759557267417e-01 -9.179856800622208e-04 1.645062215507107e-02
8.596000000000000e+10 -9.306809204991413e-02 9.325429833809197e-02 9.415549975576468e-01 -1.020077973332710e-01 9.346937145208177e-01 -1.092850503348638e-01 1.812085620538460e-04 1.802257424087056e-02
8.600800000000000e+10 -9.299980698666735e-02 9.312997241749797e-02 9.406476437447459e-01 -1.020792987287720e-01 9.347933238163083e-01 -1.092842326304325e-01 9.038003594549854e-04 1.801125455035972e-02
8.605600000000000e+10 -9.318760907389596e-02 9.393265283520863e-02 9.403586580376389e-01 -1.011705577139448e-01 9.347938779961926e-01 -1.093640440520235e-01 1.546629814192135e-03 1.902508141407015e-02
8.610400000000000e+10 -9.294629352012185e-02 9.378573655323094e-02 9.405792372069312e-01 -1.016437011817025e-01 9.351567310752877e-01 -1.098328685801101e-01 1.643357197299473e-03 1.826253789153823e-02
8.615200000000000e+10 -9.270193482640761e-02 9.371321152454555e-02 9.401914570727656e-01 -1.022828152836169e-01 9.352283461711640e-01 -1.106817996521857e-01 1.709670481609301e-03 1.755291402178440e-02
8.620000000000000e+10 -9.234882530107948e-02 9.411553576075289e-02 9.399638863859068e-01 -1.023611121326973e-01 9.361249174751712e-01 -1.105457654677367e-01 1.628857560029868e-03 1.656928968110268e-02
8.624800000000000e+10 -9.226318455117070e-02 9.454401694064257e-02 9.386077546517547e-01 -1.004433726971204e-01 9.342972134672077e-01 -1.102674964656301e-01 1.822105321978598e-03 1.754461533995692e-02
8.629600000000000e+10 -9.193910642067726e-02 9.439323779719984e-02 9.410799946326892e-01 -1.003162850452123e-01 9.373342505137866e-01 -1.079865632418127e-01 2.438092120139865e-03 1.629748489726010e-02
8.634400000000000e+10 -9.156396125398455e-02 9.710484721660782e-02 9.356879143248966e-01 -9.998282897748030e-02 9.333113033849345e-01 -1.094954140675820e-01 3.245675094317996e-03 2.578275819169943e-02
8.639200000000000e+10 -9.044446117815697e-02 9.350136736501459e-02 9.409448826101644e-01 -1.003190823912601e-01 9.358079280370611e-01 -1.088290951128352e-01 3.994435700069281e-03 2.241159210925996e-02
8.644000000000000e+10 -9.303853627432433e-02 9.615146390860770e-02 9.394630424842152e-01 -1.020092533319381e-01 9.360928934970080e-01 -1.117903225895567e-01 8.137102208915463e-04 1.941725163410694e-02
8.648800000000000e+10 -9.251619539011291e-02 9.641254908120095e-02 9.422115244528033e-01 -1.004436284123617e-01 9.352259749596992e-01 -1.088168126664001e-01 2.017394103239371e-03 2.126026864144111e-02
8.653600000000000e+10 -9.252867281012365e-02 9.592152242791471e-02 9.408971949124567e-01 -1.018149966029705e-01 9.356469570786845e-01 -1.096258451482194e-01 2.220712355186794e-03 2.152274412041073e-02
8.658400000000000e+10 -9.303448159833273e-02 9.662588850958723e-02 9.396738716998405e-01 -1.015467409165223e-01 9.326821101752120e-01 -1.102183337414712e-01 2.391234504727144e-03 2.498052206999452e-02
8.663200000000000e+10 -9.248140609995528e-02 9.544695856617612e-02 9.401525265918032e-01 -1.022990776876046e-01 9.353483992062769e-01 -1.105344079462689e-01 2.105566703244766e-03 2.204687347621260e-02
8.668000000000000e+10 -9.189984298135398e-02 9.487860884434968e-02 9.402509630100707e-01 -1.014172704800797e-01 9.380520321247332e-01 -1.089339395549854e-01 3.108290053712623e-03 2.027396868400407e-02
8.672800000000000e+10 -9.147546365741865e-02 9.499848691264054e-02 9.387867327698561e-01 -1.027083817333190e-01 9.372748173335756e-01 -1.089549362943576e-01 3.025063676692376e-03 2.232185496582688e-02
8.677600000000000e+10 -9.180992521899750e-02 9.626883988017028e-02 9.373819035047638e-01 -1.024733524034595e-01 9.342822378260224e-01 -1.108389592093089e-01 3.750798252670149e-03 2.472396649279749e-02
8.682400000000000e+10 -9.136073435342901e-02 9.551963758064390e-02 9.400811986561959e-01 -1.024736414957224e-01 9.343012372641560e-01 -1.086228120950156e-01 3.744833117108614e-03 2.257385815253353e-02
8.687200000000000e+10 -9.222845297197760e-02 9.605646035508687e-02 9.387792621939562e-01 -1.028476171990310e-01 9.338097156387355e-01 -1.096622673861990e-01 3.542980966440307e-03 2.288174514849313e-02
8.692000000000000e+10 -9.232235580868256e-02 9.616437738516710e-02 9.400881233570697e-01 -1.023666501502748e-01 9.352364859803888e-01 -1.091217223573704e-01 3.670796523870379e-03 2.219497799207233e-02
8.696800000000000e+10 -9.169185956389921e-02 9.371276372005083e-02 9.399428245482730e-01 -1.039403339034158e-01 9.361770601438028e-01 -1.105495019830587e-01 3.898763514069480e-03 1.983652642091741e-02
8.701600000000000e+10 -9.183091299467554e-02 9.352196685025009e-02 9.411272207619306e-01 -1.015868046085380e-01 9.375076201535071e-01 -1.106435850944775e-01 4.092408892977624e-03 2.046816064497835e-02
8.706400000000000e+10 -9.180333031931029e-02 9.347362834539948e-02 9.396796831897900e-01 -1.025021749699114e-01 9.380764538859455e-01 -1.117921003373954e-01 4.037761889448846e-03 2.078630603568452e-02
8.711200000000000e+10 -9.252303357650564e-02 9.451286546061151e-02 9.402701467401117e-01 -1.017669665005074e-01 9.369046846432060e-01 -1.097214210321219e-01 3.868625087248101e-03 2.374556983889236e-02
8.716000000000000e+10 -9.279758137687591e-02 9.394525286614117e-02 9.414906897429516e-01 -1.039307295190103e-01 9.365477112139288e-01 -1.099385019667170e-01 3.568991913097029e-03 2.226059489209069e-02
8.720800000000000e+10 -9.245170661319342e-02 9.409214010866013e-02 9.410602123447105e-01 -1.038408281109077e-01 9.353452228922113e-01 -1.096446490231761e-01 3.999516950178363e-03 2.458995804844536e-02
8.725600000000000e+10 -9.262878030636092e-02 9.260690584804508e-02 9.406183299685416e-01 -1.044052844158811e-01 9.338240707108590e-01 -1.107642812116153e-01 4.281023535350796e-03 2.541486102213638e-02
8.730400000000000e+10 -9.225714048463170e-02 9.317023370371715e-02 9.399765895760419e-01 -1.043281911663726e-01 9.351027923155708e-01 -1.098723174508184e-01 5.154431078232434e-03 2.567149367125271e-02
8.735200000000000e+10 -9.232192355513304e-02 9.150272425861705e-02 9.407709324183314e-01 -1.035389275957993e-01 9.363666786947064e-01 -1.105824829128723e-01 6.376783038813906e-03 2.306980188771391e-02
8.740000000000000e+10 -9.254989301022330e-02 9.202886107323996e-02 9.410522516363409e-01 -1.037124667082595e-01 9.379104569861689e-01 -1.109566712516683e-01 6.539682423372305e-03 2.094538306525636e-02
8.744800000000000e+10 -9.307250995578964e-02 9.114882322472140e-02 9.401886592595248e-01 -1.037463831272349e-01 9.360221052291940e-01 -1.124673612434146e-01 7.169505063150582e-03 2.150938714521139e-02
8.749600000000000e+10 -9.277631523337067e-02 9.197872573155112e-02 9.410120246269784e-01 -1.030473610539730e-01 9.373126993548125e-01 -1.095046347711257e-01 7.653832796592264e-03 2.126948167661449e-02
8.754400000000000e+10 -9.336965390069023e-02 9.183290668605038e-02 9.383949265416138e-01 -1.053161694385212e-01 9.355698105976678e-01 -1.110593511015309e-01 6.651742629665339e-03 2.427208597687237e-02
8.759200000000000e+10 -9.267520442302950e-02 9.210407993295214e-02 9.395423142674455e-01 -1.046779621385161e-01 9.361454270434881e-01 -1.110644200580128e-01 6.100000588426951e-03 2.421518063608255e-02
8.764000000000000e+10 -9.361468339305569e-02 9.260737049207600e-02 9.387161991275729e-01 -1.019564596446270e-01 9.344522044450186e-01 -1.103939892220349e-01 6.073365185373485e-03 2.793277786453161e-02
8.768800000000000e+10 -9.284470689047084e-02 9.200711018193500e-02 9.426814153530810e-01 -1.044045727868452e-01 9.380037713842019e-01 -1.112381499332354e-01 5.254576314883579e-03 2.023635133219427e-02
8.773600000000000e+10 -9.387613163621339e-02 9.308086763893873e-02 9.415423703377698e-01 -1.028653283132578e-01 9.353404851214377e-01 -1.110055358193034e-01 4.936282110145599e-03 2.713255150614429e-02
8.778400000000000e+10 -9.390719006864848e-02 9.454878609030301e-02 9.407027318766140e-01 -1.035518370422445e-01 9.349664892543700e-01 -1.113801343025345e-01 5.269531601706141e-03 2.861160854383282e-02
8.783200000000000e+10 -9.440088026357014e-02 9.366247379700719e-02 9.408820252616025e-01 -1.043303443143418e-01 9.349528941164141e-01 -1.120776590785909e-01 5.458628656226856e-03 2.703277354864181e-02
8.788000000000000e+10 -9.453324654330900e-02 9.246865401085179e-02 9.408141517732714e-01 -1.046894107066403e-01 9.345458399348469e-01 -1.112771241203946e-01 5.927503241622158e-03 2.780342542824193e-02
8.792800000000000e+10 -9.482940598540746e-02 9.312376531880312e-02 9.404187456868468e-01 -1.041363756117586e-01 9.348244343602745e-01 -1.107438645652582e-01 5.730658930168505e-03 2.775171444499036e-02
8.797600000000000e+10 -9.512023704385510e-02 9.182917506586795e-02 9.396206067013376e-01 -1.060080538260989e-01 9.332814661571397e-01 -1.116795641756595e-01 5.744297065702437e-03 2.711653176897090e-02
8.802400000000000e+10 -9.517267037857485e-02 9.229071734409765e-02 9.393915441863251e-01 -1.040361958914329e-01 9.344701829202426e-01 -1.107307290643528e-01 6.357034829377868e-03 2.772264318623224e-02
8.807200000000000e+10 -9.415790123693579e-02 9.102376211215428e-02 9.397699314535056e-01 -1.044163475397188e-01 9.343609589018327e-01 -1.121062868139660e-01 6.646128317554398e-03 2.650640793999689e-02
8.812000000000000e+10 -9.386889084681863e-02 9.233314240364493e-02 9.375374685093718e-01 -1.030398906644747e-01 9.335356897651493e-01 -1.117003366631801e-01 6.831582957820242e-03 3.085672259907690e-02
8.816800000000000e+10 -9.414273950591183e-02 9.276134087747552e-02 9.382625675439161e-01 -1.061114690154561e-01 9.339199813966378e-01 -1.136473064029061e-01 6.423330530331869e-03 2.503622549581649e-02
8.821600000000000e+10 -9.354956491506369e-02 9.289322899656081e-02 9.413213016543026e-01 -1.035087874642939e-01 9.368797039652685e-01 -1.109460754087662e-01 6.609791571708939e-03 2.169150304069507e-02
8.826400000000000e+10 -9.300641072765053e-02 9.195047032415668e-02 9.395142255536665e-01 -1.052636315640191e-01 9.348912444954974e-01 -1.124139131778503e-01 6.116959825963937e-03 2.365088916011883e-02
8.831200000000000e+10 -9.396817854411083e-02 9.302378256407437e-02 9.397424197031196e-01 -1.048004426592757e-01 9.350379871636479e-01 -1.117350419861748e-01 6.033014927859430e-03 2.551707624518118e-02
8.836000000000000e+10 -9.427503198333959e-02 9.402335645010718e-02 9.406580648040055e-01 -1.050362787552620e-01 9.343989880209933e-01 -1.123206534974835e-01 5.946476564509573e-03 2.577868905000601e-02
8.840800000000000e+10 -9.466235278241616e-02 9.466195423915946e-02 9.411864676055782e-01 -1.057731313829913e-01 9.347801528999289e-01 -1.127868255576943e-01 5.846023536293828e-03 2.601972764205747e-02
8.845600000000000e+10 -9.455690566471328e-02 9.448447791168431e-02 9.412479377902496e-01 -1.054985891391045e-01 9.335334503269768e-01 -1.140997445804003e-01 5.204863322039017e-03 2.522529739629581e-02
8.850400000000000e+10 -9.480705781351353e-02 9.537844348877178e-02 9.411559574826254e-01 -1.066506061966647e-01 9.347117990350363e-01 -1.143006322323320e-01 4.570827416033986e-03 2.552482336293696e-02
8.855200000000000e+10 -9.417913561949227e-02 9.597384509434763e-02 9.424977404904418e-01 -1.051416230401772e-01 9.336467932105060e-01 -1.141851967556311e-01 4.470420507522252e-03 2.377608553659486e-02
8.860000000000000e+10 -9.314993654650812e-02 9.480893147905882e-02 9.404797150039211e-01 -1.021492182985616e-01 9.332794257297692e-01 -1.119688076701418e-01 3.192269301084668e-03 2.547976942988116e-02
8.864800000000000e+10 -9.288968120564349e-02 9.509994122523074e-02 9.419057773849382e-01 -8.222870227089450e-02 9.335173101094082e-01 -1.076916759475322e-01 -1.028402880048934e-03 3.038317887924791e-02
8.869600000000000e+10 -9.343466921788879e-02 9.614235655105599e-02 9.379456271649363e-01 -1.088254756996904e-01 9.337510656924664e-01 -1.124655921616317e-01 4.001337023542172e-03 2.437856660068066e-02
8.874400000000000e+10 -9.461102394151985e-02 9.654661042704352e-02 9.392054086487157e-01 -1.075284849163703e-01 9.343563589684836e-01 -1.124163374807844e-01 5.117847230917099e-03 2.304723977034695e-02
8.879200000000000e+10 -9.555546465611207e-02 9.598250344391640e-02 9.386496728536223e-01 -1.084464372033339e-01 9.344673179258933e-01 -1.137573502334717e-01 5.963892090598415e-03 2.035067524495225e-02
8.884000000000000e+10 -9.543928088235722e-02 9.653760982518679e-02 9.378923831360674e-01 -1.062132605719782e-01 9.336434816234374e-01 -1.151848128555440e-01 6.078587775303572e-03 2.454885376078652e-02
8.888800000000000e+10 -9.447722381753756e-02 9.515849078419833e-02 9.392274923622357e-01 -9.221611942658017e-02 9.338992848421256e-01 -1.077364701656536e-01 3.315545073981446e-03 2.706435596314669e-02
8.893600000000000e+10 -9.556901775904642e-02 9.802548118001964e-02 9.379776685769684e-01 -1.084273457327301e-01 9.326444014781539e-01 -1.127189060919697e-01 5.139944390359490e-03 2.463921568102946e-02
8.898400000000000e+10 -9.628369064247581e-02 9.916281526094417e-02 9.393355612906904e-01 -1.074551458659464e-01 9.343195308421022e-01 -1.130235166769592e-01 5.664520652340677e-03 2.268256085172938e-02
8.903200000000000e+10 -9.608268953643696e-02 1.002302320899003e-01 9.399577642119695e-01 -1.059559957281138e-01 9.350999833786741e-01 -1.123750129281841e-01 5.196267384754862e-03 2.443515598762639e-02
8.908000000000000e+10 -9.637417003065930e-02 9.932731742974790e-02 9.407349123797961e-01 -1.076007459992889e-01 9.341904182988925e-01 -1.162239305749661e-01 3.967069342736307e-03 2.105155149922000e-02
8.912800000000000e+10 -9.657441890339097e-02 1.000677457836867e-01 9.419772449393424e-01 -1.064200481030936e-01 9.333303469443364e-01 -1.155872576060373e-01 5.150833102364659e-03 2.237205755134479e-02
8.917600000000000e+10 -9.610681719070358e-02 9.861001750444370e-02 9.408216337333415e-01 -1.075157864834496e-01 9.336000569825502e-01 -1.153094279347040e-01 5.504945588714757e-03 2.325521996433346e-02
8.922400000000000e+10 -9.700451539990287e-02 9.986417176883058e-02 9.412230997620812e-01 -1.055820067120327e-01 9.323423968357507e-01 -1.146525935882949e-01 5.667286038862064e-03 2.456643372078886e-02
8.927200000000000e+10 -9.711728520775073e-02 9.785555797805871e-02 9.378821280045176e-01 -1.094472349518844e-01 9.322381863597382e-01 -1.135885932665549e-01 6.393854359532215e-03 2.388741647255437e-02
8.932000000000000e+10 -9.749389799201083e-02 9.823244049237792e-02 9.400170194446399e-01 -1.065243521342891e-01 9.331061626790667e-01 -1.117086603935414e-01 7.228775172757222e-03 2.364318313888143e-02
8.936800000000000e+10 -9.655404746403295e-02 9.722729846545014e-02 9.380923489850805e-01 -1.092414567806545e-01 9.330991846778470e-01 -1.122714636139119e-01 7.543435565363901e-03 2.276967308037305e-02
8.941600000000000e+10 -9.671794981045737e-02 9.639165631195368e-02 9.380458074122547e-01 -1.086058370840605e-01 9.328679963226791e-01 -1.142452015824816e-01 6.794714116082626e-03 2.313731629766825e-02
8.946400000000000e+10 -9.612858517803301e-02 9.653116139589041e-02 9.368246972443609e-01 -1.097857955282958e-01 9.330928279993022e-01 -1.151100110775285e-01 6.279737542322516e-03 2.229838312471099e-02
8.951200000000000e+10 -9.677169505370711e-02 9.668753108192578e-02 9.372934943800462e-01 -1.089930696802846e-01 9.327131081651957e-01 -1.164787777036075e-01 6.307839634387220e-03 2.291147979555269e-02
8.956000000000000e+10 -9.650332547624875e-02 9.720294006476068e-02 9.374030124911893e-01 -1.090265304811396e-01 9.334649086066666e-01 -1.155593606868337e-01 5.917816641674370e-03 2.070900422773680e-02
8.960800000000000e+10 -9.699016122742835e-02 9.720621862352127e-02 9.375118144918146e-01 -1.073982177073859e-01 9.327172998730413e-01 -1.143490228748723e-01 5.926536267731839e-03 2.430014962614472e-02
8.965600000000000e+10 -9.667904514683771e-02 9.795333024157145e-02 9.385121130380158e-01 -1.077980774314636e-01 9.339214800711308e-01 -1.136130461058158e-01 6.722248003444577e-03 2.353740891435222e-02
8.970400000000000e+10 -9.821185720491661e-02 9.749888654954704e-02 9.370655468285551e-01 -1.084760347548510e-01 9.322870678193821e-01 -1.141161939736896e-01 6.379104016584165e-03 2.605161873852027e-02
8.975200000000000e+10 -9.825207024324785e-02 9.801919596417440e-02 9.387323225377927e-01 -1.081523287021207e-01 9.324619792234268e-01 -1.142870122718500e-01 6.285332165879600e-03 2.525732099541582e-02
8.980000000000000e+10 -9.823636151066918e-02 9.679404060121244e-02 9.386316328555641e-01 -1.084724877236624e-01 9.320743220165851e-01 -1.141290140400187e-01 6.190294838725878e-03 2.552439849477178e-02
8.984800000000000e+10 -9.869823416239096e-02 9.492209230682871e-02 9.379471012837138e-01 -1.088683925044479e-01 9.309434371663415e-01 -1.152185787868056e-01 6.108844371780940e-03 2.428902601221122e-02
8.989600000000000e+10 -9.826236434072839e-02 9.421800607105375e-02 9.396565334110454e-01 -1.076271921595875e-01 9.334254087693403e-01 -1.157396413315548e-01 7.071942838982424e-03 1.949462479496555e-02
8.994400000000000e+10 -9.717342147513446e-02 9.223472163944170e-02 9.372357879926314e-01 -1.086240074790846e-01 9.315379020296097e-01 -1.153197657711399e-01 6.811404425708205e-03 2.232059250899341e-02
8.999200000000000e+10 -9.730607170046320e-02 9.261768334440310e-02 9.365800476280683e-01 -1.078359629967380e-01 9.312639036664649e-01 -1.147956867194732e-01 7.645211145657346e-03 2.411677783952518e-02
9.004000000000000e+10 -9.699252635089602e-02 9.251657661149480e-02 9.357594221871449e-01 -1.083871357420411e-01 9.303059848374421e-01 -1.137465972538921e-01 7.877571490136848e-03 2.633325737210251e-02
9.008800000000000e+10 -9.643557990175401e-02 9.204351467006436e-02 9.360055902101233e-01 -1.084930386626273e-01 9.325206074357392e-01 -1.119240098501068e-01 8.226484328501042e-03 2.690799692802500e-02
9.013600000000000e+10 -9.609661766943439e-02 9.025818757578692e-02 9.363074692248023e-01 -1.083737313788163e-01 9.315936198473602e-01 -1.138511644240131e-01 9.023594459389776e-03 2.657617427704905e-02
9.018400000000000e+10 -9.649910636262202e-02 9.193992936533989e-02 9.372689904471876e-01 -1.063234320322070e-01 9.323856792421673e-01 -1.148145074679089e-01 9.809719706056774e-03 2.347158650367870e-02
9.023200000000000e+10 -9.680470491983573e-02 9.118796799731504e-02 9.375817143111164e-01 -1.053498680922779e-01 9.326457194609022e-01 -1.140500017982647e-01 8.955865064884447e-03 2.381581932947002e-02
9.028000000000000e+10 -9.777678361171126e-02 9.223168469403693e-02 9.392484299615396e-01 -1.059879508427372e-01 9.334458229565418e-01 -1.150220369240003e-01 8.630792530216846e-03 2.158569209170324e-02
9.032800000000000e+10 -9.807449948775689e-02 9.226490975529390e-02 9.392144021763861e-01 -1.065067800201655e-01 9.317936047551642e-01 -1.158879425396669e-01 8.222619207025984e-03 2.362711806057833e-02
9.037600000000000e+10 -9.775451188920230e-02 9.211928300631389e-02 9.398946763607648e-01 -1.063202912186217e-01 9.327005460376706e-01 -1.147617875815417e-01 7.522062253191039e-03 2.428546456172219e-02
9.042400000000000e+10 -9.713289528122195e-02 9.118461474230426e-02 9.392486512668055e-01 -1.076640754022602e-01 9.322822321036518e-01 -1.140320374528256e-01 7.630485483762569e-03 2.504661339130367e-02
9.047200000000000e+10 -9.727953250865548e-02 9.009163192251347e-02 9.396568756943563e-01 -1.071027948778295e-01 9.319803548361176e-01 -1.159499648703722e-01 7.312306926326680e-03 2.362135363886889e-02
9.052000000000000e+10 -9.732134998469663e-02 9.000418309743602e-02 9.372665909063184e-01 -1.081943461446612e-01 9.315719227116939e-01 -1.145373533145751e-01 8.254530513886587e-03 2.728409620071020e-02
9.056800000000000e+10 -9.806132926182524e-02 8.960373511769382e-02 9.364461869792708e-01 -1.062985576765889e-01 9.308629991381521e-01 -1.137740946964686e-01 8.581491492782166e-03 2.779034775744009e-02
9.061600000000000e+10 -9.750822887432700e-02 8.961746872557776e-02 9.383113364239818e-01 -1.056790078111700e-01 9.335711684287697e-01 -1.140461889061910e-01 9.884396233996390e-03 2.265692805389371e-02
9.066400000000000e+10 -9.730492908387559e-02 8.843487141459734e-02 9.376553491666813e-01 -1.067008186620798e-01 9.305617117978593e-01 -1.165525790868975e-01 1.087996921426738e-02 2.496481008391363e-02
9.071200000000000e+10 -9.762899685912844e-02 8.752737122926720e-02 9.379047046909134e-01 -1.062904867146115e-01 9.308353394773604e-01 -1.136879174088724e-01 1.093529588532758e-02 2.632244225761987e-02
9.076000000000000e+10 -9.690511666186299e-02 8.718410905718933e-02 9.380052361174921e-01 -1.061087953488134e-01 9.323914022897418e-01 -1.142158086497182e-01 1.098843648587216e-02 2.568546561277414e-02
9.080800000000000e+10 -9.674096445963749e-02 8.730892800397962e-02 9.364513077496540e-01 -1.070172292862701e-01 9.319798538586115e-01 -1.135673287424550e-01 1.118648367851803e-02 2.628063405969584e-02
9.085600000000000e+10 -9.685361807316187e-02 8.882972166355216e-02 9.386170540875204e-01 -1.049553677603179e-01 9.328686000455303e-01 -1.134492954741562e-01 1.058231891651553e-02 2.481653365897569e-02
9.090400000000000e+10 -9.639521592576103e-02 8.876233231376794e-02 9.382710434970744e-01 -1.059086558323353e-01 9.334641516972954e-01 -1.139781061896284e-01 1.099691407483165e-02 2.316667232244449e-02
9.095200000000000e+10 -9.736177529013219e-02 9.042434851778286e-02 9.401362729636663e-01 -1.047171148713367e-01 9.339978083108050e-01 -1.152084752685750e-01 1.122834601226384e-02 2.223481836029022e-02
9.100000000000000e+10 -9.770158865929349e-02 9.073643823585055e-02 9.396684562989802e-01 -1.051941527997711e-01 9.337474127893213e-01 -1.161206932716038e-01 1.021997226661243e-02 2.297614432118891e-02
9.104800000000000e+10 -9.833433633461362e-02 9.013711856843079e-02 9.402884172351751e-01 -1.051958818864884e-01 9.332152308135567e-01 -1.162903465299125e-01 9.666742140014470e-03 2.460436729793570e-02
9.109600000000000e+10 -9.963289242168274e-02 9.112599908402248e-02 9.406540799261552e-01 -1.049905342721540e-01 9.327418654161308e-01 -1.164315725257747e-01 1.053792068428107e-02 2.425722527251755e-02
9.114400000000000e+10 -1.000239070164801e-01 8.934722005915838e-02 9.391440511601370e-01 -1.071172675304157e-01 9.313993335756920e-01 -1.167092162555382e-01 9.574454591134682e-03 2.446460362771260e-02
9.119200000000000e+10 -1.001511345196887e-01 8.957612312081029e-02 9.392531806221068e-01 -1.059823679275028e-01 9.316666298750039e-01 -1.149592335063180e-01 9.963394471952991e-03 2.546723501201482e-02
9.124000000000000e+10 -1.001812386494659e-01 8.856362622853506e-02 9.374155300084680e-01 -1.072962936710539e-01 9.306886675038720e-01 -1.151505645367244e-01 1.082914665210966e-02 2.653730925625344e-02
9.128800000000000e+10 -9.922826219305021e-02 8.819126936769330e-02 9.389646626715240e-01 -1.059012987770275e-01 9.323043423440990e-01 -1.138813794489961e-01 1.211555544008978e-02 2.519337517802290e-02
9.133600000000000e+10 -9.837578658910728e-02 8.723503910174146e-02 9.373699424981661e-01 -1.068667983847573e-01 9.319775142526480e-01 -1.146005494269570e-01 1.241878784920567e-02 2.656088990836694e-02
9.138400000000000e+10 -9.864258078370304e-02 8.800009545060240e-02 9.379119487573000e-01 -1.065435623158673e-01 9.323685607057385e-01 -1.144134811055614e-01 1.331576495978366e-02 2.681599194912911e-02
9.143200000000000e+10 -9.816168742589296e-02 8.853896931231353e-02 9.377402822235664e-01 -1.059552167809651e-01 9.319343143853835e-01 -1.140972288063349e-01 1.429563387397647e-02 2.844884613322598e-02
9.148000000000000e+10 -9.843665927843898e-02 8.942357127948009e-02 9.382314279476188e-01 -1.055663672889699e-01 9.325081165494870e-01 -1.141060367579548e-01 1.529463503728935e-02 2.798109397031738e-02
9.152800000000000e+10 -9.884097534282997e-02 8.972510892797088e-02 9.380122853445846e-01 -1.060969453265442e-01 9.324851244599098e-01 -1.145986956295201e-01 1.470168078256172e-02 2.739670930940127e-02
9.157600000000000e+10 -9.917792775746280e-02 9.041949279770906e-02 9.380301144609954e-01 -1.058463475414627e-01 9.324806277174126e-01 -1.147154818322591e-01 1.441111299834371e-02 2.774857270881240e-02
9.162400000000000e+10 -9.985693885664287e-02 9.092801254407906e-02 9.391221948358162e-01 -1.052510569325148e-01 9.335238849267405e-01 -1.146535064235980e-01 1.538675448034777e-02 2.672430013684030e-02
9.167200000000000e+10 -1.005276836276952e-01 9.215821773043716e-02 9.390443876376177e-01 -1.063088741210882e-01 9.337931375822288e-01 -1.150117916932109e-01 1.442449270071437e-02 2.711060294020912e-02
9.172000000000000e+10 -1.009319714969093e-01 9.220181955775510e-02 9.388772347524321e-01 -1.064515770261863e-01 9.333587457840152e-01 -1.158003404902250e-01 1.341866200578502e-02 2.826862367055817e-02
9.176800000000000e+10 -1.012802061313634e-01 9.224611580957182e-02 9.388604162147607e-01 -1.071700648898777e-01 9.327591882895006e-01 -1.174572763985870e-01 1.399403640459474e-02 2.748216673078639e-02
9.181600000000000e+10 -1.014962872401187e-01 9.194742124007647e-02 9.383377300795708e-01 -1.077230168752613e-01 9.317475242981484e-01 -1.171305671532355e-01 1.370373555337447e-02 2.817601003703682e-02
9.186400000000000e+10 -1.010107056353769e-01 9.008391212708108e-02 9.374867736450452e-01 -1.080532162948249e-01 9.307182500868446e-01 -1.166738953426358e-01 1.247901711080253e-02 2.839591618980878e-02
9.191200000000000e+10 -1.014406194051142e-01 9.023271500139780e-02 9.374316081203485e-01 -1.068889363857536e-01 9.300307408802553e-01 -1.165746803123700e-01 1.421310640246319e-02 2.913822384354231e-02
9.196000000000000e+10 -1.017509346905404e-01 8.976322442376339e-02 9.362171198090171e-01 -1.073739050429402e-01 9.296888271642836e-01 -1.162737905652444e-01 1.497264632690883e-02 2.954607489434587e-02
9.200800000000000e+10 -1.018017799847432e-01 9.025390763265854e-02 9.363560828356063e-01 -1.068349275808515e-01 9.300049364572043e-01 -1.157131809424667e-01 1.505832543739932e-02 3.032911258241592e-02
9.205600000000000e+10 -1.016302520705433e-01 9.014912138566147e-02 9.360519827879009e-01 -1.072617299086695e-01 9.301636283452364e-01 -1.152719218953606e-01 1.611078879419205e-02 3.071199043078548e-02
9.210400000000000e+10 -1.018319411506302e-01 9.005261959231040e-02 9.360689942479457e-01 -1.070202198864583e-01 9.307366913986089e-01 -1.157393748629723e-01 1.735859005193457e-02 3.075343671695896e-02
9.215200000000000e+10 -1.014737162052322e-01 9.062744373359931e-02 9.357005788223675e-01 -1.065946680221826e-01 9.302020477487231e-01 -1.149309325348379e-01 1.763404602437665e-02 3.218487761277094e-02
9.220000000000000e+10 -1.016246388122366e-01 9.117463236237774e-02 9.363412150492041e-01 -1.061702590917158e-01 9.311409389277268e-01 -1.144343879457057e-01 1.766379552116072e-02 3.190446724711569e-02
9.224800000000000e+10 -1.013292563020874e-01 9.087421020348688e-02 9.358993567802195e-01 -1.069928920802914e-01 9.308441716006408e-01 -1.156700095660944e-01 1.783180298696467e-02 3.064250031742678e-02
9.229600000000000e+10 -1.019913863500348e-01 9.126903610215054e-02 9.369682981671777e-01 -1.059229851126019e-01 9.319422339100771e-01 -1.149218340025675e-01 1.782810093355174e-02 3.079939779662005e-02
9.234400000000000e+10 -1.017118640577596e-01 9.161136668307968e-02 9.365458121158754e-01 -1.063177317989746e-01 9.320468272293746e-01 -1.153041688374499e-01 1.748413657793263e-02 3.114422921896119e-02
9.239200000000000e+10 -1.020346624445309e-01 9.094459445009571e-02 9.369113278697289e-01 -1.062155510218713e-01 9.328911291742258e-01 -1.151302596332301e-01 1.777439925149958e-02 3.135972410768659e-02
9.244000000000000e+10 -1.022972659739324e-01 9.045841982634971e-02 9.371360634686109e-01 -1.070631779976353e-01 9.322514145066878e-01 -1.159013339088001e-01 1.728449613445987e-02 3.078017451800823e-02
9.248800000000000e+10 -1.027721741434325e-01 9.023056467666725e-02 9.373309212684541e-01 -1.066137915845510e-01 9.311728356749692e-01 -1.164656266181855e-01 1.786308252787629e-02 3.188472414359137e-02
9.253600000000000e+10 -1.026238455711469e-01 8.863671111979154e-02 9.369011306292785e-01 -1.063913637683382e-01 9.299006902745827e-01 -1.159592963292569e-01 1.830070190330906e-02 3.188755124953003e-02
9.258400000000000e+10 -1.027378785823462e-01 8.810069207322428e-02 9.367193985556574e-01 -1.066901500889586e-01 9.297964536234893e-01 -1.153752021514008e-01 1.877319976069841e-02 3.130703814094022e-02
9.263200000000000e+10 -1.019988083800498e-01 8.672160487593421e-02 9.366031084126861e-01 -1.064454874297402e-01 9.298466184696583e-01 -1.150146672797814e-01 1.933205664392494e-02 3.135727639549979e-02
9.268000000000000e+10 -1.016518392123333e-01 8.674753168571710e-02 9.363136973080578e-01 -1.063054697239213e-01 9.301837627428922e-01 -1.148217436344661e-01 2.005943031434771e-02 3.214373513077190e-02
9.272800000000000e+10 -1.011423011499565e-01 8.668761961997219e-02 9.363351311391612e-01 -1.063363333315203e-01 9.308339584545819e-01 -1.144150908117008e-01 2.143781001477246e-02 3.208886672773933e-02
9.277600000000000e+10 -1.002347515692032e-01 8.623958256962130e-02 9.367208338300343e-01 -1.056765853522986e-01 9.310688286021134e-01 -1.144492439848284e-01 2.204668764553701e-02 3.227518891917885e-02
9.282400000000000e+10 -1.001428271062298e-01 8.653275633556620e-02 9.368662213812514e-01 -1.046792796177923e-01 9.317633943865407e-01 -1.133355317498402e-01 2.261443389401443e-02 3.256068596300471e-02
9.287200000000000e+10 -1.002202287562738e-01 8.663274655211357e-02 9.366097487080443e-01 -1.048412278657294e-01 9.310388063800850e-01 -1.146668323016022e-01 2.307804895532854e-02 3.244293690549387e-02
9.292000000000000e+10 -1.004438157217820e-01 8.730740248836265e-02 9.351628322995124e-01 -1.059838692584543e-01 9.314070349343732e-01 -1.143989350126647e-01 2.269821159554658e-02 3.241100272301632e-02
9.296800000000000e+10 -1.012827770356864e-01 8.729483633221574e-02 9.366767082328976e-01 -1.036999045874234e-01 9.321584924931516e-01 -1.143556230342367e-01 2.268495482464650e-02 3.214574071329407e-02
9.301600000000000e+10 -1.006547529019969e-01 8.685878826652420e-02 9.368774362328347e-01 -1.048501763748603e-01 9.328638706026671e-01 -1.146770897327033e-01 2.249886088417957e-02 3.178021943670858e-02
9.306400000000000e+10 -1.012908069573217e-01 8.725496979850422e-02 9.378325593986533e-01 -1.046195930961993e-01 9.333451629208690e-01 -1.148596167937473e-01 2.246873137341567e-02 3.171928650453022e-02
9.311200000000000e+10 -1.007866720256729e-01 8.605099174729640e-02 9.379915749122038e-01 -1.059248549153790e-01 9.328558583345884e-01 -1.157223867813002e-01 2.205364159278820e-02 3.161799109744794e-02
9.316000000000000e+10 -1.011237280165701e-01 8.611278295285305e-02 9.380026206362951e-01 -1.058665468768904e-01 9.334904863996704e-01 -1.151195887416161e-01 2.243296038084466e-02 3.135479955844096e-02
9.320800000000000e+10 -1.011077432088884e-01 8.604264658555820e-02 9.383705254038847e-01 -1.053048649207381e-01 9.319131313522401e-01 -1.154419054986977e-01 2.176293849702033e-02 3.178891323300457e-02
9.325600000000000e+10 -1.010885671273722e-01 8.488678929799037e-02 9.371823569733623e-01 -1.068926525935901e-01 9.309938021548887e-01 -1.159001546519215e-01 2.188855651937214e-02 3.101337115893804e-02
9.330400000000000e+10 -1.012952651709992e-01 8.464040734434528e-02 9.378929106573027e-01 -1.053683471469801e-01 9.301989487683069e-01 -1.161711372420553e-01 2.212729304578645e-02 3.103628114893249e-02
9.335200000000000e+10 -1.009822048896602e-01 8.442389180892219e-02 9.365876181574357e-01 -1.067831430960918e-01 9.305362364897277e-01 -1.155629358354350e-01 2.254988093315367e-02 3.140290447613302e-02
9.340000000000000e+10 -1.012196544207598e-01 8.461567654795622e-02 9.369157247186655e-01 -1.059683967898796e-01 9.301535186415022e-01 -1.153450813980757e-01 2.330568507632601e-02 3.232243068482127e-02
9.344800000000000e+10 -1.008327092220642e-01 8.497479496239642e-02 9.366947884873705e-01 -1.064120958002279e-01 9.315691531820638e-01 -1.143904083511660e-01 2.351563603349543e-02 3.244489350625181e-02
9.349600000000000e+10 -1.008319417153463e-01 8.561435222527165e-02 9.369440428087390e-01 -1.059634483440366e-01 9.312130872089207e-01 -1.162924099284606e-01 2.378313216518041e-02 3.237358790851427e-02
9.354400000000000e+10 -1.009807406847826e-01 8.617747295312338e-02 9.367060338372539e-01 -1.059721865978787e-01 9.317774825240243e-01 -1.148157858441433e-01 2.420620104845301e-02 3.251797749234962e-02
9.359200000000000e+10 -1.005048104349379e-01 8.547819500266800e-02 9.367179281018827e-01 -1.073037978576806e-01 9.325813403238248e-01 -1.156725389918561e-01 2.466779055693110e-02 3.005508426322413e-02
9.364000000000000e+10 -1.009879625082752e-01 8.632197151009119e-02 9.376428793891197e-01 -1.054812542817453e-01 9.330309601563507e-01 -1.158533765088026e-01 2.422649874681768e-02 2.926964689982915e-02
9.368800000000000e+10 -1.014652078842915e-01 8.732380400112222e-02 9.362958317532931e-01 -1.072391558980620e-01 9.329733331591723e-01 -1.163995587864547e-01 2.329950048045082e-02 2.949891789594667e-02
9.373600000000000e+10 -1.018819921808747e-01 8.858730630780010e-02 9.366369832448644e-01 -1.067589880094056e-01 9.322917301113685e-01 -1.174907086304338e-01 2.257490834892048e-02 3.013072525658057e-02
9.378400000000000e+10 -1.029922825013189e-01 9.009884569831358e-02 9.371618823444510e-01 -1.068006550480543e-01 9.323507429464841e-01 -1.170302623750112e-01 2.262241041629080e-02 3.133803235700154e-02
9.383200000000000e+10 -1.028723229099026e-01 8.981982769078438e-02 9.372095910838479e-01 -1.074844013183588e-01 9.316358006821404e-01 -1.176590664608843e-01 2.154527268643238e-02 3.106991535573958e-02
9.388000000000000e+10 -1.030601466132707e-01 9.001981559278856e-02 9.368290180561474e-01 -1.077338896917326e-01 9.304632984617540e-01 -1.180076242174343e-01 2.158473711850893e-02 3.222350315830812e-02
9.392800000000000e+10 -1.026661003236377e-01 8.845578467304625e-02 9.368034668199916e-01 -1.078522791289655e-01 9.299027321974556e-01 -1.177822628947587e-01 2.184502404650617e-02 3.174008093247741e-02
9.397600000000000e+10 -1.026364861190794e-01 8.818990376082615e-02 9.370312765958375e-01 -1.081177140568057e-01 9.299190058408046e-01 -1.172333821717039e-01 2.267283447315758e-02 3.106767298465283e-02
9.402400000000000e+10 -1.022714596118161e-01 8.767057432905098e-02 9.365653555498775e-01 -1.085569211494910e-01 9.298528472474090e-01 -1.166807497030296e-01 2.290243122717998e-02 3.103735470726272e-02
9.407200000000000e+10 -1.018444335380712e-01 8.806260892667550e-02 9.367235505680193e-01 -1.077257207460756e-01 9.295328226118312e-01 -1.168913847184621e-01 2.281682728767068e-02 3.147318137091194e-02
9.412000000000000e+10 -1.014594441386834e-01 8.745348691630328e-02 9.366982794812646e-01 -1.082633478410548e-01 9.305131497799397e-01 -1.165854091507339e-01 2.387831832760356e-02 3.056842130585550e-02
9.416800000000000e+10 -1.015692194113967e-01 8.915609523678346e-02 9.361558862543662e-01 -1.080520014994003e-01 9.304573395456561e-01 -1.161615461068653e-01 2.432239031107018e-02 3.178052576526792e-02
9.421600000000000e+10 -1.020196528257504e-01 8.949440408420457e-02 9.357082456096469e-01 -1.081606405850049e-01 9.300009098281795e-01 -1.170693196981772e-01 2.400133669488467e-02 3.118063962089449e-02
9.426400000000000e+10 -1.020293334929899e-01 9.032549906707649e-02 9.349654093636558e-01 -1.089993195290834e-01 9.307218861699295e-01 -1.162143423419506e-01 2.354854604348181e-02 3.102298287409811e-02
9.431200000000000e+10 -1.030041448027947e-01 9.087967655700915e-02 9.346686976903891e-01 -1.077985198295204e-01 9.300812763888282e-01 -1.173951496814959e-01 2.291438839628284e-02 3.057532540879878e-02
9.436000000000000e+10 -1.033685297672728e-01 9.217154869424055e-02 9.349132707205832e-01 -1.079648730905957e-01 9.304207674009695e-01 -1.162107501191155e-01 2.281291711036261e-02 3.123293620957653e-02
9.440800000000000e+10 -1.031747722274088e-01 9.179901922006699e-02 9.350720072113051e-01 -1.084700863396812e-01 9.301836744032499e-01 -1.173565851028678e-01 2.254474956350690e-02 3.144745163768575e-02
9.445600000000000e+10 -1.037491421438643e-01 9.295243831058136e-02 9.349182670845522e-01 -1.086218000207254e-01 9.299205883938075e-01 -1.171506204668424e-01 2.199813337584371e-02 3.252295135970103e-02
9.450400000000000e+10 -1.038299246465232e-01 9.313087586397227e-02 9.359776173738197e-01 -1.086774823217454e-01 9.299635432197710e-01 -1.182839032120017e-01 2.170647670974520e-02 3.189995579006892e-02
9.455200000000000e+10 -1.040326115918061e-01 9.324486122512066e-02 9.355674073409308e-01 -1.099084237661725e-01 9.296455899752806e-01 -1.178578070547122e-01 2.171034916397661e-02 3.236707985848077e-02
9.460000000000000e+10 -1.036358943164788e-01 9.306532705370875e-02 9.366236930662402e-01 -1.085286184081863e-01 9.292958389397293e-01 -1.177394017886851e-01 2.224782813925196e-02 3.260190028050418e-02
9.464800000000000e+10 -1.030840262253131e-01 9.170087696623849e-02 9.350274264563705e-01 -1.106579085095610e-01 9.284328426603066e-01 -1.189054563372860e-01 2.181306596187642e-02 3.273116523004171e-02
9.469600000000000e+10 -1.030107064239957e-01 9.221875110422370e-02 9.363906169074151e-01 -1.081375229079908e-01 9.281246569655186e-01 -1.185704730247942e-01 2.245799030486874e-02 3.253127211013866e-02
9.474400000000000e+10 -1.021465437787411e-01 9.114690863969223e-02 9.350657839185219e-01 -1.101846554500787e-01 9.284825889911720e-01 -1.180261871788605e-01 2.295092464988235e-02 3.213885072386779e-02
9.479200000000000e+10 -1.019335524029704e-01 9.113474200476374e-02 9.349380576553302e-01 -1.096355331382085e-01 9.280178623253659e-01 -1.188039710430619e-01 2.350734512337380e-02 3.273395936597633e-02
9.484000000000000e+10 -1.018754476386981e-01 9.088406613955398e-02 9.346115711881225e-01 -1.094561860633272e-01 9.289046796288244e-01 -1.174486702179711e-01 2.426664238576702e-02 3.289172895587621e-02
9.488800000000000e+10 -1.007552950712896e-01 9.050611156512722e-02 9.337864780347921e-01 -1.096865279188281e-01 9.288556614506279e-01 -1.184462944022836e-01 2.497743147768049e-02 3.268019561483811e-02
9.493600000000000e+10 -1.023634692984387e-01 9.258357196522515e-02 9.327359022433709e-01 -1.091979689922317e-01 9.299753557639361e-01 -1.186586936853908e-01 2.519793765982284e-02 3.126868407118800e-02
9.498400000000000e+10 -1.024805286183615e-01 9.418775969509725e-02 9.309251459478810e-01 -1.071142617171839e-01 9.262260573500535e-01 -1.188959532395540e-01 2.458019943417826e-02 3.577779596688104e-02
9.503200000000000e+10 -1.034363498807424e-01 9.386409879021476e-02 9.335897501304881e-01 -1.073441839344321e-01 9.281821827190856e-01 -1.168122760948819e-01 2.457993338180817e-02 3.252775100759277e-02
9.508000000000000e+10 -1.033470138803913e-01 9.418336825561105e-02 9.329099140252362e-01 -1.092635204536370e-01 9.282725633448800e-01 -1.176884266805581e-01 2.358180213736496e-02 3.094695064068410e-02
9.512800000000000e+10 -1.039921282144420e-01 9.519822015102362e-02 9.330730465870990e-01 -1.080816839970014e-01 9.278429143703814e-01 -1.174042373479314e-01 2.330765780543688e-02 3.297522778961425e-02
9.517600000000000e+10 -1.043578840990997e-01 9.623337018043294e-02 9.333705108089290e-01 -1.081505339513805e-01 9.270121334422050e-01 -1.185149401434716e-01 2.257100957567923e-02 3.326952952641771e-02
9.522400000000000e+10 -1.047387503218554e-01 9.730948138167358e-02 9.334652095064687e-01 -1.088145680188740e-01 9.270451744957995e-01 -1.178125586900625e-01 2.204285636145878e-02 3.465043818176524e-02
9.527200000000000e+10 -1.044083258244007e-01 9.683227566639063e-02 9.337493941820748e-01 -1.082937387378283e-01 9.264049841971171e-01 -1.188507754743371e-01 2.178079700168333e-02 3.530772978886981e-02
9.532000000000000e+10 -1.048572535266170e-01 9.691435064878687e-02 9.330380939027400e-01 -1.088839961067089e-01 9.253367776350629e-01 -1.190232005197566e-01 2.198162365536640e-02 3.646347459107958e-02
9.536800000000000e+10 -1.043321836764620e-01 9.628985165131058e-02 9.336950997558440e-01 -1.080889091771430e-01 9.259361111617559e-01 -1.179024096804071e-01 2.265784492704214e-02 3.645203393514681e-02
9.541600000000000e+10 -1.042610002735194e-01 9.586178633879779e-02 9.325488145928270e-01 -1.086368088863773e-01 9.251609482428754e-01 -1.180518977436692e-01 2.325465964022374e-02 3.793480544618943e-02
9.546400000000000e+10 -1.038567545257614e-01 9.523035599684261e-02 9.329307426697071e-01 -1.083677348913833e-01 9.256803986199438e-01 -1.178716017394996e-01 2.399292702856098e-02 3.732095350802771e-02
9.551200000000000e+10 -1.035856708517584e-01 9.516345213696493e-02 9.323321396789748e-01 -1.085989137693960e-01 9.256643757338961e-01 -1.178914064673463e-01 2.467201022469316e-02 3.775723780100414e-02
9.556000000000000e+10 -1.030217557145696e-01 9.525437701460844e-02 9.325417641469279e-01 -1.077773715862917e-01 9.264386405705954e-01 -1.176998793290466e-01 2.487415479385536e-02 3.736422572415683e-02
9.560800000000000e+10 -1.035388789310979e-01 9.607697848839634e-02 9.324199991483603e-01 -1.070576703697112e-01 9.263598345582261e-01 -1.180080259354300e-01 2.527190633147330e-02 3.735608597697338e-02
9.565600000000000e+10 -1.030463812495066e-01 9.618040569520478e-02 9.321115549553405e-01 -1.078823353063033e-01 9.265316348637546e-01 -1.181187767678541e-01 2.549109481737745e-02 3.655370956106092e-02
9.570400000000000e+10 -1.033463981171498e-01 9.597495167769919e-02 9.327064565079891e-01 -1.068595693360000e-01 9.266941543982727e-01 -1.175355842113008e-01 2.560560312046454e-02 3.635932324837501e-02
9.575200000000000e+10 -1.032608625193086e-01 9.614681215970085e-02 9.328287711418487e-01 -1.074763270704130e-01 9.263240875878276e-01 -1.178252937889065e-01 2.466723821103463e-02 3.623810319949519e-02
9.580000000000000e+10 -1.036703529282403e-01 9.612586800679361e-02 9.333122623071103e-01 -1.078812395421739e-01 9.273084560618688e-01 -1.175869486001142e-01 2.467330594978275e-02 3.573941734799673e-02
9.584800000000000e+10 -1.036706586103489e-01 9.659592832553975e-02 9.334846162412822e-01 -1.085840349716748e-01 9.274911392090869e-01 -1.181807460088894e-01 2.404149318786788e-02 3.538865931005603e-02
9.589600000000000e+10 -1.037626856425048e-01 9.667609056228751e-02 9.335952307987264e-01 -1.087021764896577e-01 9.277960380807868e-01 -1.173690316036422e-01 2.379821582865449e-02 3.618727190309327e-02
9.594400000000000e+10 -1.034170596693398e-01 9.692723169068097e-02 9.345219298126547e-01 -1.081095432272027e-01 9.276898447470652e-01 -1.176847013464513e-01 2.351381982281091e-02 3.685446067232986e-02
9.599200000000000e+10 -1.032944580719759e-01 9.550181279362505e-02 9.338164475288731e-01 -1.093205585409730e-01 9.271579952826264e-01 -1.187646854310386e-01 2.351365661943454e-02 3.680514828428494e-02
9.604000000000000e+10 -1.032076119991735e-01 9.523483254915452e-02 9.346012143972426e-01 -1.082029567893391e-01 9.276349460831255e-01 -1.174805796686693e-01 2.463832235230837e-02 3.721305333741209e-02
9.608800000000000e+10 -1.024038982402336e-01 9.402190215632251e-02 9.350016940624378e-01 -1.078106312537719e-01 9.275685988400201e-01 -1.177095874741600e-01 2.466510445161704e-02 3.683962527561416e-02
9.613600000000000e+10 -1.023687509383637e-01 9.176077166181598e-02 9.337185903599502e-01 -1.095639629514382e-01 9.274176534948758e-01 -1.178299977720343e-01 2.509444822905470e-02 3.772443091731400e-02
9.618400000000000e+10 -1.013083265978886e-01 9.189654787455029e-02 9.347643009434863e-01 -1.082150712618400e-01 9.277716189911253e-01 -1.175005997500144e-01 2.583146867246567e-02 3.758481439994304e-02
9.623200000000000e+10 -1.015084658995799e-01 9.130146794350870e-02 9.337480693718662e-01 -1.098221907267813e-01 9.283615596733619e-01 -1.168380741014088e-01 2.599192941692441e-02 3.682597655696554e-02
9.628000000000000e+10 -1.011039115087198e-01 9.076708196475956e-02 9.334333212462890e-01 -1.098892849036026e-01 9.281834883064370e-01 -1.170368871031107e-01 2.588672388665305e-02 3.693433047888508e-02
9.632800000000000e+10 -1.006991530238695e-01 8.970385126407315e-02 9.332612818753229e-01 -1.097305941979663e-01 9.281830013229735e-01 -1.177816697095128e-01 2.641237799969728e-02 3.664740967715940e-02
9.637600000000000e+10 -1.008010419991154e-01 9.026515575787690e-02 9.330341025065582e-01 -1.095309677850282e-01 9.285558168840770e-01 -1.170485429037836e-01 2.668426600790205e-02 3.692581813541628e-02
9.642400000000000e+10 -1.008362256928338e-01 9.005966053831245e-02 9.335885573139363e-01 -1.089796754552001e-01 9.278722371589467e-01 -1.180893506993255e-01 2.639537877699613e-02 3.613837822993807e-02
9.647200000000000e+10 -1.008699845590078e-01 9.017772166130317e-02 9.336796991631358e-01 -1.094626846407017e-01 9.279179878776140e-01 -1.175485749950849e-01 2.647745159569138e-02 3.646773892810951e-02
9.652000000000000e+10 -1.012925419508252e-01 9.037644561139688e-02 9.347095462189252e-01 -1.093430537412227e-01 9.295598147381469e-01 -1.160431190778451e-01 2.658301559457756e-02 3.531196572219002e-02
9.656800000000000e+10 -1.011930860857782e-01 9.147689715559898e-02 9.301713577035317e-01 -1.093216180809762e-01 9.284709679236829e-01 -1.187287969212871e-01 2.538832473240217e-02 4.127641857319841e-02
9.661600000000000e+10 -1.010714693380817e-01 8.974259742551477e-02 9.345055835765809e-01 -1.098833452192090e-01 9.275446445112555e-01 -1.192901305599024e-01 2.555016128228264e-02 3.754554617390932e-02
9.666400000000000e+10 -1.015208888618916e-01 9.029818037472827e-02 9.349908835048819e-01 -1.100157057315494e-01 9.274477133900909e-01 -1.185068781512755e-01 2.592888826113755e-02 3.816290240089681e-02
9.671200000000000e+10 -1.017357835981834e-01 9.057009105534268e-02 9.345639842275539e-01 -1.101521829090258e-01 9.278858770629556e-01 -1.172992779135291e-01 2.614647630045842e-02 3.892073060848516e-02
9.676000000000000e+10 -1.023074251440313e-01 8.969128482183787e-02 9.335423420838079e-01 -1.108017791984043e-01 9.264480553148962e-01 -1.188555374623847e-01 2.536836186168989e-02 3.923317037877051e-02
9.680800000000000e+10 -1.018875375961373e-01 8.963450745980200e-02 9.334179906210719e-01 -1.103075751267905e-01 9.274115543753996e-01 -1.177389992330385e-01 2.565428850738615e-02 3.895901737208882e-02
9.685600000000000e+10 -1.020523299957711e-01 8.935994208417300e-02 9.323599699905610e-01 -1.105696976120129e-01 9.277419405530739e-01 -1.173251584718913e-01 2.620478548618590e-02 4.012598488869378e-02
9.690400000000000e+10 -1.019170885392107e-01 8.887182193595757e-02 9.318532329493081e-01 -1.102742433189699e-01 9.263505015949781e-01 -1.182608886983473e-01 2.594791973764569e-02 4.084718941425387e-02
9.695200000000000e+10 -1.018830994029342e-01 8.868204169137875e-02 9.317998141773727e-01 -1.100666801400143e-01 9.266829408748405e-01 -1.176663799612828e-01 2.634985140649402e-02 4.076417099684939e-02
9.700000000000000e+10 -1.015890860198988e-01 8.836207473301355e-02 9.319249624256210e-01 -1.095530801435912e-01 9.271427324462593e-01 -1.171633190428069e-01 2.699917383569211e-02 4.082655407501932e-02
9.704800000000000e+10 -1.013516440611611e-01 8.855917313100103e-02 9.317355976697727e-01 -1.097736445724725e-01 9.275285696750025e-01 -1.164852239642200e-01 2.745698467234090e-02 4.032777595170638e-02
9.709600000000000e+10 -1.015783923350001e-01 8.791162864426046e-02 9.309223082804028e-01 -1.095884232995750e-01 9.255385572654028e-01 -1.173073180870532e-01 2.716934011385522e-02 4.265692142024490e-02
9.714400000000000e+10 -1.009221454581430e-01 8.760360395463346e-02 9.313015855534155e-01 -1.099621873690334e-01 9.266967264181067e-01 -1.164725159938898e-01 2.722829916045956e-02 4.203661433732584e-02
9.719200000000000e+10 -1.008644583352625e-01 8.724129723847690e-02 9.317970553987120e-01 -1.092903737563162e-01 9.265601098716861e-01 -1.163860263187405e-01 2.765016614473519e-02 4.193375681732853e-02
9.724000000000000e+10 -1.002180115883975e-01 8.710590421966569e-02 9.330356338329753e-01 -1.092828289828957e-01 9.281724430374061e-01 -1.158666493458711e-01 2.765712321387983e-02 4.006531224500905e-02
9.728800000000000e+10 -1.004153442704747e-01 8.748380303929308e-02 9.314816691402310e-01 -1.106038519812341e-01 9.260852871894585e-01 -1.169578888748404e-01 2.707492659934187e-02 4.176231238040984e-02
9.733600000000000e+10 -1.006363501710271e-01 8.789113439265579e-02 9.327951685264549e-01 -1.090634429418217e-01 9.272047781939923e-01 -1.157974631608820e-01 2.747617384741777e-02 4.174972544926193e-02
9.738400000000000e+10 -1.002084295274823e-01 8.823289481753691e-02 9.333081662362950e-01 -1.089470124605383e-01 9.271297246483085e-01 -1.157778331750679e-01 2.722271593375591e-02 4.229371536351664e-02
9.743200000000000e+10 -1.005381435957220e-01 8.723235486288326e-02 9.320779451269915e-01 -1.106509264373361e-01 9.262239285732501e-01 -1.176757342279713e-01 2.734266510103683e-02 4.279677964734876e-02
9.748000000000000e+10 -1.005152579773586e-01 8.879086076058962e-02 9.319227501454382e-01 -1.094626094852129e-01 9.268814612683767e-01 -1.162676246488080e-01 2.766556664738853e-02 4.428734682948769e-02
9.752800000000000e+10 -1.006904346632460e-01 8.790525254905336e-02 9.315954816992581e-01 -1.101829959137989e-01 9.270642698036277e-01 -1.162762241122080e-01 2.802358380829503e-02 4.413902384240799e-02
9.757600000000000e+10 -1.009703188392806e-01 8.923769347874412e-02 9.318061613243259e-01 -1.075934618723216e-01 9.272476791000585e-01 -1.156824907664067e-01 2.807084558435826e-02 4.484525179505830e-02
9.762400000000000e+10 -1.010651632482919e-01 8.790150603078778e-02 9.307030263838766e-01 -1.103279497229180e-01 9.265556963904524e-01 -1.168836620811037e-01 2.760647266189253e-02 4.397321791088173e-02
9.767200000000000e+10 -1.006331342170496e-01 8.912375210605358e-02 9.312902192054605e-01 -1.083706993570767e-01 9.276655747961695e-01 -1.155020225549835e-01 2.810788121784214e-02 4.521734707171297e-02
9.772000000000000e+10 -1.008117754656838e-01 8.821086767674099e-02 9.310373737061854e-01 -1.095945675262162e-01 9.280643522970395e-01 -1.154561676276921e-01 2.843890447425810e-02 4.457849821273278e-02
9.776800000000000e+10 -1.008347002756426e-01 8.822341168806236e-02 9.308928810277541e-01 -1.102934065928499e-01 9.281289754892916e-01 -1.172272635667173e-01 2.821788020318107e-02 4.353882483651412e-02
9.781600000000000e+10 -1.006825993479392e-01 8.938088203776576e-02 9.309136397556306e-01 -1.095585114827378e-01 9.284172715783429e-01 -1.178319198402883e-01 2.848683591824565e-02 4.080841751382432e-02
9.786400000000000e+10 -1.002725394757772e-01 8.956271588697495e-02 9.332070858788396e-01 -1.087233567630823e-01 9.266769757310332e-01 -1.167634128332933e-01 2.874554862399186e-02 4.417793634544626e-02
9.791200000000000e+10 -1.003322506241311e-01 8.853394593777465e-02 9.307394532590796e-01 -1.099607600383753e-01 9.258915327059847e-01 -1.150391684045727e-01 2.810961399635332e-02 4.924468123296685e-02
9.796000000000000e+10 -1.001686919804173e-01 8.872930707567808e-02 9.325416658467953e-01 -1.094481648850765e-01 9.274504190214296e-01 -1.160298824039595e-01 2.855320100624367e-02 4.510939308150250e-02
9.800800000000000e+10 -1.004432570772600e-01 8.803714688723957e-02 9.313374798179797e-01 -1.105913318326916e-01 9.277850659596855e-01 -1.162373983199869e-01 2.808651305542212e-02 4.538025230634193e-02
9.805600000000000e+10 -1.003967058869662e-01 8.907337837475032e-02 9.323493560983644e-01 -1.092501266401244e-01 9.294557519931034e-01 -1.157393162603963e-01 2.889944009563287e-02 4.406858424264749e-02
9.810400000000000e+10 -1.006496457727574e-01 8.883812493154640e-02 9.326285227466716e-01 -1.092236459632824e-01 9.284986365449137e-01 -1.168104979207724e-01 2.880444316938327e-02 4.473627750646877e-02
9.815200000000000e+10 -1.010797528193299e-01 8.807952197328815e-02 9.331594864842198e-01 -1.095525031741767e-01 9.278263850356497e-01 -1.179470967943494e-01 2.847617158210068e-02 4.339982647997227e-02
9.820000000000000e+10 -1.010651184358292e-01 8.891204555090988e-02 9.326483360316274e-01 -1.091566407624052e-01 9.275741740102458e-01 -1.164190840750253e-01 2.889477638047157e-02 4.683531081960893e-02
9.824800000000000e+10 -1.002197909392430e-01 8.780999641471364e-02 9.324037971259564e-01 -1.103004053232667e-01 9.270915313564972e-01 -1.170107372704914e-01 2.892743221902693e-02 4.718869559362714e-02
9.829600000000000e+10 -1.004233075215163e-01 8.784375041753152e-02 9.329074025777495e-01 -1.104746477067912e-01 9.270986229355672e-01 -1.183630324745278e-01 2.889105277839161e-02 4.564584186928203e-02
9.834400000000000e+10 -1.008787787618121e-01 8.840362188294118e-02 9.324172728601258e-01 -1.106001570034278e-01 9.281439685450177e-01 -1.171807116208336e-01 2.976536806813380e-02 4.487777332623998e-02
9.839200000000000e+10 -1.012437037865060e-01 8.828157370657046e-02 9.322374495209091e-01 -1.109569136401757e-01 9.281382038130550e-01 -1.165745507867547e-01 3.010754700255597e-02 4.633122697280930e-02
9.844000000000000e+10 -1.009143560192947e-01 8.803996208218434e-02 9.324826925587207e-01 -1.102361554733711e-01 9.281469362349775e-01 -1.170933820363317e-01 3.008539360637977e-02 4.669182656903099e-02
9.848800000000000e+10 -1.016946243908230e-01 8.808141127811518e-02 9.312125745553150e-01 -1.108453782057476e-01 9.259535755571756e-01 -1.182915730210554e-01 2.979936708286197e-02 4.910761726868654e-02
9.853600000000000e+10 -1.033127200115074e-01 9.030750389765117e-02 9.305793917601508e-01 -1.108698803430725e-01 9.255168881915478e-01 -1.174781507040440e-01 3.014820559032767e-02 4.994477814818053e-02
9.858400000000000e+10 -1.035176697315717e-01 9.084251795484698e-02 9.317163923309484e-01 -1.098425886718881e-01 9.258621991856576e-01 -1.166307977930172e-01 3.002629062537806e-02 4.941188986802365e-02
9.863200000000000e+10 -1.032618744829218e-01 9.037408602825711e-02 9.328452880392185e-01 -1.100193822814889e-01 9.276504635757494e-01 -1.147028169862261e-01 3.039998291960170e-02 4.824904822679474e-02
9.868000000000000e+10 -1.029741643263555e-01 8.942822150124566e-02 9.327846643880946e-01 -1.114880491813151e-01 9.279916014449351e-01 -1.170172212559803e-01 3.043550204611691e-02 4.573937386126784e-02
9.872800000000000e+10 -1.029137360979600e-01 8.936322266199638e-02 9.326692644473320e-01 -1.120795219027985e-01 9.283711231967482e-01 -1.174528512250361e-01 3.028847499848925e-02 4.471728178398163e-02
9.877600000000000e+10 -1.027085301724542e-01 8.975501775007332e-02 9.320081848161722e-01 -1.119436270049091e-01 9.276217597906452e-01 -1.153210608886503e-01 3.010790135935153e-02 4.809036163158194e-02
9.882400000000000e+10 -1.019339736178504e-01 8.916917703000837e-02 9.322614618074474e-01 -1.110339787851765e-01 9.272840105993894e-01 -1.168756088806877e-01 2.990044761617895e-02 5.015007036996490e-02
9.887200000000000e+10 -1.020715067713915e-01 8.941582717346362e-02 9.317544696472650e-01 -1.117996726440534e-01 9.270212295656119e-01 -1.174804278319257e-01 3.027932717683033e-02 4.910234433024645e-02
9.892000000000000e+10 -1.017702194034106e-01 8.850597726784223e-02 9.322615863702383e-01 -1.116812335275614e-01 9.274223442017120e-01 -1.177176691096555e-01 3.069165768325962e-02 4.755730211745244e-02
9.896800000000000e+10 -1.016522862542674e-01 8.847910090695732e-02 9.325006369564044e-01 -1.115831533388258e-01 9.280880172383604e-01 -1.165759115423694e-01 3.100631805738731e-02 4.718505349816364e-02
9.901600000000000e+10 -1.016591855037985e-01 8.727447370489001e-02 9.321892398527707e-01 -1.122803063376638e-01 9.274001634145477e-01 -1.174447716502622e-01 3.134012035727833e-02 4.759524506371110e-02
9.906400000000000e+10 -1.019984944288801e-01 8.782759248354095e-02 9.313865767235540e-01 -1.112590158417397e-01 9.271206147717647e-01 -1.170013912178078e-01 3.120367268979394e-02 4.989382636692627e-02
9.911200000000000e+10 -1.019758177310391e-01 8.743783232213492e-02 9.321541000208760e-01 -1.130235739037228e-01 9.284657818565033e-01 -1.175241022174889e-01 3.112420494591837e-02 4.546733049825592e-02
9.916000000000000e+10 -1.021945617279553e-01 8.803733016045764e-02 9.312685975044014e-01 -1.115831875633343e-01 9.289512963917521e-01 -1.176747681105300e-01 3.071114917067659e-02 4.758110173089775e-02
9.920800000000000e+10 -1.011616794552637e-01 8.777157299659867e-02 9.311440750492537e-01 -1.118897607382347e-01 9.287729139392922e-01 -1.180134092009866e-01 3.051858618895092e-02 4.812310684243153e-02
9.925600000000000e+10 -1.010564999329781e-01 8.774093408211399e-02 9.319101909348471e-01 -1.124000961735288e-01 9.288404750887675e-01 -1.186800912410557e-01 3.071165362650151e-02 4.671497552896919e-02
9.930400000000000e+10 -1.016415361259690e-01 8.925779727348980e-02 9.323703947997095e-01 -1.123134170358540e-01 9.295982633346123e-01 -1.183971980898375e-01 3.108321666305565e-02 4.574399779436588e-02
9.935200000000000e+10 -1.014714473618482e-01 8.767110652646068e-02 9.319564093962959e-01 -1.129284620679781e-01 9.275813700472676e-01 -1.198981070469241e-01 3.033250221775706e-02 4.778753115155639e-02
9.940000000000000e+10 -1.014417192348725e-01 8.896588626820351e-02 9.325093170958317e-01 -1.118928967120765e-01 9.284163189198371e-01 -1.190188600312532e-01 3.071919643410949e-02 4.758792405900045e-02
9.944800000000000e+10 -1.020247587099761e-01 8.811371175181092e-02 9.321465162251195e-01 -1.131205083702777e-01 9.296841791925022e-01 -1.196070072992748e-01 3.072954349901322e-02 4.604405910998719e-02
9.949600000000000e+10 -1.020842865127206e-01 8.835656777735225e-02 9.335643032283379e-01 -1.124229351153126e-01 9.305569135968851e-01 -1.195550611681876e-01 3.173325775172675e-02 4.388323665567895e-02
9.954400000000000e+10 -1.023488893405597e-01 8.747625455302210e-02 9.327887048887460e-01 -1.135776921428752e-01 9.293601598920549e-01 -1.210277048563404e-01 3.144960224098016e-02 4.343401599009553e-02
9.959200000000000e+10 -1.024906765690069e-01 8.747206295637362e-02 9.332730460274304e-01 -1.126416867739959e-01 9.289205584319475e-01 -1.209373596710161e-01 3.170891955738199e-02 4.355349322479887e-02
9.964000000000000e+10 -1.030521758375619e-01 8.759299103365982e-02 9.325399669924441e-01 -1.123893890034277e-01 9.289326493437234e-01 -1.198360602560634e-01 3.160190296226132e-02 4.581818568980846e-02
9.968800000000000e+10 -1.031735819338570e-01 8.773107181409392e-02 9.329481523903141e-01 -1.123604914158190e-01 9.284689992130691e-01 -1.210352287621821e-01 3.279071171924630e-02 4.406909510855290e-02
9.973600000000000e+10 -1.029560307492556e-01 8.733444454311665e-02 9.326562129867149e-01 -1.128444796596835e-01 9.286058492334560e-01 -1.207724829941351e-01 3.236624708158962e-02 4.426116209292077e-02
9.978400000000000e+10 -1.020619890497710e-01 8.749641718965642e-02 9.332332643550292e-01 -1.121676507695956e-01 9.288448149261447e-01 -1.207108504437907e-01 3.247529555006591e-02 4.453797130555712e-02
9.983200000000000e+10 -1.025816505534536e-01 8.798196508223781e-02 9.314575124977940e-01 -1.126766846506450e-01 9.283622507884002e-01 -1.209594660551356e-01 3.413743855070829e-02 4.620208837048428e-02
9.988000000000000e+10 -1.031578626514360e-01 8.868664435813976e-02 9.330950775893719e-01 -1.130693142989689e-01 9.289798632091243e-01 -1.213689543705740e-01 3.536579317366247e-02 4.341474777589797e-02
9.992800000000000e+10 -1.028894038407233e-01 8.828536591441424e-02 9.320634315607986e-01 -1.127865065333752e-01 9.288463722345672e-01 -1.205713700554890e-01 3.405924777423157e-02 4.659998473617427e-02
9.997600000000000e+10 -1.029314577850481e-01 8.900479497938092e-02 9.305224092045318e-01 -1.122634346623243e-01 9.282024221603484e-01 -1.203058306418650e-01 3.466637418679300e-02 4.982686773969199e-02
1.000240000000000e+11 -1.033727572656451e-01 8.886712394852159e-02 9.318481184118198e-01 -1.141015217484440e-01 9.279046724719087e-01 -1.214807162032054e-01 3.657228851610200e-02 4.583831761097929e-02
1.000720000000000e+11 -1.033448655201781e-01 8.852730712786815e-02 9.313755215873352e-01 -1.125820274163727e-01 9.276832580262916e-01 -1.209050834412376e-01 3.545744623709618e-02 4.881763925529525e-02
1.001200000000000e+11 -1.033333645041684e-01 8.892631600724571e-02 9.315482844793487e-01 -1.135461029680032e-01 9.280611658676117e-01 -1.204501747565715e-01 3.484500287451445e-02 4.777220656142392e-02
1.001680000000000e+11 -1.039796332630783e-01 8.966280604876392e-02 9.316922172999631e-01 -1.138720034104258e-01 9.275138071269871e-01 -1.217580164439488e-01 3.561784137224953e-02 4.674365515315779e-02
1.002160000000000e+11 -1.043869087985709e-01 9.016146639611142e-02 9.316590481269347e-01 -1.139944507032619e-01 9.276682997147468e-01 -1.214661965383636e-01 3.627298983033180e-02 4.612533113573056e-02
1.002640000000000e+11 -1.034610303964827e-01 8.906846472478018e-02 9.309553042042136e-01 -1.144929026617268e-01 9.277180621294621e-01 -1.220490525128796e-01 3.422438419774894e-02 4.645107096656650e-02
1.003120000000000e+11 -1.034111874302528e-01 8.826585237327933e-02 9.315773283022891e-01 -1.142307822661467e-01 9.283880926043848e-01 -1.215623087573007e-01 3.539749442974504e-02 4.541512134344995e-02
1.003600000000000e+11 -1.041451775689472e-01 8.894611834957604e-02 9.284668992367789e-01 -1.144622855006212e-01 9.278008485567972e-01 -1.223983005854472e-01 3.574468878940073e-02 4.743401089685328e-02
1.004080000000000e+11 -1.040091947485649e-01 8.836661552185381e-02 9.293731245487151e-01 -1.133380898423553e-01 9.300650067606373e-01 -1.220036706871861e-01 3.562614319845145e-02 4.633114720869972e-02
1.004560000000000e+11 -1.036609046280571e-01 8.720053578784609e-02 9.287161812817716e-01 -1.137947222348971e-01 9.283466467216055e-01 -1.223289707042461e-01 3.506183269027059e-02 4.690866777486348e-02
1.005040000000000e+11 -1.041493670877486e-01 8.960696003284525e-02 9.301856194671183e-01 -1.126350733374252e-01 9.275448342066508e-01 -1.225564601133177e-01 3.701079498012867e-02 4.621792394063108e-02
1.005520000000000e+11 -1.043007739792671e-01 8.924096150886843e-02 9.290784097639402e-01 -1.148176182876439e-01 9.258019814956365e-01 -1.225337480228864e-01 3.711623671517290e-02 4.827387163384108e-02
1.006000000000000e+11 -1.042374253989726e-01 8.926895087010495e-02 9.311894707783929e-01 -1.135239495973467e-01 9.274034052535389e-01 -1.217564382753638e-01 3.707378755791739e-02 4.692975116959155e-02
1.006480000000000e+11 -1.036268755475891e-01 8.858295057076351e-02 9.307120490495078e-01 -1.152194531705711e-01 9.272687669688561e-01 -1.232703132155259e-01 3.740816638678051e-02 4.231866293667169e-02
1.006960000000000e+11 -1.031509315428981e-01 8.746459400292450e-02 9.304097817995112e-01 -1.121268113378841e-01 9.308277820851915e-01 -1.221410759399421e-01 3.654634795778934e-02 4.555033258506604e-02
1.007440000000000e+11 -1.028845529812850e-01 8.844844023510562e-02 9.277507775804678e-01 -1.140296367877612e-01 9.264033900483681e-01 -1.216994531557718e-01 3.608032909078442e-02 4.908710772635125e-02
1.007920000000000e+11 -1.031664646022812e-01 8.898596566160297e-02 9.314111128222015e-01 -1.132071432791758e-01 9.282502588453769e-01 -1.224145330277375e-01 3.701237121812928e-02 4.467117527275207e-02
1.008400000000000e+11 -1.026013628477351e-01 8.710873460662948e-02 9.298406351788392e-01 -1.147597629998798e-01 9.272317508149193e-01 -1.247417498741280e-01 3.631217782345741e-02 4.537784271949821e-02
1.008880000000000e+11 -1.038655699401241e-01 8.854306380632103e-02 9.304068558031442e-01 -1.130069168762741e-01 9.289194632369028e-01 -1.232537323537684e-01 3.729585870405061e-02 4.522047234667782e-02
1.009360000000000e+11 -1.035835328163320e-01 8.736235825815492e-02 9.285054082978833e-01 -1.140700287946464e-01 9.276648784408213e-01 -1.240085536721719e-01 3.695098646711518e-02 4.719260427628599e-02
1.009840000000000e+11 -1.042209884540740e-01 8.781053140085521e-02 9.286739283237090e-01 -1.135663806689911e-01 9.276944230144729e-01 -1.236282941396679e-01 3.660605786971481e-02 4.679423594321613e-02
1.010320000000000e+11 -1.047228628350769e-01 8.784706542419146e-02 9.280861593542263e-01 -1.152179840949178e-01 9.270565352500941e-01 -1.256077139791866e-01 3.670982760686159e-02 4.491500838125208e-02
1.010800000000000e+11 -1.045663514893027e-01 8.769095607774011e-02 9.291203166986761e-01 -1.138199169049019e-01 9.278632230324082e-01 -1.248432958069376e-01 3.714895300218246e-02 4.513408471158235e-02
1.011280000000000e+11 -1.046291536229466e-01 8.706594871828867e-02 9.283499078259522e-01 -1.147801478310824e-01 9.273299419454814e-01 -1.251205138785042e-01 3.745984619604448e-02 4.444309892953081e-02
1.011760000000000e+11 -1.049927301324885e-01 8.804850119722543e-02 9.277500688717596e-01 -1.151045538457340e-01 9.264861645066418e-01 -1.262848682138487e-01 3.713305966564694e-02 4.417150671734883e-02
1.012240000000000e+11 -1.049556610326116e-01 8.776124817723269e-02 9.292751876249246e-01 -1.134187818482495e-01 9.262224194581227e-01 -1.255153384441964e-01 3.658023630677313e-02 4.488695298064520e-02
1.012720000000000e+11 -1.043256747067391e-01 8.795370042154317e-02 9.281423550035269e-01 -1.153172614952692e-01 9.255610549432751e-01 -1.260412318803312e-01 3.757944705561067e-02 4.411599830194084e-02
1.013200000000000e+11 -1.040323842028981e-01 8.801272982985237e-02 9.296157349202988e-01 -1.137256986413503e-01 9.259246742329663e-01 -1.259349136220650e-01 3.766122825457127e-02 4.412778336657922e-02
1.013680000000000e+11 -1.040226475485233e-01 8.697017625255285e-02 9.288492245646610e-01 -1.152946156819004e-01 9.250338906692016e-01 -1.275772296678358e-01 3.788650844113279e-02 4.331004156168004e-02
1.014160000000000e+11 -1.048901075219166e-01 8.917592978199625e-02 9.286413347269038e-01 -1.140203385685206e-01 9.255013383708123e-01 -1.266897362406743e-01 3.892136477163408e-02 4.433280510614743e-02
1.014640000000000e+11 -1.054105377923780e-01 8.900595495779427e-02 9.279612271080355e-01 -1.139285770163476e-01 9.244718589708439e-01 -1.264385003501746e-01 3.871369078529466e-02 4.472413761529859e-02
1.015120000000000e+11 -1.063315138716611e-01 8.956629988142485e-02 9.283558151675712e-01 -1.127782776270793e-01 9.239000971898167e-01 -1.259435565681013e-01 3.791997393223468e-02 4.520080853620252e-02
1.015600000000000e+11 -1.064773972735259e-01 8.796715969327072e-02 9.288042218592227e-01 -1.144310562165387e-01 9.255965508225298e-01 -1.267684325670086e-01 3.807369837465741e-02 4.154533024296712e-02
1.016080000000000e+11 -1.058449509292741e-01 8.811384819031447e-02 9.304434146353585e-01 -1.126577720943398e-01 9.268926719118551e-01 -1.254825835874810e-01 3.788588497260025e-02 4.186043487818294e-02
1.016560000000000e+11 -1.061239642472583e-01 8.719592645660067e-02 9.289438730402613e-01 -1.144310467828804e-01 9.253297331099266e-01 -1.260251038939000e-01 3.757092147450104e-02 4.099360283634267e-02
1.017040000000000e+11 -1.062352457715984e-01 8.748039329010579e-02 9.301225328342807e-01 -1.137615977824436e-01 9.250469964225860e-01 -1.262223221831078e-01 3.677612497954798e-02 4.159358527689980e-02
1.017520000000000e+11 -1.064971315143575e-01 8.726809001667434e-02 9.264685281393290e-01 -1.155072069632403e-01 9.229160160815166e-01 -1.265801885168299e-01 3.638194124145350e-02 4.452249005381732e-02
1.018000000000000e+11 -1.057959411562460e-01 8.796252035964976e-02 9.260979899593574e-01 -1.132750263774578e-01 9.210707449073555e-01 -1.253642609873146e-01 3.745854408596006e-02 4.854415938541336e-02
1.018480000000000e+11 -1.054107937956716e-01 8.630669232541555e-02 9.276450417383679e-01 -1.138030046327398e-01 9.202774852459845e-01 -1.264629519118446e-01 3.803163916541200e-02 4.597087822631336e-02
1.018960000000000e+11 -1.051565729492376e-01 8.489334762734092e-02 9.290606681591311e-01 -1.165408933895434e-01 9.214359294217688e-01 -1.251729151899340e-01 3.899312259777027e-02 4.372724357275711e-02
1.019440000000000e+11 -1.042381447903614e-01 8.491397423686062e-02 9.262513047341787e-01 -1.194411976176427e-01 9.242504575934534e-01 -1.253877650085289e-01 3.925441332683075e-02 4.465962977355301e-02
1.019920000000000e+11 -1.055092048671060e-01 8.689387631699498e-02 9.249261434349499e-01 -1.136678835782755e-01 9.203513065761784e-01 -1.260181014340279e-01 3.894055050090037e-02 4.787083713751728e-02
1.020400000000000e+11 -1.052204346811081e-01 8.612633221680557e-02 9.285265681072182e-01 -1.125703075297717e-01 9.227849034900911e-01 -1.246588639759761e-01 3.900838095618644e-02 4.614515335329541e-02
1.020880000000000e+11 -1.050399113856762e-01 8.482533057073305e-02 9.283112186716412e-01 -1.150833253901386e-01 9.245791391231725e-01 -1.245562099916839e-01 3.868959403466394e-02 4.297391946721835e-02
1.021360000000000e+11 -1.046190952628223e-01 8.457735976958108e-02 9.289398851259844e-01 -1.146461776993392e-01 9.254713531484533e-01 -1.259653009626779e-01 3.851015208733004e-02 4.133406071132908e-02
1.021840000000000e+11 -1.047689145277793e-01 8.572292037644295e-02 9.274177224713429e-01 -1.145559450299739e-01 9.229220062235157e-01 -1.261887520583737e-01 3.849060058201444e-02 4.267922668814073e-02
1.022320000000000e+11 -1.045307941882214e-01 8.680755151568229e-02 9.261070827371547e-01 -1.149659271417561e-01 9.212471824381763e-01 -1.261096625134809e-01 3.736021938632032e-02 4.426709235293548e-02
1.022800000000000e+11 -1.042548447385818e-01 8.729492374188182e-02 9.259613000895228e-01 -1.131803782385166e-01 9.205847944155855e-01 -1.245441909086318e-01 3.785613252583472e-02 4.624120630418589e-02
1.023280000000000e+11 -1.036601262870446e-01 8.664202075096952e-02 9.253848872038510e-01 -1.136382438829459e-01 9.203384800146355e-01 -1.252471598551056e-01 3.860990173003524e-02 4.600628964165569e-02
1.023760000000000e+11 -1.045911805759658e-01 8.738255637086748e-02 9.257477516205517e-01 -1.116033189167128e-01 9.198274953891218e-01 -1.234306147876215e-01 3.873339576616334e-02 4.794510415588755e-02
1.024240000000000e+11 -1.044265756775281e-01 8.577588297987759e-02 9.263939900647493e-01 -1.149499578030531e-01 9.204276179451064e-01 -1.232120338759451e-01 3.888441406180242e-02 4.623123383108698e-02
1.024720000000000e+11 -1.052115749740619e-01 8.614606854893046e-02 9.278317615807024e-01 -1.127497104329792e-01 9.208241491375644e-01 -1.226436186710305e-01 3.991367323251580e-02 4.739720685202297e-02
1.025200000000000e+11 -1.047568077745090e-01 8.541839326306862e-02 9.255064902996210e-01 -1.160370375350836e-01 9.204282682402959e-01 -1.229063174915761e-01 3.883328296854750e-02 4.629216352841694e-02
1.025680000000000e+11 -1.057282172010810e-01 8.666476332233325e-02 9.272782079170286e-01 -1.127910503854083e-01 9.224802385816114e-01 -1.214489445215137e-01 3.949480239390422e-02 4.710246109279918e-02
1.026160000000000e+11 -1.034175135694564e-01 8.697041091271422e-02 9.246492716372934e-01 -1.114243637772075e-01 9.200969233660197e-01 -1.247823440457505e-01 3.786972442141448e-02 4.859640571679159e-02
1.026640000000000e+11 -1.051132383171382e-01 8.651969246393525e-02 9.259959462419075e-01 -1.109909704880050e-01 9.215450430385067e-01 -1.230462449547526e-01 3.958590761295464e-02 4.817100622084936e-02
1.027120000000000e+11 -1.035619018478568e-01 8.639523009122677e-02 9.237102853099841e-01 -1.143870123917256e-01 9.200500518852536e-01 -1.224362739503329e-01 3.842538520299182e-02 4.894958618815223e-02
1.027600000000000e+11 -1.039669672073467e-01 8.706255744579362e-02 9.254987028318131e-01 -1.143491890173441e-01 9.209744010956880e-01 -1.208387435303668e-01 3.955064216352267e-02 4.819542981686074e-02
1.028080000000000e+11 -1.037734418966713e-01 8.776063576748140e-02 9.257255306754791e-01 -1.138021263183414e-01 9.208325081184707e-01 -1.211543366664793e-01 3.908623642433374e-02 4.797829939762187e-02
1.028560000000000e+11 -1.037757251436345e-01 8.705745660863055e-02 9.263187222590680e-01 -1.137785886079378e-01 9.218175138486848e-01 -1.232085780338657e-01 3.972869422870093e-02 4.625119914988294e-02
1.029040000000000e+11 -1.044084685797045e-01 8.803000282266796e-02 9.253121047606825e-01 -1.140510061989606e-01 9.211506301761684e-01 -1.220316496886725e-01 3.936712808578122e-02 4.668669072527386e-02
1.029520000000000e+11 -1.054740266876989e-01 8.840163064425720e-02 9.267325971245249e-01 -1.113528067331341e-01 9.213006194278742e-01 -1.219168812471825e-01 3.980606472770190e-02 4.663921701312163e-02
1.030000000000000e+11 -1.036923244572472e-01 8.835364192152864e-02 9.267211348495216e-01 -1.096241215176014e-01 9.211460760980205e-01 -1.234906047794891e-01 3.896571274891032e-02 4.653146378374732e-02
1.030480000000000e+11 -1.056589866136433e-01 8.892176181632185e-02 9.268868989767525e-01 -1.104388823175602e-01 9.213516920256420e-01 -1.239452693483073e-01 3.854581280683921e-02 4.583698194163083e-02
1.030960000000000e+11 -1.048231774081329e-01 8.876398996217202e-02 9.254494352880300e-01 -1.125949590943056e-01 9.210521307557624e-01 -1.238076891516110e-01 3.751364461459255e-02 4.558208776222199e-02
1.031440000000000e+11 -1.059517309861829e-01 8.884332702895285e-02 9.263911216222749e-01 -1.113312294731936e-01 9.217793242726615e-01 -1.218611357765808e-01 3.847898591802720e-02 4.673573889518126e-02
1.031920000000000e+11 -1.043843117986415e-01 8.808300688399553e-02 9.249406985862901e-01 -1.142715421309029e-01 9.204370084078899e-01 -1.240549603037889e-01 3.765765278494702e-02 4.740543068201308e-02
1.032400000000000e+11 -1.048670867197791e-01 8.828902950384938e-02 9.254996637311044e-01 -1.123549145890170e-01 9.204045651570443e-01 -1.225855211680421e-01 3.854310368457476e-02 4.914609466631172e-02
1.032880000000000e+11 -1.040241124594213e-01 8.818730982821145e-02 9.248361197654185e-01 -1.128464828120337e-01 9.196074012421536e-01 -1.229746857870968e-01 3.863361998006121e-02 4.965666443463801e-02
1.033360000000000e+11 -1.050730026206860e-01 8.765826719264908e-02 9.259199077909208e-01 -1.110992323179918e-01 9.205134383628388e-01 -1.210701539341586e-01 4.037318820759473e-02 4.966667868378927e-02
1.033840000000000e+11 -1.034355853853968e-01 8.653379737048171e-02 9.251848056629196e-01 -1.127634078245582e-01 9.197131885673231e-01 -1.231062142914857e-01 4.060340958561900e-02 4.960506759672370e-02
1.034320000000000e+11 -1.042526031505004e-01 8.623264266721992e-02 9.252095414157815e-01 -1.122858168362214e-01 9.215056807559965e-01 -1.204608839576361e-01 4.160560572080298e-02 5.049219206433869e-02
1.034800000000000e+11 -1.035904533065073e-01 8.608898536793497e-02 9.256093335228665e-01 -1.117710044841114e-01 9.213288827731310e-01 -1.221239627592819e-01 4.243109154198599e-02 5.032761007388692e-02
1.035280000000000e+11 -1.046806788948591e-01 8.660223119369172e-02 9.244770470429408e-01 -1.112692155509461e-01 9.215983650155233e-01 -1.224019161406343e-01 4.319371536420118e-02 5.123778261595344e-02
1.035760000000000e+11 -1.040693804685445e-01 8.598566163795263e-02 9.245790747851794e-01 -1.117131550035762e-01 9.213014962631596e-01 -1.238118460801497e-01 4.271839462279467e-02 5.028635510432598e-02
1.036240000000000e+11 -1.044748139759299e-01 8.665018135026493e-02 9.249143384630101e-01 -1.097570572012718e-01 9.214600028197102e-01 -1.225991598641961e-01 4.309792105580272e-02 5.066756028754272e-02
1.036720000000000e+11 -1.045185589864257e-01 8.697912312366521e-02 9.246761380336501e-01 -1.096398553917103e-01 9.204184638549070e-01 -1.236542878753146e-01 4.316270591237577e-02 5.033706073179148e-02
1.037200000000000e+11 -1.038786328892281e-01 8.745510238998536e-02 9.245286901346341e-01 -1.095102236957936e-01 9.201935498493112e-01 -1.232862241418302e-01 4.280118287512794e-02 5.077007449742945e-02
1.037680000000000e+11 -1.045499290445546e-01 8.709401534513214e-02 9.248707770517048e-01 -1.094130826786326e-01 9.198069587561852e-01 -1.227175844641429e-01 4.303330056410289e-02 5.058735376752029e-02
1.038160000000000e+11 -1.042950574629942e-01 8.810572672813860e-02 9.250965397960118e-01 -1.097281691610043e-01 9.201878186292262e-01 -1.209373397606906e-01 4.303011409430942e-02 5.186453742561135e-02
1.038640000000000e+11 -1.049557618860996e-01 8.915995618841539e-02 9.245694156773978e-01 -1.103288858768037e-01 9.186676697683671e-01 -1.226166940463729e-01 4.291293426418437e-02 5.318688863358277e-02
1.039120000000000e+11 -1.044576308388464e-01 8.732472255675987e-02 9.255530320095253e-01 -1.097782721318727e-01 9.202848698373178e-01 -1.223076948173012e-01 4.311871809363593e-02 5.242775958528630e-02
1.039600000000000e+11 -1.052006846355977e-01 8.680744661723569e-02 9.256843564428466e-01 -1.098013200860392e-01 9.187723734653406e-01 -1.233324486881472e-01 4.328166325702287e-02 5.262656268863441e-02
1.040080000000000e+11 -1.048014712525350e-01 8.635335665036938e-02 9.260428514420438e-01 -1.090266217799792e-01 9.185343610053375e-01 -1.232208402266840e-01 4.422618828779331e-02 5.354014172059975e-02
1.040560000000000e+11 -1.051592848201736e-01 8.593457515334260e-02 9.256221436551969e-01 -1.084218612748250e-01 9.179317904684746e-01 -1.228653218898601e-01 4.466122659548334e-02 5.456967105919595e-02
1.041040000000000e+11 -1.048465600858905e-01 8.732351759295109e-02 9.251626756522690e-01 -1.081810065523956e-01 9.180100411341289e-01 -1.215767489478733e-01 4.455780417969421e-02 5.653658657914827e-02
1.041520000000000e+11 -1.046159184984283e-01 8.585109970070623e-02 9.249995830652904e-01 -1.100142176266458e-01 9.191668234802355e-01 -1.227753593318568e-01 4.579910163072482e-02 5.460564672832349e-02
1.042000000000000e+11 -1.041615049175784e-01 8.730564654312807e-02 9.244646022457702e-01 -1.090833595383051e-01 9.192214891468728e-01 -1.213309298248267e-01 4.555486364854810e-02 5.686704252652677e-02
1.042480000000000e+11 -1.041714583032255e-01 8.685838333458140e-02 9.232091535545148e-01 -1.108994366703912e-01 9.195450608987454e-01 -1.215817908139963e-01 4.573180447933341e-02 5.686558156660805e-02
1.042960000000000e+11 -1.041244502948467e-01 8.717763029829753e-02 9.241894523450735e-01 -1.092998596381912e-01 9.194405920182340e-01 -1.225135279269285e-01 4.606090730379662e-02 5.628805588154859e-02
1.043440000000000e+11 -1.052505028044373e-01 8.696051477819365e-02 9.243303311848157e-01 -1.092135614158965e-01 9.200790239931022e-01 -1.227140780371972e-01 4.638442730952790e-02 5.433729201830798e-02
1.043920000000000e+11 -1.053186210334625e-01 8.772910495832202e-02 9.243479176422608e-01 -1.087854641146234e-01 9.196093104762909e-01 -1.229718810128363e-01 4.634149410883696e-02 5.465564724107283e-02
1.044400000000000e+11 -1.055137366996056e-01 8.757296680086307e-02 9.243051370567865e-01 -1.086405818873365e-01 9.197145267575596e-01 -1.222901476306247e-01 4.635186776761527e-02 5.474416149577558e-02
1.044880000000000e+11 -1.056177576684609e-01 8.849084350432158e-02 9.241437455440281e-01 -1.088473728737146e-01 9.187977484776886e-01 -1.225846205599827e-01 4.607405647647844e-02 5.625686756512059e-02
1.045360000000000e+11 -1.052377611968569e-01 8.819183870596470e-02 9.249532292426874e-01 -1.090072759276051e-01 9.188781686832482e-01 -1.226467555671500e-01 4.600837614135315e-02 5.576130692322924e-02
1.045840000000000e+11 -1.051249105676955e-01 8.880992881879246e-02 9.245677303921932e-01 -1.094631645558290e-01 9.196063250316201e-01 -1.218755350492219e-01 4.547259143791584e-02 5.630026553874930e-02
1.046320000000000e+11 -1.052596470085034e-01 8.914793733516510e-02 9.260095182307340e-01 -1.098142834157693e-01 9.206274722459920e-01 -1.222248953204153e-01 4.553598556042322e-02 5.486360183496410e-02
1.046800000000000e+11 -1.046124101520956e-01 8.858606386626741e-02 9.249595087154864e-01 -1.082980020348485e-01 9.183980575104663e-01 -1.233477491140921e-01 4.552232819818809e-02 5.782539005873450e-02
1.047280000000000e+11 -1.038040018906361e-01 8.791138536181554e-02 9.244895422101584e-01 -1.091877426609787e-01 9.195572736916635e-01 -1.229755578620566e-01 4.594528827563658e-02 5.680366980550939e-02
1.047760000000000e+11 -1.034694438406306e-01 8.727480405396346e-02 9.251008703301866e-01 -1.077776082481562e-01 9.194387410355673e-01 -1.208225629749492e-01 4.710294856697203e-02 5.750533029968090e-02
1.048240000000000e+11 -1.030331451677569e-01 8.682775132887152e-02 9.240279039243420e-01 -1.094843958000817e-01 9.176029202022616e-01 -1.220748468651281e-01 4.729564032666372e-02 5.920558971177450e-02
1.048720000000000e+11 -1.035604289663593e-01 8.692866082320423e-02 9.245143757935598e-01 -1.082131732302725e-01 9.181306857478393e-01 -1.203500694963310e-01 4.834462411551710e-02 6.045116611601293e-02
1.049200000000000e+11 -1.025926596953166e-01 8.361452199167131e-02 9.276959886600310e-01 -1.090243353423383e-01 9.217295343521388e-01 -1.212983493347841e-01 5.005359920999743e-02 5.334644202317654e-02
1.049680000000000e+11 -1.028362628953535e-01 8.442175249969594e-02 9.245286430111307e-01 -1.072661238467546e-01 9.216125936071384e-01 -1.195033438704266e-01 5.039381563389431e-02 5.842365015289550e-02
1.050160000000000e+11 -1.022095331523913e-01 8.315957257022562e-02 9.250227408612816e-01 -1.083006035032987e-01 9.216517319584645e-01 -1.203728169512725e-01 5.092036733143683e-02 5.652138574955992e-02
1.050640000000000e+11 -1.024192829354011e-01 8.452995492349336e-02 9.241826902753701e-01 -1.071861040729695e-01 9.200521009432022e-01 -1.209466445127043e-01 5.059348233227430e-02 5.923403999646702e-02
1.051120000000000e+11 -1.018912323452828e-01 8.350919597782469e-02 9.247527488466265e-01 -1.099454066110608e-01 9.207302634262572e-01 -1.208438786499661e-01 5.074350366283222e-02 5.653261679260465e-02
1.051600000000000e+11 -1.024879859952569e-01 8.435031286442593e-02 9.252695785361870e-01 -1.090216389603686e-01 9.206493780849433e-01 -1.197435440992730e-01 5.081063583479863e-02 5.766798224195782e-02
1.052080000000000e+11 -1.019499734485653e-01 8.399654029711316e-02 9.257531829885159e-01 -1.103044299564570e-01 9.208685972075988e-01 -1.200701023777363e-01 4.991842052547549e-02 5.628379967009418e-02
1.052560000000000e+11 -1.019231118613419e-01 8.416376771497359e-02 9.256725708113537e-01 -1.110853317487765e-01 9.203017982795733e-01 -1.196355563900751e-01 4.976288283992679e-02 5.810329134386000e-02
1.053040000000000e+11 -1.014802664315845e-01 8.433079961167611e-02 9.263109908262152e-01 -1.107287996949522e-01 9.207811421870856e-01 -1.195253088755423e-01 4.989868793370636e-02 5.832755797493341e-02
1.053520000000000e+11 -1.019199877944057e-01 8.401198564428791e-02 9.263801069896540e-01 -1.101722060758372e-01 9.202547904210867e-01 -1.198933539386679e-01 5.007568016830333e-02 5.939381319234296e-02
1.054000000000000e+11 -1.013012601327079e-01 8.420046520542024e-02 9.263487785997868e-01 -1.098032291765756e-01 9.200615383260839e-01 -1.199749262179200e-01 5.043873292180742e-02 6.002834477516596e-02
1.054480000000000e+11 -1.016323574722913e-01 8.280515510024478e-02 9.267655953831921e-01 -1.090321145109167e-01 9.202677625635677e-01 -1.204846949382414e-01 5.125320196280580e-02 5.915785035289501e-02
1.054960000000000e+11 -1.004893217862092e-01 8.183896562012742e-02 9.261160865499953e-01 -1.119048081193085e-01 9.200489888619739e-01 -1.197910821556007e-01 5.089320881147873e-02 5.871660225214426e-02
1.055440000000000e+11 -1.010157300084503e-01 8.149792004323891e-02 9.244293613182251e-01 -1.120479509866981e-01 9.206226846993349e-01 -1.198282341407158e-01 5.158519327361917e-02 5.966926989524649e-02
1.055920000000000e+11 -1.002243490478930e-01 8.121684141750038e-02 9.266980848254495e-01 -1.118921461823827e-01 9.226669955297387e-01 -1.198206312191057e-01 5.233447755698912e-02 5.544066565733825e-02
1.056400000000000e+11 -1.008449273378375e-01 8.157437605173337e-02 9.240729069582024e-01 -1.119181887776642e-01 9.218164150206940e-01 -1.189030248556908e-01 5.219643068318337e-02 5.879307753238396e-02
1.056880000000000e+11 -1.001583645436199e-01 8.242820340393341e-02 9.236797737243289e-01 -1.119244562539161e-01 9.211619136416499e-01 -1.204635494949896e-01 5.173320258644337e-02 5.881323875936471e-02
1.057360000000000e+11 -1.005828839515999e-01 8.127215702251672e-02 9.265010418472133e-01 -1.101080100575327e-01 9.226071721545404e-01 -1.196576543600735e-01 5.330259652746257e-02 5.496397221223741e-02
1.057840000000000e+11 -1.000367750751920e-01 8.173392033459594e-02 9.231093482376856e-01 -1.106545701282693e-01 9.207521113249305e-01 -1.210964600040108e-01 5.269687396691793e-02 5.996166027379468e-02
1.058320000000000e+11 -1.009901053776686e-01 8.212088706003243e-02 9.238107741893864e-01 -1.105770941141758e-01 9.212619188292134e-01 -1.194581067145177e-01 5.299657945230563e-02 5.905758270820979e-02
1.058800000000000e+11 -1.008613693005764e-01 8.249740377809697e-02 9.243611975209002e-01 -1.107257838025833e-01 9.211482801173321e-01 -1.204171137210447e-01 5.306007271960731e-02 5.792966135926136e-02
1.059280000000000e+11 -1.023419674153782e-01 8.312385390373524e-02 9.251437475650467e-01 -1.107879010194352e-01 9.220286382112566e-01 -1.181652438877992e-01 5.402046677869842e-02 5.851367926897952e-02
1.059760000000000e+11 -1.018036999052569e-01 8.343194719391080e-02 9.271726477525958e-01 -1.100958466472801e-01 9.225556492222508e-01 -1.186545259602599e-01 5.364328099658564e-02 5.685980623432248e-02
1.060240000000000e+11 -1.021864079605109e-01 8.288774099720987e-02 9.258094581906317e-01 -1.128919275380658e-01 9.223600186338061e-01 -1.196997625195173e-01 5.305171356457484e-02 5.688169439382761e-02
1.060720000000000e+11 -1.019089443103412e-01 8.373893537242370e-02 9.260874608463644e-01 -1.097450468220726e-01 9.214152427869585e-01 -1.200600491741816e-01 5.305717715985531e-02 6.043731236644274e-02
1.061200000000000e+11 -1.017202428200612e-01 8.293258166560001e-02 9.245871342754269e-01 -1.109981354904458e-01 9.201776469431348e-01 -1.213991059305139e-01 5.243098059229208e-02 6.239288049050509e-02
1.061680000000000e+11 -1.014320920577862e-01 8.378722674197990e-02 9.266105543968672e-01 -1.093189661914774e-01 9.204269771456762e-01 -1.213990188200272e-01 5.315724766018511e-02 6.050945482108817e-02
1.062160000000000e+11 -1.020557943513927e-01 8.311039339859221e-02 9.230215375624020e-01 -1.129481622497474e-01 9.186106176753602e-01 -1.215600452166136e-01 5.199850160204360e-02 6.374303438273947e-02
1.062640000000000e+11 -1.019721220597433e-01 8.345227361246256e-02 9.247967892257813e-01 -1.095987317240711e-01 9.205749056774553e-01 -1.204013235300177e-01 5.323558109064728e-02 6.044430047871880e-02
1.063120000000000e+11 -1.018113557733489e-01 8.329049342848983e-02 9.223522510010724e-01 -1.124463075512420e-01 9.183990938441526e-01 -1.201955018745473e-01 5.329650118063065e-02 6.386498230686820e-02
1.063600000000000e+11 -1.023958479334509e-01 8.344739346318669e-02 9.249716887874828e-01 -1.114822523643581e-01 9.205333129939987e-01 -1.179119466505144e-01 5.487734896560224e-02 5.893734145230789e-02
1.064080000000000e+11 -1.024840891404681e-01 8.224090471707718e-02 9.255855736860831e-01 -1.119167334501127e-01 9.231223103211696e-01 -1.203831840867375e-01 5.547236151862689e-02 5.411864003425255e-02
1.064560000000000e+11 -1.038996423046570e-01 8.349566654622967e-02 9.196563842541992e-01 -1.105533583490953e-01 9.162342327599327e-01 -1.221378840201077e-01 5.227411899760512e-02 6.866498516590060e-02
1.065040000000000e+11 -1.031443958862588e-01 8.361207961075541e-02 9.266509428073826e-01 -1.089803826852859e-01 9.213905307494613e-01 -1.201796805806193e-01 5.438490475038126e-02 5.449757504972024e-02
1.065520000000000e+11 -1.038377847536823e-01 8.260461945055288e-02 9.250585177052978e-01 -1.109362049062770e-01 9.222499861531084e-01 -1.208620926780643e-01 5.356939762310962e-02 5.544931176690675e-02
1.066000000000000e+11 -1.038802720163145e-01 8.405875284926720e-02 9.205065245023882e-01 -1.113382451700687e-01 9.194930888609406e-01 -1.218983738869602e-01 5.167754031465177e-02 6.436580537567230e-02
1.066480000000000e+11 -1.049500470590198e-01 8.522563202437557e-02 9.266708534541191e-01 -1.098989718323312e-01 9.179479966895772e-01 -1.213341267909818e-01 5.262930409311144e-02 6.145952077572646e-02
1.066960000000000e+11 -1.053569944310464e-01 8.730313511297019e-02 9.257903378055049e-01 -1.126938676633759e-01 9.231800451406863e-01 -1.192055850512465e-01 5.449363203413239e-02 5.473204437579348e-02
1.067440000000000e+11 -1.053835870542033e-01 8.550643823696215e-02 9.231592193821423e-01 -1.099606344764011e-01 9.201637402666766e-01 -1.196672002679062e-01 5.330734761785847e-02 6.579494915735526e-02
1.067920000000000e+11 -1.047993914464709e-01 8.561560598979513e-02 9.259449891353525e-01 -1.103434731658883e-01 9.201884388776984e-01 -1.232872617131795e-01 5.354452518844676e-02 6.110305515161522e-02
1.068400000000000e+11 -1.050304232228851e-01 8.549622231521525e-02 9.247123616086534e-01 -1.100143446310017e-01 9.206874571768376e-01 -1.226855998683466e-01 5.386122220101761e-02 6.221542139628821e-02
1.068880000000000e+11 -1.047682228579393e-01 8.427663211807400e-02 9.249565425016417e-01 -1.107420844098412e-01 9.183255407489161e-01 -1.244938970491293e-01 5.431811120117902e-02 6.157759490732080e-02
1.069360000000000e+11 -1.046964456671982e-01 8.473711705835565e-02 9.263624276218341e-01 -1.099162667579333e-01 9.217922496113540e-01 -1.210248201796724e-01 5.696697298715027e-02 5.762411666341549e-02
1.069840000000000e+11 -1.051215403273379e-01 8.247201519980354e-02 9.208910151021507e-01 -1.126755621904916e-01 9.172841546815430e-01 -1.234077815495042e-01 5.539706158228138e-02 6.550691354990772e-02
1.070320000000000e+11 -1.050268405046411e-01 8.484401864383181e-02 9.220823669229748e-01 -1.108418835277032e-01 9.188927963843230e-01 -1.198756882375827e-01 5.620902940124763e-02 6.548541267696710e-02
1.070800000000000e+11 -1.043636229995390e-01 8.347075980004588e-02 9.224139147606737e-01 -1.121758268168609e-01 9.177963780313941e-01 -1.226229346340840e-01 5.630115762998061e-02 6.298343628343481e-02
1.071280000000000e+11 -1.046112037502712e-01 8.472365955587162e-02 9.235394815271158e-01 -1.094878579135617e-01 9.191173739081461e-01 -1.200240667569654e-01 5.687682617521724e-02 6.198604057173471e-02
1.071760000000000e+11 -1.045293147088222e-01 8.429916712365103e-02 9.231032148168354e-01 -1.100367853261713e-01 9.190558937938791e-01 -1.230157545623781e-01 5.662831663544731e-02 6.094499053190993e-02
1.072240000000000e+11 -1.048651759225859e-01 8.496056260756429e-02 9.223500478777444e-01 -1.092137329708763e-01 9.181600696024347e-01 -1.227790573583716e-01 5.578959805935256e-02 6.356025905631310e-02
1.072720000000000e+11 -1.052570628759041e-01 8.529217600309977e-02 9.223356805717853e-01 -1.108174871414725e-01 9.177602706387221e-01 -1.227502914871711e-01 5.538257539588177e-02 6.250367519382684e-02
1.073200000000000e+11 -1.060503613895133e-01 8.639660498912920e-02 9.237357147233188e-01 -1.098906801199300e-01 9.177053071609310e-01 -1.217005887080937e-01 5.519977997191011e-02 6.296183679457266e-02
1.073680000000000e+11 -1.060477895403195e-01 8.684150437072721e-02 9.242500763730928e-01 -1.126445528474235e-01 9.186832710302851e-01 -1.207155571747118e-01 5.545481255413696e-02 6.153895969895274e-02
1.074160000000000e+11 -1.065942916488975e-01 8.709902890804024e-02 9.260270964456029e-01 -1.107107897913356e-01 9.201204852988358e-01 -1.214152506953858e-01 5.593946829203967e-02 5.981402066544318e-02
1.074640000000000e+11 -1.064767922248454e-01 8.706656958454567e-02 9.241888454422703e-01 -1.116037428235278e-01 9.200877536207105e-01 -1.226592915792100e-01 5.562579407367205e-02 6.129410033894012e-02
1.075120000000000e+11 -1.064427674255936e-01 8.730501040507432e-02 9.224501446531292e-01 -1.113317918639747e-01 9.171688490159546e-01 -1.239993380283604e-01 5.399333921590652e-02 6.634988564779261e-02
1.075600000000000e+11 -1.060428089377749e-01 8.712967561683550e-02 9.244942162745401e-01 -1.109951192196512e-01 9.178673749172844e-01 -1.242797469726428e-01 5.525108945690915e-02 6.123976686779080e-02
1.076080000000000e+11 -1.058550219658307e-01 8.590121689036405e-02 9.224723858851155e-01 -1.122562990427829e-01 9.176890851283346e-01 -1.231871665706994e-01 5.549976937541031e-02 6.204498047584126e-02
1.076560000000000e+11 -1.048411794142539e-01 8.609483847271221e-02 9.227865196876364e-01 -1.104163658005743e-01 9.184204356825650e-01 -1.213515780867629e-01 5.664827661893995e-02 6.315236196375996e-02
1.077040000000000e+11 -1.039811760253434e-01 8.518052969009207e-02 9.214448203305016e-01 -1.123497676685275e-01 9.164377451544633e-01 -1.272108999772528e-01 5.663221673410836e-02 6.427940674842982e-02
1.077520000000000e+11 -1.040582922811276e-01 8.483439334012416e-02 9.206131288920125e-01 -1.128807267986818e-01 9.176960626767906e-01 -1.204924210442090e-01 5.714473590266745e-02 6.546817046984467e-02
1.078000000000000e+11 -1.039476251168190e-01 8.478345777818787e-02 9.202332237705587e-01 -1.113381011621235e-01 9.172289144398126e-01 -1.212553429995975e-01 5.800304111145485e-02 6.591942613731455e-02
1.078480000000000e+11 -1.043758622284921e-01 8.561947222564781e-02 9.208099767616649e-01 -1.095004065436260e-01 9.175421214005666e-01 -1.205383595674054e-01 5.899932292381555e-02 6.630982648957262e-02
1.078960000000000e+11 -1.049830416117103e-01 8.567240838604903e-02 9.214062870493076e-01 -1.088715208146401e-01 9.165243507339775e-01 -1.227238240158678e-01 5.931743797515421e-02 6.505728658956017e-02
1.079440000000000e+11 -1.042922938974645e-01 8.524829220360435e-02 9.249350913724683e-01 -1.103252802775266e-01 9.192677544997361e-01 -1.212435371436974e-01 5.978479352138787e-02 5.884535807129847e-02
1.079920000000000e+11 -1.044415294070173e-01 8.562963474084995e-02 9.234040198635668e-01 -1.103326289855379e-01 9.180519768497608e-01 -1.230515571662980e-01 5.889651807791420e-02 6.271186326068030e-02
1.080400000000000e+11 -1.050208508719391e-01 8.721272299784694e-02 9.246038058234695e-01 -1.106166062116423e-01 9.186936510248660e-01 -1.225906017721225e-01 5.768144608134195e-02 6.178763754258104e-02
1.080880000000000e+11 -1.050806206091973e-01 8.958061772364170e-02 9.271104350577074e-01 -1.115257491957108e-01 9.193969425526290e-01 -1.201206937523579e-01 5.833690138895336e-02 6.060542300336448e-02
1.081360000000000e+11 -1.044722912390396e-01 8.819765840047111e-02 9.249968614535533e-01 -1.124231539921915e-01 9.205611716695559e-01 -1.221599494060717e-01 5.761375016878404e-02 6.077271401733586e-02
1.081840000000000e+11 -1.051996543843832e-01 8.985203240103636e-02 9.234016136433505e-01 -1.107858408884434e-01 9.199179244336247e-01 -1.224504079786349e-01 5.708917311374583e-02 6.423999070867804e-02
1.082320000000000e+11 -1.049463439696451e-01 8.831955332887753e-02 9.226924156476254e-01 -1.114752367221604e-01 9.181909256714016e-01 -1.254300076558731e-01 5.688661180127330e-02 6.423716757521354e-02
1.082800000000000e+11 -1.048230434662116e-01 8.879606343565265e-02 9.232240349173615e-01 -1.090132318988688e-01 9.180694965664326e-01 -1.245211707172740e-01 5.843172802927123e-02 6.468177346042919e-02
1.083280000000000e+11 -1.042069343425890e-01 8.724896380632699e-02 9.217054707907972e-01 -1.120578372968810e-01 9.180267192239735e-01 -1.250182633632428e-01 5.763750463231719e-02 6.348983403302695e-02
1.083760000000000e+11 -1.038759451428190e-01 8.688852209842934e-02 9.220077529026893e-01 -1.102337537238976e-01 9.162743679152664e-01 -1.257102155416010e-01 5.864935926224978e-02 6.513567368273307e-02
1.084240000000000e+11 -1.042213971406633e-01 8.680047529348586e-02 9.202493683819662e-01 -1.121589349891636e-01 9.151192435275820e-01 -1.229171012745770e-01 5.949269257531004e-02 6.789328651518434e-02
1.084720000000000e+11 -1.053482182095155e-01 8.769285977150808e-02 9.223069982880875e-01 -1.097897661419892e-01 9.150883913482230e-01 -1.203998730857306e-01 6.045026921879165e-02 6.799603965029007e-02
1.085200000000000e+11 -1.047596707441530e-01 8.702855275036388e-02 9.218527348091483e-01 -1.135323048899532e-01 9.178054135540611e-01 -1.199342501135059e-01 6.114406846580410e-02 6.365749400183027e-02
1.085680000000000e+11 -1.043961419014053e-01 8.673582066245183e-02 9.223027466937658e-01 -1.100251219455953e-01 9.178941334325157e-01 -1.222491326027903e-01 6.134005341227902e-02 6.315235028050274e-02
1.086160000000000e+11 -1.039702589176801e-01 8.689090880586706e-02 9.223799372431905e-01 -1.099267370463488e-01 9.179993276682447e-01 -1.231507536551303e-01 6.166485872736657e-02 6.212299963906773e-02
1.086640000000000e+11 -1.045721227860211e-01 8.842879417199540e-02 9.220330366935707e-01 -1.082696691397326e-01 9.175665201412917e-01 -1.233652283899313e-01 6.185968224824970e-02 6.414484029043388e-02
1.087120000000000e+11 -1.049958008854214e-01 8.892290056529496e-02 9.204418254640232e-01 -1.095617419385266e-01 9.169975553191522e-01 -1.246758646467826e-01 6.022482655174018e-02 6.603059242776682e-02
1.087600000000000e+11 -1.049854541059060e-01 8.980270059810994e-02 9.221520618851723e-01 -1.081157336711098e-01 9.173593046220297e-01 -1.234157184258219e-01 5.941966066045425e-02 6.674936023705955e-02
1.088080000000000e+11 -1.056928740830389e-01 9.000325535000284e-02 9.227116284172319e-01 -1.098450458540944e-01 9.176527957356926e-01 -1.234608905825804e-01 6.094605506161776e-02 6.609241066444228e-02
1.088560000000000e+11 -1.059735531732084e-01 9.006250473988431e-02 9.227792974793023e-01 -1.101733141571339e-01 9.173837163694685e-01 -1.234214911577396e-01 6.117261433518928e-02 6.681869877788517e-02
1.089040000000000e+11 -1.053646985591510e-01 8.873570459317029e-02 9.229778688883491e-01 -1.103587017094721e-01 9.161767252917837e-01 -1.260063012029476e-01 5.976723115456724e-02 6.635574725067812e-02
1.089520000000000e+11 -1.066903769122403e-01 8.826437369237340e-02 9.222459898279610e-01 -1.096608382070004e-01 9.149568227602795e-01 -1.259189603385056e-01 6.060893473237394e-02 6.621501745524243e-02
1.090000000000000e+11 -1.066351981596810e-01 8.730505406823399e-02 9.217410932849285e-01 -1.108507299697986e-01 9.155905831232080e-01 -1.246565828369296e-01 6.096261856144156e-02 6.440780796192069e-02
1.090480000000000e+11 -1.066021557422001e-01 8.745554307211005e-02 9.223448685157405e-01 -1.040020952917554e-01 9.168769673951667e-01 -1.226541162196362e-01 6.147034853701017e-02 6.395501940741241e-02
1.090960000000000e+11 -1.066237552664484e-01 8.581747559406962e-02 9.218906270902253e-01 -9.996611549867637e-02 9.163117016154152e-01 -1.228431122692499e-01 6.074853297599145e-02 6.379613058057164e-02
1.091440000000000e+11 -1.069061664433461e-01 8.543317813577657e-02 9.207684054239398e-01 -9.837604630412884e-02 9.158238551603101e-01 -1.214568615689879e-01 6.074152726346937e-02 6.653882559127712e-02
1.091920000000000e+11 -1.053231704147366e-01 8.721898948682778e-02 9.188799660524579e-01 -1.095619667311704e-01 9.153263259950347e-01 -1.236311346722128e-01 6.099644430824596e-02 6.822400101703145e-02
1.092400000000000e+11 -1.055181233641583e-01 8.878474800855256e-02 9.189243493552101e-01 -1.087060209460543e-01 9.149863542291953e-01 -1.220351574445480e-01 6.237274104663583e-02 6.986834725200287e-02
1.092880000000000e+11 -1.056129761620728e-01 8.939586185321387e-02 9.190146930601204e-01 -1.076183886254193e-01 9.143051578501259e-01 -1.228447718486752e-01 6.382347882835857e-02 7.045361398622847e-02
1.093360000000000e+11 -1.059633355212203e-01 8.965127047474310e-02 9.196701968083761e-01 -1.062670802393177e-01 9.148571941807078e-01 -1.223447651387733e-01 6.399106076572222e-02 7.013195466894956e-02
1.093840000000000e+11 -1.058632745295642e-01 8.985529343133840e-02 9.188600834471333e-01 -1.068139525695952e-01 9.149037830233511e-01 -1.222404458632502e-01 6.337577515505168e-02 7.083154657666600e-02
1.094320000000000e+11 -1.066487951728763e-01 9.035217674271072e-02 9.204750028629182e-01 -1.066655113387630e-01 9.153462178875449e-01 -1.231043732710145e-01 6.383243319088214e-02 6.919007781396240e-02
1.094800000000000e+11 -1.067048618264390e-01 9.160024777003649e-02 9.220432059260283e-01 -1.069586626267974e-01 9.168813180682400e-01 -1.223706338262340e-01 6.404745411413577e-02 6.693670283412516e-02
1.095280000000000e+11 -1.071142114561554e-01 9.172907776922487e-02 9.230993903176055e-01 -1.068664372231904e-01 9.178935320077978e-01 -1.223145700003963e-01 6.280268165060054e-02 6.687079672562302e-02
1.095760000000000e+11 -1.055002574680180e-01 9.008270475273995e-02 9.232001933802595e-01 -1.080031793929097e-01 9.189201636130816e-01 -1.232128349704067e-01 6.232511510661921e-02 6.513827359884528e-02
1.096240000000000e+11 -1.064469016573896e-01 8.980230468352696e-02 9.202368618133688e-01 -1.080866458360751e-01 9.167592696249445e-01 -1.268648952621425e-01 6.197263684565228e-02 6.760512991889364e-02
1.096720000000000e+11 -1.061277089361344e-01 8.983962205073162e-02 9.203641361906876e-01 -1.066544326129330e-01 9.153567379147253e-01 -1.245502754901399e-01 6.245365946315121e-02 6.848929243408663e-02
1.097200000000000e+11 -1.056608385826813e-01 8.815667983940935e-02 9.210448761915575e-01 -1.018657800436801e-01 9.164045688579728e-01 -1.196723124704698e-01 6.119414751986602e-02 6.936898869073073e-02
1.097680000000000e+11 -1.050773348244772e-01 8.728631350850945e-02 9.201258692558040e-01 -1.071100258766018e-01 9.139289844825883e-01 -1.234589612205504e-01 6.204155497244118e-02 6.791004803435109e-02
1.098160000000000e+11 -1.062366602667420e-01 8.826189343011523e-02 9.203060810032411e-01 -1.075933452855617e-01 9.150086023411262e-01 -1.201149166836778e-01 6.384412021042003e-02 6.736142997834636e-02
1.098640000000000e+11 -1.058906965724893e-01 8.775652205526857e-02 9.207776174825554e-01 -1.083042943190983e-01 9.148773544435288e-01 -1.205680983127499e-01 6.472193526486990e-02 6.803775181047954e-02
1.099120000000000e+11 -1.049689271190438e-01 8.844892383815106e-02 9.203027587784425e-01 -1.081005247734075e-01 9.152598067439626e-01 -1.191518707736178e-01 6.586669654289833e-02 7.018886204644921e-02
1.099600000000000e+11 -1.047218660654559e-01 8.730770136638986e-02 9.217332697055098e-01 -1.083222339074202e-01 9.161687000778611e-01 -1.194423675257705e-01 6.689882059455594e-02 6.947277553960932e-02
1.100080000000000e+11 -1.051078664984243e-01 8.959415701217194e-02 9.199563808090939e-01 -1.062786599233228e-01 9.165423023435593e-01 -1.189031114251300e-01 6.723316489011250e-02 7.213657001514590e-02
1.100560000000000e+11 -1.054313868159921e-01 8.878603997064570e-02 9.207119136667161e-01 -1.073068710031603e-01 9.175584493143973e-01 -1.181689552962262e-01 6.740501853477671e-02 7.043257416170877e-02
1.101040000000000e+11 -1.059165565440686e-01 9.044985535101381e-02 9.197439864558621e-01 -1.068514266037532e-01 9.165000294102658e-01 -1.204599895140749e-01 6.806392439622723e-02 6.969076935752730e-02
1.101520000000000e+11 -1.069854490998762e-01 9.136733128163775e-02 9.200037088636132e-01 -1.061178072245407e-01 9.161508414796485e-01 -1.178506008624479e-01 6.739389551820529e-02 7.115622404482434e-02
1.102000000000000e+11 -1.057904468600220e-01 8.998213258124449e-02 9.222831012726445e-01 -1.089196726162232e-01 9.187062583370865e-01 -1.182954393623829e-01 6.729256067690934e-02 6.760061293459853e-02
1.102480000000000e+11 -1.072370118904292e-01 9.171614875687924e-02 9.221765508051781e-01 -1.078469793181251e-01 9.188101022054773e-01 -1.183498162636809e-01 6.854828922921596e-02 6.976098888532477e-02
1.102960000000000e+11 -1.074218864490969e-01 9.241508684138201e-02 9.204385812028406e-01 -1.103960952450648e-01 9.179355052358076e-01 -1.203998337546168e-01 6.775764128257145e-02 7.138579519039126e-02
1.103440000000000e+11 -1.085747689913651e-01 9.382428036494823e-02 9.219573041670003e-01 -1.060413869127321e-01 9.177542571661578e-01 -1.201531782305949e-01 6.769088675106052e-02 7.229135746811517e-02
1.103920000000000e+11 -1.078001046353584e-01 9.206885199372453e-02 9.206400299762532e-01 -1.093279262081611e-01 9.167709960392708e-01 -1.214680912007274e-01 6.669193733335788e-02 7.109574316974736e-02
1.104400000000000e+11 -1.076995911641462e-01 9.078583647648748e-02 9.217369535346513e-01 -1.071205381131396e-01 9.162592121798834e-01 -1.213691774333839e-01 6.683597963680347e-02 7.068073842894226e-02
1.104880000000000e+11 -1.074731994427728e-01 9.086327976592398e-02 9.203019531433975e-01 -1.094288493552736e-01 9.157819373689670e-01 -1.205197693114765e-01 6.656125563918498e-02 7.039461898900257e-02
1.105360000000000e+11 -1.078567217832767e-01 9.056903378045852e-02 9.196893772765611e-01 -1.117651495933196e-01 9.141030980236439e-01 -1.212021053559459e-01 6.683331323911976e-02 7.015728045731043e-02
1.105840000000000e+11 -1.084727709215856e-01 8.982999020782972e-02 9.213050509922867e-01 -1.090316119844492e-01 9.166007874315204e-01 -1.195451792569203e-01 6.363375071403501e-02 6.702247180716955e-02
1.106320000000000e+11 -1.056373925582499e-01 8.974421155691940e-02 9.191953431088312e-01 -1.111468800067552e-01 9.150251146848599e-01 -1.205966043796886e-01 6.603624538936356e-02 7.135590855461754e-02
1.106800000000000e+11 -1.059440771809573e-01 9.173863034978205e-02 9.199755621599240e-01 -1.106498412783354e-01 9.162508314392317e-01 -1.190235563389328e-01 6.830817052273287e-02 7.323138738628721e-02
1.107280000000000e+11 -1.066598952727617e-01 9.221973823363475e-02 9.192275327028894e-01 -1.104056678930827e-01 9.148966488203369e-01 -1.206655232548590e-01 6.889587049847896e-02 7.403164896249224e-02
1.107760000000000e+11 -1.074708968479535e-01 9.257681492888499e-02 9.196846356282576e-01 -1.086887308440277e-01 9.158651068598394e-01 -1.190320685096122e-01 6.871413287090938e-02 7.387704972434178e-02
1.108240000000000e+11 -1.077392430663470e-01 9.315949913664656e-02 9.190603438542354e-01 -1.088201530623789e-01 9.151472648254353e-01 -1.200753397152413e-01 6.885273261544135e-02 7.363641165657091e-02
1.108720000000000e+11 -1.086178968373658e-01 9.446785303542134e-02 9.191547393897609e-01 -1.077529027758163e-01 9.155479904220248e-01 -1.189823039243237e-01 6.929424866398466e-02 7.381334523807886e-02
1.109200000000000e+11 -1.086823437660960e-01 9.442492065056120e-02 9.188034366247204e-01 -1.075293077878279e-01 9.156101382776349e-01 -1.206098548693084e-01 6.851467357493575e-02 7.287567128350565e-02
1.109680000000000e+11 -1.083486387551279e-01 9.366184341410651e-02 9.194897195854336e-01 -1.081837044616193e-01 9.163465331050019e-01 -1.217381079294218e-01 6.798418082933864e-02 7.161838687297381e-02
1.110160000000000e+11 -1.092848098675871e-01 9.546296005993082e-02 9.187423490548534e-01 -1.073240950427757e-01 9.161645423695663e-01 -1.205509628874023e-01 6.740879796021933e-02 7.333030231879721e-02
1.110640000000000e+11 -1.087584010296150e-01 9.533216927482184e-02 9.192943617837323e-01 -1.085457233495468e-01 9.158013535748022e-01 -1.222271401485906e-01 6.652105525860758e-02 7.209339222336329e-02
1.111120000000000e+11 -1.087361179703517e-01 9.543243611935359e-02 9.195070785168221e-01 -1.079513840671290e-01 9.158060044903352e-01 -1.208128307730324e-01 6.630354297105602e-02 7.225251861758505e-02
1.111600000000000e+11 -1.077793815107118e-01 9.438079336296949e-02 9.193370720817876e-01 -1.090757859595886e-01 9.155716307567999e-01 -1.200023344518023e-01 6.635107006473960e-02 7.166642980373190e-02
1.112080000000000e+11 -1.076918236519779e-01 9.466981154887456e-02 9.178882229650233e-01 -1.092950388447909e-01 9.142800053047535e-01 -1.204172783865835e-01 6.721092761352310e-02 7.227384657235088e-02
1.112560000000000e+11 -1.070092651960754e-01 9.424506609858725e-02 9.185394483344902e-01 -1.075494842351164e-01 9.127369136251746e-01 -1.212996795850665e-01 6.591799662715078e-02 7.330008469719150e-02
1.113040000000000e+11 -1.069039266449189e-01 9.427285439848367e-02 9.189392803730762e-01 -1.073940648946218e-01 9.126657005339880e-01 -1.195151116255197e-01 6.664390825774151e-02 7.370052452536585e-02
1.113520000000000e+11 -1.068616906741118e-01 9.441947048603670e-02 9.194127278206751e-01 -1.054116520092597e-01 9.142124494891325e-01 -1.188277586781535e-01 6.893779228545892e-02 7.473980546791960e-02
1.114000000000000e+11 -1.070731893158178e-01 9.528061554781603e-02 9.195969446371473e-01 -1.064165157723757e-01 9.144995416229270e-01 -1.191963327255494e-01 7.003512900435581e-02 7.565791660067191e-02
1.114480000000000e+11 -1.066361655403754e-01 9.537836483558020e-02 9.194507074012717e-01 -1.067074967181902e-01 9.149548629767807e-01 -1.195727274605840e-01 7.037250265975727e-02 7.591876872957319e-02
1.114960000000000e+11 -1.065357842224807e-01 9.485755803064987e-02 9.185646702776915e-01 -1.068491193473202e-01 9.151694158895988e-01 -1.194950382289644e-01 7.079642997215872e-02 7.547757138703445e-02
1.115440000000000e+11 -1.062614825611451e-01 9.563994814379426e-02 9.182342067878099e-01 -1.060524486254339e-01 9.155647389452576e-01 -1.191702533178281e-01 7.065999637398401e-02 7.577198615668225e-02
1.115920000000000e+11 -1.068634776376417e-01 9.584560372710051e-02 9.177480936695468e-01 -1.062712798946261e-01 9.151945284734733e-01 -1.196837302186056e-01 7.001040073021278e-02 7.485788461345338e-02
1.116400000000000e+11 -1.068127944061963e-01 9.726838962636947e-02 9.185763947122102e-01 -1.059885384101622e-01 9.151748144866322e-01 -1.198697897780006e-01 6.987771990492382e-02 7.440547579748451e-02
1.116880000000000e+11 -1.058159753447032e-01 9.674626557781710e-02 9.190187974690740e-01 -1.074229948043813e-01 9.159141800884844e-01 -1.202702592463252e-01 6.975594474714701e-02 7.391424594367482e-02
1.117360000000000e+11 -1.057238136526365e-01 9.767994124710400e-02 9.197912295686479e-01 -1.052348474909771e-01 9.170251936687690e-01 -1.198160669878224e-01 6.890263299965350e-02 7.445601873292559e-02
1.117840000000000e+11 -1.057865145560957e-01 9.676044157459905e-02 9.207131091880916e-01 -1.063604010876749e-01 9.163079268077549e-01 -1.208168572990591e-01 6.935007437567969e-02 7.426315531656741e-02
1.118320000000000e+11 -1.057139430584658e-01 9.737251201195361e-02 9.208800526250732e-01 -1.070738947514738e-01 9.164518039760781e-01 -1.201753857896882e-01 7.001432625724874e-02 7.529271477321955e-02
1.118800000000000e+11 -1.051559077521022e-01 9.641026266556652e-02 9.202239583233685e-01 -1.083215182018915e-01 9.158640095169917e-01 -1.208914042322156e-01 6.950483629010190e-02 7.464222196551268e-02
1.119280000000000e+11 -1.039937134368454e-01 9.554450136539280e-02 9.202799252381688e-01 -1.079538523364243e-01 9.157667374367452e-01 -1.199110513858471e-01 6.897802479702042e-02 7.459588368141770e-02
1.119760000000000e+11 -1.041978506957424e-01 9.479452181252526e-02 9.201402665279176e-01 -1.074945723905922e-01 9.154368943160104e-01 -1.198342261909082e-01 7.148465842115966e-02 7.442470435852301e-02
1.120240000000000e+11 -1.030850779570306e-01 9.477793578198154e-02 9.190558637672853e-01 -1.080118812071393e-01 9.138780917164815e-01 -1.223179759406465e-01 7.145061399554362e-02 7.514554433339730e-02
1.120720000000000e+11 -1.041731919494411e-01 9.476763572369334e-02 9.201110265895114e-01 -1.054094801530290e-01 9.164296242187007e-01 -1.181795608473292e-01 7.305074949904007e-02 7.573552232860488e-02
1.121200000000000e+11 -1.027843581596125e-01 9.417634482147454e-02 9.204348142057078e-01 -1.064095817565070e-01 9.159718301014955e-01 -1.205459591653410e-01 7.392042570764878e-02 7.562654340298651e-02
1.121680000000000e+11 -1.037289595961623e-01 9.502246644777430e-02 9.210218962654094e-01 -1.056615124961684e-01 9.166614301072691e-01 -1.195545348367295e-01 7.539884079186900e-02 7.605539984632906e-02
1.122160000000000e+11 -1.035141899677036e-01 9.512862963797242e-02 9.196639973502305e-01 -1.071936177286860e-01 9.158549589281350e-01 -1.208486106585821e-01 7.471922974189367e-02 7.609465872922810e-02
1.122640000000000e+11 -1.035892367968353e-01 9.484071388621435e-02 9.210587835594172e-01 -1.060906110061138e-01 9.170465910494132e-01 -1.193815424457960e-01 7.548896042464154e-02 7.554008057971937e-02
1.123120000000000e+11 -1.021840217129268e-01 9.456234842856628e-02 9.200750302331114e-01 -1.068941570935289e-01 9.195348648738771e-01 -1.200369396364308e-01 7.575977297201233e-02 7.630262794299765e-02
1.123600000000000e+11 -1.050370309433239e-01 9.701758528643770e-02 9.182496809111679e-01 -1.048619298306990e-01 9.161788705517395e-01 -1.226673259821423e-01 7.556840320313100e-02 7.623248836825125e-02
1.124080000000000e+11 -1.047992931446027e-01 9.698039581405435e-02 9.203745082709920e-01 -1.037890180586337e-01 9.154044466098263e-01 -1.216368163811705e-01 7.554595166613988e-02 7.671593296053023e-02
1.124560000000000e+11 -1.051316246686627e-01 9.697879846331194e-02 9.203089307030446e-01 -1.065274166156262e-01 9.166319213421790e-01 -1.219578182757885e-01 7.583437591499229e-02 7.459643887077626e-02
1.125040000000000e+11 -1.035047921532517e-01 9.587743868340154e-02 9.226818690021910e-01 -1.045444746344289e-01 9.168975633446111e-01 -1.213060641353722e-01 7.516876604555055e-02 7.577878950841761e-02
1.125520000000000e+11 -1.040835790866764e-01 9.678159579630384e-02 9.213008313054768e-01 -1.082684117122046e-01 9.163859327827801e-01 -1.205996832240579e-01 7.524073727975850e-02 7.644928599161796e-02
1.126000000000000e+11 -1.027158670374328e-01 9.737651095599296e-02 9.225978948772998e-01 -1.075380352881127e-01 9.153793757058992e-01 -1.215565699381348e-01 7.568867320862177e-02 7.650085339687804e-02
1.126480000000000e+11 -1.021153367174519e-01 9.622041335148455e-02 9.214110310941267e-01 -1.088123794465432e-01 9.163380408934212e-01 -1.195536210829219e-01 7.586846208414329e-02 7.681912585576878e-02
1.126960000000000e+11 -1.008618343249380e-01 9.588661499040885e-02 9.200197248899312e-01 -1.084269329471176e-01 9.168803917190003e-01 -1.211634209994215e-01 7.519284489147016e-02 7.630674411036803e-02
1.127440000000000e+11 -1.011447320943267e-01 9.600576722137999e-02 9.186154216712539e-01 -1.081557896055404e-01 9.168825466373040e-01 -1.208479510837692e-01 7.558070329162953e-02 7.758921579734203e-02
1.127920000000000e+11 -1.002504212207210e-01 9.553448357764911e-02 9.196825259297483e-01 -1.067676779682519e-01 9.150379938067031e-01 -1.236015769762336e-01 7.611597746865009e-02 7.789536702441846e-02
1.128400000000000e+11 -1.009297093873386e-01 9.512585702348086e-02 9.201504979755880e-01 -1.061426458604317e-01 9.168475559980335e-01 -1.219326457711825e-01 7.713999123489744e-02 7.745514949630897e-02
1.128880000000000e+11 -1.007441629448007e-01 9.477266476243611e-02 9.213453978540777e-01 -1.079620220656721e-01 9.160829406225754e-01 -1.220534146058481e-01 7.770410686317597e-02 7.676257872717052e-02
1.129360000000000e+11 -1.015756546741713e-01 9.482546048083274e-02 9.199674161683054e-01 -1.073549637199117e-01 9.171387906119889e-01 -1.205320136006187e-01 7.857458519657659e-02 7.781106828542772e-02
1.129840000000000e+11 -1.013032330635475e-01 9.550089315458504e-02 9.191702886103850e-01 -1.086078974400305e-01 9.170287176423212e-01 -1.211839281461166e-01 7.843826733631562e-02 7.703946577970149e-02
1.130320000000000e+11 -1.016985327698715e-01 9.550226116594217e-02 9.196818114162925e-01 -1.076971609312345e-01 9.182755120059662e-01 -1.209344729061523e-01 7.876981481605579e-02 7.674103823538016e-02
1.130800000000000e+11 -1.012775582298164e-01 9.763636753344210e-02 9.179965331770147e-01 -1.084110512962990e-01 9.171591067207171e-01 -1.227480220211594e-01 7.792629091212322e-02 7.736617068670633e-02
1.131280000000000e+11 -1.025647134963395e-01 9.771722277139019e-02 9.197216853722109e-01 -1.057280904778653e-01 9.164696655814786e-01 -1.230232624887034e-01 7.835641388375203e-02 7.668339096173804e-02
1.131760000000000e+11 -1.023490898723976e-01 9.930817242622901e-02 9.195419176631802e-01 -1.070046864681435e-01 9.158131484020148e-01 -1.225805421578029e-01 7.751692883351570e-02 7.619862502352863e-02
1.132240000000000e+11 -1.024394642851015e-01 9.955767379155352e-02 9.207249563628105e-01 -1.065470353631110e-01 9.166542320336921e-01 -1.220286558898846e-01 7.687671069485376e-02 7.644041421817220e-02
1.132720000000000e+11 -1.014609075626506e-01 9.960687910314628e-02 9.206670330050495e-01 -1.080623692042071e-01 9.157290939341504e-01 -1.236256225248352e-01 7.657639448061618e-02 7.552579009651589e-02
1.133200000000000e+11 -1.024734269034747e-01 9.873986556246801e-02 9.216441668766121e-01 -1.080881303238581e-01 9.166360589191382e-01 -1.219518804982055e-01 7.734160187369253e-02 7.454656646952733e-02
1.133680000000000e+11 -1.010945940614957e-01 9.879786721244921e-02 9.201045591892122e-01 -1.085713299189438e-01 9.148414916493872e-01 -1.241202586547328e-01 7.591534165722223e-02 7.662464346122033e-02
1.134160000000000e+11 -1.016783449501023e-01 9.756447543445686e-02 9.199335674374104e-01 -1.083326833219557e-01 9.154237080430119e-01 -1.218892608088615e-01 7.705743648223706e-02 7.663770011774508e-02
1.134640000000000e+11 -1.006833497920546e-01 9.739437600225723e-02 9.200264600577367e-01 -1.077656089331951e-01 9.148626755708335e-01 -1.224998599444199e-01 7.709565562280837e-02 7.714011654587119e-02
1.135120000000000e+11 -1.011673983543443e-01 9.595589565627420e-02 9.192022850444223e-01 -1.086301398289472e-01 9.154136004093243e-01 -1.217008632767618e-01 7.784034570261908e-02 7.685130955031821e-02
1.135600000000000e+11 -9.920335838964063e-02 9.489783054815244e-02 9.200959595688524e-01 -1.085611288056078e-01 9.156789619676216e-01 -1.233010616442152e-01 7.758373405860143e-02 7.590694522525365e-02
1.136080000000000e+11 -9.999288499511176e-02 9.424113617972343e-02 9.209446823292009e-01 -1.072369245913360e-01 9.173447230695034e-01 -1.215605642919129e-01 7.870900172491443e-02 7.600772603865306e-02
1.136560000000000e+11 -9.851631354083933e-02 9.361700076748629e-02 9.210457581495108e-01 -1.082961435635300e-01 9.171831304362444e-01 -1.239288146817054e-01 7.928547311160226e-02 7.483094697480230e-02
1.137040000000000e+11 -9.935550777111712e-02 9.353329744569386e-02 9.207883457564684e-01 -1.070683254286540e-01 9.177025375561145e-01 -1.242679661785123e-01 7.972779513270996e-02 7.555404773916773e-02
1.137520000000000e+11 -9.916567249335634e-02 9.397324391727638e-02 9.205946542686859e-01 -1.079919711149329e-01 9.179562949842005e-01 -1.238024094865907e-01 7.965910939144187e-02 7.443360779559793e-02
1.138000000000000e+11 -9.933961823935684e-02 9.303787417135638e-02 9.212624500091278e-01 -1.075753598331274e-01 9.175356718161216e-01 -1.240834900224542e-01 8.079018074995958e-02 7.421377401442947e-02
1.138480000000000e+11 -1.003334643182647e-01 9.390831881216190e-02 9.214930507732172e-01 -1.072978061815773e-01 9.173811800352717e-01 -1.236527063517213e-01 8.057567729685886e-02 7.376628305779512e-02
1.138960000000000e+11 -9.945490432658995e-02 9.395007092596988e-02 9.218951976347067e-01 -1.080294904957111e-01 9.176092520510687e-01 -1.232294343321539e-01 8.003050991341655e-02 7.296897398157970e-02
1.139440000000000e+11 -1.004989316923588e-01 9.467970239813138e-02 9.216136324802047e-01 -1.086257895131902e-01 9.175680186860679e-01 -1.227822492467579e-01 8.020712645329957e-02 7.384307952445020e-02
1.139920000000000e+11 -1.005903519300015e-01 9.539839022889028e-02 9.219540951448789e-01 -1.090917645515082e-01 9.173839212554662e-01 -1.236949986617053e-01 8.060354849475460e-02 7.454289107881942e-02
1.140400000000000e+11 -1.001745549269988e-01 9.600075894243315e-02 9.224322019900637e-01 -1.094598578180717e-01 9.166228441996669e-01 -1.248223702063973e-01 7.963557714179814e-02 7.518547889840321e-02
1.140880000000000e+11 -1.010794081663686e-01 9.514504922233474e-02 9.220575296539260e-01 -1.099035664959768e-01 9.172948143088666e-01 -1.238534525067229e-01 7.995469797383857e-02 7.541356925854339e-02
1.141360000000000e+11 -1.001192077199610e-01 9.558485691647803e-02 9.216667364144132e-01 -1.107147687603168e-01 9.165127503051441e-01 -1.255262537274494e-01 7.943123453488764e-02 7.528308286966220e-02
1.141840000000000e+11 -1.005385305017467e-01 9.373866506139387e-02 9.216955893241641e-01 -1.100730240638795e-01 9.167721331544550e-01 -1.250275643763742e-01 8.009229383544385e-02 7.515893238978370e-02
1.142320000000000e+11 -9.925808330827147e-02 9.338546999407100e-02 9.207138136865509e-01 -1.105875503005922e-01 9.166564186033715e-01 -1.259685420541716e-01 7.995722863398097e-02 7.501121711790719e-02
1.142800000000000e+11 -9.849139818227497e-02 9.226787246558908e-02 9.204663051589410e-01 -1.125966949577008e-01 9.173138957834214e-01 -1.248356782772999e-01 8.043007037474663e-02 7.444007769598725e-02
1.143280000000000e+11 -9.863577317383132e-02 9.197543347267154e-02 9.206449166571594e-01 -1.115636430565658e-01 9.176964387179467e-01 -1.236741408494056e-01 8.113903598136528e-02 7.461044188479568e-02
1.143760000000000e+11 -9.781875980238389e-02 9.063561133151594e-02 9.200267809165504e-01 -1.131109963142993e-01 9.171971633539416e-01 -1.262624545703599e-01 8.179782505366086e-02 7.324543638868279e-02
1.144240000000000e+11 -9.860403346780626e-02 9.094120205324870e-02 9.206145545251624e-01 -1.105806590713816e-01 9.177953989322288e-01 -1.240550484223900e-01 8.246437685077698e-02 7.425573034539415e-02
1.144720000000000e+11 -9.900049072451997e-02 9.088568028711182e-02 9.204821651766932e-01 -1.104786679699614e-01 9.171560921105506e-01 -1.252178258522558e-01 8.267807566477144e-02 7.340896760286096e-02
1.145200000000000e+11 -9.915542346544594e-02 9.158002436612594e-02 9.210710388209077e-01 -1.097316906271504e-01 9.170720160261965e-01 -1.253714133803906e-01 8.247356864345352e-02 7.300663904682315e-02
1.145680000000000e+11 -9.996447068641519e-02 9.196408147274314e-02 9.204197401283751e-01 -1.106503841851258e-01 9.167642023292852e-01 -1.248759445031606e-01 8.267645728788992e-02 7.369821839808893e-02
1.146160000000000e+11 -9.999874628403156e-02 9.289790579386667e-02 9.208841171959822e-01 -1.109018391717577e-01 9.163082675318139e-01 -1.248148647170423e-01 8.281280940900455e-02 7.364307269674693e-02
1.146640000000000e+11 -1.002765004661424e-01 9.315462993801663e-02 9.215665572307716e-01 -1.102715561332601e-01 9.163708109835516e-01 -1.235598306445442e-01 8.277567526391878e-02 7.396779643011638e-02
1.147120000000000e+11 -1.004885145674441e-01 9.311800695090462e-02 9.210316538298861e-01 -1.122173646560699e-01 9.163024551555349e-01 -1.244059615129722e-01 8.238524847711294e-02 7.364892085057419e-02
1.147600000000000e+11 -1.010358785816451e-01 9.369183870532907e-02 9.201878963382424e-01 -1.127375805838613e-01 9.156862782628914e-01 -1.242026330773055e-01 8.142231884005696e-02 7.453837175071641e-02
1.148080000000000e+11 -1.011305206382632e-01 9.369829377458694e-02 9.194846626896935e-01 -1.130457065810068e-01 9.153057769677322e-01 -1.248009961054981e-01 8.107980159522291e-02 7.492513362156579e-02
1.148560000000000e+11 -1.004969442723050e-01 9.300211100789840e-02 9.187557683361099e-01 -1.128266252405485e-01 9.147588727507565e-01 -1.255025303089580e-01 8.094703728077030e-02 7.558558956453319e-02
1.149040000000000e+11 -1.001504125266598e-01 9.268374792356067e-02 9.178333678072513e-01 -1.136354925522464e-01 9.149211370823745e-01 -1.245691330876024e-01 8.088074570831348e-02 7.574429892442766e-02
1.149520000000000e+11 -1.006120811027481e-01 9.355436132016672e-02 9.166899115146738e-01 -1.114531590060221e-01 9.136317092283388e-01 -1.238735955942204e-01 8.029678992002615e-02 7.869048820205277e-02
1.150000000000000e+11 -1.002615222998774e-01 9.254735428210194e-02 9.170489680218956e-01 -1.143532825966818e-01 9.143609066170606e-01 -1.245725485463107e-01 8.133582067416288e-02 7.647068803957753e-02
