! Generated by Phase I extraction
# Hz S RI R 50
6.700000000000000e+10 1.000611074706437e+00 2.668295664494492e-01
6.704800000000000e+10 9.882996886396035e-01 2.746479052777624e-01
6.709600000000000e+10 9.916897295912787e-01 3.011690226446591e-01
6.714400000000000e+10 9.939792075439700e-01 2.998432824692272e-01
6.719200000000000e+10 9.934841917739466e-01 3.046504802527387e-01
6.724000000000000e+10 9.933600256853751e-01 3.059951833568204e-01
6.728800000000000e+10 9.937660191690448e-01 3.048090130785790e-01
6.733600000000000e+10 9.943024649655108e-01 3.057654547615457e-01
6.738400000000000e+10 9.937028606094866e-01 3.072367995744077e-01
6.743200000000000e+10 9.948404870841751e-01 3.053250072267739e-01
6.748000000000000e+10 9.939594590250888e-01 3.044118722899821e-01
6.752800000000000e+10 9.933859469338465e-01 3.063141186178017e-01
6.757600000000000e+10 9.939062694263511e-01 3.087701273603952e-01
6.762400000000000e+10 9.936832713206372e-01 3.113352945935286e-01
6.767200000000000e+10 9.937792846696797e-01 3.124062254825295e-01
6.772000000000000e+10 9.932958628053238e-01 3.135492663715566e-01
6.776800000000000e+10 9.943819049044692e-01 3.121553261160441e-01
6.781600000000000e+10 9.935857793125826e-01 3.118303135410457e-01
6.786400000000000e+10 9.934115490810445e-01 3.144074644948291e-01
6.791200000000000e+10 9.934890489780583e-01 3.149247995104749e-01
6.796000000000000e+10 9.930891172824415e-01 3.157127813270463e-01
6.800800000000000e+10 9.934398053285309e-01 3.153516536284429e-01
6.805600000000000e+10 9.927981600863274e-01 3.159835552855819e-01
6.810400000000000e+10 9.916546822977755e-01 3.174313752252550e-01
6.815200000000000e+10 9.909329925400933e-01 3.200497997987387e-01
6.820000000000000e+10 9.901636374319368e-01 3.254204846463418e-01
6.824800000000000e+10 9.902321802262685e-01 3.261667587830388e-01
6.829600000000000e+10 9.911925049069299e-01 3.250208336792702e-01
6.834400000000000e+10 9.912105167681026e-01 3.249247763094668e-01
6.839200000000000e+10 9.913623388040659e-01 3.254853705261703e-01
6.844000000000000e+10 9.904736043995741e-01 3.288362791618853e-01
6.848800000000000e+10 9.895090382630637e-01 3.293953968418807e-01
6.853600000000000e+10 9.895659770964735e-01 3.275392378511172e-01
6.858400000000000e+10 9.906560215005312e-01 3.257759924037606e-01
6.863200000000000e+10 9.907391613980996e-01 3.257080361473197e-01
6.868000000000000e+10 9.903836338129064e-01 3.263224609113121e-01
6.872800000000000e+10 9.899561192151354e-01 3.274324209057090e-01
6.877600000000000e+10 9.901935941065952e-01 3.251676622043833e-01
6.882400000000000e+10 9.919636148270077e-01 3.216767479895769e-01
6.887200000000000e+10 9.914112383241176e-01 3.196334856955669e-01
6.892000000000000e+10 9.926038549824814e-01 3.186472272815533e-01
6.896800000000000e+10 9.911053052842095e-01 3.190557072917122e-01
6.901600000000000e+10 9.926960051214124e-01 3.191449807497584e-01
6.906400000000000e+10 9.906287020205454e-01 3.180525476806630e-01
6.911200000000000e+10 9.910414895303142e-01 3.178992967526603e-01
6.916000000000000e+10 9.892426059064899e-01 3.191472410445659e-01
6.920800000000000e+10 9.880980595199954e-01 3.230003022418979e-01
6.925600000000000e+10 9.836254298524205e-01 3.402266964459866e-01
6.930400000000000e+10 9.826959601575628e-01 3.394469445816610e-01
6.935200000000000e+10 9.847100698609204e-01 3.367970175254578e-01
6.940000000000000e+10 9.838653797660788e-01 3.359537357293476e-01
6.944800000000000e+10 9.847322911238526e-01 3.341068829635261e-01
6.949600000000000e+10 9.829452230680565e-01 3.353924250341861e-01
6.954400000000000e+10 9.834907801897039e-01 3.349105400431187e-01
6.959200000000000e+10 9.829267114062354e-01 3.341861008769051e-01
6.964000000000000e+10 9.830418539132914e-01 3.337378780331038e-01
6.968800000000000e+10 9.827500179973002e-01 3.340633887195854e-01
6.973600000000000e+10 9.821544612278997e-01 3.355865609789734e-01
6.978400000000000e+10 9.816740687641555e-01 3.370808130529073e-01
6.983200000000000e+10 9.813844725387879e-01 3.365817158177665e-01
6.988000000000000e+10 9.820777764542929e-01 3.357033355438947e-01
6.992800000000000e+10 9.818153610496950e-01 3.354910981214233e-01
6.997600000000000e+10 9.819460875254830e-01 3.364980430569879e-01
7.002400000000000e+10 9.840169391527017e-01 3.353285197449930e-01
7.007200000000000e+10 9.835079847410592e-01 3.355455734109527e-01
7.012000000000000e+10 9.834534739924996e-01 3.346177712209965e-01
7.016800000000000e+10 9.825540567918163e-01 3.355360964180314e-01
7.021600000000000e+10 9.823276053728164e-01 3.364178337249455e-01
7.026400000000000e+10 9.813835021002936e-01 3.400159206098559e-01
7.031200000000000e+10 9.824420996719438e-01 3.389514827298274e-01
7.036000000000000e+10 9.830334763293301e-01 3.373536964812684e-01
7.040800000000000e+10 9.832717252944305e-01 3.348376464424184e-01
7.045600000000000e+10 9.830311119288500e-01 3.345727907109456e-01
7.050400000000000e+10 9.831425042230980e-01 3.337973521094928e-01
7.055200000000000e+10 9.825575932534383e-01 3.349639514265849e-01
7.060000000000000e+10 9.823363815810763e-01 3.339763862456679e-01
7.064800000000000e+10 9.817327689859049e-01 3.331913906785323e-01
7.069600000000000e+10 9.821691289759920e-01 3.328328951441716e-01
7.074400000000000e+10 9.816698817659678e-01 3.335550930117073e-01
7.079200000000000e+10 9.814934434439035e-01 3.364417554248633e-01
7.084000000000000e+10 9.810684950459740e-01 3.369616118997082e-01
7.088800000000000e+10 9.812774727129639e-01 3.382545739845036e-01
7.093600000000000e+10 9.803013383554998e-01 3.363615373887929e-01
7.098400000000000e+10 9.811877741884865e-01 3.380554758905759e-01
7.103200000000000e+10 9.804314848076688e-01 3.392502422014862e-01
7.108000000000000e+10 9.791748604262730e-01 3.422108404541567e-01
7.112800000000000e+10 9.794496993678324e-01 3.403725407041152e-01
7.117600000000000e+10 9.801640904472666e-01 3.402247465527140e-01
7.122400000000000e+10 9.802308706568833e-01 3.391464100521133e-01
7.127200000000000e+10 9.801513107050327e-01 3.397629787458838e-01
7.132000000000000e+10 9.808630088592754e-01 3.416906245521690e-01
7.136800000000000e+10 9.794694586936848e-01 3.408803895131444e-01
7.141600000000000e+10 9.800169291605764e-01 3.409448686352026e-01
7.146400000000000e+10 9.798569129888637e-01 3.391186785335868e-01
7.151200000000000e+10 9.802516457535323e-01 3.389013468907100e-01
7.156000000000000e+10 9.795469574246302e-01 3.409223770094268e-01
7.160800000000000e+10 9.782871426764160e-01 3.432021146775132e-01
7.165600000000000e+10 9.778141712410402e-01 3.417407891914440e-01
7.170400000000000e+10 9.785943524816912e-01 3.422517136975314e-01
7.175200000000000e+10 9.784983915883699e-01 3.400778599020647e-01
7.180000000000000e+10 9.781156471648006e-01 3.434178021896604e-01
7.184800000000000e+10 9.781130673437415e-01 3.437652809286511e-01
7.189600000000000e+10 9.788633763728043e-01 3.434674063196015e-01
7.194400000000000e+10 9.788543833371587e-01 3.427529831887951e-01
7.199200000000000e+10 9.801488772597999e-01 3.394722500246664e-01
7.204000000000000e+10 9.791667675756014e-01 3.408049681810600e-01
7.208800000000000e+10 9.799235498896097e-01 3.387638818235450e-01
7.213600000000000e+10 9.793406350434781e-01 3.391512754119111e-01
7.218400000000000e+10 9.795306000226413e-01 3.375707317655410e-01
7.223200000000000e+10 9.800928467834911e-01 3.390521896436430e-01
7.228000000000000e+10 9.799425010401526e-01 3.403472120246544e-01
7.232800000000000e+10 9.794960952596848e-01 3.440800716578878e-01
7.237600000000000e+10 9.796989754670636e-01 3.440738829639477e-01
7.242400000000000e+10 9.795937356814656e-01 3.438500215006508e-01
7.247200000000000e+10 9.798365247192319e-01 3.478954445334475e-01
7.252000000000000e+10 9.791543553363006e-01 3.465001980432922e-01
7.256800000000000e+10 9.783932162066979e-01 3.480813791308571e-01
7.261600000000000e+10 9.786759238484840e-01 3.458938578999293e-01
7.266400000000000e+10 9.784989727800160e-01 3.461127184179441e-01
7.271200000000000e+10 9.788705573431747e-01 3.448383435398346e-01
7.276000000000000e+10 9.786276996755836e-01 3.461275013714346e-01
7.280800000000000e+10 9.788098908418373e-01 3.446844015366986e-01
7.285600000000000e+10 9.797682327542202e-01 3.443642462825186e-01
7.290400000000000e+10 9.801968430384751e-01 3.412036370516532e-01
7.295200000000000e+10 9.812436137809954e-01 3.404568327451405e-01
7.300000000000000e+10 9.807057941955893e-01 3.402350077678707e-01
7.304800000000000e+10 9.807111902940281e-01 3.395660331845018e-01
7.309600000000000e+10 9.802642637465973e-01 3.410488993172827e-01
7.314400000000000e+10 9.812463604644802e-01 3.390377377906043e-01
7.319200000000000e+10 9.813100043902824e-01 3.395315002935854e-01
7.324000000000000e+10 9.815944987431222e-01 3.397789892998661e-01
7.328800000000000e+10 9.814768478389200e-01 3.410790144682492e-01
7.333600000000000e+10 9.805423832853977e-01 3.422610144428681e-01
7.338400000000000e+10 9.867440168003666e-01 3.257022376922708e-01
7.343200000000000e+10 9.817282037220421e-01 3.397967662258509e-01
7.348000000000000e+10 9.816108475880987e-01 3.396241049490345e-01
7.352800000000000e+10 9.820072858610583e-01 3.395845457367913e-01
7.357600000000000e+10 9.816196788462486e-01 3.392690314077345e-01
7.362400000000000e+10 9.821290590145493e-01 3.403168821532374e-01
7.367200000000000e+10 9.834389993271224e-01 3.383488307504361e-01
7.372000000000000e+10 9.844019987363247e-01 3.361676830643293e-01
7.376800000000000e+10 9.860473548226877e-01 3.320192583307372e-01
7.381600000000000e+10 9.895883211092500e-01 3.210634896283575e-01
7.386400000000000e+10 9.892973482230399e-01 3.244867570696212e-01
7.391200000000000e+10 9.822267552858287e-01 3.414545738640321e-01
7.396000000000000e+10 9.818240676554537e-01 3.415896470231835e-01
7.400800000000000e+10 9.811624695656228e-01 3.422353201637379e-01
7.405600000000000e+10 9.809381610721781e-01 3.442803978964366e-01
7.410400000000000e+10 9.802245228340897e-01 3.456131237807934e-01
7.415200000000000e+10 9.800142021224046e-01 3.469083192333437e-01
7.420000000000000e+10 9.801284564728970e-01 3.451767296241773e-01
7.424800000000000e+10 9.807008488229769e-01 3.443008961818269e-01
7.429600000000000e+10 9.802766461868032e-01 3.430626724264669e-01
7.434400000000000e+10 9.798026672938264e-01 3.448166248446690e-01
7.439200000000000e+10 9.793393048027553e-01 3.450687094589322e-01
7.444000000000000e+10 9.792280530391279e-01 3.448224049082681e-01
7.448800000000000e+10 9.797312897224785e-01 3.418080865835706e-01
7.453600000000000e+10 9.799089816840612e-01 3.419609086134306e-01
7.458400000000000e+10 9.796419155389593e-01 3.411584159103926e-01
7.463200000000000e+10 9.798630778422037e-01 3.413721487245396e-01
7.468000000000000e+10 9.791025025214043e-01 3.418757177400708e-01
7.472800000000000e+10 9.795965720948331e-01 3.406944284147200e-01
7.477600000000000e+10 9.792736259320367e-01 3.398230433562224e-01
7.482400000000000e+10 9.795481270957623e-01 3.386080101410565e-01
7.487200000000000e+10 9.790658470629179e-01 3.410404496946466e-01
7.492000000000000e+10 9.785334294392150e-01 3.413981304067307e-01
7.496800000000000e+10 9.780854934050770e-01 3.424642235943317e-01
7.501600000000000e+10 9.782976048708374e-01 3.411409280391483e-01
7.506400000000000e+10 9.784011264466890e-01 3.422612968596827e-01
7.511200000000000e+10 9.785484837191112e-01 3.423422411404016e-01
7.516000000000000e+10 9.788174979909643e-01 3.442777619879110e-01
7.520800000000000e+10 9.787204758046686e-01 3.415781390803033e-01
7.525600000000000e+10 9.789626639063742e-01 3.427791055234447e-01
7.530400000000000e+10 9.788210251892818e-01 3.410007288494993e-01
7.535200000000000e+10 9.782154589253471e-01 3.422574145998084e-01
7.540000000000000e+10 9.770134375796584e-01 3.446144046716998e-01
7.544800000000000e+10 9.768712691476417e-01 3.455557770121121e-01
7.549600000000000e+10 9.770031624903309e-01 3.450507870354247e-01
7.554400000000000e+10 9.770763615673485e-01 3.451345249884305e-01
7.559200000000000e+10 9.774922836881731e-01 3.453483957979613e-01
7.564000000000000e+10 9.770542133713174e-01 3.462978553128694e-01
7.568800000000000e+10 9.766936056857298e-01 3.486390179152726e-01
7.573600000000000e+10 9.767823964815906e-01 3.497923859287513e-01
7.578400000000000e+10 9.766410302245471e-01 3.482973499038340e-01
7.583200000000000e+10 9.764539310198449e-01 3.491170865409475e-01
7.588000000000000e+10 9.756445227553151e-01 3.494423008840542e-01
7.592800000000000e+10 9.750366589116694e-01 3.514557207314750e-01
7.597600000000000e+10 9.747398631041349e-01 3.512365947353199e-01
7.602400000000000e+10 9.753957542726525e-01 3.507293730800367e-01
7.607200000000000e+10 9.754653828342289e-01 3.503356905418192e-01
7.612000000000000e+10 9.758737655883247e-01 3.501936044669705e-01
7.616800000000000e+10 9.757736100903571e-01 3.512188892010326e-01
7.621600000000000e+10 9.755513952267870e-01 3.502948430194314e-01
7.626400000000000e+10 9.759780802675674e-01 3.501368463155875e-01
7.631200000000000e+10 9.758307401719307e-01 3.489943936320419e-01
7.636000000000000e+10 9.762617562376966e-01 3.487542598370530e-01
7.640800000000000e+10 9.760648829454777e-01 3.484561334093665e-01
7.645600000000000e+10 9.752652469461296e-01 3.505108157707926e-01
7.650400000000000e+10 9.746473796304361e-01 3.504235885766343e-01
7.655200000000000e+10 9.749625753209511e-01 3.513214528564100e-01
7.660000000000000e+10 9.745230291184684e-01 3.508875009779323e-01
7.664800000000000e+10 9.746593816866073e-01 3.519427990098324e-01
7.669600000000000e+10 9.740703314826558e-01 3.534446609040912e-01
7.674400000000000e+10 9.745535447981710e-01 3.538713931738247e-01
7.679200000000000e+10 9.737818022147537e-01 3.541381632959839e-01
7.684000000000000e+10 9.744671036769373e-01 3.528360625571227e-01
7.688800000000000e+10 9.744780561218248e-01 3.544332854435921e-01
7.693600000000000e+10 9.734754068065726e-01 3.529703551368220e-01
7.698400000000000e+10 9.739245200186816e-01 3.535935057719291e-01
7.703200000000000e+10 9.732068913572934e-01 3.533195621070721e-01
7.708000000000000e+10 9.731938083689575e-01 3.547144109713448e-01
7.712800000000000e+10 9.726559741487013e-01 3.563368399785869e-01
7.717600000000000e+10 9.722936112510452e-01 3.585353576908863e-01
7.722400000000000e+10 9.717095449634744e-01 3.604866325601326e-01
7.727200000000000e+10 9.723338255577803e-01 3.598565859751784e-01
7.732000000000000e+10 9.713220861754197e-01 3.625710569538282e-01
7.736800000000000e+10 9.724187717368942e-01 3.609443164732425e-01
7.741600000000000e+10 9.715709642621458e-01 3.629374016678981e-01
7.746400000000000e+10 9.718475213504884e-01 3.625715680011717e-01
7.751200000000000e+10 9.725374372243686e-01 3.601904883917489e-01
7.756000000000000e+10 9.725077095241036e-01 3.597274730200599e-01
7.760800000000000e+10 9.732373980334458e-01 3.566534583641341e-01
7.765600000000000e+10 9.727392097588176e-01 3.606828698830444e-01
7.770400000000000e+10 9.734175348793436e-01 3.590157817372827e-01
7.775200000000000e+10 9.731131233351229e-01 3.582264579363669e-01
7.780000000000000e+10 9.741319536513713e-01 3.562744521208753e-01
7.784800000000000e+10 9.743350994620894e-01 3.552882878499183e-01
7.789600000000000e+10 9.743162895889234e-01 3.559529082387854e-01
7.794400000000000e+10 9.740446882988318e-01 3.566691266604140e-01
7.799200000000000e+10 9.738958596557570e-01 3.562377771326934e-01
7.804000000000000e+10 9.741095318709647e-01 3.567540267168781e-01
7.808800000000000e+10 9.744858585284906e-01 3.554343133823022e-01
7.813600000000000e+10 9.739709280447564e-01 3.560635547873804e-01
7.818400000000000e+10 9.738583803566357e-01 3.571319899853886e-01
7.823200000000000e+10 9.740970219554211e-01 3.579040986273216e-01
7.828000000000000e+10 9.744330957589099e-01 3.567406824720637e-01
7.832800000000000e+10 9.750126461243024e-01 3.549278327659239e-01
7.837600000000000e+10 9.750530325270421e-01 3.551301500047317e-01
7.842400000000000e+10 9.750604134005161e-01 3.551359861772128e-01
7.847200000000000e+10 9.746824432271054e-01 3.560968837359708e-01
7.852000000000000e+10 9.743793321968007e-01 3.549052685851186e-01
7.856800000000000e+10 9.749281138595010e-01 3.549464030698999e-01
7.861600000000000e+10 9.747210876066909e-01 3.535552280968016e-01
7.866400000000000e+10 9.746018311027975e-01 3.551908860253210e-01
7.871200000000000e+10 9.740761879753602e-01 3.558150198827192e-01
7.876000000000000e+10 9.740369879682632e-01 3.570590022710539e-01
7.880800000000000e+10 9.739591182278148e-01 3.575965364261749e-01
7.885600000000000e+10 9.741237369479566e-01 3.568628402566664e-01
7.890400000000000e+10 9.735222838554441e-01 3.580614017553431e-01
7.895200000000000e+10 9.732017554214646e-01 3.599595882445869e-01
7.900000000000000e+10 9.721633745414370e-01 3.604784602518620e-01
7.904800000000000e+10 9.717435917973419e-01 3.611427097212925e-01
7.909600000000000e+10 9.716123912441722e-01 3.613739437539557e-01
7.914400000000000e+10 9.710284813062710e-01 3.615208491562297e-01
7.919200000000000e+10 9.713218393183829e-01 3.636916813144057e-01
7.924000000000000e+10 9.711295255622714e-01 3.641420134814274e-01
7.928800000000000e+10 9.720668258352210e-01 3.629610238296468e-01
7.933600000000000e+10 9.726773898437963e-01 3.610714757306703e-01
7.938400000000000e+10 9.730913290928954e-01 3.594202978370561e-01
7.943200000000000e+10 9.734949629210847e-01 3.588493039746835e-01
7.948000000000000e+10 9.729598367931002e-01 3.600156710324544e-01
7.952800000000000e+10 9.734151245708644e-01 3.596568801919778e-01
7.957600000000000e+10 9.734702421798170e-01 3.597013273482756e-01
7.962400000000000e+10 9.736548077574603e-01 3.593536609446704e-01
7.967200000000000e+10 9.734019681627888e-01 3.600449685891604e-01
7.972000000000000e+10 9.736353862431546e-01 3.606632995077448e-01
7.976800000000000e+10 9.730397459317637e-01 3.619618507916189e-01
7.981600000000000e+10 9.723313605584102e-01 3.635208026105352e-01
7.986400000000000e+10 9.725986391287936e-01 3.626533214268854e-01
7.991200000000000e+10 9.730379466267969e-01 3.629654383053859e-01
7.996000000000000e+10 9.728346998433484e-01 3.639696239993553e-01
8.000800000000000e+10 9.727252900421409e-01 3.646837952632806e-01
8.005600000000000e+10 9.735257521904902e-01 3.651101979368040e-01
8.010400000000000e+10 9.737884358838735e-01 3.621247768539407e-01
8.015200000000000e+10 9.739105796259854e-01 3.617696070885342e-01
8.020000000000000e+10 9.739661085702069e-01 3.618756186192831e-01
8.024800000000000e+10 9.741882467268324e-01 3.616557385176056e-01
8.029600000000000e+10 9.743900616275807e-01 3.615066434028649e-01
8.034400000000000e+10 9.745304586767007e-01 3.601028309076827e-01
8.039200000000000e+10 9.742741484759302e-01 3.588314315581421e-01
8.044000000000000e+10 9.753625149988869e-01 3.589602565928062e-01
8.048800000000000e+10 9.746222636080685e-01 3.592123963995531e-01
8.053600000000000e+10 9.738900967805132e-01 3.599910432259408e-01
8.058400000000000e+10 9.739240823008048e-01 3.613633835727020e-01
8.063200000000000e+10 9.740998505805283e-01 3.609132470482595e-01
8.068000000000000e+10 9.743350505403036e-01 3.605478052881491e-01
8.072800000000000e+10 9.743618873230356e-01 3.613923269154222e-01
8.077600000000000e+10 9.739704424838506e-01 3.622175919843679e-01
8.082400000000000e+10 9.733932441267272e-01 3.638959534270092e-01
8.087200000000000e+10 9.735652921706108e-01 3.625246887939629e-01
8.092000000000000e+10 9.737946481213622e-01 3.618814204175391e-01
8.096800000000000e+10 9.740745486360255e-01 3.613704408390225e-01
8.101600000000000e+10 9.733752459377197e-01 3.613231391955667e-01
8.106400000000000e+10 9.731662029200732e-01 3.601332347118038e-01
8.111200000000000e+10 9.736606777774852e-01 3.596322412545440e-01
8.116000000000000e+10 9.737708852387339e-01 3.606803154913660e-01
8.120800000000000e+10 9.733383347626432e-01 3.616991516263804e-01
8.125600000000000e+10 9.724886523924980e-01 3.619379328363699e-01
8.130400000000000e+10 9.725876573228108e-01 3.609967739323609e-01
8.135200000000000e+10 9.728433544253691e-01 3.623988092795148e-01
8.140000000000000e+10 9.730632691148369e-01 3.629763293799493e-01
8.144800000000000e+10 9.729982100827818e-01 3.632004703296691e-01
8.149600000000000e+10 9.727622528557403e-01 3.654827203131696e-01
8.154400000000000e+10 9.728239339630159e-01 3.610217154822146e-01
8.159200000000000e+10 9.733700740894458e-01 3.615535603216916e-01
8.164000000000000e+10 9.729315806243675e-01 3.619722554434958e-01
8.168800000000000e+10 9.722964819982319e-01 3.613771558746814e-01
8.173600000000000e+10 9.731184678544064e-01 3.629714062539144e-01
8.178400000000000e+10 9.735146446038445e-01 3.611999115134106e-01
8.183200000000000e+10 9.738242789526949e-01 3.609576373673624e-01
8.188000000000000e+10 9.731641901280751e-01 3.600125067880102e-01
8.192800000000000e+10 9.733601883128931e-01 3.604175080925573e-01
8.197600000000000e+10 9.728779464783655e-01 3.622313692975899e-01
8.202400000000000e+10 9.729517867451657e-01 3.627872382155497e-01
8.207200000000000e+10 9.733809279788351e-01 3.622005004567083e-01
8.212000000000000e+10 9.730347856806045e-01 3.618763963853279e-01
8.216800000000000e+10 9.727504819750717e-01 3.618761015857518e-01
8.221600000000000e+10 9.715040950666501e-01 3.628925994752550e-01
8.226400000000000e+10 9.713781132217044e-01 3.636077347454814e-01
8.231200000000000e+10 9.712800490634756e-01 3.637102635801662e-01
8.236000000000000e+10 9.715367937916101e-01 3.630411994251602e-01
8.240800000000000e+10 9.722140662558062e-01 3.609418236574922e-01
8.245600000000000e+10 9.719890165672768e-01 3.612904506204746e-01
8.250400000000000e+10 9.717201045101735e-01 3.629392865392082e-01
8.255200000000000e+10 9.721026464518902e-01 3.626860228861095e-01
8.260000000000000e+10 9.729396549778955e-01 3.627948100122287e-01
8.264800000000000e+10 9.727510426321586e-01 3.609874218308408e-01
8.269600000000000e+10 9.733151476581239e-01 3.604304562582358e-01
8.274400000000000e+10 9.727577584825676e-01 3.617362546821128e-01
8.279200000000000e+10 9.722807001373335e-01 3.613878365566006e-01
8.284000000000000e+10 9.716494632975531e-01 3.620740414065225e-01
8.288800000000000e+10 9.720249961262749e-01 3.617905483036165e-01
8.293600000000000e+10 9.716079591714627e-01 3.624931040156941e-01
8.298400000000000e+10 9.708707360967544e-01 3.653222619838521e-01
8.303200000000000e+10 9.704178436871340e-01 3.684723728956269e-01
8.308000000000000e+10 9.700049131817442e-01 3.695182051487791e-01
8.312800000000000e+10 9.706181025538385e-01 3.708471409048208e-01
8.317600000000000e+10 9.713160360164829e-01 3.683958270930942e-01
8.322400000000000e+10 9.704852260551800e-01 3.702470848205276e-01
8.327200000000000e+10 9.689703766588715e-01 3.727999368766642e-01
8.332000000000000e+10 9.688996369836057e-01 3.738539347578526e-01
8.336800000000000e+10 9.686289924123714e-01 3.723798596974838e-01
8.341600000000000e+10 9.684994045072806e-01 3.700346410714598e-01
8.346400000000000e+10 9.684829988539629e-01 3.690583898675393e-01
8.351200000000000e+10 9.675700677068035e-01 3.712938009634185e-01
8.356000000000000e+10 9.677759822953617e-01 3.715889475687379e-01
8.360800000000000e+10 9.677319008862922e-01 3.716061727452962e-01
8.365600000000000e+10 9.685016184589831e-01 3.701473285727130e-01
8.370400000000000e+10 9.689717282068065e-01 3.700394787334989e-01
8.375200000000000e+10 9.692286620840256e-01 3.691754302732743e-01
8.380000000000000e+10 9.699829072964703e-01 3.699057691141475e-01
8.384800000000000e+10 9.698797159213970e-01 3.694532116947678e-01
8.389600000000000e+10 9.704373217441652e-01 3.685520069462201e-01
8.394400000000000e+10 9.703361510540861e-01 3.653525790678609e-01
8.399200000000000e+10 9.704959266930302e-01 3.651245202100105e-01
8.404000000000000e+10 9.697725175509425e-01 3.650786520057189e-01
8.408800000000000e+10 9.694245206440404e-01 3.666180676419000e-01
8.413600000000000e+10 9.690158168734713e-01 3.664617448847632e-01
8.418400000000000e+10 9.694523570745718e-01 3.649910448525425e-01
8.423200000000000e+10 9.707243657756275e-01 3.644322489677390e-01
8.428000000000000e+10 9.696495209828629e-01 3.654815574085508e-01
8.432800000000000e+10 9.700417379311989e-01 3.660990072142292e-01
8.437600000000000e+10 9.699527712409873e-01 3.668781238476918e-01
8.442400000000000e+10 9.703851412892992e-01 3.660268637380586e-01
8.447200000000000e+10 9.703711763905177e-01 3.664212237588075e-01
8.452000000000000e+10 9.703642484961384e-01 3.661540962436384e-01
8.456800000000000e+10 9.696726829870425e-01 3.669968638646860e-01
8.461600000000000e+10 9.686936671672420e-01 3.689656779023095e-01
8.466400000000000e+10 9.681267864611889e-01 3.676716644488516e-01
8.471200000000000e+10 9.675345527786650e-01 3.676908492704944e-01
8.476000000000000e+10 9.671604741771089e-01 3.684124026046485e-01
8.480800000000000e+10 9.669701356272796e-01 3.703870338782910e-01
8.485600000000000e+10 9.666097532914848e-01 3.723337471226985e-01
8.490400000000000e+10 9.664877790676614e-01 3.724190855023714e-01
8.495200000000000e+10 9.665125712218925e-01 3.727162462447497e-01
8.500000000000000e+10 9.673973212031441e-01 3.713460851090805e-01
8.504800000000000e+10 9.681525593364103e-01 3.719093212338569e-01
8.509600000000000e+10 9.677541534567240e-01 3.708611944647651e-01
8.514400000000000e+10 9.722934592762996e-01 3.601352565394123e-01
8.519200000000000e+10 9.708305205630638e-01 3.619639052491226e-01
8.524000000000000e+10 9.669055067592510e-01 3.705836341126866e-01
8.528800000000000e+10 9.653388132649935e-01 3.739228188576026e-01
8.533600000000000e+10 9.654345397085956e-01 3.727932668250569e-01
8.538400000000000e+10 9.661087416321980e-01 3.726351598106398e-01
8.543200000000000e+10 9.665838376449453e-01 3.723544922403949e-01
8.548000000000000e+10 9.650101845574793e-01 3.747937752837087e-01
8.552800000000000e+10 9.651905434797221e-01 3.763099541828330e-01
8.557600000000000e+10 9.654889776413340e-01 3.764315680217797e-01
8.562400000000000e+10 9.673688086806167e-01 3.717593427876850e-01
8.567200000000000e+10 9.674765062043104e-01 3.716714011516627e-01
8.572000000000000e+10 9.673174982861970e-01 3.724277372454486e-01
8.576800000000000e+10 9.669885752365515e-01 3.744686963730942e-01
8.581600000000000e+10 9.662744436154102e-01 3.767299210333259e-01
8.586400000000000e+10 9.665588420406124e-01 3.757154877178517e-01
8.591200000000000e+10 9.662860048911889e-01 3.749152777673459e-01
8.596000000000000e+10 9.662316311430973e-01 3.752876562679399e-01
8.600800000000000e+10 9.660257079284267e-01 3.762658874972784e-01
8.605600000000000e+10 9.647570934779165e-01 3.791981677663628e-01
8.610400000000000e+10 9.636660797471930e-01 3.817974023498911e-01
8.615200000000000e+10 9.642854633757757e-01 3.812343933176562e-01
8.620000000000000e+10 9.649356644349220e-01 3.799529968574165e-01
8.624800000000000e+10 9.643793856287161e-01 3.806385252075086e-01
8.629600000000000e+10 9.661575629898894e-01 3.777754315284187e-01
8.634400000000000e+10 9.714059757980912e-01 3.646056375223184e-01
8.639200000000000e+10 9.701561706779452e-01 3.648222411173737e-01
8.644000000000000e+10 9.687298687515326e-01 3.750205710446167e-01
8.648800000000000e+10 9.664435130252648e-01 3.761541990312580e-01
8.653600000000000e+10 9.671577746706872e-01 3.743153499972464e-01
8.658400000000000e+10 9.666769258091973e-01 3.762741729173355e-01
8.663200000000000e+10 9.667604460069522e-01 3.753599535676896e-01
8.668000000000000e+10 9.674424425769004e-01 3.731643135898439e-01
8.672800000000000e+10 9.662668424298091e-01 3.754113971319680e-01
8.677600000000000e+10 9.678809583290842e-01 3.745796602511249e-01
8.682400000000000e+10 9.679474084138574e-01 3.729209193966433e-01
8.687200000000000e+10 9.675977945077909e-01 3.747347902632541e-01
8.692000000000000e+10 9.673215030603848e-01 3.749696837484029e-01
8.696800000000000e+10 9.674031988545582e-01 3.723731834487169e-01
8.701600000000000e+10 9.665495781564915e-01 3.739164949221170e-01
8.706400000000000e+10 9.667918603545752e-01 3.738252420335350e-01
8.711200000000000e+10 9.671859789055832e-01 3.728587654104538e-01
8.716000000000000e+10 9.670813890488988e-01 3.732530377540407e-01
8.720800000000000e+10 9.675682099351707e-01 3.720843278712576e-01
8.725600000000000e+10 9.676443719183794e-01 3.706484416936075e-01
8.730400000000000e+10 9.679811657330635e-01 3.719529876711802e-01
8.735200000000000e+10 9.675313775322673e-01 3.718935163533461e-01
8.740000000000000e+10 9.681563927421886e-01 3.729400307960470e-01
8.744800000000000e+10 9.672926908133909e-01 3.733852714622521e-01
8.749600000000000e+10 9.669356500512044e-01 3.755696236068851e-01
8.754400000000000e+10 9.648431013099715e-01 3.792669055952675e-01
8.759200000000000e+10 9.645165272721337e-01 3.815460353919486e-01
8.764000000000000e+10 9.637246466708350e-01 3.828840537644426e-01
8.768800000000000e+10 9.637212459510403e-01 3.857835994836599e-01
8.773600000000000e+10 9.644975892125002e-01 3.825541750044413e-01
8.778400000000000e+10 9.651629996966000e-01 3.816955952859910e-01
8.783200000000000e+10 9.645954394486745e-01 3.835154041326608e-01
8.788000000000000e+10 9.624538197312504e-01 3.866288221726901e-01
8.792800000000000e+10 9.630656303573820e-01 3.870735082233497e-01
8.797600000000000e+10 9.611470101262677e-01 3.897865052178911e-01
8.802400000000000e+10 9.636331349055010e-01 3.846532361091654e-01
8.807200000000000e+10 9.621800743743445e-01 3.864432172887284e-01
8.812000000000000e+10 9.624577586903890e-01 3.874397671700178e-01
8.816800000000000e+10 9.626556289465099e-01 3.889079649549004e-01
8.821600000000000e+10 9.624217974443832e-01 3.884189284129815e-01
8.826400000000000e+10 9.638569113670735e-01 3.834082930605255e-01
8.831200000000000e+10 9.639286946515272e-01 3.832592531197787e-01
8.836000000000000e+10 9.642231622155779e-01 3.828688911309804e-01
8.840800000000000e+10 9.629741332000525e-01 3.855197779559491e-01
8.845600000000000e+10 9.633538799110527e-01 3.845265019666379e-01
8.850400000000000e+10 9.649889747924902e-01 3.824662956904127e-01
8.855200000000000e+10 9.628668107310778e-01 3.874611007504821e-01
8.860000000000000e+10 9.612599236944397e-01 3.892657273044595e-01
8.864800000000000e+10 9.560507051261899e-01 4.022315894366038e-01
8.869600000000000e+10 9.597007088396795e-01 3.945153129333140e-01
8.874400000000000e+10 9.605135671027101e-01 3.914702310812420e-01
8.879200000000000e+10 9.610683658692674e-01 3.908023997092430e-01
8.884000000000000e+10 9.612009460135332e-01 3.906723959772660e-01
8.888800000000000e+10 9.572235875504536e-01 3.995916042568365e-01
8.893600000000000e+10 9.592512230918311e-01 3.978716912320707e-01
8.898400000000000e+10 9.610168580209706e-01 3.940055250039650e-01
8.903200000000000e+10 9.616006066480006e-01 3.924274031776505e-01
8.908000000000000e+10 9.624702159360579e-01 3.911136476348194e-01
8.912800000000000e+10 9.632035044207978e-01 3.894798527217752e-01
8.917600000000000e+10 9.629013321953903e-01 3.874529570368668e-01
8.922400000000000e+10 9.620256801033895e-01 3.912713404891392e-01
8.927200000000000e+10 9.624284091579989e-01 3.876059714558220e-01
8.932000000000000e+10 9.629127329872369e-01 3.864114670371827e-01
8.936800000000000e+10 9.633739324720152e-01 3.846436217389506e-01
8.941600000000000e+10 9.628134570790473e-01 3.856673052095878e-01
8.946400000000000e+10 9.617678711196245e-01 3.882279972195093e-01
8.951200000000000e+10 9.599404269805357e-01 3.930014325810850e-01
8.956000000000000e+10 9.621159996712579e-01 3.882004750692862e-01
8.960800000000000e+10 9.624078991053826e-01 3.874373181179390e-01
8.965600000000000e+10 9.625029735341635e-01 3.866706391400450e-01
8.970400000000000e+10 9.616648644847299e-01 3.887111458763388e-01
8.975200000000000e+10 9.619788656099127e-01 3.883628954777664e-01
8.980000000000000e+10 9.616842205805545e-01 3.872231809415849e-01
8.984800000000000e+10 9.612520138869818e-01 3.867425468393440e-01
8.989600000000000e+10 9.621370920416357e-01 3.852894438708535e-01
8.994400000000000e+10 9.623168079777429e-01 3.837108758846841e-01
8.999200000000000e+10 9.624483857474645e-01 3.845791032661534e-01
9.004000000000000e+10 9.630870311942163e-01 3.821125922922059e-01
9.008800000000000e+10 9.629677314616271e-01 3.805201785167744e-01
9.013600000000000e+10 9.618268683751182e-01 3.791747882445992e-01
9.018400000000000e+10 9.626578347577974e-01 3.822691947451126e-01
9.023200000000000e+10 9.636599689570803e-01 3.812519392141105e-01
9.028000000000000e+10 9.628115219918311e-01 3.841047183984009e-01
9.032800000000000e+10 9.629487780910179e-01 3.819639931927770e-01
9.037600000000000e+10 9.631115138634257e-01 3.818369371503086e-01
9.042400000000000e+10 9.630565724102886e-01 3.796905993046746e-01
9.047200000000000e+10 9.623880100906745e-01 3.811701020938345e-01
9.052000000000000e+10 9.606350664986766e-01 3.842946834645352e-01
9.056800000000000e+10 9.608825018339285e-01 3.846957858322658e-01
9.061600000000000e+10 9.614152754714385e-01 3.844404403743399e-01
9.066400000000000e+10 9.615633612307555e-01 3.832465630203741e-01
9.071200000000000e+10 9.612130996923354e-01 3.823666612202961e-01
9.076000000000000e+10 9.594205784628105e-01 3.861056122058964e-01
9.080800000000000e+10 9.587408868407462e-01 3.887475747126749e-01
9.085600000000000e+10 9.594316875599442e-01 3.900100044426263e-01
9.090400000000000e+10 9.608701977456776e-01 3.863952059611579e-01
9.095200000000000e+10 9.609231493220634e-01 3.881201333919318e-01
9.100000000000000e+10 9.609920496394774e-01 3.873013990539630e-01
9.104800000000000e+10 9.602043424271333e-01 3.890663731307225e-01
9.109600000000000e+10 9.594882589474504e-01 3.907316560981030e-01
9.114400000000000e+10 9.595589244079065e-01 3.890855661949172e-01
9.119200000000000e+10 9.593457710391344e-01 3.903321909666416e-01
9.124000000000000e+10 9.577629638940439e-01 3.933150124815790e-01
9.128800000000000e+10 9.579430623487326e-01 3.929655261096600e-01
9.133600000000000e+10 9.577254248814427e-01 3.922149729307210e-01
9.138400000000000e+10 9.579195036944276e-01 3.930278142247287e-01
9.143200000000000e+10 9.579032576014359e-01 3.944719540486243e-01
9.148000000000000e+10 9.584256173364878e-01 3.939819403251748e-01
9.152800000000000e+10 9.586569970361906e-01 3.942014406645475e-01
9.157600000000000e+10 9.592546663116934e-01 3.928487548730998e-01
9.162400000000000e+10 9.601716930167475e-01 3.918302411412398e-01
9.167200000000000e+10 9.595305321771894e-01 3.935524699639592e-01
9.172000000000000e+10 9.594322872604749e-01 3.940886760153883e-01
9.176800000000000e+10 9.590346396308516e-01 3.952788299484349e-01
9.181600000000000e+10 9.585066305309413e-01 3.950457475528542e-01
9.186400000000000e+10 9.584504688825098e-01 3.935148629933748e-01
9.191200000000000e+10 9.579224513910354e-01 3.953976879200940e-01
9.196000000000000e+10 9.568726575597434e-01 3.972250559396184e-01
9.200800000000000e+10 9.557080270732105e-01 4.013402993233358e-01
9.205600000000000e+10 9.554751140498369e-01 4.019065044698354e-01
9.210400000000000e+10 9.554965631385995e-01 4.013136018767013e-01
9.215200000000000e+10 9.559426452743962e-01 4.006481746147180e-01
9.220000000000000e+10 9.563885635824098e-01 4.008068129766860e-01
9.224800000000000e+10 9.558067930679459e-01 4.021077591914279e-01
9.229600000000000e+10 9.554606404373610e-01 4.032821821176559e-01
9.234400000000000e+10 9.565448243432394e-01 4.006564305385695e-01
9.239200000000000e+10 9.572686007250869e-01 3.969539258987435e-01
9.244000000000000e+10 9.575155274978833e-01 3.970096659355727e-01
9.248800000000000e+10 9.574054873341710e-01 3.961291918569143e-01
9.253600000000000e+10 9.572745603429266e-01 3.939526049968912e-01
9.258400000000000e+10 9.567942017704967e-01 3.948338093465008e-01
9.263200000000000e+10 9.561206526616053e-01 3.953680301292407e-01
9.268000000000000e+10 9.554060240289841e-01 3.978213226584543e-01
9.272800000000000e+10 9.557157775853734e-01 3.968003040081007e-01
9.277600000000000e+10 9.564661023136648e-01 3.942187870260828e-01
9.282400000000000e+10 9.565391002801708e-01 3.947044845880082e-01
9.287200000000000e+10 9.570518549375474e-01 3.929567150419876e-01
9.292000000000000e+10 9.573368302952222e-01 3.930328100637323e-01
9.296800000000000e+10 9.575873056133645e-01 3.924550395253291e-01
9.301600000000000e+10 9.588286661908488e-01 3.875073989793976e-01
9.306400000000000e+10 9.587628337053514e-01 3.875934456293788e-01
9.311200000000000e+10 9.589020197802471e-01 3.855343225709135e-01
9.316000000000000e+10 9.586780148567013e-01 3.862663505906828e-01
9.320800000000000e+10 9.579521293681174e-01 3.883715772776235e-01
9.325600000000000e+10 9.573214369352866e-01 3.880422808264060e-01
9.330400000000000e+10 9.564789845769166e-01 3.900117982079673e-01
9.335200000000000e+10 9.562958307143371e-01 3.901853765391777e-01
9.340000000000000e+10 9.561060109757088e-01 3.911127151709468e-01
9.344800000000000e+10 9.548338480786681e-01 3.937099394715306e-01
9.349600000000000e+10 9.550366369312577e-01 3.946074787382678e-01
9.354400000000000e+10 9.548905714366251e-01 3.943479116601811e-01
9.359200000000000e+10 9.556010871580033e-01 3.934316895173651e-01
9.364000000000000e+10 9.554965968875158e-01 3.951627268661151e-01
9.368800000000000e+10 9.554312471060108e-01 3.964024736089107e-01
9.373600000000000e+10 9.558084031561398e-01 3.962162442002991e-01
9.378400000000000e+10 9.561067443043711e-01 3.956168764379548e-01
9.383200000000000e+10 9.563144711139367e-01 3.943445330411176e-01
9.388000000000000e+10 9.563147242673984e-01 3.937036994524626e-01
9.392800000000000e+10 9.556976003240347e-01 3.928824401115248e-01
9.397600000000000e+10 9.550756884642165e-01 3.943359329008844e-01
9.402400000000000e+10 9.549651717239367e-01 3.946907268894471e-01
9.407200000000000e+10 9.547668482840705e-01 3.950984706771694e-01
9.412000000000000e+10 9.549231851256178e-01 3.939445441055778e-01
9.416800000000000e+10 9.545767681184290e-01 3.963903371696600e-01
9.421600000000000e+10 9.542440994019461e-01 3.982570734340578e-01
9.426400000000000e+10 9.543871365672167e-01 3.987038789780664e-01
9.431200000000000e+10 9.538958245363782e-01 4.001831371139736e-01
9.436000000000000e+10 9.542250015773173e-01 4.007485673905479e-01
9.440800000000000e+10 9.547375410894848e-01 3.975981553218132e-01
9.445600000000000e+10 9.539844006968515e-01 4.007290352366318e-01
9.450400000000000e+10 9.537177963074341e-01 4.016949820884468e-01
9.455200000000000e+10 9.533865653891204e-01 4.015006602801234e-01
9.460000000000000e+10 9.537961207450194e-01 4.001985804200696e-01
9.464800000000000e+10 9.536696881205201e-01 3.989612803869803e-01
9.469600000000000e+10 9.534836043060949e-01 3.999299987235813e-01
9.474400000000000e+10 9.536122515545631e-01 3.975514237608302e-01
9.479200000000000e+10 9.530652277990199e-01 3.990159032096485e-01
9.484000000000000e+10 9.529408222640989e-01 3.986693401189658e-01
9.488800000000000e+10 9.521858575158576e-01 4.001552820711799e-01
9.493600000000000e+10 9.545408102857512e-01 4.001305190730559e-01
9.498400000000000e+10 9.536746222514163e-01 4.004605425257146e-01
9.503200000000000e+10 9.525436099163144e-01 4.036247040805742e-01
9.508000000000000e+10 9.538924891272305e-01 4.021274966979904e-01
9.512800000000000e+10 9.537663464266162e-01 4.015664816080021e-01
9.517600000000000e+10 9.542831125739532e-01 4.018554116769357e-01
9.522400000000000e+10 9.538051282729464e-01 4.019544609050381e-01
9.527200000000000e+10 9.524511863971284e-01 4.047921230629536e-01
9.532000000000000e+10 9.519720587856368e-01 4.059571406545077e-01
9.536800000000000e+10 9.522723365616174e-01 4.040189738590337e-01
9.541600000000000e+10 9.521675365128903e-01 4.040596706862453e-01
9.546400000000000e+10 9.520763894556524e-01 4.046063902441521e-01
9.551200000000000e+10 9.512955360658222e-01 4.065934310037849e-01
9.556000000000000e+10 9.516664168924541e-01 4.052450852348849e-01
9.560800000000000e+10 9.519545629563214e-01 4.062414258184898e-01
9.565600000000000e+10 9.530809144450335e-01 4.028964814745918e-01
9.570400000000000e+10 9.532596724632966e-01 4.013845929406626e-01
9.575200000000000e+10 9.532392844211603e-01 4.021119804993660e-01
9.580000000000000e+10 9.525455647596077e-01 4.022191322796949e-01
9.584800000000000e+10 9.527987988889658e-01 4.025707614400916e-01
9.589600000000000e+10 9.537065634654041e-01 3.988744672397670e-01
9.594400000000000e+10 9.540732206496855e-01 3.984708411203354e-01
9.599200000000000e+10 9.543076567687685e-01 3.964804115310566e-01
9.604000000000000e+10 9.546475607333149e-01 3.936081292247877e-01
9.608800000000000e+10 9.552593700840774e-01 3.914084213139329e-01
9.613600000000000e+10 9.544364113033936e-01 3.907865389636810e-01
9.618400000000000e+10 9.542635304407646e-01 3.915178926881390e-01
9.623200000000000e+10 9.540151751788962e-01 3.924370696969903e-01
9.628000000000000e+10 9.541479223408756e-01 3.917332619468902e-01
9.632800000000000e+10 9.546131677229346e-01 3.895721002661642e-01
9.637600000000000e+10 9.544839521282701e-01 3.910005242297310e-01
9.642400000000000e+10 9.542394207106516e-01 3.919543840074789e-01
9.647200000000000e+10 9.544985845615916e-01 3.915038893478321e-01
9.652000000000000e+10 9.540020865906770e-01 3.932398071744806e-01
9.656800000000000e+10 9.537350517197433e-01 3.919034824257400e-01
9.661600000000000e+10 9.528250662626935e-01 3.924925423058016e-01
9.666400000000000e+10 9.535279991072585e-01 3.925753830377109e-01
9.671200000000000e+10 9.534030285199667e-01 3.934683764260931e-01
9.676000000000000e+10 9.530781208303287e-01 3.946397311315669e-01
9.680800000000000e+10 9.534158917153495e-01 3.942137544694269e-01
9.685600000000000e+10 9.533690949864639e-01 3.942127823251826e-01
9.690400000000000e+10 9.534417052150168e-01 3.935539277742394e-01
9.695200000000000e+10 9.529949663825235e-01 3.949055794355072e-01
9.700000000000000e+10 9.531274696488234e-01 3.941254676593947e-01
9.704800000000000e+10 9.537133915964664e-01 3.937357739342273e-01
9.709600000000000e+10 9.532137637622168e-01 3.936776082182770e-01
9.714400000000000e+10 9.528674026694871e-01 3.931446525712781e-01
9.719200000000000e+10 9.523994170649065e-01 3.947727140781723e-01
9.724000000000000e+10 9.516434833036281e-01 3.969318266044153e-01
9.728800000000000e+10 9.517783051525671e-01 3.971308641118543e-01
9.733600000000000e+10 9.510681286186315e-01 3.979138533152117e-01
9.738400000000000e+10 9.509985467112304e-01 3.981363306041047e-01
9.743200000000000e+10 9.506249517196796e-01 3.995963219423778e-01
9.748000000000000e+10 9.509688515470333e-01 3.997037085873436e-01
9.752800000000000e+10 9.497321463557254e-01 4.018968429296128e-01
9.757600000000000e+10 9.504096455254326e-01 4.012107985139159e-01
9.762400000000000e+10 9.505003378755174e-01 4.005942471855496e-01
9.767200000000000e+10 9.502557817087386e-01 4.012573577683822e-01
9.772000000000000e+10 9.505847173985069e-01 4.003660601434282e-01
9.776800000000000e+10 9.492357208407057e-01 4.037042051928673e-01
9.781600000000000e+10 9.505758049055539e-01 4.053521701172029e-01
9.786400000000000e+10 9.514159156484118e-01 4.007808119812289e-01
9.791200000000000e+10 9.504308562018678e-01 3.995544446388082e-01
9.796000000000000e+10 9.507696639706072e-01 4.000428737603835e-01
9.800800000000000e+10 9.497397515882130e-01 4.022427364875887e-01
9.805600000000000e+10 9.496618528407330e-01 4.037469715848851e-01
9.810400000000000e+10 9.496380118150208e-01 4.030947969940232e-01
9.815200000000000e+10 9.484540348570082e-01 4.055704237692772e-01
9.820000000000000e+10 9.481302877460603e-01 4.069644471866569e-01
9.824800000000000e+10 9.472252846279662e-01 4.080377367225717e-01
9.829600000000000e+10 9.460540339017421e-01 4.122546775021300e-01
9.834400000000000e+10 9.450609759364018e-01 4.162201949331142e-01
9.839200000000000e+10 9.446234604661997e-01 4.163354650593327e-01
9.844000000000000e+10 9.439247182746658e-01 4.175504044963254e-01
9.848800000000000e+10 9.427046841195033e-01 4.206654403860534e-01
9.853600000000000e+10 9.398954072805514e-01 4.310189325218605e-01
9.858400000000000e+10 9.398458456235748e-01 4.309988922040606e-01
9.863200000000000e+10 9.409763725743652e-01 4.276583220963484e-01
9.868000000000000e+10 9.412055893327989e-01 4.256314869054270e-01
9.872800000000000e+10 9.424736374156316e-01 4.226548865805217e-01
9.877600000000000e+10 9.426161793955653e-01 4.222098299238841e-01
9.882400000000000e+10 9.418401770168497e-01 4.210705670950143e-01
9.887200000000000e+10 9.418885552483881e-01 4.213056262710009e-01
9.892000000000000e+10 9.437353332054762e-01 4.165233240205072e-01
9.896800000000000e+10 9.451054848998579e-01 4.137092105402365e-01
9.901600000000000e+10 9.453447374317028e-01 4.107387946892335e-01
9.906400000000000e+10 9.447469586695542e-01 4.122321297401355e-01
9.911200000000000e+10 9.445737785854235e-01 4.129853909638231e-01
9.916000000000000e+10 9.446895754564422e-01 4.126587834207239e-01
9.920800000000000e+10 9.451526978518855e-01 4.096630560289778e-01
9.925600000000000e+10 9.456375660388058e-01 4.083013523705377e-01
9.930400000000000e+10 9.456682749422533e-01 4.097707155724647e-01
9.935200000000000e+10 9.453053131227976e-01 4.076894662609399e-01
9.940000000000000e+10 9.457923366125508e-01 4.087126688129096e-01
9.944800000000000e+10 9.453810393813279e-01 4.071863979304324e-01
9.949600000000000e+10 9.446698897261321e-01 4.104364935726449e-01
9.954400000000000e+10 9.443789126238905e-01 4.111737322340007e-01
9.959200000000000e+10 9.443777740916359e-01 4.113651650000937e-01
9.964000000000000e+10 9.420651014466743e-01 4.155093608614092e-01
9.968800000000000e+10 9.420951351625366e-01 4.157762055288226e-01
9.973600000000000e+10 9.414481307423453e-01 4.172904258095642e-01
9.978400000000000e+10 9.422192237898512e-01 4.171084871926239e-01
9.983200000000000e+10 9.417223472539293e-01 4.183851879736906e-01
9.988000000000000e+10 9.421046714938099e-01 4.189257384880861e-01
9.992800000000000e+10 9.412519549023560e-01 4.196282151594111e-01
9.997600000000000e+10 9.415086811372947e-01 4.188828732699516e-01
1.000240000000000e+11 9.425147312639451e-01 4.179949816544969e-01
1.000720000000000e+11 9.407632125093850e-01 4.183333812162523e-01
1.001200000000000e+11 9.413341472262249e-01 4.219782617773677e-01
1.001680000000000e+11 9.412163904797501e-01 4.212398652222847e-01
1.002160000000000e+11 9.420587749140679e-01 4.202770934241601e-01
1.002640000000000e+11 9.419784596335207e-01 4.189228136498574e-01
1.003120000000000e+11 9.421000805774097e-01 4.171499870565191e-01
1.003600000000000e+11 9.415926643843059e-01 4.189222172885819e-01
1.004080000000000e+11 9.394621302845289e-01 4.205864783118216e-01
1.004560000000000e+11 9.392817508434059e-01 4.196387302697496e-01
1.005040000000000e+11 9.423529589175481e-01 4.200335154805201e-01
1.005520000000000e+11 9.421988146161415e-01 4.171129058981916e-01
1.006000000000000e+11 9.405209813153308e-01 4.205701888205868e-01
1.006480000000000e+11 9.423582866403107e-01 4.194686880027577e-01
1.006960000000000e+11 9.384109600813706e-01 4.223165555119817e-01
1.007440000000000e+11 9.409682426347278e-01 4.180296659052127e-01
1.007920000000000e+11 9.414988181777609e-01 4.190887683233065e-01
1.008400000000000e+11 9.410321378080950e-01 4.169807158116066e-01
1.008880000000000e+11 9.404663669139360e-01 4.205159436182140e-01
1.009360000000000e+11 9.398466950529040e-01 4.195392337711968e-01
1.009840000000000e+11 9.402623345607485e-01 4.187389282882018e-01
1.010320000000000e+11 9.409901679714164e-01 4.177685469787545e-01
1.010800000000000e+11 9.415469164944102e-01 4.158926998129361e-01
1.011280000000000e+11 9.415137960007803e-01 4.157757688188765e-01
1.011760000000000e+11 9.417044246655407e-01 4.182953791960916e-01
1.012240000000000e+11 9.395998760970917e-01 4.198379827379240e-01
1.012720000000000e+11 9.406311991783809e-01 4.178812650206562e-01
1.013200000000000e+11 9.409600026733563e-01 4.163406988200358e-01
1.013680000000000e+11 9.410175026080392e-01 4.166530093241958e-01
1.014160000000000e+11 9.404738062216886e-01 4.206897375367807e-01
1.014640000000000e+11 9.388686134504619e-01 4.221924177517286e-01
1.015120000000000e+11 9.345626732562802e-01 4.335203116778878e-01
1.015600000000000e+11 9.329462891738211e-01 4.360446071114402e-01
1.016080000000000e+11 9.336832632405411e-01 4.353348157238892e-01
1.016560000000000e+11 9.340644790414353e-01 4.342740695292325e-01
1.017040000000000e+11 9.331318130893067e-01 4.358027269480695e-01
1.017520000000000e+11 9.312077667727718e-01 4.376562980149291e-01
1.018000000000000e+11 9.388477600287165e-01 4.181253970135270e-01
1.018480000000000e+11 9.405971839104857e-01 4.155635008410866e-01
1.018960000000000e+11 9.426105237879767e-01 4.131043919200643e-01
1.019440000000000e+11 9.426274125333026e-01 4.094152255891945e-01
1.019920000000000e+11 9.413956907556918e-01 4.130390175673231e-01
1.020400000000000e+11 9.412607526760030e-01 4.146022254169046e-01
1.020880000000000e+11 9.372258858217762e-01 4.230721715482316e-01
1.021360000000000e+11 9.359365905049030e-01 4.265887999926021e-01
1.021840000000000e+11 9.351358300255947e-01 4.277410295231667e-01
1.022320000000000e+11 9.344006247197707e-01 4.281967312199891e-01
1.022800000000000e+11 9.359924183676993e-01 4.242124658451634e-01
1.023280000000000e+11 9.405383503987058e-01 4.124720323847623e-01
1.023760000000000e+11 9.403131815441358e-01 4.135344436533133e-01
1.024240000000000e+11 9.371015858059834e-01 4.222263700721571e-01
1.024720000000000e+11 9.329905856676620e-01 4.314782280811109e-01
1.025200000000000e+11 9.327123418232004e-01 4.302513047175900e-01
1.025680000000000e+11 9.328707349434274e-01 4.308794086878213e-01
1.026160000000000e+11 9.333086242582930e-01 4.274877416997367e-01
1.026640000000000e+11 9.348942258991887e-01 4.251118512215180e-01
1.027120000000000e+11 9.368079590525983e-01 4.168738034326844e-01
1.027600000000000e+11 9.384481714526192e-01 4.153906063300291e-01
1.028080000000000e+11 9.403405947856019e-01 4.124085445787316e-01
1.028560000000000e+11 9.404169553472242e-01 4.124545997758889e-01
1.029040000000000e+11 9.403364215937228e-01 4.131883686293374e-01
1.029520000000000e+11 9.409222849617932e-01 4.121595496848451e-01
1.030000000000000e+11 9.396839437879283e-01 4.139392992646111e-01
1.030480000000000e+11 9.403268722172670e-01 4.142406138313426e-01
1.030960000000000e+11 9.400893581572032e-01 4.126754439652785e-01
1.031440000000000e+11 9.383535940912444e-01 4.165722974162522e-01
1.031920000000000e+11 9.381010538255857e-01 4.155242331891540e-01
1.032400000000000e+11 9.374216325636040e-01 4.170758671400531e-01
1.032880000000000e+11 9.362513798450512e-01 4.201176884375898e-01
1.033360000000000e+11 9.361164044908835e-01 4.206832503137305e-01
1.033840000000000e+11 9.358921913550126e-01 4.197786641010007e-01
1.034320000000000e+11 9.352662539354714e-01 4.205453429079307e-01
1.034800000000000e+11 9.354000767095252e-01 4.211306382388056e-01
1.035280000000000e+11 9.347501610202800e-01 4.232224928121537e-01
1.035760000000000e+11 9.344958292150393e-01 4.226404363010762e-01
1.036240000000000e+11 9.352792412057357e-01 4.218560666350565e-01
1.036720000000000e+11 9.365942400195373e-01 4.192669586161941e-01
1.037200000000000e+11 9.375563116478768e-01 4.175598510925973e-01
1.037680000000000e+11 9.376501821783345e-01 4.172603011786452e-01
1.038160000000000e+11 9.377313419244907e-01 4.170800614563261e-01
1.038640000000000e+11 9.369540723168072e-01 4.205128073054206e-01
1.039120000000000e+11 9.356541113142943e-01 4.189961043712133e-01
1.039600000000000e+11 9.319807058125853e-01 4.283305915008114e-01
1.040080000000000e+11 9.376623702621907e-01 4.152115346005349e-01
1.040560000000000e+11 9.362542284584089e-01 4.185506604964048e-01
1.041040000000000e+11 9.354294482156681e-01 4.215432057468097e-01
1.041520000000000e+11 9.354634407502019e-01 4.220160715584332e-01
1.042000000000000e+11 9.354791388816440e-01 4.227217144390700e-01
1.042480000000000e+11 9.350317625026096e-01 4.232534656606473e-01
1.042960000000000e+11 9.325880436414116e-01 4.301101414515698e-01
1.043440000000000e+11 9.300868500218971e-01 4.367352601086978e-01
1.043920000000000e+11 9.299442965158898e-01 4.379820833985431e-01
1.044400000000000e+11 9.307569300986932e-01 4.349849115984813e-01
1.044880000000000e+11 9.312948612519718e-01 4.334741508034884e-01
1.045360000000000e+11 9.314496522545982e-01 4.318691546388094e-01
1.045840000000000e+11 9.310067829779206e-01 4.330902313809475e-01
1.046320000000000e+11 9.313947647911623e-01 4.341390128334929e-01
1.046800000000000e+11 9.320624394127980e-01 4.287299468591920e-01
1.047280000000000e+11 9.334228531190736e-01 4.260909584128716e-01
1.047760000000000e+11 9.346105047313182e-01 4.220631406204986e-01
1.048240000000000e+11 9.341795130278570e-01 4.217867170635744e-01
1.048720000000000e+11 9.339483762281291e-01 4.236442516743658e-01
1.049200000000000e+11 9.344719727460733e-01 4.232293678379714e-01
1.049680000000000e+11 9.332550936582877e-01 4.224966597489441e-01
1.050160000000000e+11 9.343254364522809e-01 4.203256423339091e-01
1.050640000000000e+11 9.344923818188533e-01 4.202508333471117e-01
1.051120000000000e+11 9.350220023431626e-01 4.203961743315965e-01
1.051600000000000e+11 9.346186716152051e-01 4.208556801158432e-01
1.052080000000000e+11 9.362391460125408e-01 4.178961477386515e-01
1.052560000000000e+11 9.364965889980358e-01 4.149339700958570e-01
1.053040000000000e+11 9.373116016557874e-01 4.130553577773183e-01
1.053520000000000e+11 9.362941432077830e-01 4.141046329719225e-01
1.054000000000000e+11 9.362143310539742e-01 4.143865589494176e-01
1.054480000000000e+11 9.359614073134648e-01 4.125883751105188e-01
1.054960000000000e+11 9.353822295746531e-01 4.136337962951114e-01
1.055440000000000e+11 9.344853961090606e-01 4.148240653249422e-01
1.055920000000000e+11 9.336053295855106e-01 4.192328428782468e-01
1.056400000000000e+11 9.328001833795223e-01 4.189298512688223e-01
1.056880000000000e+11 9.330977432135008e-01 4.202587149881339e-01
1.057360000000000e+11 9.339245972001531e-01 4.172267862115389e-01
1.057840000000000e+11 9.318839185473574e-01 4.214453139548892e-01
1.058320000000000e+11 9.321055598515812e-01 4.220290328650955e-01
1.058800000000000e+11 9.324536773873430e-01 4.229375821731637e-01
1.059280000000000e+11 9.319691116676878e-01 4.247945457529219e-01
1.059760000000000e+11 9.327342351312879e-01 4.223307934016629e-01
1.060240000000000e+11 9.321312375534759e-01 4.241144223718087e-01
1.060720000000000e+11 9.318994409431567e-01 4.232321803922099e-01
1.061200000000000e+11 9.310202720373860e-01 4.234932010209959e-01
1.061680000000000e+11 9.308057613659867e-01 4.250896085492579e-01
1.062160000000000e+11 9.292558539056430e-01 4.276304902334143e-01
1.062640000000000e+11 9.305274009278468e-01 4.260899490408340e-01
1.063120000000000e+11 9.304156768829447e-01 4.246942446008342e-01
1.063600000000000e+11 9.311023732181515e-01 4.263871394038124e-01
1.064080000000000e+11 9.304803847565665e-01 4.275729282822665e-01
1.064560000000000e+11 9.272861083098953e-01 4.305045075200269e-01
1.065040000000000e+11 9.288071249589509e-01 4.318025822850101e-01
1.065520000000000e+11 9.279467289187902e-01 4.315395841757716e-01
1.066000000000000e+11 9.288170607616156e-01 4.288127274008670e-01
1.066480000000000e+11 9.271066916716113e-01 4.354495527739074e-01
1.066960000000000e+11 9.305894407339980e-01 4.357538217082465e-01
1.067440000000000e+11 9.264096891212981e-01 4.351056500183091e-01
1.067920000000000e+11 9.275818994206111e-01 4.343187566509771e-01
1.068400000000000e+11 9.289830126852432e-01 4.310831530107075e-01
1.068880000000000e+11 9.328690971267583e-01 4.224255758428437e-01
1.069360000000000e+11 9.293068580127185e-01 4.328574635244031e-01
1.069840000000000e+11 9.268231649325834e-01 4.337071772166458e-01
1.070320000000000e+11 9.275229276153368e-01 4.355501602396181e-01
1.070800000000000e+11 9.289916669323811e-01 4.316543482367823e-01
1.071280000000000e+11 9.290802836626791e-01 4.325998270513369e-01
1.071760000000000e+11 9.284847863373660e-01 4.331064446163642e-01
1.072240000000000e+11 9.279618661038666e-01 4.335944785134003e-01
1.072720000000000e+11 9.272645895463787e-01 4.353598018971102e-01
1.073200000000000e+11 9.268549775517098e-01 4.364258594732541e-01
1.073680000000000e+11 9.277838064647816e-01 4.352213552409382e-01
1.074160000000000e+11 9.267105400544963e-01 4.383439559833462e-01
1.074640000000000e+11 9.258469549942168e-01 4.383372814606777e-01
1.075120000000000e+11 9.237044061495087e-01 4.422136640105599e-01
1.075600000000000e+11 9.252627781127140e-01 4.413236677731880e-01
1.076080000000000e+11 9.257584386502343e-01 4.384808352713284e-01
1.076560000000000e+11 9.260817642203842e-01 4.362285275066465e-01
1.077040000000000e+11 9.266215993181085e-01 4.348213467541174e-01
1.077520000000000e+11 9.239632859516103e-01 4.401193335638885e-01
1.078000000000000e+11 9.249061308271689e-01 4.379697363831870e-01
1.078480000000000e+11 9.259853773458164e-01 4.359047162189272e-01
1.078960000000000e+11 9.272125776135520e-01 4.342024300613860e-01
1.079440000000000e+11 9.277056560763649e-01 4.343249667666566e-01
1.079920000000000e+11 9.264891298727650e-01 4.356713535170534e-01
1.080400000000000e+11 9.279665921781126e-01 4.333395188890918e-01
1.080880000000000e+11 9.272061056233641e-01 4.377075317659185e-01
1.081360000000000e+11 9.267828728587227e-01 4.361130203356652e-01
1.081840000000000e+11 9.249713768531944e-01 4.406216197417858e-01
1.082320000000000e+11 9.244542113021801e-01 4.400861312577618e-01
1.082800000000000e+11 9.249230170290197e-01 4.382832644793072e-01
1.083280000000000e+11 9.243682653822233e-01 4.387959092782632e-01
1.083760000000000e+11 9.240144484201128e-01 4.382582808887075e-01
1.084240000000000e+11 9.227311480532999e-01 4.417515328596474e-01
1.084720000000000e+11 9.243984061050381e-01 4.414124364862806e-01
1.085200000000000e+11 9.255620824774747e-01 4.383489875410159e-01
1.085680000000000e+11 9.262805927764590e-01 4.357182898113309e-01
1.086160000000000e+11 9.269808025796517e-01 4.342885648499589e-01
1.086640000000000e+11 9.269340983709148e-01 4.337530750191780e-01
1.087120000000000e+11 9.269194871774835e-01 4.332443729817708e-01
1.087600000000000e+11 9.277346629323571e-01 4.320510493929023e-01
1.088080000000000e+11 9.282873864883203e-01 4.300852371857526e-01
1.088560000000000e+11 9.289732829236933e-01 4.266098295906423e-01
1.089040000000000e+11 9.284058558812571e-01 4.282098863726813e-01
1.089520000000000e+11 9.276976561524931e-01 4.300706836479675e-01
1.090000000000000e+11 9.269519055427065e-01 4.317808675045180e-01
1.090480000000000e+11 9.264936022886079e-01 4.320735007184118e-01
1.090960000000000e+11 9.246387582848635e-01 4.348242037666679e-01
1.091440000000000e+11 9.237487310862547e-01 4.342777602643507e-01
1.091920000000000e+11 9.250977980351874e-01 4.322743628231720e-01
1.092400000000000e+11 9.245506001565376e-01 4.337742165638858e-01
1.092880000000000e+11 9.260415961608304e-01 4.317528260437944e-01
1.093360000000000e+11 9.269586615462997e-01 4.302325616730088e-01
1.093840000000000e+11 9.277747364562227e-01 4.291661613900262e-01
1.094320000000000e+11 9.279383201352572e-01 4.291673411093378e-01
1.094800000000000e+11 9.285357185388127e-01 4.283935316739723e-01
1.095280000000000e+11 9.282716840259898e-01 4.289067404144306e-01
1.095760000000000e+11 9.287017656283708e-01 4.255024347992307e-01
1.096240000000000e+11 9.268873732282010e-01 4.282382073996284e-01
1.096720000000000e+11 9.265300925020812e-01 4.275387209965018e-01
1.097200000000000e+11 9.240785196861608e-01 4.324728687519413e-01
1.097680000000000e+11 9.251159410715221e-01 4.289475803953055e-01
1.098160000000000e+11 9.243002164739116e-01 4.302805961339819e-01
1.098640000000000e+11 9.238993006175822e-01 4.302776077710964e-01
1.099120000000000e+11 9.235084551849165e-01 4.310261225050239e-01
1.099600000000000e+11 9.220969140000772e-01 4.344059351461175e-01
1.100080000000000e+11 9.218866795715268e-01 4.365074476566370e-01
1.100560000000000e+11 9.203208663559331e-01 4.406485199287430e-01
1.101040000000000e+11 9.218786663678714e-01 4.389841519427964e-01
1.101520000000000e+11 9.227068029168733e-01 4.369974758289189e-01
1.102000000000000e+11 9.234803018296451e-01 4.350054014552633e-01
1.102480000000000e+11 9.219569796484000e-01 4.390609497578065e-01
1.102960000000000e+11 9.223328054964447e-01 4.368614898797216e-01
1.103440000000000e+11 9.223017973939139e-01 4.364232772373304e-01
1.103920000000000e+11 9.230224201004272e-01 4.325953752377363e-01
1.104400000000000e+11 9.225642987478974e-01 4.323725218134284e-01
1.104880000000000e+11 9.215841360168732e-01 4.354962786719945e-01
1.105360000000000e+11 9.215836957932062e-01 4.350149969566104e-01
1.105840000000000e+11 9.170812421836443e-01 4.419222358292681e-01
1.106320000000000e+11 9.215961907139556e-01 4.349547318531530e-01
1.106800000000000e+11 9.207387498599039e-01 4.367726131989537e-01
1.107280000000000e+11 9.218048568664637e-01 4.356482756856144e-01
1.107760000000000e+11 9.217061184428955e-01 4.386023457500467e-01
1.108240000000000e+11 9.224108495848170e-01 4.371264387024924e-01
1.108720000000000e+11 9.235666056607342e-01 4.347238818769605e-01
1.109200000000000e+11 9.246579628190644e-01 4.326116955207461e-01
1.109680000000000e+11 9.246380791873560e-01 4.321889295648869e-01
1.110160000000000e+11 9.238429331923981e-01 4.336393689530805e-01
1.110640000000000e+11 9.230320051097545e-01 4.344387511331319e-01
1.111120000000000e+11 9.232283552376985e-01 4.335736429558012e-01
1.111600000000000e+11 9.227052228008866e-01 4.326902249939976e-01
1.112080000000000e+11 9.223087769163912e-01 4.317410450550556e-01
1.112560000000000e+11 9.218978504899480e-01 4.319245157883707e-01
1.113040000000000e+11 9.203074762879297e-01 4.361795571267806e-01
1.113520000000000e+11 9.196676206971552e-01 4.371085954286489e-01
1.114000000000000e+11 9.198340156220095e-01 4.382804335695047e-01
1.114480000000000e+11 9.206903375223949e-01 4.373256599593371e-01
1.114960000000000e+11 9.207029017357508e-01 4.376769543795846e-01
1.115440000000000e+11 9.212587608465549e-01 4.374665291912950e-01
1.115920000000000e+11 9.217165329744405e-01 4.372503089408609e-01
1.116400000000000e+11 9.233112761058249e-01 4.348565210724755e-01
1.116880000000000e+11 9.246060949578262e-01 4.293498031567712e-01
1.117360000000000e+11 9.248773621941118e-01 4.287425212968975e-01
1.117840000000000e+11 9.252449635838954e-01 4.272431493056140e-01
1.118320000000000e+11 9.248553068596647e-01 4.283303474235082e-01
1.118800000000000e+11 9.254605292000995e-01 4.252636076464645e-01
1.119280000000000e+11 9.258489426528862e-01 4.242083913019906e-01
1.119760000000000e+11 9.259983372271210e-01 4.233654266920329e-01
1.120240000000000e+11 9.223930165591038e-01 4.270061118840702e-01
1.120720000000000e+11 9.210892104121210e-01 4.308665400231987e-01
1.121200000000000e+11 9.213785092492672e-01 4.301092810930461e-01
1.121680000000000e+11 9.212293963274452e-01 4.325359298390753e-01
1.122160000000000e+11 9.223542200318402e-01 4.317578260073969e-01
1.122640000000000e+11 9.235973808131935e-01 4.294131280686902e-01
1.123120000000000e+11 9.180190893250025e-01 4.367240344857121e-01
1.123600000000000e+11 9.224289519160679e-01 4.349609658905891e-01
1.124080000000000e+11 9.240056683940814e-01 4.301272325330295e-01
1.124560000000000e+11 9.240232334936178e-01 4.311325515459773e-01
1.125040000000000e+11 9.234069038952215e-01 4.281206366435591e-01
1.125520000000000e+11 9.238303356307677e-01 4.294104669076266e-01
1.126000000000000e+11 9.242902699774102e-01 4.294794370906332e-01
1.126480000000000e+11 9.238613645531035e-01 4.273152047193359e-01
1.126960000000000e+11 9.238023055838005e-01 4.267414394753447e-01
1.127440000000000e+11 9.234554350552306e-01 4.269538594130956e-01
1.127920000000000e+11 9.243677128027163e-01 4.259257001657938e-01
1.128400000000000e+11 9.248202520415060e-01 4.262758616500727e-01
1.128880000000000e+11 9.247240611656535e-01 4.282895072230956e-01
1.129360000000000e+11 9.246166823788483e-01 4.297299689172988e-01
1.129840000000000e+11 9.243278507684969e-01 4.301712088605658e-01
1.130320000000000e+11 9.248366245875562e-01 4.294386242094216e-01
1.130800000000000e+11 9.237298922649917e-01 4.336708178600766e-01
1.131280000000000e+11 9.231522657363441e-01 4.349161926134409e-01
1.131760000000000e+11 9.240051361082947e-01 4.350955272400566e-01
1.132240000000000e+11 9.231696784912541e-01 4.349565996877300e-01
1.132720000000000e+11 9.234312987238038e-01 4.340778853181113e-01
1.133200000000000e+11 9.220468656571319e-01 4.368155679998740e-01
1.133680000000000e+11 9.197218777917032e-01 4.419689236536589e-01
1.134160000000000e+11 9.180670286258331e-01 4.435363992005211e-01
1.134640000000000e+11 9.171941756373296e-01 4.439661302940340e-01
1.135120000000000e+11 9.184035602847522e-01 4.413420597216222e-01
1.135600000000000e+11 9.185079382384181e-01 4.403712182807102e-01
1.136080000000000e+11 9.178980303866411e-01 4.412255927366019e-01
1.136560000000000e+11 9.179574195926085e-01 4.407337043133518e-01
1.137040000000000e+11 9.168800899749856e-01 4.431996567971107e-01
1.137520000000000e+11 9.190353771060924e-01 4.401835751481179e-01
1.138000000000000e+11 9.192137241324824e-01 4.373162365934848e-01
1.138480000000000e+11 9.181663515591334e-01 4.422338784824389e-01
1.138960000000000e+11 9.186547074129550e-01 4.401825901385210e-01
1.139440000000000e+11 9.173359753732152e-01 4.437629063157857e-01
1.139920000000000e+11 9.176080104823948e-01 4.435357834536290e-01
1.140400000000000e+11 9.158526426481676e-01 4.470148156982057e-01
1.140880000000000e+11 9.149106022876707e-01 4.479757339546969e-01
1.141360000000000e+11 9.150142418359329e-01 4.487045525366191e-01
1.141840000000000e+11 9.155759399920803e-01 4.453377050931943e-01
1.142320000000000e+11 9.167212539328000e-01 4.422405532044925e-01
1.142800000000000e+11 9.189769635219137e-01 4.361697006579740e-01
1.143280000000000e+11 9.198517433620887e-01 4.348728733972709e-01
1.143760000000000e+11 9.213263126594082e-01 4.306901506273222e-01
1.144240000000000e+11 9.214474002523735e-01 4.309919079274779e-01
1.144720000000000e+11 9.208746954280829e-01 4.328852191049256e-01
1.145200000000000e+11 9.211701422053891e-01 4.324767140293556e-01
1.145680000000000e+11 9.209520405955032e-01 4.345549401140957e-01
1.146160000000000e+11 9.221592319454340e-01 4.324704765628901e-01
1.146640000000000e+11 9.224648110040196e-01 4.321397862211708e-01
1.147120000000000e+11 9.222581740199992e-01 4.329936035505088e-01
1.147600000000000e+11 9.213689977082433e-01 4.355579860612255e-01
1.148080000000000e+11 9.217266179384157e-01 4.337448206748113e-01
1.148560000000000e+11 9.222899685539588e-01 4.312457649109094e-01
1.149040000000000e+11 9.219923575169031e-01 4.311947428434522e-01
1.149520000000000e+11 9.217066427007397e-01 4.317508732842207e-01
1.150000000000000e+11 9.215711735462608e-01 4.321401599878661e-01
