! Generated by Phase I extraction
# Hz S RI R 50
6.700000000000000e+10 1.011370329384176e+00 3.157608104388910e-02
6.704800000000000e+10 1.011445611692914e+00 3.166614670109055e-02
6.709600000000000e+10 1.011520547505243e+00 3.175681199876062e-02
6.714400000000000e+10 1.011595105194517e+00 3.184802967438170e-02
6.719200000000000e+10 1.011669253726379e+00 3.193975600233494e-02
6.724000000000000e+10 1.011742963509927e+00 3.203194868891594e-02
6.728800000000000e+10 1.011816206282330e+00 3.212456728188646e-02
6.733600000000000e+10 1.011888955339896e+00 3.221757302957112e-02
6.738400000000000e+10 1.011961185142578e+00 3.231092909641838e-02
6.743200000000000e+10 1.012032871189685e+00 3.240460055592615e-02
6.748000000000000e+10 1.012103990136785e+00 3.249855446098784e-02
6.752800000000000e+10 1.012174519815702e+00 3.259275942510614e-02
6.757600000000000e+10 1.012244439418100e+00 3.268718561378925e-02
6.762400000000000e+10 1.012313729668419e+00 3.278180465165768e-02
6.767200000000000e+10 1.012382372254813e+00 3.287658956377154e-02
6.772000000000000e+10 1.012450349945758e+00 3.297151449964347e-02
6.776800000000000e+10 1.012517646166706e+00 3.306655458863841e-02
6.781600000000000e+10 1.012584245149000e+00 3.316168590515812e-02
6.786400000000000e+10 1.012650131721337e+00 3.325688555186104e-02
6.791200000000000e+10 1.012715291778623e+00 3.335213157467865e-02
6.796000000000000e+10 1.012779712065834e+00 3.344740284578819e-02
6.800800000000000e+10 1.012843379897425e+00 3.354267890800326e-02
6.805600000000000e+10 1.012906283316188e+00 3.363794019932666e-02
6.810400000000000e+10 1.012968410870058e+00 3.373316812354201e-02
6.815200000000000e+10 1.013029751762901e+00 3.382834488656496e-02
6.820000000000000e+10 1.013090295918968e+00 3.392345349086116e-02
6.824800000000000e+10 1.013150034273916e+00 3.401847755919742e-02
6.829600000000000e+10 1.013208958601031e+00 3.411340126290476e-02
6.834400000000000e+10 1.013267061233003e+00 3.420820912321742e-02
6.839200000000000e+10 1.013324334956502e+00 3.430288605925932e-02
6.844000000000000e+10 1.013380772999924e+00 3.439741766820607e-02
6.848800000000000e+10 1.013436369046331e+00 3.449179020710873e-02
6.853600000000000e+10 1.013491117550068e+00 3.458599048903249e-02
6.858400000000000e+10 1.013545013563236e+00 3.468000567467394e-02
6.863200000000000e+10 1.013598053142489e+00 3.477382309926341e-02
6.868000000000000e+10 1.013650233097062e+00 3.486743023179961e-02
6.872800000000000e+10 1.013701551074403e+00 3.496081464151211e-02
6.877600000000000e+10 1.013752005626355e+00 3.505396399005777e-02
6.882400000000000e+10 1.013801596171562e+00 3.514686597907066e-02
6.887200000000000e+10 1.013850323041584e+00 3.523950823038272e-02
6.892000000000000e+10 1.013898187218109e+00 3.533187789713210e-02
6.896800000000000e+10 1.013945190566550e+00 3.542396146118949e-02
6.901600000000000e+10 1.013991335430616e+00 3.551574470416977e-02
6.906400000000000e+10 1.014036625080942e+00 3.560721277892862e-02
6.911200000000000e+10 1.014081063501021e+00 3.569835056389226e-02
6.916000000000000e+10 1.014124655903941e+00 3.578914270403244e-02
6.920800000000000e+10 1.014167408511760e+00 3.587957349216902e-02
6.925600000000000e+10 1.014209328707405e+00 3.596962660437532e-02
6.930400000000000e+10 1.014250424642331e+00 3.605928504579869e-02
6.935200000000000e+10 1.014290704942609e+00 3.614853204104787e-02
6.940000000000000e+10 1.014330178813056e+00 3.623735106670420e-02
6.944800000000000e+10 1.014368855620767e+00 3.632572599608237e-02
6.949600000000000e+10 1.014406745020536e+00 3.641364100228479e-02
6.954400000000000e+10 1.014443856777471e+00 3.650108076004577e-02
6.959200000000000e+10 1.014480201112006e+00 3.658803042946309e-02
6.964000000000000e+10 1.014515788284705e+00 3.667447577603829e-02
6.968800000000000e+10 1.014550628742350e+00 3.676040292734065e-02
6.973600000000000e+10 1.014584732969504e+00 3.684579844180826e-02
6.978400000000000e+10 1.014618111493784e+00 3.693064943064828e-02
6.983200000000000e+10 1.014650774825037e+00 3.701494351386873e-02
6.988000000000000e+10 1.014682733359880e+00 3.709866891177434e-02
6.992800000000000e+10 1.014713997381993e+00 3.718181438719665e-02
6.997600000000000e+10 1.014744576975291e+00 3.726436929022554e-02
7.002400000000000e+10 1.014774482027507e+00 3.734632344610703e-02
7.007200000000000e+10 1.014803722139605e+00 3.742766726721244e-02
7.012000000000000e+10 1.014832307080054e+00 3.750839136679972e-02
7.016800000000000e+10 1.014860246814677e+00 3.758848648654425e-02
7.021600000000000e+10 1.014887551459582e+00 3.766794336084708e-02
7.026400000000000e+10 1.014914231245404e+00 3.774675279226977e-02
7.031200000000000e+10 1.014940296797318e+00 3.782490542920391e-02
7.036000000000000e+10 1.014965758619053e+00 3.790239153248178e-02
7.040800000000000e+10 1.014990626859023e+00 3.797920106370879e-02
7.045600000000000e+10 1.015014911293223e+00 3.805532377795286e-02
7.050400000000000e+10 1.015038621651497e+00 3.813074918990889e-02
7.055200000000000e+10 1.015061767677585e+00 3.820546686579865e-02
7.060000000000000e+10 1.015084359070003e+00 3.827946627221943e-02
7.064800000000000e+10 1.015106405276901e+00 3.835273688638700e-02
7.069600000000000e+10 1.015127915763699e+00 3.842526801462391e-02
7.074400000000000e+10 1.015148899964344e+00 3.849704887343851e-02
7.079200000000000e+10 1.015169367085112e+00 3.856806852500243e-02
7.084000000000000e+10 1.015189326314794e+00 3.863831604326102e-02
7.088800000000000e+10 1.015208786680681e+00 3.870778050328612e-02
7.093600000000000e+10 1.015227757292760e+00 3.877645099800398e-02
7.098400000000000e+10 1.015246246952480e+00 3.884431665011473e-02
7.103200000000000e+10 1.015264264853761e+00 3.891136673148374e-02
7.108000000000000e+10 1.015281820146271e+00 3.897759058618495e-02
7.112800000000000e+10 1.015298922040110e+00 3.904297780125740e-02
7.117600000000000e+10 1.015315579944790e+00 3.910751820638874e-02
7.122400000000000e+10 1.015331803410262e+00 3.917120214012747e-02
7.127200000000000e+10 1.015347602148523e+00 3.923402039846945e-02
7.132000000000000e+10 1.015362985864795e+00 3.929596448981316e-02
7.136800000000000e+10 1.015377964372762e+00 3.935702666137775e-02
7.141600000000000e+10 1.015392547116064e+00 3.941719966868495e-02
7.146400000000000e+10 1.015406743541255e+00 3.947647668511924e-02
7.151200000000000e+10 1.015420562549957e+00 3.953485146354390e-02
7.156000000000000e+10 1.015434012609150e+00 3.959231794295624e-02
7.160800000000000e+10 1.015447101466844e+00 3.964886997787413e-02
7.165600000000000e+10 1.015459836363414e+00 3.970450126158733e-02
7.170400000000000e+10 1.015472224151015e+00 3.975920515447754e-02
7.175200000000000e+10 1.015484271676324e+00 3.981297437036770e-02
7.180000000000000e+10 1.015495985582309e+00 3.986580168932326e-02
7.184800000000000e+10 1.015507373330747e+00 3.991768129489413e-02
7.189600000000000e+10 1.015518443124268e+00 3.996860785550055e-02
7.194400000000000e+10 1.015529202904867e+00 4.001857568223387e-02
7.199200000000000e+10 1.015539660510758e+00 4.006757890706248e-02
7.204000000000000e+10 1.015549823833441e+00 4.011561185661987e-02
7.208800000000000e+10 1.015559700584383e+00 4.016266869083439e-02
7.213600000000000e+10 1.015569298567028e+00 4.020874369425539e-02
7.218400000000000e+10 1.015578625882280e+00 4.025383144043568e-02
7.223200000000000e+10 1.015587691036980e+00 4.029792697627797e-02
7.228000000000000e+10 1.015596503166351e+00 4.034102564910954e-02
7.232800000000000e+10 1.015605071609076e+00 4.038312321755175e-02
7.237600000000000e+10 1.015613405931066e+00 4.042421614162263e-02
7.242400000000000e+10 1.015621515864900e+00 4.046430129763520e-02
7.247200000000000e+10 1.015629411315603e+00 4.050337588114459e-02
7.252000000000000e+10 1.015637102123324e+00 4.054143728084094e-02
7.256800000000000e+10 1.015644597935049e+00 4.057848311495880e-02
7.261600000000000e+10 1.015651908437590e+00 4.061451131568965e-02
7.266400000000000e+10 1.015659043311430e+00 4.064952001278457e-02
7.271200000000000e+10 1.015666012236021e+00 4.068350749580305e-02
7.276000000000000e+10 1.015672824921957e+00 4.071647221056241e-02
7.280800000000000e+10 1.015679491078129e+00 4.074841280131595e-02
7.285600000000000e+10 1.015686020476452e+00 4.077932810469918e-02
7.290400000000000e+10 1.015692423031196e+00 4.080921719628430e-02
7.295200000000000e+10 1.015698708588972e+00 4.083807925253712e-02
7.300000000000000e+10 1.015704887216950e+00 4.086591359160495e-02
7.304800000000000e+10 1.015710969003475e+00 4.089271944679496e-02
7.309600000000000e+10 1.015716964357020e+00 4.091849623718733e-02
7.314400000000000e+10 1.015722883757286e+00 4.094324333523869e-02
7.319200000000000e+10 1.015728737921124e+00 4.096696034167429e-02
7.324000000000000e+10 1.015734537504082e+00 4.098964674834380e-02
7.328800000000000e+10 1.015740293172718e+00 4.101130219649289e-02
7.333600000000000e+10 1.015746015334500e+00 4.103192631628882e-02
7.338400000000000e+10 1.015751714092498e+00 4.105151920238519e-02
7.343200000000000e+10 1.015757399280602e+00 4.107008098959216e-02
7.348000000000000e+10 1.015763080496566e+00 4.108761182894095e-02
7.352800000000000e+10 1.015768765921819e+00 4.110411744587018e-02
7.357600000000000e+10 1.015774463163109e+00 4.111960320276700e-02
7.362400000000000e+10 1.015780179281584e+00 4.113407438333729e-02
7.367200000000000e+10 1.015785920940358e+00 4.114753614670793e-02
7.372000000000000e+10 1.015791694201992e+00 4.115999353805787e-02
7.376800000000000e+10 1.015797504464081e+00 4.117145147562789e-02
7.381600000000000e+10 1.015803355309431e+00 4.118192016803904e-02
7.386400000000000e+10 1.015809249673179e+00 4.119140955428993e-02
7.391200000000000e+10 1.015815189769031e+00 4.119992939061528e-02
7.396000000000000e+10 1.015821176566295e+00 4.120749205718909e-02
7.400800000000000e+10 1.015827210651355e+00 4.121410928236743e-02
7.405600000000000e+10 1.015833292208210e+00 4.121979237805864e-02
7.410400000000000e+10 1.015839421265172e+00 4.122455283623534e-02
7.415200000000000e+10 1.015845597564018e+00 4.122840215264376e-02
7.420000000000000e+10 1.015851820593004e+00 4.123135184327150e-02
7.424800000000000e+10 1.015858089504406e+00 4.123341345657022e-02
7.429600000000000e+10 1.015864403330996e+00 4.123459883911500e-02
7.434400000000000e+10 1.015870760785865e+00 4.123491975040321e-02
7.439200000000000e+10 1.015877160413762e+00 4.123438810173315e-02
7.444000000000000e+10 1.015883600418041e+00 4.123301580957791e-02
7.448800000000000e+10 1.015890078690751e+00 4.123081485299584e-02
7.453600000000000e+10 1.015896592823849e+00 4.122779723284537e-02
7.458400000000000e+10 1.015903140111765e+00 4.122397509499279e-02
7.463200000000000e+10 1.015909717528080e+00 4.121936061216552e-02
7.468000000000000e+10 1.015916321852055e+00 4.121396595726937e-02
7.472800000000000e+10 1.015922949743102e+00 4.120780326035727e-02
7.477600000000000e+10 1.015929597719029e+00 4.120088454704850e-02
7.482400000000000e+10 1.015936262095676e+00 4.119322168614251e-02
7.487200000000000e+10 1.015942939165110e+00 4.118482643200612e-02
7.492000000000000e+10 1.015949625155743e+00 4.117571030092618e-02
7.496800000000000e+10 1.015956316229842e+00 4.116588470574335e-02
7.501600000000000e+10 1.015963008476871e+00 4.115536081027470e-02
7.506400000000000e+10 1.015969698067218e+00 4.114414974819382e-02
7.511200000000000e+10 1.015976381197228e+00 4.113226272322825e-02
7.516000000000000e+10 1.015983053978642e+00 4.111971096187092e-02
7.520800000000000e+10 1.015989712515615e+00 4.110650603127877e-02
7.525600000000000e+10 1.015996352793731e+00 4.109265953563463e-02
7.530400000000000e+10 1.016002970938156e+00 4.107818348017939e-02
7.535200000000000e+10 1.016009563093983e+00 4.106308992375830e-02
7.540000000000000e+10 1.016016125764236e+00 4.104739126333209e-02
7.544800000000000e+10 1.016022655638642e+00 4.103109992356032e-02
7.549600000000000e+10 1.016029149680998e+00 4.101422832276555e-02
7.554400000000000e+10 1.016035604982290e+00 4.099678872466712e-02
7.559200000000000e+10 1.016042018646563e+00 4.097879339145928e-02
7.564000000000000e+10 1.016048387743359e+00 4.096025474269049e-02
7.568800000000000e+10 1.016054709135171e+00 4.094118539904196e-02
7.573600000000000e+10 1.016060979525905e+00 4.092159824672609e-02
7.578400000000000e+10 1.016067195466978e+00 4.090150651883959e-02
7.583200000000000e+10 1.016073353294935e+00 4.088092364862304e-02
7.588000000000000e+10 1.016079449411889e+00 4.085986325954106e-02
7.592800000000000e+10 1.016085480212598e+00 4.083833899044029e-02
7.597600000000000e+10 1.016091442307303e+00 4.081636462968001e-02
7.602400000000000e+10 1.016097332301679e+00 4.079395378721902e-02
7.607200000000000e+10 1.016103146853525e+00 4.077112012646244e-02
7.612000000000000e+10 1.016108882573689e+00 4.074787735000577e-02
7.616800000000000e+10 1.016114536044869e+00 4.072423941305433e-02
7.621600000000000e+10 1.016120103666989e+00 4.070022042020308e-02
7.626400000000000e+10 1.016125581770413e+00 4.067583466609687e-02
7.631200000000000e+10 1.016130966505733e+00 4.065109655948632e-02
7.636000000000000e+10 1.016136253925814e+00 4.062602071933546e-02
7.640800000000000e+10 1.016141440157112e+00 4.060062195630396e-02
7.645600000000000e+10 1.016146521377389e+00 4.057491524637882e-02
7.650400000000000e+10 1.016151494117121e+00 4.054891572189524e-02
7.655200000000000e+10 1.016156355130397e+00 4.052263855748197e-02
7.660000000000000e+10 1.016161101592869e+00 4.049609902663904e-02
7.664800000000000e+10 1.016165730911360e+00 4.046931239810687e-02
7.669600000000000e+10 1.016170240892977e+00 4.044229390816961e-02
7.674400000000000e+10 1.016174629437383e+00 4.041505869807951e-02
7.679200000000000e+10 1.016178894714246e+00 4.038762185000892e-02
7.684000000000000e+10 1.016183034928163e+00 4.035999812763268e-02
7.688800000000000e+10 1.016187048582807e+00 4.033220236240294e-02
7.693600000000000e+10 1.016190934525033e+00 4.030424939195251e-02
7.698400000000000e+10 1.016194691658124e+00 4.027615385799716e-02
7.703200000000000e+10 1.016198319496536e+00 4.024793036402536e-02
7.708000000000000e+10 1.016201818246011e+00 4.021959333217095e-02
7.712800000000000e+10 1.016205189045589e+00 4.019115687028577e-02
7.717600000000000e+10 1.016208433684892e+00 4.016263443252108e-02
7.722400000000000e+10 1.016211554606099e+00 4.013403875881993e-02
7.727200000000000e+10 1.016214554682422e+00 4.010538165599425e-02
7.732000000000000e+10 1.016217437125601e+00 4.007667434249982e-02
7.736800000000000e+10 1.016220205214410e+00 4.004792767441327e-02
7.741600000000000e+10 1.016222862203064e+00 4.001915259392199e-02
7.746400000000000e+10 1.016225411319565e+00 3.999036004712780e-02
7.751200000000000e+10 1.016227855767700e+00 3.996156067696364e-02
7.756000000000000e+10 1.016230198635453e+00 3.993276491280655e-02
7.760800000000000e+10 1.016232443093465e+00 3.990398356852334e-02
7.765600000000000e+10 1.016234592377245e+00 3.987522737574148e-02
7.770400000000000e+10 1.016236650021610e+00 3.984650695606014e-02
7.775200000000000e+10 1.016238620238294e+00 3.981783297638201e-02
7.780000000000000e+10 1.016240506692494e+00 3.978921569202284e-02
7.784800000000000e+10 1.016242313118015e+00 3.976066536235208e-02
7.789600000000000e+10 1.016244043494881e+00 3.973219216827245e-02
7.794400000000000e+10 1.016245701989818e+00 3.970380619342716e-02
7.799200000000000e+10 1.016247292932065e+00 3.967551732685572e-02
7.804000000000000e+10 1.016248820777427e+00 3.964733531149841e-02
7.808800000000000e+10 1.016250290260967e+00 3.961926981119824e-02
7.813600000000000e+10 1.016251706177218e+00 3.959133022957395e-02
7.818400000000000e+10 1.016253073416384e+00 3.956352583925182e-02
7.823200000000000e+10 1.016254397058362e+00 3.953586583561801e-02
7.828000000000000e+10 1.016255682259033e+00 3.950835926738937e-02
7.832800000000000e+10 1.016256934296414e+00 3.948101497766267e-02
7.837600000000000e+10 1.016258158585878e+00 3.945384206995832e-02
7.842400000000000e+10 1.016259360595918e+00 3.942684948782697e-02
7.847200000000000e+10 1.016260545839186e+00 3.940004580313528e-02
7.852000000000000e+10 1.016261720094491e+00 3.937343934732198e-02
7.856800000000000e+10 1.016262889324523e+00 3.934703790522632e-02
7.861600000000000e+10 1.016264059350270e+00 3.932084919567406e-02
7.866400000000000e+10 1.016265236270577e+00 3.929488064818396e-02
7.871200000000000e+10 1.016266426585467e+00 3.926913941924748e-02
7.876000000000000e+10 1.016267636979373e+00 3.924363240257242e-02
7.880800000000000e+10 1.016268874374264e+00 3.921836632007368e-02
7.885600000000000e+10 1.016270145711152e+00 3.919334760507598e-02
7.890400000000000e+10 1.016271457768141e+00 3.916858264454802e-02
7.895200000000000e+10 1.016272817391133e+00 3.914407789224784e-02
7.900000000000000e+10 1.016274231776173e+00 3.911983962422073e-02
7.904800000000000e+10 1.016275708235753e+00 3.909587381953825e-02
7.909600000000000e+10 1.016277254471410e+00 3.907218619010389e-02
7.914400000000000e+10 1.016278878741851e+00 3.904878196126967e-02
7.919200000000000e+10 1.016280589822848e+00 3.902566566998355e-02
7.924000000000000e+10 1.016282397099269e+00 3.900284096165060e-02
7.928800000000000e+10 1.016284310096011e+00 3.898031037757166e-02
7.933600000000000e+10 1.016286338276473e+00 3.895807546713066e-02
7.938400000000000e+10 1.016288490768621e+00 3.893613682651686e-02
7.943200000000000e+10 1.016290776318982e+00 3.891449451573176e-02
7.948000000000000e+10 1.016293203336978e+00 3.889314808643735e-02
7.952800000000000e+10 1.016295779943247e+00 3.887209686334502e-02
7.957600000000000e+10 1.016298513944648e+00 3.885134007581445e-02
7.962400000000000e+10 1.016301412877064e+00 3.883087694531796e-02
7.967200000000000e+10 1.016304484333089e+00 3.881070680806679e-02
7.972000000000000e+10 1.016307736241629e+00 3.879082907284803e-02
7.976800000000000e+10 1.016311176826267e+00 3.877124304475758e-02
7.981600000000000e+10 1.016314814429382e+00 3.875194832615096e-02
7.986400000000000e+10 1.016318657126594e+00 3.873294434568314e-02
7.991200000000000e+10 1.016322713833816e+00 3.871422986658131e-02
7.996000000000000e+10 1.016326993808402e+00 3.869580304650600e-02
8.000800000000000e+10 1.016331506164443e+00 3.867766146847942e-02
8.005600000000000e+10 1.016336259953281e+00 3.865980228746233e-02
8.010400000000000e+10 1.016341263927741e+00 3.864222217251561e-02
8.015200000000000e+10 1.016346526042874e+00 3.862491729110159e-02
8.020000000000000e+10 1.016352054006241e+00 3.860788384121040e-02
8.024800000000000e+10 1.016357855240907e+00 3.859111778360911e-02
8.029600000000000e+10 1.016363937014143e+00 3.857461489023634e-02
8.034400000000000e+10 1.016370306406724e+00 3.855837052399873e-02
8.039200000000000e+10 1.016376970395584e+00 3.854237946947880e-02
8.044000000000000e+10 1.016383935838099e+00 3.852663571880918e-02
8.048800000000000e+10 1.016391209662985e+00 3.851113276323113e-02
8.053600000000000e+10 1.016398798279020e+00 3.849586311041073e-02
8.058400000000000e+10 1.016406707555600e+00 3.848081870423403e-02
8.063200000000000e+10 1.016414943075530e+00 3.846599081030590e-02
8.068000000000000e+10 1.016423509888437e+00 3.845137009039912e-02
8.072800000000000e+10 1.016432412224086e+00 3.843694660227535e-02
8.077600000000000e+10 1.016441653727816e+00 3.842271013568319e-02
8.082400000000000e+10 1.016451237449746e+00 3.840865029829441e-02
8.087200000000000e+10 1.016461165945580e+00 3.839475646062650e-02
8.092000000000000e+10 1.016471441404390e+00 3.838101785268341e-02
8.096800000000000e+10 1.016482065599910e+00 3.836742334257864e-02
8.101600000000000e+10 1.016493039847218e+00 3.835396152294159e-02
8.106400000000000e+10 1.016504364899827e+00 3.834062055567478e-02
8.111200000000000e+10 1.016516041393013e+00 3.832738845445868e-02
8.116000000000000e+10 1.016528070013712e+00 3.831425297572316e-02
8.120800000000000e+10 1.016540451526316e+00 3.830120157406439e-02
8.125600000000000e+10 1.016553186163486e+00 3.828822132908134e-02
8.130400000000000e+10 1.016566273532908e+00 3.827529874747924e-02
8.135200000000000e+10 1.016579713662916e+00 3.826241985950649e-02
8.140000000000000e+10 1.016593506956587e+00 3.824957001853971e-02
8.144800000000000e+10 1.016607653617137e+00 3.823673414495345e-02
8.149600000000000e+10 1.016622153301791e+00 3.822389710567121e-02
8.154400000000000e+10 1.016637005435822e+00 3.821104306006254e-02
8.159200000000000e+10 1.016652209291803e+00 3.819815503124799e-02
8.164000000000000e+10 1.016667764051912e+00 3.818521571651479e-02
8.168800000000000e+10 1.016683667788166e+00 3.817220759459251e-02
8.173600000000000e+10 1.016699918401226e+00 3.815911228784348e-02
8.178400000000000e+10 1.016716513933841e+00 3.814591094590045e-02
8.183200000000000e+10 1.016733451585919e+00 3.813258453587580e-02
8.188000000000000e+10 1.016750727321178e+00 3.811911431404483e-02
8.192800000000000e+10 1.016768335887840e+00 3.810548168556387e-02
8.197600000000000e+10 1.016786271557880e+00 3.809166813360684e-02
8.202400000000000e+10 1.016804528355483e+00 3.807765527282211e-02
8.207200000000000e+10 1.016823099998177e+00 3.806342506883920e-02
8.212000000000000e+10 1.016841979877266e+00 3.804895974154835e-02
8.216800000000000e+10 1.016861160964926e+00 3.803424194974592e-02
8.221600000000000e+10 1.016880635860720e+00 3.801925473543951e-02
8.226400000000000e+10 1.016900397087609e+00 3.800398128229310e-02
8.231200000000000e+10 1.016920437042406e+00 3.798840486933535e-02
8.236000000000000e+10 1.016940748142565e+00 3.797250873095332e-02
8.240800000000000e+10 1.016961322786146e+00 3.795627584110297e-02
8.245600000000000e+10 1.016982153254123e+00 3.793968915521721e-02
8.250400000000000e+10 1.017003231645309e+00 3.792273167611922e-02
8.255200000000000e+10 1.017024549745333e+00 3.790538677051954e-02
8.260000000000000e+10 1.017046099084111e+00 3.788763827380864e-02
8.264800000000000e+10 1.017067871184000e+00 3.786947056270105e-02
8.269600000000000e+10 1.017089857626703e+00 3.785086845538401e-02
8.274400000000000e+10 1.017112050041998e+00 3.783181689805479e-02
8.279200000000000e+10 1.017134440096264e+00 3.781230102065767e-02
8.284000000000000e+10 1.017157019461963e+00 3.779230615898499e-02
8.288800000000000e+10 1.017179779831444e+00 3.777181792691166e-02
8.293600000000000e+10 1.017202712974477e+00 3.775082234673507e-02
8.298400000000000e+10 1.017225810460087e+00 3.772930577609934e-02
8.303200000000000e+10 1.017249063438588e+00 3.770725507862205e-02
8.308000000000000e+10 1.017272462507212e+00 3.768465773593693e-02
8.312800000000000e+10 1.017295997520298e+00 3.766150190843363e-02
8.317600000000000e+10 1.017319657567969e+00 3.763777662836471e-02
8.322400000000000e+10 1.017343430730595e+00 3.761347187333133e-02
8.327200000000000e+10 1.017367304320909e+00 3.758857863991064e-02
8.332000000000000e+10 1.017391265019979e+00 3.756308883046692e-02
8.336800000000000e+10 1.017415299326774e+00 3.753699502552086e-02
8.341600000000000e+10 1.017439393625880e+00 3.751029066518907e-02
8.346400000000000e+10 1.017463534531289e+00 3.748296970668012e-02
8.351200000000000e+10 1.017487709162001e+00 3.745502665291457e-02
8.356000000000000e+10 1.017511905171270e+00 3.742645657502584e-02
8.360800000000000e+10 1.017536110709007e+00 3.739725502640525e-02
8.365600000000000e+10 1.017560314254955e+00 3.736741774930018e-02
8.370400000000000e+10 1.017584504434632e+00 3.733694062059396e-02
8.375200000000000e+10 1.017608669885158e+00 3.730581965702728e-02
8.380000000000000e+10 1.017632799298249e+00 3.727405102193055e-02
8.384800000000000e+10 1.017656881356377e+00 3.724163129665169e-02
8.389600000000000e+10 1.017680904568649e+00 3.720855742506844e-02
8.394400000000000e+10 1.017704857383925e+00 3.717482672544889e-02
8.399200000000000e+10 1.017728728286735e+00 3.714043712289306e-02
8.404000000000000e+10 1.017752506239655e+00 3.710538714181150e-02
8.408800000000000e+10 1.017776180762590e+00 3.706967586406042e-02
8.413600000000000e+10 1.017799742089873e+00 3.703330284285154e-02
8.418400000000000e+10 1.017823180983335e+00 3.699626815841373e-02
8.423200000000000e+10 1.017846488482402e+00 3.695857241266979e-02
8.428000000000000e+10 1.017869655887458e+00 3.692021682665413e-02
8.432800000000000e+10 1.017892674127084e+00 3.688120311638427e-02
8.437600000000000e+10 1.017915534066539e+00 3.684153398768596e-02
8.442400000000000e+10 1.017938226324945e+00 3.680121298235240e-02
8.447200000000000e+10 1.017960741242655e+00 3.676024445206538e-02
8.452000000000000e+10 1.017983068981928e+00 3.671863367221734e-02
8.456800000000000e+10 1.018005199674406e+00 3.667638679434613e-02
8.461600000000000e+10 1.018027123519833e+00 3.663351083390975e-02
8.466400000000000e+10 1.018048831067358e+00 3.659001356740525e-02
8.471200000000000e+10 1.018070313395418e+00 3.654590345742020e-02
8.476000000000000e+10 1.018091562289147e+00 3.650118955977923e-02
8.480800000000000e+10 1.018112570309678e+00 3.645588125636933e-02
8.485600000000000e+10 1.018133330698885e+00 3.640998803845757e-02
8.490400000000000e+10 1.018153837129844e+00 3.636351986163005e-02
8.495200000000000e+10 1.018174083491121e+00 3.631648734933749e-02
8.500000000000000e+10 1.018194063644850e+00 3.626890162529084e-02
8.504800000000000e+10 1.018213771339853e+00 3.622077428824484e-02
8.509600000000000e+10 1.018233200455112e+00 3.617211743550460e-02
8.514400000000000e+10 1.018252344598028e+00 3.612294378891062e-02
8.519200000000000e+10 1.018271197670694e+00 3.607326678236313e-02
8.524000000000000e+10 1.018289753396847e+00 3.602310168797321e-02
8.528800000000000e+10 1.018308006428016e+00 3.597246419316347e-02
8.533600000000000e+10 1.018325952305970e+00 3.592137107751800e-02
8.538400000000000e+10 1.018343587316521e+00 3.586984030395701e-02
8.543200000000000e+10 1.018360909035171e+00 3.581789031009057e-02
8.548000000000000e+10 1.018377915551860e+00 3.576554031441909e-02
8.552800000000000e+10 1.018394605375843e+00 3.571281018960857e-02
8.557600000000000e+10 1.018410977504526e+00 3.565972049035691e-02
8.562400000000000e+10 1.018427031400688e+00 3.560629261999274e-02
8.567200000000000e+10 1.018442766321419e+00 3.555254831295145e-02
8.572000000000000e+10 1.018458181647508e+00 3.549851003975506e-02
8.576800000000000e+10 1.018473276926006e+00 3.544420104208504e-02
8.581600000000000e+10 1.018488052215335e+00 3.538964526575102e-02
8.586400000000000e+10 1.018502507709771e+00 3.533486688990050e-02
8.591200000000000e+10 1.018516643885771e+00 3.527989079964947e-02
8.596000000000000e+10 1.018530461571127e+00 3.522474237178354e-02
8.600800000000000e+10 1.018543962059285e+00 3.516944745644537e-02
8.605600000000000e+10 1.018557147176485e+00 3.511403241354451e-02
8.610400000000000e+10 1.018570019106385e+00 3.505852410496189e-02
8.615200000000000e+10 1.018582580532862e+00 3.500294942940949e-02
8.620000000000000e+10 1.018594834369472e+00 3.494733552940760e-02
8.624800000000000e+10 1.018606783624636e+00 3.489170993845751e-02
8.629600000000000e+10 1.018618431120175e+00 3.483610061565329e-02
8.634400000000000e+10 1.018629779737724e+00 3.478053086292088e-02
8.639200000000000e+10 1.018640831656356e+00 3.472502355494893e-02
8.644000000000000e+10 1.018651589877379e+00 3.466960138366221e-02
8.648800000000000e+10 1.018662057431236e+00 3.461428743755781e-02
8.653600000000000e+10 1.018672237171542e+00 3.455910523014352e-02
8.658400000000000e+10 1.018682132214537e+00 3.450407832991515e-02
8.663200000000000e+10 1.018691745994470e+00 3.444923035892432e-02
8.668000000000000e+10 1.018701082805905e+00 3.439458479218602e-02
8.672800000000000e+10 1.018710147181028e+00 3.434016521668828e-02
8.677600000000000e+10 1.018718943574380e+00 3.428599516117103e-02
8.682400000000000e+10 1.018727476974777e+00 3.423209733310367e-02
8.687200000000000e+10 1.018735752953366e+00 3.417849415128862e-02
8.692000000000000e+10 1.018743777076559e+00 3.412520802153991e-02
8.696800000000000e+10 1.018751555120559e+00 3.407226150905919e-02
8.701600000000000e+10 1.018759092807421e+00 3.401967735368535e-02
8.706400000000000e+10 1.018766395712346e+00 3.396747870695934e-02
8.711200000000000e+10 1.018773469268477e+00 3.391568884541211e-02
8.716000000000000e+10 1.018780318884471e+00 3.386433114779282e-02
8.720800000000000e+10 1.018786950421361e+00 3.381342850714242e-02
8.725600000000000e+10 1.018793370086590e+00 3.376300358748104e-02
8.730400000000000e+10 1.018799584814452e+00 3.371307854290061e-02
8.735200000000000e+10 1.018805602353237e+00 3.366367545205137e-02
8.740000000000000e+10 1.018811430890992e+00 3.361481643483887e-02
8.744800000000000e+10 1.018817078620676e+00 3.356652360295054e-02
8.749600000000000e+10 1.018822553138642e+00 3.351881915498785e-02
8.754400000000000e+10 1.018827861863515e+00 3.347172472775327e-02
8.759200000000000e+10 1.018833011678957e+00 3.342526134643064e-02
8.764000000000000e+10 1.018838009690536e+00 3.337944955424867e-02
8.768800000000000e+10 1.018842862882262e+00 3.333430961645630e-02
8.773600000000000e+10 1.018847578790310e+00 3.328986103778216e-02
8.778400000000000e+10 1.018852164028950e+00 3.324612325569456e-02
8.783200000000000e+10 1.018856625666807e+00 3.320311482858690e-02
8.788000000000000e+10 1.018860971178620e+00 3.316085358601774e-02
8.792800000000000e+10 1.018865208069406e+00 3.311935741472700e-02
8.797600000000000e+10 1.018869344176578e+00 3.307864376422751e-02
8.802400000000000e+10 1.018873387453988e+00 3.303872956725266e-02
8.807200000000000e+10 1.018877346253482e+00 3.299963134563366e-02
8.812000000000000e+10 1.018881229244168e+00 3.296136452869350e-02
8.816800000000000e+10 1.018885045339506e+00 3.292394389049441e-02
8.821600000000000e+10 1.018888804134010e+00 3.288738264610741e-02
8.826400000000000e+10 1.018892514823132e+00 3.285169440132883e-02
8.831200000000000e+10 1.018896185659883e+00 3.281689232324941e-02
8.836000000000000e+10 1.018899824674193e+00 3.278298843805167e-02
8.840800000000000e+10 1.018903439812967e+00 3.274999375260707e-02
8.845600000000000e+10 1.018907038876529e+00 3.271791873223302e-02
8.850400000000000e+10 1.018910629710772e+00 3.268677325630950e-02
8.855200000000000e+10 1.018914220303411e+00 3.265656628689973e-02
8.860000000000000e+10 1.018917818492087e+00 3.262730691131630e-02
8.864800000000000e+10 1.018921431916060e+00 3.259900130076793e-02
8.869600000000000e+10 1.018925068420179e+00 3.257164990885036e-02
8.874400000000000e+10 1.018928736112175e+00 3.254524691060083e-02
8.879200000000000e+10 1.018932442646813e+00 3.251977671959878e-02
8.884000000000000e+10 1.018936195582460e+00 3.249522367830490e-02
8.888800000000000e+10 1.018940001933605e+00 3.247157161443703e-02
8.893600000000000e+10 1.018943868758236e+00 3.244880358185374e-02
8.898400000000000e+10 1.018947803167271e+00 3.242689968833098e-02
8.903200000000000e+10 1.018951812197660e+00 3.240584084434475e-02
8.908000000000000e+10 1.018955902264343e+00 3.238560837860292e-02
8.912800000000000e+10 1.018960079455511e+00 3.236618310032668e-02
8.917600000000000e+10 1.018964349131366e+00 3.234754515409715e-02
8.922400000000000e+10 1.018968716104504e+00 3.232967415258944e-02
8.927200000000000e+10 1.018973185053244e+00 3.231254963577701e-02
8.932000000000000e+10 1.018977760433596e+00 3.229615065461831e-02
8.936800000000000e+10 1.018982446729839e+00 3.228045612283229e-02
8.941600000000000e+10 1.018987248266907e+00 3.226544449800500e-02
8.946400000000000e+10 1.018992169118776e+00 3.225109422608310e-02
8.951200000000000e+10 1.018997213309925e+00 3.223738335219543e-02
8.956000000000000e+10 1.019002384701901e+00 3.222428977018093e-02
8.960800000000000e+10 1.019007687187605e+00 3.221179140172976e-02
8.965600000000000e+10 1.019013124083166e+00 3.219986658242822e-02
8.970400000000000e+10 1.019018698670591e+00 3.218849323991493e-02
8.975200000000000e+10 1.019024413867030e+00 3.217764993737221e-02
8.980000000000000e+10 1.019030272915681e+00 3.216731485084627e-02
8.984800000000000e+10 1.019036279048631e+00 3.215746679801609e-02
8.989600000000000e+10 1.019042435740482e+00 3.214808473667952e-02
8.994400000000000e+10 1.019048746886493e+00 3.213914727241739e-02
8.999200000000000e+10 1.019055215819831e+00 3.213063271839781e-02
9.004000000000000e+10 1.019061845944169e+00 3.212251968318203e-02
9.008800000000000e+10 1.019068640901061e+00 3.211478713846760e-02
9.013600000000000e+10 1.019075604787777e+00 3.210741396647236e-02
9.018400000000000e+10 1.019082742065175e+00 3.210037921617411e-02
9.023200000000000e+10 1.019090057885143e+00 3.209366210113410e-02
9.028000000000000e+10 1.019097556958557e+00 3.208724186430597e-02
9.032800000000000e+10 1.019105243575184e+00 3.208109663345564e-02
9.037600000000000e+10 1.019113121294102e+00 3.207520500649792e-02
9.042400000000000e+10 1.019121193689716e+00 3.206954616801041e-02
9.047200000000000e+10 1.019129464374192e+00 3.206409969692819e-02
9.052000000000000e+10 1.019137937317991e+00 3.205884558327715e-02
9.056800000000000e+10 1.019146616694405e+00 3.205376429660736e-02
9.061600000000000e+10 1.019155507641624e+00 3.204883652885358e-02
9.066400000000000e+10 1.019164616114284e+00 3.204404192215943e-02
9.071200000000000e+10 1.019173947555516e+00 3.203935953043717e-02
9.076000000000000e+10 1.019183507560373e+00 3.203476922089862e-02
9.080800000000000e+10 1.019193302108726e+00 3.203025111085472e-02
9.085600000000000e+10 1.019203337313506e+00 3.202578529803286e-02
9.090400000000000e+10 1.019213619457109e+00 3.202135142212967e-02
9.095200000000000e+10 1.019224154327473e+00 3.201692852912221e-02
9.100000000000000e+10 1.019234947020802e+00 3.201249539100587e-02
9.104800000000000e+10 1.019246001705985e+00 3.200803090472430e-02
9.109600000000000e+10 1.019257321870469e+00 3.200351479244237e-02
9.114400000000000e+10 1.019268910729676e+00 3.199892719634054e-02
9.119200000000000e+10 1.019280771350575e+00 3.199424901212491e-02
9.124000000000000e+10 1.019292906965664e+00 3.198946183384897e-02
9.128800000000000e+10 1.019305320930676e+00 3.198454761719944e-02
9.133600000000000e+10 1.019318016961976e+00 3.197948843411821e-02
9.138400000000000e+10 1.019330998552856e+00 3.197426646479454e-02
9.143200000000000e+10 1.019344269333621e+00 3.196886416900658e-02
9.148000000000000e+10 1.019357832697487e+00 3.196326400196953e-02
9.152800000000000e+10 1.019371691787243e+00 3.195744838771673e-02
9.157600000000000e+10 1.019385849155535e+00 3.195139972610891e-02
9.162400000000000e+10 1.019400306649185e+00 3.194510034105059e-02
9.167200000000000e+10 1.019415065467500e+00 3.193853267537215e-02
9.172000000000000e+10 1.019430125970920e+00 3.193167949969355e-02
9.176800000000000e+10 1.019445487737608e+00 3.192452406242406e-02
9.181600000000000e+10 1.019461149871137e+00 3.191704976534564e-02
9.186400000000000e+10 1.019477111036051e+00 3.190924069758568e-02
9.191200000000000e+10 1.019493369753629e+00 3.190108130521451e-02
9.196000000000000e+10 1.019509924660690e+00 3.189255635110824e-02
9.200800000000000e+10 1.019526774511183e+00 3.188365091116398e-02
9.205600000000000e+10 1.019543918170017e+00 3.187435001799720e-02
9.210400000000000e+10 1.019561354362008e+00 3.186463861581478e-02
9.215200000000000e+10 1.019579081502747e+00 3.185450188720890e-02
9.220000000000000e+10 1.019597097661828e+00 3.184392517253183e-02
9.224800000000000e+10 1.019615400624236e+00 3.183289398942088e-02
9.229600000000000e+10 1.019633987577865e+00 3.182139424704757e-02
9.234400000000000e+10 1.019652854961291e+00 3.180941244852507e-02
9.239200000000000e+10 1.019671998481453e+00 3.179693557001081e-02
9.244000000000000e+10 1.019691413329620e+00 3.178395080671196e-02
9.248800000000000e+10 1.019711094332124e+00 3.177044583143300e-02
9.253600000000000e+10 1.019731035975715e+00 3.175640870591288e-02
9.258400000000000e+10 1.019751232757412e+00 3.174182809138245e-02
9.263200000000000e+10 1.019771679494650e+00 3.172669276534052e-02
9.268000000000000e+10 1.019792371201898e+00 3.171099174572779e-02
9.272800000000000e+10 1.019813302990810e+00 3.169471401173304e-02
9.277600000000000e+10 1.019834470119886e+00 3.167784841652889e-02
9.282400000000000e+10 1.019855867794449e+00 3.166038368592074e-02
9.287200000000000e+10 1.019877491132341e+00 3.164230846584877e-02
9.292000000000000e+10 1.019899335035958e+00 3.162361134471424e-02
9.296800000000000e+10 1.019921394063525e+00 3.160428092685614e-02
9.301600000000000e+10 1.019943662454530e+00 3.158430603302152e-02
9.306400000000000e+10 1.019966134158274e+00 3.156367557122677e-02
9.311200000000000e+10 1.019988802941989e+00 3.154237881431871e-02
9.316000000000000e+10 1.020011662485708e+00 3.152040527404542e-02
9.320800000000000e+10 1.020034706626032e+00 3.149774488934720e-02
9.325600000000000e+10 1.020057929374510e+00 3.147438804943649e-02
9.330400000000000e+10 1.020081325031412e+00 3.145032537139249e-02
9.335200000000000e+10 1.020104888382990e+00 3.142554777768544e-02
9.340000000000000e+10 1.020128614724668e+00 3.140004637451196e-02
9.344800000000000e+10 1.020152499818771e+00 3.137381255445743e-02
9.349600000000000e+10 1.020176539792814e+00 3.134683777716307e-02
9.354400000000000e+10 1.020200731028873e+00 3.131911367286520e-02
9.359200000000000e+10 1.020225070002908e+00 3.129063214214382e-02
9.364000000000000e+10 1.020249553346343e+00 3.126138540383759e-02
9.368800000000000e+10 1.020274177209834e+00 3.123136594314656e-02
9.373600000000000e+10 1.020298937020934e+00 3.120056669930421e-02
9.378400000000000e+10 1.020323827742368e+00 3.116898139751286e-02
9.383200000000000e+10 1.020348844098801e+00 3.113660446955821e-02
9.388000000000000e+10 1.020373980742261e+00 3.110343104916749e-02
9.392800000000000e+10 1.020399232386277e+00 3.106945676674106e-02
9.397600000000000e+10 1.020424594097627e+00 3.103467780119144e-02
9.402400000000000e+10 1.020450061423528e+00 3.099909053362282e-02
9.407200000000000e+10 1.020475630199996e+00 3.096269165300388e-02
9.412000000000000e+10 1.020501296493503e+00 3.092547791027851e-02
9.416800000000000e+10 1.020527056551557e+00 3.088744624967996e-02
9.421600000000000e+10 1.020552906634594e+00 3.084859384243338e-02
9.426400000000000e+10 1.020578842895528e+00 3.080891821956125e-02
9.431200000000000e+10 1.020604861130536e+00 3.076841714698739e-02
9.436000000000000e+10 1.020630956760888e+00 3.072708895364125e-02
9.440800000000000e+10 1.020657124852411e+00 3.068493236143340e-02
9.445600000000000e+10 1.020683360042153e+00 3.064194678572514e-02
9.450400000000000e+10 1.020709656698283e+00 3.059813216974917e-02
9.455200000000000e+10 1.020736009075992e+00 3.055348929164745e-02
9.460000000000000e+10 1.020762411248803e+00 3.050801952280946e-02
9.464800000000000e+10 1.020788857271379e+00 3.046172494849295e-02
9.469600000000000e+10 1.020815341206734e+00 3.041460822785530e-02
9.474400000000000e+10 1.020841857343690e+00 3.036667253604974e-02
9.479200000000000e+10 1.020868400075173e+00 3.031792151536055e-02
9.484000000000000e+10 1.020894964014017e+00 3.026835916502121e-02
9.488800000000000e+10 1.020921543883318e+00 3.021799005076388e-02
9.493600000000000e+10 1.020948134421328e+00 3.016681895566403e-02
9.498400000000000e+10 1.020974730214537e+00 3.011485086002934e-02
9.503200000000000e+10 1.021001324818223e+00 3.006209187111305e-02
9.508000000000000e+10 1.021027912063892e+00 3.000854832413727e-02
9.512800000000000e+10 1.021054484970108e+00 2.995422704119708e-02
9.517600000000000e+10 1.021081035842669e+00 2.989913569567637e-02
9.522400000000000e+10 1.021107556618431e+00 2.984328288766508e-02
9.527200000000000e+10 1.021134038929330e+00 2.978667771111526e-02
9.532000000000000e+10 1.021160474317850e+00 2.972932999972398e-02
9.536800000000000e+10 1.021186854374655e+00 2.967124996443658e-02
9.541600000000000e+10 1.021213170955978e+00 2.961244835441072e-02
9.546400000000000e+10 1.021239416035686e+00 2.955293605576852e-02
9.551200000000000e+10 1.021265581927493e+00 2.949272435633657e-02
9.556000000000000e+10 1.021291660841906e+00 2.943182463327488e-02
9.560800000000000e+10 1.021317644936228e+00 2.937024835761903e-02
9.565600000000000e+10 1.021343526107444e+00 2.930800710026270e-02
9.570400000000000e+10 1.021369295851076e+00 2.924511257626255e-02
9.575200000000000e+10 1.021394945181303e+00 2.918157676587289e-02
9.580000000000000e+10 1.021420464708110e+00 2.911741217374023e-02
9.584800000000000e+10 1.021445844751359e+00 2.905263177518219e-02
9.589600000000000e+10 1.021471075296445e+00 2.898724924043109e-02
9.594400000000000e+10 1.021496146035300e+00 2.892127889487486e-02
9.599200000000000e+10 1.021521046671480e+00 2.885473580798576e-02
9.604000000000000e+10 1.021545766950944e+00 2.878763563406008e-02
9.608800000000000e+10 1.021570296913331e+00 2.871999457947324e-02
9.613600000000000e+10 1.021594627077581e+00 2.865182925406798e-02
9.618400000000000e+10 1.021618748408865e+00 2.858315647526581e-02
9.623200000000000e+10 1.021642652546527e+00 2.851399327337603e-02
9.628000000000000e+10 1.021666331606481e+00 2.844435669550290e-02
9.632800000000000e+10 1.021689778070991e+00 2.837426390337451e-02
9.637600000000000e+10 1.021712984682081e+00 2.830373223752869e-02
9.642400000000000e+10 1.021735944424357e+00 2.823277931276413e-02
9.647200000000000e+10 1.021758650358544e+00 2.816142303272139e-02
9.652000000000000e+10 1.021781095397929e+00 2.808968154681138e-02
9.656800000000000e+10 1.021803272401399e+00 2.801757316964070e-02
9.661600000000000e+10 1.021825173897189e+00 2.794511641873461e-02
9.666400000000000e+10 1.021846793417307e+00 2.787233076011255e-02
9.671200000000000e+10 1.021868124912303e+00 2.779923598181167e-02
9.676000000000000e+10 1.021889162712783e+00 2.772585219522447e-02
9.680800000000000e+10 1.021909901558393e+00 2.765219959460185e-02
9.685600000000000e+10 1.021930336647563e+00 2.757829825713618e-02
9.690400000000000e+10 1.021950463531985e+00 2.750416818604892e-02
9.695200000000000e+10 1.021970278242973e+00 2.742982905102211e-02
9.700000000000000e+10 1.021989777262798e+00 2.735530073886711e-02
9.704800000000000e+10 1.022008957393068e+00 2.728060289815053e-02
9.709600000000000e+10 1.022027815790553e+00 2.720575528838333e-02
9.714400000000000e+10 1.022046349630409e+00 2.713077736386397e-02
9.719200000000000e+10 1.022064556655326e+00 2.705568818624289e-02
9.724000000000000e+10 1.022082435070317e+00 2.698050692123519e-02
9.728800000000000e+10 1.022099983408121e+00 2.690525229655716e-02
9.733600000000000e+10 1.022117199968910e+00 2.682994251654691e-02
9.738400000000000e+10 1.022134083270122e+00 2.675459602094679e-02
9.743200000000000e+10 1.022150631974700e+00 2.667923103263479e-02
9.748000000000000e+10 1.022166845000210e+00 2.660386579229076e-02
9.752800000000000e+10 1.022182721498591e+00 2.652851831456643e-02
9.757600000000000e+10 1.022198260916267e+00 2.645320661736301e-02
9.762400000000000e+10 1.022213463002106e+00 2.637794814159527e-02
9.767200000000000e+10 1.022228327662498e+00 2.630276008479859e-02
9.772000000000000e+10 1.022242855015161e+00 2.622765910566527e-02
9.776800000000000e+10 1.022257045490479e+00 2.615266142924546e-02
9.781600000000000e+10 1.022270899641052e+00 2.607778250739423e-02
9.786400000000000e+10 1.022284417945819e+00 2.600303741389868e-02
9.791200000000000e+10 1.022297599783451e+00 2.592844040214004e-02
9.796000000000000e+10 1.022310444384207e+00 2.585400582335212e-02
9.800800000000000e+10 1.022322952003238e+00 2.577974755442184e-02
9.805600000000000e+10 1.022335122784339e+00 2.570567890535102e-02
9.810400000000000e+10 1.022346957224313e+00 2.563181286770512e-02
9.815200000000000e+10 1.022358455500259e+00 2.555816190699559e-02
9.820000000000000e+10 1.022369617617002e+00 2.548473840267834e-02
9.824800000000000e+10 1.022380443562992e+00 2.541155424749418e-02
9.829600000000000e+10 1.022390933529352e+00 2.533862102703298e-02
9.834400000000000e+10 1.022401088007934e+00 2.526594976191216e-02
9.839200000000000e+10 1.022410907446198e+00 2.519355158593750e-02
9.844000000000000e+10 1.022420391894223e+00 2.512143698898040e-02
9.848800000000000e+10 1.022429541240812e+00 2.504961592552224e-02
9.853600000000000e+10 1.022438355205402e+00 2.497809806371038e-02
9.858400000000000e+10 1.022446833725658e+00 2.490689264619946e-02
9.863200000000000e+10 1.022454976558570e+00 2.483600826820934e-02
9.868000000000000e+10 1.022462783012265e+00 2.476545296972460e-02
9.872800000000000e+10 1.022470251677846e+00 2.469523375543657e-02
9.877600000000000e+10 1.022477380532380e+00 2.462535725754411e-02
9.882400000000000e+10 1.022484166889794e+00 2.455583000869280e-02
9.887200000000000e+10 1.022490607832616e+00 2.448665867582444e-02
9.892000000000000e+10 1.022496700822306e+00 2.441784945954867e-02
9.896800000000000e+10 1.022502443544876e+00 2.434940797750425e-02
9.901600000000000e+10 1.022507833515293e+00 2.428133917583292e-02
9.906400000000000e+10 1.022512868036517e+00 2.421364759409183e-02
9.911200000000000e+10 1.022517544551814e+00 2.414633729256525e-02
9.916000000000000e+10 1.022521861132408e+00 2.407941184051436e-02
9.920800000000000e+10 1.022525815708482e+00 2.401287428517943e-02
9.925600000000000e+10 1.022529406595577e+00 2.394672703889582e-02
9.930400000000000e+10 1.022532632729908e+00 2.388097173617463e-02
9.935200000000000e+10 1.022535493357245e+00 2.381560939413718e-02
9.940000000000000e+10 1.022537987848263e+00 2.375064051397649e-02
9.944800000000000e+10 1.022540116455330e+00 2.368606544956091e-02
9.949600000000000e+10 1.022541879820853e+00 2.362188374978048e-02
9.954400000000000e+10 1.022543279255915e+00 2.355809464213161e-02
9.959200000000000e+10 1.022544316114707e+00 2.349469649772658e-02
9.964000000000000e+10 1.022544991923191e+00 2.343168731851321e-02
9.968800000000000e+10 1.022545308307955e+00 2.336906495318729e-02
9.973600000000000e+10 1.022545267559087e+00 2.330682677479992e-02
9.978400000000000e+10 1.022544872323931e+00 2.324496984851521e-02
9.983200000000000e+10 1.022544125491118e+00 2.318349047252412e-02
9.988000000000000e+10 1.022543029811023e+00 2.312238487029709e-02
9.992800000000000e+10 1.022541588250491e+00 2.306164886035309e-02
9.997600000000000e+10 1.022539803168442e+00 2.300127805004780e-02
1.000240000000000e+11 1.022537676840438e+00 2.294126801973420e-02
1.000720000000000e+11 1.022535211981339e+00 2.288161419838691e-02
1.001200000000000e+11 1.022532410810669e+00 2.282231188082216e-02
1.001680000000000e+11 1.022529276033915e+00 2.276335639546910e-02
1.002160000000000e+11 1.022525810052707e+00 2.270474252022762e-02
1.002640000000000e+11 1.022522015041245e+00 2.264646522891851e-02
1.003120000000000e+11 1.022517892519154e+00 2.258851904606302e-02
1.003600000000000e+11 1.022513443743038e+00 2.253089886859895e-02
1.004080000000000e+11 1.022508669809042e+00 2.247359956975163e-02
1.004560000000000e+11 1.022503571961830e+00 2.241661626328273e-02
1.005040000000000e+11 1.022498151515045e+00 2.235994404802009e-02
1.005520000000000e+11 1.022492410503929e+00 2.230357759044697e-02
1.006000000000000e+11 1.022486350360120e+00 2.224751148753443e-02
1.006480000000000e+11 1.022479972841245e+00 2.219174030282198e-02
1.006960000000000e+11 1.022473279449486e+00 2.213625838276809e-02
1.007440000000000e+11 1.022466270394749e+00 2.208106031749683e-02
1.007920000000000e+11 1.022458945922012e+00 2.202614030004537e-02
1.008400000000000e+11 1.022451307041612e+00 2.197149295991034e-02
1.008880000000000e+11 1.022443353967479e+00 2.191711301520090e-02
1.009360000000000e+11 1.022435086868442e+00 2.186299553564275e-02
1.009840000000000e+11 1.022426505455627e+00 2.180913571020712e-02
1.010320000000000e+11 1.022417609791389e+00 2.175552909311171e-02
1.010800000000000e+11 1.022408400257515e+00 2.170217137491175e-02
1.011280000000000e+11 1.022398877216399e+00 2.164905861468976e-02
1.011760000000000e+11 1.022389041071173e+00 2.159618721351297e-02
1.012240000000000e+11 1.022378892352572e+00 2.154355382015655e-02
1.012720000000000e+11 1.022368431343510e+00 2.149115554525846e-02
1.013200000000000e+11 1.022357658442176e+00 2.143898951840453e-02
1.013680000000000e+11 1.022346574014183e+00 2.138705321271075e-02
1.014160000000000e+11 1.022335178321754e+00 2.133534464360901e-02
1.014640000000000e+11 1.022323471606721e+00 2.128386235181603e-02
1.015120000000000e+11 1.022311453622905e+00 2.123260564418606e-02
1.015600000000000e+11 1.022299124030471e+00 2.118157459048119e-02
1.016080000000000e+11 1.022286482382276e+00 2.113076972324829e-02
1.016560000000000e+11 1.022273527571637e+00 2.108019163211083e-02
1.017040000000000e+11 1.022260257589083e+00 2.102984145441643e-02
1.017520000000000e+11 1.022246669611759e+00 2.097972079723193e-02
1.018000000000000e+11 1.022232760031531e+00 2.092983195539822e-02
1.018480000000000e+11 1.022218525588764e+00 2.088017864398531e-02
1.018960000000000e+11 1.022203964307743e+00 2.083076513163683e-02
1.019440000000000e+11 1.022189074553483e+00 2.078159594568897e-02
1.019920000000000e+11 1.022173854089303e+00 2.073267544334427e-02
1.020400000000000e+11 1.022158300705404e+00 2.068400957833536e-02
1.020880000000000e+11 1.022142413105987e+00 2.063560496805215e-02
1.021360000000000e+11 1.022126189923689e+00 2.058746825922331e-02
1.021840000000000e+11 1.022109629220382e+00 2.053960609639983e-02
1.022320000000000e+11 1.022092728098853e+00 2.049202611275483e-02
1.022800000000000e+11 1.022075483369421e+00 2.044473732208755e-02
1.023280000000000e+11 1.022057891878811e+00 2.039775002581691e-02
1.023760000000000e+11 1.022039950787265e+00 2.035107570514435e-02
1.024240000000000e+11 1.022021657662455e+00 2.030472751024985e-02
1.024720000000000e+11 1.022003010726653e+00 2.025871915114157e-02
1.025200000000000e+11 1.021984008040153e+00 2.021306519237274e-02
1.025680000000000e+11 1.021964647495730e+00 2.016778104359311e-02
1.026160000000000e+11 1.021944927223224e+00 2.012288325779371e-02
1.026640000000000e+11 1.021924845289503e+00 2.007838967956559e-02
1.027120000000000e+11 1.021904400284010e+00 2.003431953535429e-02
1.027600000000000e+11 1.021883591107837e+00 1.999069305989501e-02
1.028080000000000e+11 1.021862417903240e+00 1.994753103521001e-02
1.028560000000000e+11 1.021840881245664e+00 1.990485506304936e-02
1.029040000000000e+11 1.021818982154985e+00 1.986268760506281e-02
1.029520000000000e+11 1.021796721566743e+00 1.982105241759930e-02
1.030000000000000e+11 1.021774100535618e+00 1.977997378175848e-02
1.030480000000000e+11 1.021751120109749e+00 1.973947682186066e-02
1.030960000000000e+11 1.021727781375382e+00 1.969958790987383e-02
1.031440000000000e+11 1.021704085440723e+00 1.966033415889979e-02
1.031920000000000e+11 1.021680033818912e+00 1.962174395134628e-02
1.032400000000000e+11 1.021655628528452e+00 1.958384655236908e-02
1.032880000000000e+11 1.021630872296601e+00 1.954667254354080e-02
1.033360000000000e+11 1.021605768667610e+00 1.951025357443122e-02
1.033840000000000e+11 1.021580322007669e+00 1.947462223705578e-02
1.034320000000000e+11 1.021554537245903e+00 1.943981173865893e-02
1.034800000000000e+11 1.021528419875889e+00 1.940585608903685e-02
1.035280000000000e+11 1.021501976016945e+00 1.937279005374584e-02
1.035760000000000e+11 1.021475212184109e+00 1.934064919910070e-02
1.036240000000000e+11 1.021448135252294e+00 1.930946966216968e-02
1.036720000000000e+11 1.021420752356767e+00 1.927928828893271e-02
1.037200000000000e+11 1.021393070806152e+00 1.925014270828913e-02
1.037680000000000e+11 1.021365098010968e+00 1.922207119418506e-02
1.038160000000000e+11 1.021336841467042e+00 1.919511298885525e-02
1.038640000000000e+11 1.021308308733015e+00 1.916930809009544e-02
1.039120000000000e+11 1.021279507484303e+00 1.914469728956900e-02
1.039600000000000e+11 1.021250445534410e+00 1.912132239908520e-02
1.040080000000000e+11 1.021221131053675e+00 1.909922612927599e-02
1.040560000000000e+11 1.021191572742725e+00 1.907845212478728e-02
1.041040000000000e+11 1.021161779847541e+00 1.905904486262188e-02
1.041520000000000e+11 1.021131762304111e+00 1.904104951995804e-02
1.042000000000000e+11 1.021101530727323e+00 1.902451154049171e-02
1.042480000000000e+11 1.021071095745836e+00 1.900947686488898e-02
1.042960000000000e+11 1.021040468317805e+00 1.899599176535421e-02
1.043440000000000e+11 1.021009659547493e+00 1.898410262914430e-02
1.043920000000000e+11 1.020978680375357e+00 1.897385582252586e-02
1.044400000000000e+11 1.020947541000949e+00 1.896529767612872e-02
1.044880000000000e+11 1.020916250864387e+00 1.895847492952667e-02
1.045360000000000e+11 1.020884818753786e+00 1.895343465348573e-02
1.045840000000000e+11 1.020853253176623e+00 1.895022458708050e-02
1.046320000000000e+11 1.020821562443241e+00 1.894889304229429e-02
1.046800000000000e+11 1.020789754803313e+00 1.894948824793423e-02
1.047280000000000e+11 1.020757837914489e+00 1.895205919697054e-02
1.047760000000000e+11 1.020725820005163e+00 1.895665496860815e-02
1.048240000000000e+11 1.020693709408697e+00 1.896332475917189e-02
1.048720000000000e+11 1.020661514746159e+00 1.897211744316319e-02
1.049200000000000e+11 1.020629245391194e+00 1.898308247524882e-02
1.049680000000000e+11 1.020596911224423e+00 1.899626940504422e-02
1.050160000000000e+11 1.020564520933804e+00 1.901172769075966e-02
1.050640000000000e+11 1.020532083497038e+00 1.902950661478871e-02
1.051120000000000e+11 1.020499607654336e+00 1.904965534595573e-02
1.051600000000000e+11 1.020467102368105e+00 1.907222322046479e-02
1.052080000000000e+11 1.020434576062361e+00 1.909725928045261e-02
1.052560000000000e+11 1.020402036805540e+00 1.912481259888601e-02
1.053040000000000e+11 1.020369492162484e+00 1.915493219747023e-02
1.053520000000000e+11 1.020336949720493e+00 1.918766724792248e-02
1.054000000000000e+11 1.020304417054366e+00 1.922306691690973e-02
1.054480000000000e+11 1.020271902076196e+00 1.926118018478741e-02
1.054960000000000e+11 1.020239413065063e+00 1.930205584661291e-02
1.055440000000000e+11 1.020206958647432e+00 1.934574223259829e-02
1.055920000000000e+11 1.020174547917401e+00 1.939228749834474e-02
1.056400000000000e+11 1.020142190570815e+00 1.944173945788167e-02
1.056880000000000e+11 1.020109895826581e+00 1.949414555082605e-02
1.057360000000000e+11 1.020077673309522e+00 1.954955234718065e-02
1.057840000000000e+11 1.020045532941926e+00 1.960800577232908e-02
1.058320000000000e+11 1.020013483876184e+00 1.966955136844187e-02
1.058800000000000e+11 1.019981535841540e+00 1.973423392310129e-02
1.059280000000000e+11 1.019949698512631e+00 1.980209763119154e-02
1.059760000000000e+11 1.019917981107686e+00 1.987318628694143e-02
1.060240000000000e+11 1.019886392322138e+00 1.994754315124198e-02
1.060720000000000e+11 1.019854940092455e+00 2.002521106721181e-02
1.061200000000000e+11 1.019823631765135e+00 2.010623230953670e-02
1.061680000000000e+11 1.019792474859237e+00 2.019064892129773e-02
1.062160000000000e+11 1.019761477640775e+00 2.027850256244286e-02
1.062640000000000e+11 1.019730648674231e+00 2.036983429691281e-02
1.063120000000000e+11 1.019699997658961e+00 2.046468499222139e-02
1.063600000000000e+11 1.019669534241931e+00 2.056309364081553e-02
1.064080000000000e+11 1.019639268975318e+00 2.066509845420861e-02
1.064560000000000e+11 1.019609211766154e+00 2.077073580568737e-02
1.065040000000000e+11 1.019579371000856e+00 2.088004133796487e-02
1.065520000000000e+11 1.019549757432483e+00 2.099305095054052e-02
1.066000000000000e+11 1.019520380307508e+00 2.110979792273259e-02
1.066480000000000e+11 1.019491248493786e+00 2.123031447970116e-02
1.066960000000000e+11 1.019462372284762e+00 2.135463264132700e-02
1.067440000000000e+11 1.019433761856449e+00 2.148278344988449e-02
1.067920000000000e+11 1.019405425158888e+00 2.161479653473431e-02
1.068400000000000e+11 1.019377371234259e+00 2.175069985560529e-02
1.068880000000000e+11 1.019349608964161e+00 2.189051972325749e-02
1.069360000000000e+11 1.019322147258866e+00 2.203428094189262e-02
1.069840000000000e+11 1.019294995076157e+00 2.218200722201807e-02
1.070320000000000e+11 1.019268159760843e+00 2.233372014687316e-02
1.070800000000000e+11 1.019241649556883e+00 2.248943952090864e-02
1.071280000000000e+11 1.019215472581102e+00 2.264918268259173e-02
1.071760000000000e+11 1.019189636633868e+00 2.281296516647914e-02
1.072240000000000e+11 1.019164148882789e+00 2.298080059716111e-02
1.072720000000000e+11 1.019139015792179e+00 2.315270001849644e-02
1.073200000000000e+11 1.019114243675293e+00 2.332867265434032e-02
1.073680000000000e+11 1.019089838614067e+00 2.350872560677592e-02
1.074160000000000e+11 1.019065806445051e+00 2.369286393391180e-02
1.074640000000000e+11 1.019042152435073e+00 2.388109087606268e-02
1.075120000000000e+11 1.019018880723794e+00 2.407340775082292e-02
1.075600000000000e+11 1.018995995061433e+00 2.426981454474028e-02
1.076080000000000e+11 1.018973499988472e+00 2.447030992076010e-02
1.076560000000000e+11 1.018951399287539e+00 2.467489028502170e-02
1.077040000000000e+11 1.018929696681681e+00 2.488355016118621e-02
1.077520000000000e+11 1.018908395846532e+00 2.509628232154049e-02
1.078000000000000e+11 1.018887500521561e+00 2.531307756155379e-02
1.078480000000000e+11 1.018867014421353e+00 2.553392399199861e-02
1.078960000000000e+11 1.018846941101687e+00 2.575880633198122e-02
1.079440000000000e+11 1.018827283698257e+00 2.598770618120837e-02
1.079920000000000e+11 1.018808044604800e+00 2.622060200591092e-02
1.080400000000000e+11 1.018789224195308e+00 2.645746998972159e-02
1.080880000000000e+11 1.018770822183707e+00 2.669828444548666e-02
1.081360000000000e+11 1.018752837404676e+00 2.694301777682401e-02
1.081840000000000e+11 1.018735267162132e+00 2.719163960112755e-02
1.082320000000000e+11 1.018718107775497e+00 2.744411711048236e-02
1.082800000000000e+11 1.018701355038337e+00 2.770041538856953e-02
1.083280000000000e+11 1.018685004515522e+00 2.796049731748783e-02
1.083760000000000e+11 1.018669051473600e+00 2.822432378129986e-02
1.084240000000000e+11 1.018653490684953e+00 2.849185388035336e-02
1.084720000000000e+11 1.018638316751544e+00 2.876304584734420e-02
1.085200000000000e+11 1.018623524397757e+00 2.903785638758440e-02
1.085680000000000e+11 1.018609107601671e+00 2.931623846211118e-02
1.086160000000000e+11 1.018595058800050e+00 2.959814198276214e-02
1.086640000000000e+11 1.018581369063511e+00 2.988351372522153e-02
1.087120000000000e+11 1.018568027857841e+00 3.017229802008547e-02
1.087600000000000e+11 1.018555023553965e+00 3.046443755276460e-02
1.088080000000000e+11 1.018542344110108e+00 3.075987290775923e-02
1.088560000000000e+11 1.018529977014695e+00 3.105854268136013e-02
1.089040000000000e+11 1.018517909253721e+00 3.136038332121905e-02
1.089520000000000e+11 1.018506127713965e+00 3.166532948952966e-02
1.090000000000000e+11 1.018494619230315e+00 3.197331392629685e-02
1.090480000000000e+11 1.018483370590693e+00 3.228426690182893e-02
1.090960000000000e+11 1.018472368071311e+00 3.259811563821460e-02
1.091440000000000e+11 1.018461597235761e+00 3.291478395793086e-02
1.091920000000000e+11 1.018451043379818e+00 3.323419131847716e-02
1.092400000000000e+11 1.018440692180389e+00 3.355625249424097e-02
1.092880000000000e+11 1.018430529625204e+00 3.388087786212120e-02
1.093360000000000e+11 1.018420541775959e+00 3.420797479239782e-02
1.093840000000000e+11 1.018410714463397e+00 3.453744773881844e-02
1.094320000000000e+11 1.018401032804790e+00 3.486919803513600e-02
1.094800000000000e+11 1.018391481395228e+00 3.520312444569651e-02
1.095280000000000e+11 1.018382044111980e+00 3.553912348300863e-02
1.095760000000000e+11 1.018372703726625e+00 3.587709304041011e-02
1.096240000000000e+11 1.018363442170466e+00 3.621692733152670e-02
1.096720000000000e+11 1.018354240480706e+00 3.655851717500508e-02
1.097200000000000e+11 1.018345080123873e+00 3.690174934663164e-02
1.097680000000000e+11 1.018335942838869e+00 3.724650661936417e-02
1.098160000000000e+11 1.018326810719390e+00 3.759266641214078e-02
1.098640000000000e+11 1.018317666231124e+00 3.794010266118923e-02
1.099120000000000e+11 1.018308491764483e+00 3.828868591267372e-02
1.099600000000000e+11 1.018299269701646e+00 3.863828291275938e-02
1.100080000000000e+11 1.018280612108768e+00 3.933996729112696e-02
1.100560000000000e+11 1.018261550678703e+00 4.004404721913264e-02
1.101040000000000e+11 1.018241944884641e+00 4.074942940054072e-02
1.101520000000000e+11 1.018221654507164e+00 4.145504404769826e-02
1.102000000000000e+11 1.018200538645481e+00 4.215985528685665e-02
1.102480000000000e+11 1.018167008362945e+00 4.321340310894169e-02
1.102960000000000e+11 1.018143205997594e+00 4.391200567339508e-02
1.103440000000000e+11 1.018118072918003e+00 4.460665160599720e-02
1.103920000000000e+11 1.018091462288057e+00 4.529659368767643e-02
1.104400000000000e+11 1.018063228993471e+00 4.598113665697905e-02
1.104880000000000e+11 1.018033231808567e+00 4.665963605316280e-02
1.105360000000000e+11 1.017984631011795e+00 4.766476459467230e-02
1.105840000000000e+11 1.017949634034713e+00 4.832569814422672e-02
1.106320000000000e+11 1.017912410312345e+00 4.897881356949708e-02
1.106800000000000e+11 1.017872838223706e+00 4.962373199125035e-02
1.107280000000000e+11 1.017830801516779e+00 5.026011362896255e-02
1.107760000000000e+11 1.017762877843671e+00 5.119802569662934e-02
1.108240000000000e+11 1.017714188472220e+00 5.181185539605514e-02
1.108720000000000e+11 1.017662643940755e+00 5.241633386934596e-02
1.109200000000000e+11 1.017608130571561e+00 5.301132976705764e-02
1.109680000000000e+11 1.017550532410467e+00 5.359674081254336e-02
1.110160000000000e+11 1.017489731742202e+00 5.417249068484397e-02
1.110640000000000e+11 1.017392268282182e+00 5.501790050996819e-02
1.111120000000000e+11 1.017322952153584e+00 5.556937896543430e-02
1.111600000000000e+11 1.017250037143003e+00 5.611122971394918e-02
1.112080000000000e+11 1.017173421191714e+00 5.664353986356912e-02
1.112560000000000e+11 1.017093009772347e+00 5.716641525791285e-02
1.113040000000000e+11 1.017008718440377e+00 5.767997955570615e-02
1.113520000000000e+11 1.016874850543898e+00 5.843317585781486e-02
1.114000000000000e+11 1.016780563908575e+00 5.892414503546189e-02
1.114480000000000e+11 1.016682186669091e+00 5.940644911936772e-02
1.114960000000000e+11 1.016579678400479e+00 5.988032151305035e-02
1.115440000000000e+11 1.016473004874439e+00 6.034600247812630e-02
1.115920000000000e+11 1.016305123583189e+00 6.102970147597140e-02
1.116400000000000e+11 1.016187924454062e+00 6.147602580009150e-02
1.116880000000000e+11 1.016066485066976e+00 6.191513255758653e-02
1.117360000000000e+11 1.015940795496558e+00 6.234733373695442e-02
1.117840000000000e+11 1.015810851892215e+00 6.277294093314391e-02
1.118320000000000e+11 1.015676658731066e+00 6.319226216702935e-02
1.118800000000000e+11 1.015467435757708e+00 6.381011990955590e-02
1.119280000000000e+11 1.015322705712952e+00 6.421508634891951e-02
1.119760000000000e+11 1.015173825080840e+00 6.461491002603019e-02
1.120240000000000e+11 1.015020849377695e+00 6.500993328157821e-02
1.120720000000000e+11 1.014863845588470e+00 6.540048996708490e-02
1.121200000000000e+11 1.014702890323841e+00 6.578690662801037e-02
1.121680000000000e+11 1.014454229903707e+00 6.635946459521419e-02
1.122160000000000e+11 1.014283765376204e+00 6.673695693037496e-02
1.122640000000000e+11 1.014109651716582e+00 6.711150601699441e-02
1.123120000000000e+11 1.013931976463931e+00 6.748347008483208e-02
1.123600000000000e+11 1.013750823785710e+00 6.785320117715436e-02
1.124080000000000e+11 1.013566276839780e+00 6.822104613010288e-02
1.124560000000000e+11 1.013283264717491e+00 6.877002149879928e-02
1.125040000000000e+11 1.013090569468231e+00 6.913467773259721e-02
1.125520000000000e+11 1.012894735456568e+00 6.949873397219999e-02
1.126000000000000e+11 1.012695827641070e+00 6.986257970082008e-02
1.126480000000000e+11 1.012493911014139e+00 7.022659767709340e-02
1.126960000000000e+11 1.012185536458252e+00 7.077376927185901e-02
1.127440000000000e+11 1.011976378314629e+00 7.113989912084732e-02
1.127920000000000e+11 1.011764433706113e+00 7.150760602182007e-02
1.128400000000000e+11 1.011549773192390e+00 7.187730632608157e-02
1.128880000000000e+11 1.011332473571657e+00 7.224940150471688e-02
1.129360000000000e+11 1.011112615415435e+00 7.262427614505620e-02
1.129840000000000e+11 1.010778208555712e+00 7.319260435657401e-02
1.130320000000000e+11 1.010552301323518e+00 7.357605981405399e-02
1.130800000000000e+11 1.010324100047046e+00 7.396363813151380e-02
1.131280000000000e+11 1.010093672765489e+00 7.435572242019543e-02
1.131760000000000e+11 1.009861086258550e+00 7.475268236713466e-02
1.132240000000000e+11 1.009626406587466e+00 7.515487136229597e-02
1.132720000000000e+11 1.009270606493826e+00 7.576868833751119e-02
1.133200000000000e+11 1.009030977497184e+00 7.618542612264376e-02
1.133680000000000e+11 1.008789474977303e+00 7.660860106384600e-02
1.134160000000000e+11 1.008546158772511e+00 7.703854521309213e-02
1.134640000000000e+11 1.008301091351676e+00 7.747557165187242e-02
1.135120000000000e+11 1.007930352768957e+00 7.814502202051661e-02
1.135600000000000e+11 1.007681197311286e+00 7.860102853651643e-02
1.136080000000000e+11 1.007430518199573e+00 7.906515259837647e-02
1.136560000000000e+11 1.007178381256103e+00 7.953766432991226e-02
1.137040000000000e+11 1.006924854569315e+00 8.001880372448530e-02
1.137520000000000e+11 1.006670007207806e+00 8.050877713457114e-02
1.138000000000000e+11 1.006285413318980e+00 8.126066680552584e-02
1.138480000000000e+11 1.006027563269420e+00 8.177345505935332e-02
1.138960000000000e+11 1.005768620965716e+00 8.229565769797285e-02
1.139440000000000e+11 1.005508648630329e+00 8.282739790519360e-02
1.139920000000000e+11 1.005247709401087e+00 8.336876070173919e-02
1.140400000000000e+11 1.004985867988522e+00 8.391979215735042e-02
1.140880000000000e+11 1.004591560948287e+00 8.476446907634683e-02
1.141360000000000e+11 1.004327752707604e+00 8.533965741840893e-02
1.141840000000000e+11 1.004063266762180e+00 8.592447516411346e-02
1.142320000000000e+11 1.003798170468985e+00 8.651885024157185e-02
1.142800000000000e+11 1.003532537942539e+00 8.712266369413840e-02
1.143280000000000e+11 1.003133261581063e+00 8.804569834178450e-02
1.143760000000000e+11 1.002866642931154e+00 8.867231363253050e-02
1.144240000000000e+11 1.002599769795721e+00 8.930768258168259e-02
1.144720000000000e+11 1.002332727564694e+00 8.995152629929473e-02
1.145200000000000e+11 1.002065606695242e+00 9.060351051504738e-02
1.145680000000000e+11 1.001798502350786e+00 9.126324290114181e-02
1.146160000000000e+11 1.001398096913333e+00 9.226637137147176e-02
1.146640000000000e+11 1.001131474200496e+00 9.294343482436822e-02
1.147120000000000e+11 1.000865221275228e+00 9.362654205536253e-02
1.147600000000000e+11 1.000599446062723e+00 9.431510231043864e-02
1.148080000000000e+11 1.000334262639476e+00 9.500846049157891e-02
1.148560000000000e+11 1.000069793180470e+00 9.570589475752335e-02
1.149040000000000e+11 9.996747188995052e-01 9.675794365450885e-02
1.149520000000000e+11 9.994126242277906e-01 9.746201658883323e-02
1.150000000000000e+11 9.991517301845458e-01 9.816721942663871e-02
