! Generated by Phase I extraction
# Hz S RI R 50
1.100000000000000e+11 1.018289982501919e+00 3.898875697853739e-02
1.100408163265300e+11 1.018271140819659e+00 3.969177734370202e-02
1.100816326530600e+11 1.018251824637720e+00 4.039664376615715e-02
1.101224489795900e+11 1.018231894210983e+00 4.110227400161434e-02
1.101632653061200e+11 1.018211208582450e+00 4.180761431020069e-02
1.102040816326500e+11 1.018189627578579e+00 4.251164755284211e-02
1.102448979591800e+11 1.018178456859553e+00 4.286286781254620e-02
1.102857142857100e+11 1.018155264311051e+00 4.356315094581568e-02
1.103265306122400e+11 1.018130815030380e+00 4.425987206455297e-02
1.103673469387800e+11 1.018104961430701e+00 4.495225618558996e-02
1.104081632653100e+11 1.018077557403479e+00 4.563958242243168e-02
1.104489795918400e+11 1.018048459508606e+00 4.632118108338009e-02
1.104897959183700e+11 1.018017528952956e+00 4.699643227878404e-02
1.105306122449000e+11 1.018001334209719e+00 4.733149620741230e-02
1.105714285714300e+11 1.017967402976566e+00 4.799618437581833e-02
1.106122448979600e+11 1.017931308259381e+00 4.865325869841658e-02
1.106530612244900e+11 1.017892925180818e+00 4.930232044166587e-02
1.106938775510200e+11 1.017852135101439e+00 4.994301064184095e-02
1.107346938775500e+11 1.017808823407387e+00 5.057500789497485e-02
1.107755102040800e+11 1.017786186771603e+00 5.088765489665840e-02
1.108163265306100e+11 1.017738883100700e+00 5.150610091938135e-02
1.108571428571400e+11 1.017688780212591e+00 5.211527338356893e-02
1.108979591836700e+11 1.017635765620133e+00 5.271502511059037e-02
1.109387755102000e+11 1.017579724470420e+00 5.330523971594427e-02
1.109795918367300e+11 1.017520539852269e+00 5.388582800516126e-02
1.110204081632700e+11 1.017458093410527e+00 5.445672726785831e-02
1.110612244898000e+11 1.017425610321013e+00 5.473853009556107e-02
1.111020408163300e+11 1.017358053465629e+00 5.529484882772825e-02
1.111428571428600e+11 1.017286951048430e+00 5.584150376626023e-02
1.111836734693900e+11 1.017212197891640e+00 5.637857212494368e-02
1.112244897959200e+11 1.017133695426654e+00 5.690615052096168e-02
1.112653061224500e+11 1.017051353873259e+00 5.742435393402242e-02
1.113061224489800e+11 1.016965094646503e+00 5.793331378208436e-02
1.113469387755100e+11 1.016920474513376e+00 5.818437141967914e-02
1.113877551020400e+11 1.016828215753280e+00 5.867975894904382e-02
1.114285714285700e+11 1.016731889314562e+00 5.916636675065475e-02
1.114693877551000e+11 1.016631451209707e+00 5.964442536406767e-02
1.115102040816300e+11 1.016526864236799e+00 6.011417170259425e-02
1.115510204081600e+11 1.016418097011383e+00 6.057584841779322e-02
1.115918367346900e+11 1.016362137462799e+00 6.080373645290701e-02
1.116326530612200e+11 1.016247053276377e+00 6.125378627396784e-02
1.116734693877600e+11 1.016127735564238e+00 6.169646285072504e-02
1.117142857142900e+11 1.016004171980186e+00 6.213207779033530e-02
1.117551020408200e+11 1.015876355391058e+00 6.256094320993781e-02
1.117959183673500e+11 1.015744285840146e+00 6.298336923182678e-02
1.118367346938800e+11 1.015607972669826e+00 6.339966137118370e-02
1.118775510204100e+11 1.015538230519216e+00 6.360560029772876e-02
1.119183673469400e+11 1.015395592496884e+00 6.401326861042621e-02
1.119591836734700e+11 1.015248781036476e+00 6.441562043213121e-02
1.120000000000000e+11 1.015097845131185e+00 6.481300166888208e-02
1.120408163265300e+11 1.014942846338424e+00 6.520575039725446e-02
1.120816326530600e+11 1.014783856846370e+00 6.559419674388066e-02
1.121224489795900e+11 1.014620956382662e+00 6.597866333115651e-02
1.121632653061200e+11 1.014538065909933e+00 6.616950175971742e-02
1.122040816326500e+11 1.014369459316720e+00 6.654860240703864e-02
1.122448979591800e+11 1.014197159130115e+00 6.692457789579458e-02
1.122857142857100e+11 1.014021253944092e+00 6.729779009717451e-02
1.123265306122400e+11 1.013841829508502e+00 6.766859400596151e-02
1.123673469387800e+11 1.013658969524463e+00 6.803733901805964e-02
1.124081632653100e+11 1.013472755375108e+00 6.840436917820485e-02
1.124489795918400e+11 1.013378414915299e+00 6.858734574191068e-02
1.124897959183700e+11 1.013187313418000e+00 6.895245032200094e-02
1.125306122449000e+11 1.012993040665492e+00 6.931675741410027e-02
1.125714285714300e+11 1.012795661625153e+00 6.968066013184221e-02
1.126122448979600e+11 1.012595241290816e+00 7.004454456416155e-02
1.126530612244900e+11 1.012391844498852e+00 7.040879005187722e-02
1.126938775510200e+11 1.012289050378298e+00 7.059116384638348e-02
1.127346938775500e+11 1.012081309641335e+00 7.095666459191433e-02
1.127755102040800e+11 1.011870749889443e+00 7.132353022620556e-02
1.128163265306100e+11 1.011657438065801e+00 7.169218265446869e-02
1.128571428571400e+11 1.011441448098514e+00 7.206303128442686e-02
1.128979591836700e+11 1.011222859054556e+00 7.243646904129464e-02
1.129387755102000e+11 1.011001752124680e+00 7.281287308687480e-02
1.129795918367300e+11 1.010890280014696e+00 7.300229985016451e-02
1.130204081632700e+11 1.010665545855205e+00 7.338384238878469e-02
1.130612244898000e+11 1.010438482990231e+00 7.376931044690112e-02
1.131020408163300e+11 1.010209160289292e+00 7.415909471707136e-02
1.131428571428600e+11 1.009977645115858e+00 7.455357159669009e-02
1.131836734693900e+11 1.009744003816448e+00 7.495310297191882e-02
1.132244897959200e+11 1.009508302154986e+00 7.535803350867201e-02
1.132653061224500e+11 1.009389699506213e+00 7.556262476245838e-02
1.133061224489800e+11 1.009151029760460e+00 7.597627535735563e-02
1.133469387755100e+11 1.008910456523213e+00 7.639618886400711e-02
1.133877551020400e+11 1.008668039553322e+00 7.682270806896548e-02
1.134285714285700e+11 1.008423839715625e+00 7.725615552955793e-02
1.134693877551000e+11 1.008177921226443e+00 7.769683387069488e-02
1.135102040816300e+11 1.008054338968186e+00 7.791997163597709e-02
1.135510204081600e+11 1.007805969313022e+00 7.837202979479788e-02
1.135918367346900e+11 1.007556043938186e+00 7.883205949019981e-02
1.136326530612200e+11 1.007304627542194e+00 7.930034544889517e-02
1.136734693877600e+11 1.007051787143220e+00 7.977714304819361e-02
1.137142857142900e+11 1.006797591397464e+00 8.026267585098691e-02
1.137551020408200e+11 1.006542110045224e+00 8.075713254250350e-02
1.137959183673500e+11 1.006413909398672e+00 8.100775550230553e-02
1.138367346938800e+11 1.006156628513136e+00 8.151589447449518e-02
1.138775510204100e+11 1.005898224629369e+00 8.203337215699928e-02
1.139183673469400e+11 1.005638759459497e+00 8.256033054392001e-02
1.139591836734700e+11 1.005378295690861e+00 8.309687381478259e-02
1.140000000000000e+11 1.005116897157589e+00 8.364306769931056e-02
1.140408163265300e+11 1.004854629474719e+00 8.419893810094982e-02
1.140816326530600e+11 1.004723191136575e+00 8.448049752859735e-02
1.141224489795900e+11 1.004459745303472e+00 8.505085794579476e-02
1.141632653061200e+11 1.004195590141426e+00 8.563086721896375e-02
1.142040816326500e+11 1.003930790194964e+00 8.622047550487766e-02
1.142448979591800e+11 1.003665416073680e+00 8.681958775645007e-02
1.142857142857100e+11 1.003399545335951e+00 8.742806013434488e-02
1.143265306122400e+11 1.003266449881181e+00 8.773574645286213e-02
1.143673469387800e+11 1.002999988997848e+00 8.835789773371418e-02
1.144081632653100e+11 1.002733232739852e+00 8.898892122909757e-02
1.144489795918400e+11 1.002466264080688e+00 8.962856584642395e-02
1.144897959183700e+11 1.002199170926937e+00 9.027652519738454e-02
1.145306122449000e+11 1.001932046136087e+00 9.093243609845275e-02
1.145714285714300e+11 1.001664987248583e+00 9.159587766761325e-02
1.146122448979600e+11 1.001531514582451e+00 9.193027406422667e-02
1.146530612244900e+11 1.001264745667531e+00 9.260411442487543e-02
1.146938775510200e+11 1.000998294702545e+00 9.328426952608684e-02
1.147346938775500e+11 1.000732266779589e+00 9.397018111717874e-02
1.147755102040800e+11 1.000466772714960e+00 9.466122635424762e-02
1.148163265306100e+11 1.000201930420441e+00 9.535671702991204e-02
1.148571428571400e+11 9.999378666773997e-01 9.605589748324048e-02
1.148979591836700e+11 9.998061695068498e-01 9.640661540892492e-02
1.149387755102000e+11 9.995435308294176e-01 9.710978217943990e-02
1.149795918367300e+11 9.992820168648384e-01 9.781453715385612e-02
1.150204081632700e+11 9.990217845564482e-01 9.851994352883611e-02
1.150612244898000e+11 9.988922033627528e-01 9.887257467063329e-02
1.151020408163300e+11 9.987630089679259e-01 9.922498244212268e-02
1.151428571428600e+11 9.986342227652268e-01 9.957704071741424e-02
1.151836734693900e+11 9.985058651879235e-01 9.992862754672195e-02
1.152244897959200e+11 9.983779557823400e-01 1.002796249354418e-01
1.152653061224500e+11 9.982505133186264e-01 1.006299187177929e-01
1.153061224489800e+11 9.981235558298825e-01 1.009793983748745e-01
1.153469387755100e+11 9.979971006511683e-01 1.013279568355727e-01
1.153877551020400e+11 9.978711643973406e-01 1.016754903375687e-01
1.154285714285700e+11 9.977457629027023e-01 1.020218982892441e-01
1.154693877551000e+11 9.976209112265139e-01 1.023670831255634e-01
1.155102040816300e+11 9.974966236369395e-01 1.027109502613018e-01
1.155510204081600e+11 9.973729136223657e-01 1.030534080504896e-01
1.155918367346900e+11 9.972497939350975e-01 1.033943677090381e-01
1.156326530612200e+11 9.971272766295211e-01 1.037337432332114e-01
1.156734693877600e+11 9.970053731901990e-01 1.040714513995502e-01
1.157142857142900e+11 9.968840946058328e-01 1.044074117217107e-01
1.157551020408200e+11 9.967634513787796e-01 1.047415464025148e-01
1.157959183673500e+11 9.966434536391324e-01 1.050737803338607e-01
1.158367346938800e+11 9.965241112621468e-01 1.054040410401010e-01
1.158775510204100e+11 9.964054339355984e-01 1.057322585875720e-01
1.159183673469400e+11 9.962874311807116e-01 1.060583655002940e-01
1.159591836734700e+11 9.961701123426800e-01 1.063822966644771e-01
1.160000000000000e+11 9.960534865891493e-01 1.067039892652044e-01
1.160408163265300e+11 9.959375628701763e-01 1.070233827543386e-01
1.160816326530600e+11 9.958223498463665e-01 1.073404187691003e-01
1.161224489795900e+11 9.957078558098308e-01 1.076550410722313e-01
1.161632653061200e+11 9.955940885984739e-01 1.079671955371181e-01
1.162040816326500e+11 9.954810555141577e-01 1.082768300870715e-01
1.162448979591800e+11 9.953687632665909e-01 1.085838946984582e-01
1.162857142857100e+11 9.952572179739279e-01 1.088883413655380e-01
1.163265306122400e+11 9.951464251762753e-01 1.091901240390005e-01
1.163673469387800e+11 9.950363898714825e-01 1.094891986077794e-01
1.164081632653100e+11 9.949271165959616e-01 1.097855227821568e-01
1.164489795918400e+11 9.948186094678024e-01 1.100790560326968e-01
1.164897959183700e+11 9.947108721858401e-01 1.103697595606591e-01
1.165306122449000e+11 9.946039080877586e-01 1.106575962611570e-01
1.165714285714300e+11 9.944977201795542e-01 1.109425306789084e-01
1.166122448979600e+11 9.943923111954354e-01 1.112245288934767e-01
1.166530612244900e+11 9.942876835676430e-01 1.115035584494851e-01
1.166938775510200e+11 9.941838393572207e-01 1.117795883565064e-01
1.167346938775500e+11 9.940807802298295e-01 1.120525890851495e-01
1.167755102040800e+11 9.939785074231751e-01 1.123225324877093e-01
1.168163265306100e+11 9.938770217093005e-01 1.125893917550338e-01
1.168571428571400e+11 9.937763233945410e-01 1.128531413914591e-01
1.168979591836700e+11 9.936764123079884e-01 1.131137572178843e-01
1.169387755102000e+11 9.935772877774733e-01 1.133712163888042e-01
1.169795918367300e+11 9.934789485930742e-01 1.136254974799804e-01
1.170204081632700e+11 9.933813930651129e-01 1.138765804669735e-01
1.170612244898000e+11 9.932846190497646e-01 1.141244467104536e-01
1.171020408163300e+11 9.931886239887329e-01 1.143690789815386e-01
1.171428571428600e+11 9.930934049357251e-01 1.146104614341694e-01
1.171836734693900e+11 9.929989586122581e-01 1.148485795552595e-01
1.172244897959200e+11 9.929052814145654e-01 1.150834200702402e-01
1.172653061224500e+11 9.928123694729395e-01 1.153149708741687e-01
1.173061224489800e+11 9.927202186286458e-01 1.155432210224823e-01
1.173469387755100e+11 9.926288244358296e-01 1.157681606747709e-01
1.173877551020400e+11 9.925381820784118e-01 1.159897810727383e-01
1.174285714285700e+11 9.924482863006031e-01 1.162080746014897e-01
1.174693877551000e+11 9.923591313561709e-01 1.164230347704450e-01
1.175102040816300e+11 9.922707110231009e-01 1.166346562277345e-01
1.175510204081600e+11 9.921830185727581e-01 1.168429347405304e-01
1.175918367346900e+11 9.920960467412832e-01 1.170478672187572e-01
1.176326530612200e+11 9.920097876933964e-01 1.172494517443107e-01
1.176734693877600e+11 9.919242330934513e-01 1.174476875694579e-01
1.177142857142900e+11 9.918393741382314e-01 1.176425750819335e-01
1.177551020408200e+11 9.917552015517836e-01 1.178341158406925e-01
1.177959183673500e+11 9.916717055951928e-01 1.180223125837422e-01
1.178367346938800e+11 9.915888761267886e-01 1.182071691935942e-01
1.178775510204100e+11 9.915067026194959e-01 1.183886906362773e-01
1.179183673469400e+11 9.914251742068756e-01 1.185668827905380e-01
1.179591836734700e+11 9.913442795951071e-01 1.187417524139813e-01
1.180000000000000e+11 9.912640069753598e-01 1.189133071255223e-01
1.180408163265300e+11 9.911843440184409e-01 1.190815553525050e-01
1.180816326530600e+11 9.911052778161060e-01 1.192465062733559e-01
1.181224489795900e+11 9.910267953113927e-01 1.194081692769797e-01
1.181632653061200e+11 9.909488832945705e-01 1.195665539718256e-01
1.182040816326500e+11 9.908715284143584e-01 1.197216701717339e-01
1.182448979591800e+11 9.907947171396320e-01 1.198735278442369e-01
1.182857142857100e+11 9.907184357321588e-01 1.200221371712420e-01
1.183265306122400e+11 9.906426702182423e-01 1.201675085393421e-01
1.183673469387800e+11 9.905674064321537e-01 1.203096525934804e-01
1.184081632653100e+11 9.904926300227680e-01 1.204485802362026e-01
1.184489795918400e+11 9.904183265270786e-01 1.205843026444060e-01
1.184897959183700e+11 9.903444814370679e-01 1.207168311569804e-01
1.185306122449000e+11 9.902710802781841e-01 1.208461773242942e-01
1.185714285714300e+11 9.901981086211645e-01 1.209723529030924e-01
1.186122448979600e+11 9.901255521186371e-01 1.210953699215369e-01
1.186530612244900e+11 9.900533964516829e-01 1.212152407255881e-01
1.186938775510200e+11 9.899816273722134e-01 1.213319779570647e-01
1.187346938775500e+11 9.899102306656384e-01 1.214455945482241e-01
1.187755102040800e+11 9.898391921343582e-01 1.215561037625612e-01
1.188163265306100e+11 9.897684975677445e-01 1.216635192122937e-01
1.188571428571400e+11 9.896981327437741e-01 1.217678548860368e-01
1.188979591836700e+11 9.896280833997403e-01 1.218691252368405e-01
1.189387755102000e+11 9.895583352644700e-01 1.219673451700648e-01
1.189795918367300e+11 9.894888741055008e-01 1.220625300358038e-01
1.190204081632700e+11 9.894196857796743e-01 1.221546956239697e-01
1.190612244898000e+11 9.893507562934032e-01 1.222438581299486e-01
1.191020408163300e+11 9.892820718366158e-01 1.223300341832723e-01
1.191428571428600e+11 9.892136188018773e-01 1.224132408043756e-01
1.191836734693900e+11 9.891453838138295e-01 1.224934953784945e-01
1.192244897959200e+11 9.890773537541088e-01 1.225708155641513e-01
1.192653061224500e+11 9.890095157801913e-01 1.226452192602431e-01
1.193061224489800e+11 9.889418572556984e-01 1.227167246397886e-01
1.193469387755100e+11 9.888743657164942e-01 1.227853501313920e-01
1.193877551020400e+11 9.888070288633652e-01 1.228511143790708e-01
1.194285714285700e+11 9.887398345698278e-01 1.229140362002156e-01
1.194693877551000e+11 9.886727708706518e-01 1.229741345549321e-01
1.195102040816300e+11 9.886058259085977e-01 1.230314286032610e-01
1.195510204081600e+11 9.885389879186703e-01 1.230859377701424e-01
1.195918367346900e+11 9.884722452418083e-01 1.231376817786257e-01
1.196326530612200e+11 9.884055863565535e-01 1.231866806366717e-01
1.196734693877600e+11 9.883389999405082e-01 1.232329545701660e-01
1.197142857142900e+11 9.882724749091099e-01 1.232765240106818e-01
1.197551020408200e+11 9.882060004042423e-01 1.233174096228590e-01
1.197959183673500e+11 9.881395658128773e-01 1.233556323013658e-01
1.198367346938800e+11 9.880731608679851e-01 1.233912130934160e-01
1.198775510204100e+11 9.880067756883038e-01 1.234241730694227e-01
1.199183673469400e+11 9.879404007766590e-01 1.234545333046635e-01
1.199591836734700e+11 9.878740269996633e-01 1.234823148944767e-01
1.200000000000000e+11 9.878076455375210e-01 1.235075388903550e-01
1.200408163265300e+11 9.877412478309613e-01 1.235302263526669e-01
1.200816326530600e+11 9.876748255426043e-01 1.235503983352196e-01
1.201224489795900e+11 9.876083705273340e-01 1.235680758331416e-01
1.201632653061200e+11 9.875418747780808e-01 1.235832797788853e-01
1.202040816326500e+11 9.874753303791406e-01 1.235960311026017e-01
1.202448979591800e+11 9.874087295362588e-01 1.236063507883883e-01
1.202857142857100e+11 9.873420645976315e-01 1.236142599455285e-01
1.203265306122400e+11 9.872753281055243e-01 1.236197797389040e-01
1.203673469387800e+11 9.872085128114596e-01 1.236229314613158e-01
1.204081632653100e+11 9.871416117302619e-01 1.236237365044130e-01
1.204489795918400e+11 9.870746182131626e-01 1.236222163263826e-01
1.204897959183700e+11 9.870075259998924e-01 1.236183924105944e-01
1.205306122449000e+11 9.869403292768085e-01 1.236122862398188e-01
1.205714285714300e+11 9.868730227114300e-01 1.236039192254102e-01
1.206122448979600e+11 9.868056013840801e-01 1.235933126345466e-01
1.206530612244900e+11 9.867380607279083e-01 1.235804875397088e-01
1.206938775510200e+11 9.866703964459684e-01 1.235654649108058e-01
1.207346938775500e+11 9.866026044148911e-01 1.235482656132462e-01
1.207755102040800e+11 9.865346806383538e-01 1.235289104111948e-01
1.208163265306100e+11 9.864666212327053e-01 1.235074200438383e-01
1.208571428571400e+11 9.863984224072693e-01 1.234838153500820e-01
1.208979591836700e+11 9.863300804328721e-01 1.234581173871084e-01
1.209387755102000e+11 9.862615916770012e-01 1.234303474019606e-01
1.209795918367300e+11 9.861929526273331e-01 1.234005268795561e-01
1.210204081632700e+11 9.861241599410118e-01 1.233686775568529e-01
1.210612244898000e+11 9.860552104749013e-01 1.233348213840593e-01
1.211020408163300e+11 9.859861013174201e-01 1.232989805181668e-01
1.211428571428600e+11 9.859168297955231e-01 1.232611773143621e-01
1.211836734693900e+11 9.858473934320989e-01 1.232214342762969e-01
1.212244897959200e+11 9.857777899578953e-01 1.231797739858152e-01
1.212653061224500e+11 9.857080173031637e-01 1.231362190997527e-01
1.213061224489800e+11 9.856380735699356e-01 1.230907923131667e-01
1.213469387755100e+11 9.855679570007412e-01 1.230435163071692e-01
1.213877551020400e+11 9.854976659187524e-01 1.229944137350202e-01
1.214285714285700e+11 9.854271987242805e-01 1.229435071927640e-01
1.214693877551000e+11 9.853565538593151e-01 1.228908192549762e-01
1.215102040816300e+11 9.852857297796536e-01 1.228363724541024e-01
1.215510204081600e+11 9.852147249044801e-01 1.227801894074464e-01
1.215918367346900e+11 9.851435376736944e-01 1.227222929340891e-01
1.216326530612200e+11 9.850721667666785e-01 1.226627059520782e-01
1.216734693877600e+11 9.850006110850305e-01 1.226014514106507e-01
1.217142857142900e+11 9.849288697509267e-01 1.225385523515284e-01
1.217551020408200e+11 9.848569422114133e-01 1.224740318977042e-01
1.217959183673500e+11 9.847848282805625e-01 1.224079131521820e-01
1.218367346938800e+11 9.847125281266880e-01 1.223402191866820e-01
1.218775510204100e+11 9.846400422277147e-01 1.222709730930630e-01
1.219183673469400e+11 9.845673713067935e-01 1.222001980093119e-01
1.219591836734700e+11 9.844945163911597e-01 1.221279170901989e-01
1.220000000000000e+11 9.844214787698444e-01 1.220541534442275e-01
1.220408163265300e+11 9.843482599551366e-01 1.219789301013124e-01
1.220816326530600e+11 9.842748616017921e-01 1.219022700647119e-01
1.221224489795900e+11 9.842012853683955e-01 1.218241963685727e-01
1.221632653061200e+11 9.841275328879178e-01 1.217447321209113e-01
1.222040816326500e+11 9.840536057681804e-01 1.216639005211741e-01
1.222448979591800e+11 9.839795055933412e-01 1.215817248780879e-01
1.222857142857100e+11 9.839052339315212e-01 1.214982286918965e-01
1.223265306122400e+11 9.838307923894177e-01 1.214134356456860e-01
1.223673469387800e+11 9.837561826348012e-01 1.213273696986323e-01
1.224081632653100e+11 9.836814064303732e-01 1.212400550824871e-01
1.224489795918400e+11 9.836064657232109e-01 1.211515163079284e-01
1.224897959183700e+11 9.835313626594721e-01 1.210617781082198e-01
1.225306122449000e+11 9.834560996375836e-01 1.209708653772428e-01
1.225714285714300e+11 9.833806793308326e-01 1.208788031258789e-01
1.226122448979600e+11 9.833051046229535e-01 1.207856164795312e-01
1.226530612244900e+11 9.832293785437598e-01 1.206913305895371e-01
1.226938775510200e+11 9.831535041952427e-01 1.205959706277984e-01
1.227346938775500e+11 9.830774846505037e-01 1.204995618074264e-01
1.227755102040800e+11 9.830013229052185e-01 1.204021293941871e-01
1.228163265306100e+11 9.829250218640094e-01 1.203036987036276e-01
1.228571428571400e+11 9.828485843270695e-01 1.202042951513106e-01
1.228979591836700e+11 9.827720129902566e-01 1.201039443108608e-01
1.229387755102000e+11 9.826953104865891e-01 1.200026719855047e-01
1.229795918367300e+11 9.826184794897078e-01 1.199005041449529e-01
1.230204081632700e+11 9.825415227427617e-01 1.197974668668132e-01
1.230612244898000e+11 9.824644430558215e-01 1.196935863071865e-01
1.231020408163300e+11 9.823872432726766e-01 1.195888887117273e-01
1.231428571428600e+11 9.823099263809791e-01 1.194834003603208e-01
1.231836734693900e+11 9.822324955585320e-01 1.193771475021145e-01
1.232244897959200e+11 9.821549541124053e-01 1.192701562730128e-01
1.232653061224500e+11 9.820773055098835e-01 1.191624526171364e-01
1.233061224489800e+11 9.819995533321233e-01 1.190540622668976e-01
1.233469387755100e+11 9.819217011591660e-01 1.189450107746077e-01
1.233877551020400e+11 9.818437525632639e-01 1.188353234991196e-01
1.234285714285700e+11 9.817657110495345e-01 1.187250255892695e-01
1.234693877551000e+11 9.816875801304671e-01 1.186141419335774e-01
1.235102040816300e+11 9.816093632565470e-01 1.185026971497680e-01
1.235510204081600e+11 9.815310637807622e-01 1.183907157066838e-01
1.235918367346900e+11 9.814526849538258e-01 1.182782219538785e-01
1.236326530612200e+11 9.813742299548972e-01 1.181652401677391e-01
1.236734693877600e+11 9.812957020288954e-01 1.180517944973514e-01
1.237142857142900e+11 9.812171045307864e-01 1.179379089353600e-01
1.237551020408200e+11 9.811384409251354e-01 1.178236073363114e-01
1.237959183673500e+11 9.810597148346534e-01 1.177089134060459e-01
1.238367346938800e+11 9.809809300779679e-01 1.175938506583361e-01
1.238775510204100e+11 9.809020906180116e-01 1.174784424516776e-01
1.239183673469400e+11 9.808232005437441e-01 1.173627119320241e-01
1.239591836734700e+11 9.807442640661563e-01 1.172466820436134e-01
1.240000000000000e+11 9.806652854733670e-01 1.171303754770117e-01
1.240408163265300e+11 9.805862690906891e-01 1.170138146600581e-01
1.240816326530600e+11 9.805072192015937e-01 1.168970217347211e-01
1.241224489795900e+11 9.804281399557082e-01 1.167800186500933e-01
1.241632653061200e+11 9.803490352607829e-01 1.166628271889651e-01
1.242040816326500e+11 9.802699087589487e-01 1.165454690119259e-01
1.242448979591800e+11 9.801907638637862e-01 1.164279656147982e-01
1.242857142857100e+11 9.801116038021760e-01 1.163103383580079e-01
1.243265306122400e+11 9.800324316245156e-01 1.161926085038385e-01
1.243673469387800e+11 9.799532502277218e-01 1.160747972521202e-01
1.244081632653100e+11 9.798740623954907e-01 1.159569257082138e-01
1.244489795918400e+11 9.797948708547336e-01 1.158390147951976e-01
1.244897959183700e+11 9.797156783404787e-01 1.157210852032252e-01
1.245306122449000e+11 9.796364876322189e-01 1.156031573575340e-01
1.245714285714300e+11 9.795573015430152e-01 1.154852513537991e-01
1.246122448979600e+11 9.794781228527353e-01 1.153673869590917e-01
1.246530612244900e+11 9.793989542934236e-01 1.152495835625756e-01
1.246938775510200e+11 9.793197985965374e-01 1.151318600762693e-01
1.247346938775500e+11 9.792406584265478e-01 1.150142348912309e-01
1.247755102040800e+11 9.791615362881284e-01 1.148967259473107e-01
1.248163265306100e+11 9.790824344514358e-01 1.147793507804861e-01
1.248571428571400e+11 9.790033548925690e-01 1.146621265742312e-01
1.248979591836700e+11 9.789242993530713e-01 1.145450701390760e-01
1.249387755102000e+11 9.788452693211986e-01 1.144281979547644e-01
1.249795918367300e+11 9.787662660388163e-01 1.143115262478727e-01
1.250204081632700e+11 9.786872904676179e-01 1.141950710431784e-01
1.250612244898000e+11 9.786083433461827e-01 1.140788481778113e-01
1.251020408163300e+11 9.785294252322523e-01 1.139628732812112e-01
1.251428571428600e+11 9.784505365998599e-01 1.138471617996202e-01
1.251836734693900e+11 9.783716778895614e-01 1.137317290025111e-01
1.252244897959200e+11 9.782928494816572e-01 1.136165900025767e-01
1.252653061224500e+11 9.782140517128044e-01 1.135017596917211e-01
1.253061224489800e+11 9.781352849072081e-01 1.133872527578381e-01
1.253469387755100e+11 9.780565494116555e-01 1.132730836568529e-01
1.253877551020400e+11 9.779778455788268e-01 1.131592666102927e-01
1.254285714285700e+11 9.778991737236924e-01 1.130458155934805e-01
1.254693877551000e+11 9.778205340731954e-01 1.129327443464094e-01
1.255102040816300e+11 9.777419266556351e-01 1.128200663598040e-01
1.255510204081600e+11 9.776633512024221e-01 1.127077949310463e-01
1.255918367346900e+11 9.775848071062124e-01 1.125959431479470e-01
1.256326530612200e+11 9.775062934116739e-01 1.124845239380657e-01
1.256734693877600e+11 9.774278088589670e-01 1.123735500505329e-01
1.257142857142900e+11 9.773493519030829e-01 1.122630341128539e-01
1.257551020408200e+11 9.772709207122131e-01 1.121529886865000e-01
1.257959183673500e+11 9.771925132374017e-01 1.120434262800240e-01
1.258367346938800e+11 9.771141273113628e-01 1.119343593269697e-01
1.258775510204100e+11 9.770357607216742e-01 1.118258001402392e-01
1.259183673469400e+11 9.769574112869752e-01 1.117177609004452e-01
1.259591836734700e+11 9.768790768450321e-01 1.116102536209432e-01
1.260000000000000e+11 9.768007551721106e-01 1.115032901029788e-01
1.260408163265300e+11 9.767224440628035e-01 1.113968819367559e-01
1.260816326530600e+11 9.766441413020535e-01 1.112910405363426e-01
1.261224489795900e+11 9.765658446475821e-01 1.111857770822207e-01
1.261632653061200e+11 9.764875517502498e-01 1.110811025145945e-01
1.262040816326500e+11 9.764092600894321e-01 1.109770275729516e-01
1.262448979591800e+11 9.763309669061164e-01 1.108735627887193e-01
1.262857142857100e+11 9.762526692052264e-01 1.107707185080292e-01
1.263265306122400e+11 9.761743637698411e-01 1.106685049380677e-01
1.263673469387800e+11 9.760960471501062e-01 1.105669321649342e-01
1.264081632653100e+11 9.760177156864462e-01 1.104660101739447e-01
1.264489795918400e+11 9.759393656092402e-01 1.103657488069995e-01
1.264897959183700e+11 9.758609930666696e-01 1.102661577740048e-01
1.265306122449000e+11 9.757825942005267e-01 1.101672465763365e-01
1.265714285714300e+11 9.757041652067269e-01 1.100690244773444e-01
1.266122448979600e+11 9.756257023506937e-01 1.099715005006520e-01
1.266530612244900e+11 9.755472020025517e-01 1.098746833076861e-01
1.266938775510200e+11 9.754686606630718e-01 1.097785811941193e-01
1.267346938775500e+11 9.753900749459147e-01 1.096832020937671e-01
1.267755102040800e+11 9.753114415931352e-01 1.095885534508378e-01
1.268163265306100e+11 9.752327573766644e-01 1.094946422654553e-01
1.268571428571400e+11 9.751540190934035e-01 1.094014750563097e-01
1.268979591836700e+11 9.750752234948317e-01 1.093090578395612e-01
1.269387755102000e+11 9.749963672123366e-01 1.092173962003474e-01
1.269795918367300e+11 9.749174467166251e-01 1.091264953587614e-01
1.270204081632700e+11 9.748384583135158e-01 1.090363601370265e-01
1.270612244898000e+11 9.747593981169522e-01 1.089469950219107e-01
1.271020408163300e+11 9.746802621681906e-01 1.088584041562581e-01
1.271428571428600e+11 9.746010465154799e-01 1.087705913315177e-01
1.271836734693900e+11 9.745217472686240e-01 1.086835600063933e-01
1.272244897959200e+11 9.744423606577518e-01 1.085973133211851e-01
1.272653061224500e+11 9.743628830682632e-01 1.085118540768760e-01
1.273061224489800e+11 9.742833111044588e-01 1.084271846694023e-01
1.273469387755100e+11 9.742036416159040e-01 1.083433070954961e-01
1.273877551020400e+11 9.741238717005968e-01 1.082602229465466e-01
1.274285714285700e+11 9.740439986214586e-01 1.081779333777082e-01
1.274693877551000e+11 9.739640197071520e-01 1.080964390787808e-01
1.275102040816300e+11 9.738839323609998e-01 1.080157402547879e-01
1.275510204081600e+11 9.738037340319856e-01 1.079358366083720e-01
1.275918367346900e+11 9.737234221710726e-01 1.078567273537477e-01
1.276326530612200e+11 9.736429941401237e-01 1.077784112544642e-01
1.276734693877600e+11 9.735624471674519e-01 1.077008866965831e-01
1.277142857142900e+11 9.734817783588980e-01 1.076241517827325e-01
1.277551020408200e+11 9.734009847023423e-01 1.075482043492765e-01
1.277959183673500e+11 9.733200631811634e-01 1.074730419791152e-01
1.278367346938800e+11 9.732390108579532e-01 1.073986619687496e-01
1.278775510204100e+11 9.731578248652405e-01 1.073250613700567e-01
1.279183673469400e+11 9.730765024945940e-01 1.072522369204560e-01
1.279591836734700e+11 9.729950412304370e-01 1.071801850002313e-01
1.280000000000000e+11 9.729134387934173e-01 1.071089016105759e-01
1.280408163265300e+11 9.728316930956925e-01 1.070383823491437e-01
1.280816326530600e+11 9.727498022679932e-01 1.069686223743290e-01
1.281224489795900e+11 9.726677646343230e-01 1.068996164185429e-01
1.281632653061200e+11 9.725855786979748e-01 1.068313588339815e-01
1.282040816326500e+11 9.725032431196542e-01 1.067638436135458e-01
1.282448979591800e+11 9.724207566594756e-01 1.066970643845542e-01
1.282857142857100e+11 9.723381181552569e-01 1.066310144104851e-01
1.283265306122400e+11 9.722553264873479e-01 1.065656865878414e-01
1.283673469387800e+11 9.721723805929818e-01 1.065010734818925e-01
1.284081632653100e+11 9.720892794723646e-01 1.064371674278834e-01
1.284489795918400e+11 9.720060221930509e-01 1.063739605152118e-01
1.284897959183700e+11 9.719226079603789e-01 1.063114445868505e-01
1.285306122449000e+11 9.718390361170314e-01 1.062496112292675e-01
1.285714285714300e+11 9.717553061452325e-01 1.061884517594234e-01
1.286122448979600e+11 9.716714177012410e-01 1.061279571733507e-01
1.286530612244900e+11 9.715873706491063e-01 1.060681181435711e-01
1.286938775510200e+11 9.715031651147392e-01 1.060089250014198e-01
1.287346938775500e+11 9.714188014532213e-01 1.059503677019931e-01
1.287755102040800e+11 9.713342802099544e-01 1.058924357464338e-01
1.288163265306100e+11 9.712496020781400e-01 1.058351182284360e-01
1.288571428571400e+11 9.711647679331090e-01 1.057784037855338e-01
1.288979591836700e+11 9.710797787954123e-01 1.057222805917962e-01
1.289387755102000e+11 9.709946358230996e-01 1.056667363304552e-01
1.289795918367300e+11 9.709093402507485e-01 1.056117582122713e-01
1.290204081632700e+11 9.708238933805949e-01 1.055573330250198e-01
1.290612244898000e+11 9.707382965933520e-01 1.055034471125224e-01
1.291020408163300e+11 9.706525513681902e-01 1.054500864006950e-01
1.291428571428600e+11 9.705666593272236e-01 1.053972365081203e-01
1.291836734693900e+11 9.704806222402215e-01 1.053448826972699e-01
1.292244897959200e+11 9.703944420013777e-01 1.052930099133242e-01
1.292653061224500e+11 9.703081206193991e-01 1.052416027914386e-01
1.293061224489800e+11 9.702216602323976e-01 1.051906457323180e-01
1.293469387755100e+11 9.701350631048586e-01 1.051401229462395e-01
1.293877551020400e+11 9.700483316359065e-01 1.050900184473839e-01
1.294285714285700e+11 9.699614683357639e-01 1.050403160674952e-01
1.294693877551000e+11 9.698744758406329e-01 1.049909994633515e-01
1.295102040816300e+11 9.697873568552193e-01 1.049420521339448e-01
1.295510204081600e+11 9.697001141263116e-01 1.048934574183007e-01
1.295918367346900e+11 9.696127504330255e-01 1.048451985322404e-01
1.296326530612200e+11 9.695252686191237e-01 1.047972585954417e-01
1.296734693877600e+11 9.694376716206029e-01 1.047496206711690e-01
1.297142857142900e+11 9.693499623929146e-01 1.047022677957559e-01
1.297551020408200e+11 9.692621438691393e-01 1.046551829489900e-01
1.297959183673500e+11 9.691742189306052e-01 1.046083490631873e-01
1.298367346938800e+11 9.690861903984977e-01 1.045617490929554e-01
1.298775510204100e+11 9.689980611121687e-01 1.045153660130648e-01
1.299183673469400e+11 9.689098339621554e-01 1.044691828692332e-01
1.299591836734700e+11 9.688215118947726e-01 1.044231827362224e-01
1.300000000000000e+11 9.687330979551476e-01 1.043773486695817e-01
1.300408163265300e+11 9.686445952797555e-01 1.043316637380743e-01
1.300816326530600e+11 9.685560071070820e-01 1.042861109970699e-01
1.301224489795900e+11 9.684673368439247e-01 1.042406735186055e-01
1.301632653061200e+11 9.683785880127941e-01 1.041953342956999e-01
1.302040816326500e+11 9.682897642533577e-01 1.041500762262744e-01
1.302448979591800e+11 9.682008693003817e-01 1.041048821121301e-01
1.302857142857100e+11 9.681119069488340e-01 1.040597346432467e-01
1.303265306122400e+11 9.680228809971191e-01 1.040146163687597e-01
1.303673469387800e+11 9.679337951986463e-01 1.039695097732318e-01
1.304081632653100e+11 9.678446533150245e-01 1.039243973305336e-01
1.304489795918400e+11 9.677554590110583e-01 1.038792615365196e-01
1.304897959183700e+11 9.676662158103164e-01 1.038340849135892e-01
1.305306122449000e+11 9.675769270992997e-01 1.037888499939633e-01
1.305714285714300e+11 9.674875961946916e-01 1.037435393651618e-01
1.306122448979600e+11 9.673982264010380e-01 1.036981357734541e-01
1.306530612244900e+11 9.673088210306307e-01 1.036526221501991e-01
1.306938775510200e+11 9.672193833896812e-01 1.036069815423795e-01
1.307346938775500e+11 9.671299167247219e-01 1.035611971227557e-01
1.307755102040800e+11 9.670404242868806e-01 1.035152521964309e-01
1.308163265306100e+11 9.669509093897863e-01 1.034691302272548e-01
1.308571428571400e+11 9.668613753792231e-01 1.034228148317427e-01
1.308979591836700e+11 9.667718256142116e-01 1.033762896984444e-01
1.309387755102000e+11 9.666822634468164e-01 1.033295385703143e-01
1.309795918367300e+11 9.665926921465864e-01 1.032825452740954e-01
1.310204081632700e+11 9.665031148410794e-01 1.032352937137830e-01
1.310612244898000e+11 9.664135344157325e-01 1.031877679637411e-01
1.311020408163300e+11 9.663239534763911e-01 1.031399523103122e-01
1.311428571428600e+11 9.662343743472596e-01 1.030918313302388e-01
1.311836734693900e+11 9.661447990853859e-01 1.030433899808331e-01
1.312244897959200e+11 9.660552295079426e-01 1.029946135037661e-01
1.312653061224500e+11 9.659656671948423e-01 1.029454874752579e-01
1.313061224489800e+11 9.658761135083281e-01 1.028959978763201e-01
1.313469387755100e+11 9.657865695906924e-01 1.028461311568618e-01
1.313877551020400e+11 9.656970364646229e-01 1.027958743384796e-01
1.314285714285700e+11 9.656075150393075e-01 1.027452149594102e-01
1.314693877551000e+11 9.655180061021759e-01 1.026941410302753e-01
1.315102040816300e+11 9.654285103596052e-01 1.026426410465847e-01
1.315510204081600e+11 9.653390284681379e-01 1.025907040394669e-01
1.315918367346900e+11 9.652495610621351e-01 1.025383196202227e-01
1.316326530612200e+11 9.651601087690546e-01 1.024854779582401e-01
1.316734693877600e+11 9.650706722070548e-01 1.024321697981211e-01
1.317142857142900e+11 9.649812519696040e-01 1.023783863399019e-01
1.317551020408200e+11 9.648918485866546e-01 1.023241193089679e-01
1.317959183673500e+11 9.648024624881941e-01 1.022693609915426e-01
1.318367346938800e+11 9.647130939742922e-01 1.022141043163216e-01
1.318775510204100e+11 9.646237431833317e-01 1.021583428867039e-01
1.319183673469400e+11 9.645344101136063e-01 1.021020710071499e-01
1.319591836734700e+11 9.644450946826286e-01 1.020452836365624e-01
1.320000000000000e+11 9.643557967401455e-01 1.019879764433882e-01
1.320408163265300e+11 9.642665160683700e-01 1.019301458284077e-01
1.320816326530600e+11 9.641772524651259e-01 1.018717889809645e-01
1.321224489795900e+11 9.640880058006062e-01 1.018129038990526e-01
1.321632653061200e+11 9.639987760442557e-01 1.017534893635439e-01
1.322040816326500e+11 9.639095632657310e-01 1.016935449348339e-01
1.322448979591800e+11 9.638203676096244e-01 1.016330708628609e-01
1.322857142857100e+11 9.637311893810714e-01 1.015720681006346e-01
1.323265306122400e+11 9.636420290454099e-01 1.015105383681147e-01
1.323673469387800e+11 9.635528872436717e-01 1.014484841713331e-01
1.324081632653100e+11 9.634637647685388e-01 1.013859087099824e-01
1.324489795918400e+11 9.633746625654753e-01 1.013228158296018e-01
1.324897959183700e+11 9.632855816288615e-01 1.012592100381921e-01
1.325306122449000e+11 9.631965228941717e-01 1.011950966035522e-01
1.325714285714300e+11 9.631074872398266e-01 1.011304814998869e-01
1.326122448979600e+11 9.630184754464847e-01 1.010653714626672e-01
1.326530612244900e+11 9.629294881597418e-01 1.009997740440335e-01
1.326938775510200e+11 9.628405259360230e-01 1.009336976871305e-01
1.327346938775500e+11 9.627515892273805e-01 1.008671517258308e-01
1.327755102040800e+11 9.626626783887625e-01 1.008001463975899e-01
1.328163265306100e+11 9.625737937331013e-01 1.007326929387249e-01
1.328571428571400e+11 9.624849356117743e-01 1.006648035890316e-01
1.328979591836700e+11 9.623961044504462e-01 1.005964915327098e-01
1.329387755102000e+11 9.623073008380947e-01 1.005277707586972e-01
1.329795918367300e+11 9.622185255766270e-01 1.004586560472333e-01
1.330204081632700e+11 9.621297797277509e-01 1.003891629392333e-01
1.330612244898000e+11 9.620410645821750e-01 1.003193076447904e-01
1.331020408163300e+11 9.619523816526528e-01 1.002491069759972e-01
1.331428571428600e+11 9.618637326693209e-01 1.001785782469281e-01
1.331836734693900e+11 9.617751196103477e-01 1.001077392975382e-01
1.332244897959200e+11 9.616865446170155e-01 1.000366084423369e-01
1.332653061224500e+11 9.615980098991809e-01 9.996520445276715e-02
1.333061224489800e+11 9.615095177458961e-01 9.989354658709509e-02
1.333469387755100e+11 9.614210705025852e-01 9.982165450579715e-02
1.333877551020400e+11 9.613326705465669e-01 9.974954818751385e-02
1.334285714285700e+11 9.612443202891326e-01 9.967724786304717e-02
1.334693877551000e+11 9.611560221600736e-01 9.960477400145601e-02
1.335102040816300e+11 9.610677786461921e-01 9.953214744721540e-02
1.335510204081600e+11 9.609795923952229e-01 9.945938942341490e-02
1.335918367346900e+11 9.608914662089106e-01 9.938652141961987e-02
1.336326530612200e+11 9.608034030953178e-01 9.931356508975300e-02
1.336734693877600e+11 9.607154063097658e-01 9.924054220813569e-02
1.337142857142900e+11 9.606274794472165e-01 9.916747471617536e-02
1.337551020408200e+11 9.605396264811407e-01 9.909438476930603e-02
1.337959183673500e+11 9.604518517890407e-01 9.902129460550997e-02
1.338367346938800e+11 9.603641600870370e-01 9.894822655771005e-02
1.338775510204100e+11 9.602765564454451e-01 9.887520307932740e-02
1.339183673469400e+11 9.601890462964892e-01 9.880224672460623e-02
1.339591836734700e+11 9.601016353696344e-01 9.872938002661771e-02
1.340000000000000e+11 9.600143295821845e-01 9.865662540379332e-02
1.340408163265300e+11 9.599271349282295e-01 9.858400515720538e-02
1.340816326530600e+11 9.598400574268702e-01 9.851154162603148e-02
1.341224489795900e+11 9.597531030551749e-01 9.843925725281646e-02
1.341632653061200e+11 9.596662777358569e-01 9.836717456947311e-02
1.342040816326500e+11 9.595795873338882e-01 9.829531617733166e-02
1.342448979591800e+11 9.594930376698149e-01 9.822370473351931e-02
1.342857142857100e+11 9.594066345426919e-01 9.815236285632614e-02
1.343265306122400e+11 9.593203837780164e-01 9.808131308636567e-02
1.343673469387800e+11 9.592342913216576e-01 9.801057789173293e-02
1.344081632653100e+11 9.591483632916111e-01 9.794017963024196e-02
1.344489795918400e+11 9.590626060035662e-01 9.787014043109207e-02
1.344897959183700e+11 9.589770260167507e-01 9.780048209568963e-02
1.345306122449000e+11 9.588916301302072e-01 9.773122592541267e-02
1.345714285714300e+11 9.588064254082218e-01 9.766239270772976e-02
1.346122448979600e+11 9.587214191584793e-01 9.759400265662319e-02
1.346530612244900e+11 9.586366188693553e-01 9.752607530845368e-02
1.346938775510200e+11 9.585520322051495e-01 9.745862944051545e-02
1.347346938775500e+11 9.584676669198791e-01 9.739168306225239e-02
1.347755102040800e+11 9.583835307622200e-01 9.732525343725142e-02
1.348163265306100e+11 9.582996313856722e-01 9.725935710585296e-02
1.348571428571400e+11 9.582159762607756e-01 9.719400988643874e-02
1.348979591836700e+11 9.581325726074004e-01 9.712922694291166e-02
1.349387755102000e+11 9.580494273829429e-01 9.706502277486299e-02
1.349795918367300e+11 9.579665472262835e-01 9.700141121439841e-02
1.350204081632700e+11 9.578839385012476e-01 9.693840552589014e-02
1.350612244898000e+11 9.578016073393094e-01 9.687601844204267e-02
1.351020408163300e+11 9.577195596882383e-01 9.681426212125377e-02
1.351428571428600e+11 9.576378013427038e-01 9.675314807167139e-02
1.351836734693900e+11 9.575563379956248e-01 9.669268705578225e-02
1.352244897959200e+11 9.574751753164054e-01 9.663288914798283e-02
1.352653061224500e+11 9.573943189669533e-01 9.657376370247682e-02
1.353061224489800e+11 9.573137746394108e-01 9.651531927895012e-02
1.353469387755100e+11 9.572335480360886e-01 9.645756350432570e-02
1.353877551020400e+11 9.571536448744864e-01 9.640050296598981e-02
1.354285714285700e+11 9.570740708618690e-01 9.634414323884467e-02
1.354693877551000e+11 9.569948316242792e-01 9.628848892170698e-02
1.355102040816300e+11 9.569159326098734e-01 9.623354360348024e-02
1.355510204081600e+11 9.568373789972829e-01 9.617930983269306e-02
1.355918367346900e+11 9.567591756118308e-01 9.612578910669470e-02
1.356326530612200e+11 9.566813268707239e-01 9.607298196352106e-02
1.356734693877600e+11 9.566038367683213e-01 9.602088806320999e-02
1.357142857142900e+11 9.565267088063162e-01 9.596950620115731e-02
1.357551020408200e+11 9.564499460232184e-01 9.591883434631471e-02
1.357959183673500e+11 9.563735509826001e-01 9.586886966956219e-02
1.358367346938800e+11 9.562975259231196e-01 9.581960868728147e-02
1.358775510204100e+11 9.562218728762942e-01 9.577104731116544e-02
1.359183673469400e+11 9.561465937444751e-01 9.572318082719641e-02
1.359591836734700e+11 9.560716903061874e-01 9.567600381209111e-02
1.360000000000000e+11 9.559971642478668e-01 9.562951006859595e-02
1.360408163265300e+11 9.559230171914521e-01 9.558369268805701e-02
1.360816326530600e+11 9.558492507625199e-01 9.553854411906040e-02
1.361224489795900e+11 9.557758666271443e-01 9.549405615588538e-02
1.361632653061200e+11 9.557028663976606e-01 9.545021996134928e-02
1.362040816326500e+11 9.556302515281473e-01 9.540702603131290e-02
1.362448979591800e+11 9.555580232709062e-01 9.536446416534058e-02
1.362857142857100e+11 9.554861825601476e-01 9.532252355905808e-02
1.363265306122400e+11 9.554147299303586e-01 9.528119295187970e-02
1.363673469387800e+11 9.553436654600865e-01 9.524046069936790e-02
1.364081632653100e+11 9.552729886625017e-01 9.520031481171431e-02
1.364489795918400e+11 9.552026984247128e-01 9.516074295239120e-02
1.364897959183700e+11 9.551327930505435e-01 9.512173244981001e-02
1.365306122449000e+11 9.550632703060054e-01 9.508327037106205e-02
1.365714285714300e+11 9.549941275260019e-01 9.504534356831282e-02
1.366122448979600e+11 9.549253617210177e-01 9.500793862314112e-02
1.366530612244900e+11 9.548569696526370e-01 9.497104183520130e-02
1.366938775510200e+11 9.547889478837344e-01 9.493463918139439e-02
1.367346938775500e+11 9.547212928471484e-01 9.489871633182900e-02
1.367755102040800e+11 9.546540009736734e-01 9.486325859270224e-02
1.368163265306100e+11 9.545870687593316e-01 9.482825081962225e-02
1.368571428571400e+11 9.545204928296216e-01 9.479367745711427e-02
1.368979591836700e+11 9.544542698849997e-01 9.475952242831151e-02
1.369387755102000e+11 9.543883966489387e-01 9.472576909766149e-02
1.369795918367300e+11 9.543228698450993e-01 9.469240030790795e-02
1.370204081632700e+11 9.542576861607884e-01 9.465939838540946e-02
1.370612244898000e+11 9.541928421793844e-01 9.462674513391124e-02
1.371020408163300e+11 9.541283343034341e-01 9.459442187704389e-02
1.371428571428600e+11 9.540641586942132e-01 9.456240949452988e-02
1.371836734693900e+11 9.540003111941666e-01 9.453068843946363e-02
1.372244897959200e+11 9.539367873497613e-01 9.449923886549060e-02
1.372653061224500e+11 9.538735823691762e-01 9.446804067096180e-02
1.373061224489800e+11 9.538106911666862e-01 9.443707348842532e-02
1.373469387755100e+11 9.537481083694225e-01 9.440631672766299e-02
1.373877551020400e+11 9.536858283733477e-01 9.437574960049706e-02
1.374285714285700e+11 9.536238453970247e-01 9.434535122334178e-02
1.374693877551000e+11 9.535621535592216e-01 9.431510058401134e-02
1.375102040816300e+11 9.535007469847789e-01 9.428497657157173e-02
1.375510204081600e+11 9.534396198482682e-01 9.425495792716661e-02
1.375918367346900e+11 9.533787664024064e-01 9.422502323686213e-02
1.376326530612200e+11 9.533181810345496e-01 9.419515098492814e-02
1.376734693877600e+11 9.532578582906527e-01 9.416531952365119e-02
1.377142857142900e+11 9.531977928790778e-01 9.413550706070546e-02
1.377551020408200e+11 9.531379796349603e-01 9.410569164913644e-02
1.377959183673500e+11 9.530784134286311e-01 9.407585114894379e-02
1.378367346938800e+11 9.530190890987664e-01 9.404596317166347e-02
1.378775510204100e+11 9.529600013888592e-01 9.401600517070796e-02
1.379183673469400e+11 9.529011448744186e-01 9.398595449964402e-02
1.379591836734700e+11 9.528425139362829e-01 9.395578848922170e-02
1.380000000000000e+11 9.527841027281104e-01 9.392548455463437e-02
1.380408163265300e+11 9.527259051533942e-01 9.389502030583222e-02
1.380816326530600e+11 9.526679148198036e-01 9.386437360578680e-02
1.381224489795900e+11 9.526101250728507e-01 9.383352263590004e-02
1.381632653061200e+11 9.525525290514257e-01 9.380244598715880e-02
1.382040816326500e+11 9.524951198220903e-01 9.377112272398272e-02
1.382448979591800e+11 9.524378904080423e-01 9.373953241553148e-02
1.382857142857100e+11 9.523808338302076e-01 9.370765513120645e-02
1.383265306122400e+11 9.523239431771900e-01 9.367547143939911e-02
1.383673469387800e+11 9.522672116929285e-01 9.364296237723244e-02
1.384081632653100e+11 9.522106328125096e-01 9.361010944489745e-02
1.384489795918400e+11 9.521542001885596e-01 9.357689453542307e-02
1.384897959183700e+11 9.520979077068601e-01 9.354329986207664e-02
1.385306122449000e+11 9.520417494816590e-01 9.350930789519427e-02
1.385714285714300e+11 9.519857197756736e-01 9.347490138040564e-02
1.386122448979600e+11 9.519298130164852e-01 9.344006337999625e-02
1.386530612244900e+11 9.518740237190562e-01 9.340477722554220e-02
1.386938775510200e+11 9.518183464528079e-01 9.336902654300915e-02
1.387346938775500e+11 9.517627757544056e-01 9.333279517889935e-02
1.387755102040800e+11 9.517073061196820e-01 9.329606733901431e-02
1.388163265306100e+11 9.516519320086212e-01 9.325882752159845e-02
1.388571428571400e+11 9.515966478293770e-01 9.322106049670949e-02
1.388979591836700e+11 9.515414479697688e-01 9.318275145410969e-02
1.389387755102000e+11 9.514863268797251e-01 9.314388606053517e-02
1.389795918367300e+11 9.514312792056823e-01 9.310445056440057e-02
1.390204081632700e+11 9.513762998918496e-01 9.306443177340720e-02
1.390612244898000e+11 9.513213842410065e-01 9.302381702565914e-02
1.391020408163300e+11 9.512665279337728e-01 9.298259403871438e-02
1.391428571428600e+11 9.512117270763473e-01 9.294075082892837e-02
1.391836734693900e+11 9.511569782786968e-01 9.289827573066435e-02
1.392244897959200e+11 9.511022786057151e-01 9.285515742663682e-02
1.392653061224500e+11 9.510476255832917e-01 9.281138490737545e-02
1.393061224489800e+11 9.509930171779197e-01 9.276694748343489e-02
1.393469387755100e+11 9.509384517777316e-01 9.272183474562534e-02
1.393877551020400e+11 9.508839280539777e-01 9.267603648529674e-02
1.394285714285700e+11 9.508294448364129e-01 9.262954268399687e-02
1.394693877551000e+11 9.507750009633793e-01 9.258234351055442e-02
1.395102040816300e+11 9.507205951805421e-01 9.253442947593275e-02
1.395510204081600e+11 9.506662261475443e-01 9.248579163724560e-02
1.395918367346900e+11 9.506118924624563e-01 9.243642172687526e-02
1.396326530612200e+11 9.505575925914516e-01 9.238631195937205e-02
1.396734693877600e+11 9.505033248626785e-01 9.233545505273066e-02
1.397142857142900e+11 9.504490875087969e-01 9.228384425952643e-02
1.397551020408200e+11 9.503948787289431e-01 9.223147339343979e-02
1.397959183673500e+11 9.503406966872423e-01 9.217833673272990e-02
1.398367346938800e+11 9.502865395474210e-01 9.212442901319677e-02
1.398775510204100e+11 9.502324055013149e-01 9.206974537807017e-02
1.399183673469400e+11 9.501782927759244e-01 9.201428140685362e-02
1.399591836734700e+11 9.501241997371299e-01 9.195803313235246e-02
1.400000000000000e+11 9.500701248650824e-01 9.190099689617937e-02
1.400408163265300e+11 9.500160667796862e-01 9.184316935157753e-02
1.400816326530600e+11 9.499620242215163e-01 9.178454752364154e-02
1.401224489795900e+11 9.499079960230467e-01 9.172512882793354e-02
1.401632653061200e+11 9.498539810877784e-01 9.166491104097534e-02
1.402040816326500e+11 9.497999783606387e-01 9.160389220421054e-02
1.402448979591800e+11 9.497459868092796e-01 9.154207072534275e-02
1.402857142857100e+11 9.496920053944028e-01 9.147944551486598e-02
1.403265306122400e+11 9.496380330201852e-01 9.141601590584780e-02
1.403673469387800e+11 9.495840685235800e-01 9.135178168968747e-02
1.404081632653100e+11 9.495301107660908e-01 9.128674318084548e-02
1.404489795918400e+11 9.494761586514723e-01 9.122090120848335e-02
1.404897959183700e+11 9.494222111631681e-01 9.115425708550365e-02
1.405306122449000e+11 9.493682673771104e-01 9.108681251385613e-02
1.405714285714300e+11 9.493143265167955e-01 9.101856955413047e-02
1.406122448979600e+11 9.492603880210214e-01 9.094953070164558e-02
1.406530612244900e+11 9.492064515565380e-01 9.087969892735542e-02
1.406938775510200e+11 9.491525170921159e-01 9.080907765839902e-02
1.407346938775500e+11 9.490985848492389e-01 9.073767058332308e-02
1.407755102040800e+11 9.490446552575100e-01 9.066548155107858e-02
1.408163265306100e+11 9.489907288982569e-01 9.059251448227502e-02
1.408571428571400e+11 9.489368064574145e-01 9.051877343544706e-02
1.408979591836700e+11 9.488828886778052e-01 9.044426269223345e-02
1.409387755102000e+11 9.488289763417006e-01 9.036898670488619e-02
1.409795918367300e+11 9.487750702197603e-01 9.029295008084133e-02
1.410204081632700e+11 9.487211709915671e-01 9.021615746881038e-02
1.410612244898000e+11 9.486672792187384e-01 9.013861354672255e-02
1.411020408163300e+11 9.486133953780843e-01 9.006032315174302e-02
1.411428571428600e+11 9.485595198787018e-01 8.998129141606993e-02
1.411836734693900e+11 9.485056530584196e-01 8.990152363407772e-02
1.412244897959200e+11 9.484517952447713e-01 8.982102517378181e-02
1.412653061224500e+11 9.483979467765766e-01 8.973980137919094e-02
1.413061224489800e+11 9.483441080520295e-01 8.965785760261311e-02
1.413469387755100e+11 9.482902795248361e-01 8.957519920457593e-02
1.413877551020400e+11 9.482364616755284e-01 8.949183161281395e-02
1.414285714285700e+11 9.481826550177349e-01 8.940776039048894e-02
1.414693877551000e+11 9.481288600964164e-01 8.932299124046630e-02
1.415102040816300e+11 9.480750774878436e-01 8.923753002092515e-02
1.415510204081600e+11 9.480213078597860e-01 8.915138266803377e-02
1.415918367346900e+11 9.479675519590509e-01 8.906455513875720e-02
1.416326530612200e+11 9.479138106042674e-01 8.897705350143970e-02
1.416734693877600e+11 9.478600846775833e-01 8.888888398859517e-02
1.417142857142900e+11 9.478063751449390e-01 8.880005295439562e-02
1.417551020408200e+11 9.477526830284876e-01 8.871056684174193e-02
1.417959183673500e+11 9.476990093873260e-01 8.862043231337319e-02
1.418367346938800e+11 9.476453553225415e-01 8.852965624300209e-02
1.418775510204100e+11 9.475917219910033e-01 8.843824567981780e-02
1.419183673469400e+11 9.475381106529606e-01 8.834620774947551e-02
1.419591836734700e+11 9.474845227279628e-01 8.825354967852535e-02
1.420000000000000e+11 9.474309598056997e-01 8.816027887940928e-02
1.420408163265300e+11 9.473774236393728e-01 8.806640309146688e-02
1.420816326530600e+11 9.473239162680747e-01 8.797193036456273e-02
1.421224489795900e+11 9.472704400750454e-01 8.787686891257397e-02
1.421632653061200e+11 9.472169977885658e-01 8.778122710583219e-02
1.422040816326500e+11 9.471635924801401e-01 8.768501348866457e-02
1.422448979591800e+11 9.471102275728838e-01 8.758823674338236e-02
1.422857142857100e+11 9.470569068140268e-01 8.749090564055849e-02
1.423265306122400e+11 9.470036342412302e-01 8.739302902538228e-02
1.423673469387800e+11 9.469504141583434e-01 8.729461581072358e-02
1.424081632653100e+11 9.468972510620599e-01 8.719567500448371e-02
1.424489795918400e+11 9.468441496370915e-01 8.709621577902929e-02
1.424897959183700e+11 9.467911147518592e-01 8.699624744460341e-02
1.425306122449000e+11 9.467381514186068e-01 8.689577929204803e-02
1.425714285714300e+11 9.466852647780457e-01 8.679482055087261e-02
1.426122448979600e+11 9.466324601288764e-01 8.669338040541046e-02
1.426530612244900e+11 9.465797429818988e-01 8.659146813734429e-02
1.426938775510200e+11 9.465271190675497e-01 8.648909320335013e-02
1.427346938775500e+11 9.464745943040626e-01 8.638626513652778e-02
1.427755102040800e+11 9.464221747615672e-01 8.628299342460133e-02
1.428163265306100e+11 9.463698667263242e-01 8.617928744010375e-02
1.428571428571400e+11 9.463176767057664e-01 8.607515652162562e-02
1.428979591836700e+11 9.462656113800809e-01 8.597060999031245e-02
1.429387755102000e+11 9.462136775484000e-01 8.586565712691729e-02
1.429795918367300e+11 9.461618820974467e-01 8.576030707147207e-02
1.430204081632700e+11 9.461102319378045e-01 8.565456872494745e-02
1.430612244898000e+11 9.460587339354660e-01 8.554845085248076e-02
1.431020408163300e+11 9.460073948324975e-01 8.544196210469829e-02
1.431428571428600e+11 9.459562211526514e-01 8.533511102277616e-02
1.431836734693900e+11 9.459052191355277e-01 8.522790604359669e-02
1.432244897959200e+11 9.458543947048075e-01 8.512035552708648e-02
1.432653061224500e+11 9.458037534427099e-01 8.501246778241738e-02
1.433061224489800e+11 9.457533006217366e-01 8.490425098278426e-02
1.433469387755100e+11 9.457030413070595e-01 8.479571306627678e-02
1.433877551020400e+11 9.456529804091925e-01 8.468686171035543e-02
1.434285714285700e+11 9.456031227381488e-01 8.457770442631020e-02
1.434693877551000e+11 9.455534730198516e-01 8.446824861071904e-02
1.435102040816300e+11 9.455040359717894e-01 8.435850145595031e-02
1.435510204081600e+11 9.454548163716916e-01 8.424846985614787e-02
1.435918367346900e+11 9.454058190655036e-01 8.413816031450952e-02
1.436326530612200e+11 9.453570489415037e-01 8.402757892010373e-02
1.436734693877600e+11 9.453085108306322e-01 8.391673141655072e-02
1.437142857142900e+11 9.452602095044865e-01 8.380562334717283e-02
1.437551020408200e+11 9.452121497099775e-01 8.369426009591863e-02
1.437959183673500e+11 9.451643361233516e-01 8.358264678615854e-02
1.438367346938800e+11 9.451167732810960e-01 8.347078827711502e-02
1.438775510204100e+11 9.450694654854461e-01 8.335868913360132e-02
1.439183673469400e+11 9.450224167426889e-01 8.324635362560237e-02
1.439591836734700e+11 9.449756307343555e-01 8.313378587763477e-02
1.440000000000000e+11 9.449291107711602e-01 8.302098998479528e-02
1.440408163265300e+11 9.448828598360586e-01 8.290797006699799e-02
1.440816326530600e+11 9.448368806317188e-01 8.279473028250225e-02
1.441224489795900e+11 9.447911756698348e-01 8.268127481374066e-02
1.441632653061200e+11 9.447457473525945e-01 8.256760784443747e-02
1.442040816326500e+11 9.447005980063743e-01 8.245373359393328e-02
1.442448979591800e+11 9.446557300089043e-01 8.233965637706417e-02
1.442857142857100e+11 9.446111458100117e-01 8.222538058861721e-02
1.443265306122400e+11 9.445668479408901e-01 8.211091063561508e-02
1.443673469387800e+11 9.445228390193326e-01 8.199625099766003e-02
1.444081632653100e+11 9.444791217864575e-01 8.188140624337152e-02
1.444489795918400e+11 9.444356990810875e-01 8.176638101227235e-02
1.444897959183700e+11 9.443925737621539e-01 8.165117974865718e-02
1.445306122449000e+11 9.443497486330028e-01 8.153580676930526e-02
1.445714285714300e+11 9.443072263565691e-01 8.142026639747262e-02
1.446122448979600e+11 9.442650093612591e-01 8.130456300044976e-02
1.446530612244900e+11 9.442230997612356e-01 8.118870096031308e-02
1.446938775510200e+11 9.441814992947323e-01 8.107268466346602e-02
1.447346938775500e+11 9.441402092246601e-01 8.095651864703016e-02
1.447755102040800e+11 9.440992303581650e-01 8.084020763321406e-02
1.448163265306100e+11 9.440585630576113e-01 8.072375648067300e-02
1.448571428571400e+11 9.440182072880364e-01 8.060717012565256e-02
1.448979591836700e+11 9.439781627061363e-01 8.049045361554651e-02
1.449387755102000e+11 9.439384287529032e-01 8.037361217354404e-02
1.449795918367300e+11 9.438990047745965e-01 8.025665111600472e-02
1.450204081632700e+11 9.438598901198794e-01 8.013957576306271e-02
1.450612244898000e+11 9.438210842692102e-01 8.002239143855142e-02
1.451020408163300e+11 9.437825868952618e-01 7.990510358553309e-02
1.451428571428600e+11 9.437443979506605e-01 7.978771772761463e-02
1.451836734693900e+11 9.437065176278172e-01 7.967023934512461e-02
1.452244897959200e+11 9.436689463388425e-01 7.955267382862447e-02
1.452653061224500e+11 9.436316846452499e-01 7.943502638631866e-02
1.453061224489800e+11 9.435947331690742e-01 7.931730212978773e-02
1.453469387755100e+11 9.435580925342033e-01 7.919950609379392e-02
1.453877551020400e+11 9.435217631814734e-01 7.908164328593610e-02
1.454285714285700e+11 9.434857452245405e-01 7.896371859521681e-02
1.454693877551000e+11 9.434500384027140e-01 7.884573677615302e-02
1.455102040816300e+11 9.434146420789833e-01 7.872770256243176e-02
1.455510204081600e+11 9.433795552766920e-01 7.860962076049820e-02
1.455918367346900e+11 9.433447766532915e-01 7.849149633119049e-02
1.456326530612200e+11 9.433103045344885e-01 7.837333445358967e-02
1.456734693877600e+11 9.432761370129740e-01 7.825514053212033e-02
1.457142857142900e+11 9.432422720368755e-01 7.813692014794880e-02
1.457551020408200e+11 9.432087075373002e-01 7.801867905191416e-02
1.457959183673500e+11 9.431754415556858e-01 7.790042319459996e-02
1.458367346938800e+11 9.431424723200474e-01 7.778215863652739e-02
1.458775510204100e+11 9.431097982583051e-01 7.766389131985492e-02
1.459183673469400e+11 9.430774180232854e-01 7.754562694694789e-02
1.459591836734700e+11 9.430453305376438e-01 7.742737102348711e-02
1.460000000000000e+11 9.430135350231771e-01 7.730912899380712e-02
1.460408163265300e+11 9.429820309905644e-01 7.719090620350358e-02
1.460816326530600e+11 9.429508181548255e-01 7.707270770018886e-02
1.461224489795900e+11 9.429198962949883e-01 7.695453803494136e-02
1.461632653061200e+11 9.428892652185248e-01 7.683640130888715e-02
1.462040816326500e+11 9.428589247288330e-01 7.671830139742548e-02
1.462448979591800e+11 9.428288745199178e-01 7.660024184347747e-02
1.462857142857100e+11 9.427991140403729e-01 7.648222575884894e-02
1.463265306122400e+11 9.427696424508047e-01 7.636425575475587e-02
1.463673469387800e+11 9.427404586639312e-01 7.624633413452994e-02
1.464081632653100e+11 9.427115613782230e-01 7.612846307786116e-02
1.464489795918400e+11 9.426829491259696e-01 7.601064455826308e-02
1.464897959183700e+11 9.426546203189294e-01 7.589288011425499e-02
1.465306122449000e+11 9.426265733771995e-01 7.577517095608796e-02
1.465714285714300e+11 9.425988068323170e-01 7.565751799598314e-02
1.466122448979600e+11 9.425713194165191e-01 7.553992183763297e-02
1.466530612244900e+11 9.425441101112342e-01 7.542238267407747e-02
1.466938775510200e+11 9.425171781878007e-01 7.530490021268434e-02
1.467346938775500e+11 9.424905232946706e-01 7.518747353231256e-02
1.467755102040800e+11 9.424641454301719e-01 7.507010097961832e-02
1.468163265306100e+11 9.424380448845401e-01 7.495278003032418e-02
1.468571428571400e+11 9.424122222005767e-01 7.483550732368033e-02
1.468979591836700e+11 9.423866780823826e-01 7.471827862171691e-02
1.469387755102000e+11 9.423614133418029e-01 7.460108857423968e-02
1.469795918367300e+11 9.423364287635193e-01 7.448393078749475e-02
1.470204081632700e+11 9.423117250820930e-01 7.436679792241552e-02
1.470612244898000e+11 9.422873028971920e-01 7.424968191085701e-02
1.471020408163300e+11 9.422631626533666e-01 7.413257393797409e-02
1.471428571428600e+11 9.422393046404118e-01 7.401546420710969e-02
1.471836734693900e+11 9.422157289794147e-01 7.389834195856158e-02
1.472244897959200e+11 9.421924357261240e-01 7.378119569242281e-02
1.472653061224500e+11 9.421694248711704e-01 7.366401330675917e-02
1.473061224489800e+11 9.421466963944565e-01 7.354678200008735e-02
1.473469387755100e+11 9.421242504038178e-01 7.342948819983926e-02
1.473877551020400e+11 9.421020872209797e-01 7.331211749530724e-02
1.474285714285700e+11 9.420802073782613e-01 7.319465463394946e-02
1.474693877551000e+11 9.420586116091646e-01 7.307708353233246e-02
1.475102040816300e+11 9.420373009884774e-01 7.295938710693559e-02
1.475510204081600e+11 9.420162769398921e-01 7.284154714020119e-02
1.475918367346900e+11 9.419955411641650e-01 7.272354425966522e-02
1.476326530612200e+11 9.419750956568554e-01 7.260535805347466e-02
1.476734693877600e+11 9.419549427095111e-01 7.248696708232862e-02
1.477142857142900e+11 9.419350847742156e-01 7.236834870626548e-02
1.477551020408200e+11 9.419155244256708e-01 7.224947913172644e-02
1.477959183673500e+11 9.418962643086360e-01 7.213033353733596e-02
1.478367346938800e+11 9.418773070575742e-01 7.201088624578676e-02
1.478775510204100e+11 9.418586552713348e-01 7.189111079141572e-02
1.479183673469400e+11 9.418403114975112e-01 7.177098001457964e-02
1.479591836734700e+11 9.418222782641632e-01 7.165046598204794e-02
1.480000000000000e+11 9.418045580789541e-01 7.152954002344700e-02
1.480408163265300e+11 9.417871534343182e-01 7.140817267700438e-02
1.480816326530600e+11 9.417700668118034e-01 7.128633385749683e-02
1.481224489795900e+11 9.417533007684691e-01 7.116399303608485e-02
1.481632653061200e+11 9.417368580269273e-01 7.104111926892744e-02
1.482040816326500e+11 9.417207415937208e-01 7.091768095878928e-02
1.482448979591800e+11 9.417049547476339e-01 7.079364581603208e-02
1.482857142857100e+11 9.416895010519167e-01 7.066898079695375e-02
1.483265306122400e+11 9.416743843202872e-01 7.054365206909143e-02
1.483673469387800e+11 9.416596086029051e-01 7.041762491182742e-02
1.484081632653100e+11 9.416451781511245e-01 7.029086345728862e-02
1.484489795918400e+11 9.416310973418629e-01 7.016333069807727e-02
1.484897959183700e+11 9.416173706206834e-01 7.003498877366950e-02
1.485306122449000e+11 9.416040024561124e-01 6.990579899817034e-02
1.485714285714300e+11 9.415909972752582e-01 6.977572182415906e-02
1.486122448979600e+11 9.415783594043887e-01 6.964471653824029e-02
1.486530612244900e+11 9.415660931089010e-01 6.951274133070651e-02
1.486938775510200e+11 9.415542026056011e-01 6.937975346712590e-02
1.487346938775500e+11 9.415426920274031e-01 6.924570962959181e-02
1.487755102040800e+11 9.415315654739003e-01 6.911056572754855e-02
1.488163265306100e+11 9.415208271047726e-01 6.897427707538908e-02
1.488571428571400e+11 9.415104811769327e-01 6.883679859284510e-02
1.488979591836700e+11 9.415005320429454e-01 6.869808492121393e-02
1.489387755102000e+11 9.414909842519621e-01 6.855809018277235e-02
1.489795918367300e+11 9.414818425835991e-01 6.841676792748511e-02
1.490204081632700e+11 9.414731120736645e-01 6.827407119835360e-02
1.490612244898000e+11 9.414647980774182e-01 6.812995295891147e-02
1.491020408163300e+11 9.414569063070900e-01 6.798436611839619e-02
1.491428571428600e+11 9.414494429147890e-01 6.783726335679600e-02
1.491836734693900e+11 9.414424145019036e-01 6.768859707470257e-02
1.492244897959200e+11 9.414358280597623e-01 6.753831962559055e-02
1.492653061224500e+11 9.414296909236393e-01 6.738638347915239e-02
1.493061224489800e+11 9.414240106816797e-01 6.723274122733428e-02
1.493469387755100e+11 9.414187950904035e-01 6.707734541581166e-02
1.493877551020400e+11 9.414140520278057e-01 6.692014863645342e-02
1.494285714285700e+11 9.414097893963159e-01 6.676110369605828e-02
1.494693877551000e+11 9.414060150458887e-01 6.660016378848926e-02
1.495102040816300e+11 9.414027367515375e-01 6.643728253447712e-02
1.495510204081600e+11 9.413999622137872e-01 6.627241412340551e-02
1.495918367346900e+11 9.413976990746892e-01 6.610551326578930e-02
1.496326530612200e+11 9.413959549192272e-01 6.593653519148333e-02
1.496734693877600e+11 9.413947372607466e-01 6.576543556618672e-02
1.497142857142900e+11 9.413940535292241e-01 6.559217068927943e-02
1.497551020408200e+11 9.413939111452886e-01 6.541669750166129e-02
1.497959183673500e+11 9.413943176260952e-01 6.523897351395043e-02
1.498367346938800e+11 9.413952805957018e-01 6.505895665397950e-02
1.498775510204100e+11 9.413968077931504e-01 6.487660539278596e-02
1.499183673469400e+11 9.413989070912002e-01 6.469187888910560e-02
1.499591836734700e+11 9.414015864986442e-01 6.450473699840918e-02
1.500000000000000e+11 9.414048541725121e-01 6.431514010815910e-02
1.500408163265300e+11 9.414087184000720e-01 6.412304919277621e-02
1.500816326530600e+11 9.414131875903000e-01 6.392842584225772e-02
1.501224489795900e+11 9.414182702797700e-01 6.373123235777170e-02
1.501632653061200e+11 9.414239750962237e-01 6.353143163704394e-02
1.502040816326500e+11 9.414303107570775e-01 6.332898720578187e-02
1.502448979591800e+11 9.414372859616479e-01 6.312386312712985e-02
1.502857142857100e+11 9.414449094372358e-01 6.291602429867889e-02
1.503265306122400e+11 9.414531899347304e-01 6.270543676310177e-02
1.503673469387800e+11 9.414621362871309e-01 6.249206776518875e-02
1.504081632653100e+11 9.414717573755198e-01 6.227588569155915e-02
1.504489795918400e+11 9.414820622225765e-01 6.205685993860493e-02
1.504897959183700e+11 9.414930599920042e-01 6.183496096758378e-02
1.505306122449000e+11 9.415047600354416e-01 6.161016077484136e-02
1.505714285714300e+11 9.415171718965016e-01 6.138243289520694e-02
1.506122448979600e+11 9.415303053630378e-01 6.115175249854569e-02
1.506530612244900e+11 9.415441705729065e-01 6.091809640137866e-02
1.506938775510200e+11 9.415587780892198e-01 6.068144313731669e-02
1.507346938775500e+11 9.415741388445488e-01 6.044177295879379e-02
1.507755102040800e+11 9.415902640912295e-01 6.019906780313171e-02
1.508163265306100e+11 9.416071653558706e-01 5.995331131041720e-02
1.508571428571400e+11 9.416248544381545e-01 5.970448875949423e-02
1.508979591836700e+11 9.416433434579168e-01 5.945258709286289e-02
1.509387755102000e+11 9.416626448476099e-01 5.919759498596821e-02
1.509795918367300e+11 9.416827712208522e-01 5.893950292600845e-02
1.510204081632700e+11 9.417037352679258e-01 5.867830323408495e-02
1.510612244898000e+11 9.417255497857911e-01 5.841399001577832e-02
1.511020408163300e+11 9.417482276613666e-01 5.814655914683845e-02
1.511428571428600e+11 9.417717817998104e-01 5.787600820272827e-02
1.511836734693900e+11 9.417962251203206e-01 5.760233642330733e-02
1.512244897959200e+11 9.418215705225002e-01 5.732554480966521e-02
1.512653061224500e+11 9.418478309290729e-01 5.704563620250824e-02
1.513061224489800e+11 9.418750193757818e-01 5.676261533649175e-02
1.513469387755100e+11 9.419031489763405e-01 5.647648890581668e-02
1.513877551020400e+11 9.419322329156479e-01 5.618726559499281e-02
1.514285714285700e+11 9.419622844743111e-01 5.589495587038974e-02
1.514693877551000e+11 9.419933171026565e-01 5.559957181410934e-02
1.515102040816300e+11 9.420253444394778e-01 5.530112706943209e-02
1.515510204081600e+11 9.420583803088231e-01 5.499963685948369e-02
1.515918367346900e+11 9.420924387270487e-01 5.469511807266526e-02
1.516326530612200e+11 9.421275339444641e-01 5.438758925644552e-02
1.516734693877600e+11 9.421636804367488e-01 5.407707046688798e-02
1.517142857142900e+11 9.422008928599122e-01 5.376358311017968e-02
1.517551020408200e+11 9.422391859728362e-01 5.344715002319408e-02
1.517959183673500e+11 9.422785745817168e-01 5.312779543378713e-02
1.518367346938800e+11 9.423190735078639e-01 5.280554502473906e-02
1.518775510204100e+11 9.423606975328689e-01 5.248042594685810e-02
1.519183673469400e+11 9.424034613754650e-01 5.215246689179073e-02
1.519591836734700e+11 9.424473796662109e-01 5.182169812886860e-02
1.520000000000000e+11 9.424924669493376e-01 5.148815150499404e-02
1.520408163265300e+11 9.425387376818213e-01 5.115186042778701e-02
1.520816326530600e+11 9.425862062051599e-01 5.081285985561061e-02
1.521224489795900e+11 9.426348867322298e-01 5.047118627635364e-02
1.521632653061200e+11 9.426847934472344e-01 5.012687763184149e-02
1.522040816326500e+11 9.427359404932850e-01 4.977997325397114e-02
1.522448979591800e+11 9.427883420050942e-01 4.943051391776668e-02
1.522857142857100e+11 9.428420120867890e-01 4.907854181493549e-02
1.523265306122400e+11 9.428969648379630e-01 4.872410041353350e-02
1.523673469387800e+11 9.429532143391474e-01 4.836723435820135e-02
1.524081632653100e+11 9.430107746229236e-01 4.800798939812261e-02
1.524489795918400e+11 9.430696596320181e-01 4.764641242997832e-02
1.524897959183700e+11 9.431298831771474e-01 4.728255131947466e-02
1.525306122449000e+11 9.431914589238491e-01 4.691645488504242e-02
1.525714285714300e+11 9.432544003420784e-01 4.654817302048805e-02
1.526122448979600e+11 9.433187206829262e-01 4.617775673550503e-02
1.526530612244900e+11 9.433844328921379e-01 4.580525818585876e-02
1.526938775510200e+11 9.434515495378245e-01 4.543073061159566e-02
1.527346938775500e+11 9.435200827904158e-01 4.505422837999908e-02
1.527755102040800e+11 9.435900443293515e-01 4.467580711593627e-02
1.528163265306100e+11 9.436614453266980e-01 4.429552375288395e-02
1.528571428571400e+11 9.437342964244965e-01 4.391343654598778e-02
1.528979591836700e+11 9.438086077226254e-01 4.352960505670606e-02
1.529387755102000e+11 9.438843888171435e-01 4.314409013363870e-02
1.529795918367300e+11 9.439616487511165e-01 4.275695385256946e-02
1.530204081632700e+11 9.440403960554704e-01 4.236825949064720e-02
1.530612244898000e+11 9.441206387098560e-01 4.197807140160718e-02
1.531020408163300e+11 9.442023840146665e-01 4.158645489450944e-02
1.531428571428600e+11 9.442856385252836e-01 4.119347613998290e-02
1.531836734693900e+11 9.443704080405136e-01 4.079920219028087e-02
1.532244897959200e+11 9.444566975694927e-01 4.040370090126041e-02
1.532653061224500e+11 9.445445113311398e-01 4.000704077638831e-02
1.533061224489800e+11 9.446338526686179e-01 3.960929081360476e-02
1.533469387755100e+11 9.447247239409333e-01 3.921052046390534e-02
1.533877551020400e+11 9.448171265151329e-01 3.881079975424121e-02
1.534285714285700e+11 9.449110607432747e-01 3.841019924093603e-02
1.534693877551000e+11 9.450065258606740e-01 3.800878982733839e-02
1.535102040816300e+11 9.451035199270831e-01 3.760664261752547e-02
1.535510204081600e+11 9.452020398217882e-01 3.720382892500338e-02
1.535918367346900e+11 9.453020814000813e-01 3.680042043744988e-02
1.536326530612200e+11 9.454036394828962e-01 3.639648919690566e-02
1.536734693877600e+11 9.455067078274110e-01 3.599210742185419e-02
1.537142857142900e+11 9.456112790976218e-01 3.558734737643484e-02
1.537551020408200e+11 9.457173449377179e-01 3.518228144462772e-02
1.537959183673500e+11 9.458248959803963e-01 3.477698210047846e-02
1.538367346938800e+11 9.459339219110878e-01 3.437152193721549e-02
1.538775510204100e+11 9.460444116362514e-01 3.396597358216541e-02
1.539183673469400e+11 9.461563533336537e-01 3.356040965756526e-02
1.539591836734700e+11 9.462697343782409e-01 3.315490270824886e-02
1.540000000000000e+11 9.463845413822650e-01 3.274952526436811e-02
1.540408163265300e+11 9.465007601595626e-01 3.234434979652885e-02
1.540816326530600e+11 9.466183756790049e-01 3.193944893209157e-02
1.541224489795900e+11 9.467373720247627e-01 3.153489537619556e-02
1.541632653061200e+11 9.468577323493650e-01 3.113076175937735e-02
1.542040816326500e+11 9.469794387841419e-01 3.072712079368831e-02
1.542448979591800e+11 9.471024724670777e-01 3.032404543303336e-02
1.542857142857100e+11 9.472268134371256e-01 2.992160901411068e-02
1.543265306122400e+11 9.473524406308544e-01 2.951988513309291e-02
1.543673469387800e+11 9.474793318672435e-01 2.911894759348271e-02
1.544081632653100e+11 9.476074638067482e-01 2.871887040559116e-02
1.544489795918400e+11 9.477368119891002e-01 2.831972779129719e-02
1.544897959183700e+11 9.478673507612249e-01 2.792159404779943e-02
1.545306122449000e+11 9.479990532546441e-01 2.752454320355656e-02
1.545714285714300e+11 9.481318913469248e-01 2.712864892037344e-02
1.546122448979600e+11 9.482658356430391e-01 2.673398446243614e-02
1.546530612244900e+11 9.484008554227954e-01 2.634062260661083e-02
1.546938775510200e+11 9.485369185797479e-01 2.594863527500725e-02
1.547346938775500e+11 9.486739915329113e-01 2.555809325635463e-02
1.547755102040800e+11 9.488120392113836e-01 2.516906607093479e-02
1.548163265306100e+11 9.489510249756112e-01 2.478162198988663e-02
1.548571428571400e+11 9.490909106169088e-01 2.439582797431178e-02
1.548979591836700e+11 9.492316563464113e-01 2.401174960540763e-02
1.549387755102000e+11 9.493732208428198e-01 2.362945110252718e-02
1.549795918367300e+11 9.495155613125856e-01 2.324899538767062e-02
1.550204081632700e+11 9.496586334163712e-01 2.287044411321258e-02
1.550612244898000e+11 9.498023913586755e-01 2.249385770471100e-02
1.551020408163300e+11 9.499467887107178e-01 2.211929308556485e-02
1.551428571428600e+11 9.500917786457753e-01 2.174680377421832e-02
1.551836734693900e+11 9.502373140473338e-01 2.137643973033958e-02
1.552244897959200e+11 9.503833475798470e-01 2.100824674204373e-02
1.552653061224500e+11 9.505298316758822e-01 2.064226656042953e-02
1.553061224489800e+11 9.506767186143184e-01 2.027853693041158e-02
1.553469387755100e+11 9.508239605643528e-01 1.991709139360840e-02
1.553877551020400e+11 9.509715096869552e-01 1.955795944286083e-02
1.554285714285700e+11 9.511193181202567e-01 1.920116657613303e-02
1.554693877551000e+11 9.512673379457443e-01 1.884673436589082e-02
1.555102040816300e+11 9.514155211551309e-01 1.849468057471772e-02
1.555510204081600e+11 9.515638197048245e-01 1.814501923826572e-02
1.555918367346900e+11 9.517121855468527e-01 1.779776081618556e-02
1.556326530612200e+11 9.518605705272994e-01 1.745291213981412e-02
1.556734693877600e+11 9.520089262926809e-01 1.711047628824268e-02
1.557142857142900e+11 9.521572041965211e-01 1.677045261902923e-02
1.557551020408200e+11 9.523053553220252e-01 1.643283689787150e-02
1.557959183673500e+11 9.524533304859885e-01 1.609762151586986e-02
1.558367346938800e+11 9.526010802570235e-01 1.576479543734948e-02
1.558775510204100e+11 9.527485549223587e-01 1.543434410121898e-02
1.559183673469400e+11 9.528957044696923e-01 1.510624913894131e-02
1.559591836734700e+11 9.530424785151131e-01 1.478048826884546e-02
1.560000000000000e+11 9.531888263753209e-01 1.445703541191941e-02
1.560408163265300e+11 9.533346971332245e-01 1.413586075676641e-02
1.560816326530600e+11 9.534800397560778e-01 1.381693072243915e-02
1.561224489795900e+11 9.536248029777478e-01 1.350020770736313e-02
1.561632653061200e+11 9.537689354118559e-01 1.318565001158625e-02
1.562040816326500e+11 9.539123856378741e-01 1.287321186695858e-02
1.562448979591800e+11 9.540551022488402e-01 1.256284334268212e-02
1.562857142857100e+11 9.541970339159844e-01 1.225449037861124e-02
1.563265306122400e+11 9.543381294178901e-01 1.194809465741384e-02
1.563673469387800e+11 9.544783376169008e-01 1.164359371963467e-02
1.564081632653100e+11 9.546176074975997e-01 1.134092131311509e-02
1.564489795918400e+11 9.547558882678622e-01 1.104000758209669e-02
1.564897959183700e+11 9.548931293848096e-01 1.074077905328962e-02
1.565306122449000e+11 9.550292805986540e-01 1.044315872007396e-02
1.565714285714300e+11 9.551642918891078e-01 1.014706619485809e-02
1.566122448979600e+11 9.552981135791394e-01 9.852418031712653e-03
1.566530612244900e+11 9.554306964678975e-01 9.559128052536000e-03
1.566938775510200e+11 9.555619919672119e-01 9.267107444909561e-03
1.567346938775500e+11 9.556919521181489e-01 8.976264868238130e-03
1.567755102040800e+11 9.558205296317097e-01 8.686506743242926e-03
1.568163265306100e+11 9.559476779341806e-01 8.397737443235069e-03
1.568571428571400e+11 9.560733512430777e-01 8.109859379170975e-03
1.568979591836700e+11 9.561975046128506e-01 7.822773094118845e-03
1.569387755102000e+11 9.563200940188996e-01 7.536377325162662e-03
1.569795918367300e+11 9.564410763395359e-01 7.250569093514168e-03
1.570204081632700e+11 9.565604093156922e-01 6.965243704224730e-03
1.570612244898000e+11 9.566780515170433e-01 6.680294530348525e-03
1.571020408163300e+11 9.567939623961247e-01 6.395613111277305e-03
1.571428571428600e+11 9.569081022643656e-01 6.111089281332857e-03
1.571836734693900e+11 9.570204321821177e-01 5.826611207797686e-03
1.572244897959200e+11 9.571309139096137e-01 5.542065453515199e-03
1.572653061224500e+11 9.572395099329348e-01 5.257337063346443e-03
1.573061224489800e+11 9.573461834913563e-01 4.972309620646241e-03
1.573469387755100e+11 9.574508985627239e-01 4.686865328196074e-03
1.573877551020400e+11 9.575536198659435e-01 4.400885202890351e-03
1.574285714285700e+11 9.576543128542626e-01 4.114249401197135e-03
1.574693877551000e+11 9.577529438360606e-01 3.826837449792093e-03
1.575102040816300e+11 9.578494800589129e-01 3.538528255218501e-03
1.575510204081600e+11 9.579438897590464e-01 3.249200229737016e-03
1.575918367346900e+11 9.580361422159629e-01 2.958731381025433e-03
1.576326530612200e+11 9.581262078907685e-01 2.666999470154644e-03
1.576734693877600e+11 9.582140584688102e-01 2.373882042026387e-03
1.577142857142900e+11 9.582996670495996e-01 2.079256674071637e-03
1.577551020408200e+11 9.583830081688820e-01 1.783000803158236e-03
1.577959183673500e+11 9.584640578374756e-01 1.484991721538890e-03
1.578367346938800e+11 9.585427936218256e-01 1.185106672537024e-03
1.578775510204100e+11 9.586191947139711e-01 8.832229726701052e-04
1.579183673469400e+11 9.586932420158124e-01 5.792182144041514e-04
1.579591836734700e+11 9.587649181072543e-01 2.729702583543489e-04
1.580000000000000e+11 9.588342071690529e-01 -3.564269939812279e-05
1.580408163265300e+11 9.589010948821425e-01 -3.467421827401331e-04
1.580816326530600e+11 9.589655684181226e-01 -6.604492896912092e-04
1.581224489795900e+11 9.590276165030568e-01 -9.768843801094050e-04
1.581632653061200e+11 9.590872293940362e-01 -1.296166900851427e-03
1.582040816326500e+11 9.591443988878809e-01 -1.618415088042802e-03
1.582448979591800e+11 9.591991184064157e-01 -1.943745892257501e-03
1.582857142857100e+11 9.592513829976391e-01 -2.272274729343742e-03
1.583265306122400e+11 9.593011893306813e-01 -2.604115121249570e-03
1.583673469387800e+11 9.593485357378898e-01 -2.939378956766647e-03
1.584081632653100e+11 9.593934223556621e-01 -3.278176540744645e-03
1.584489795918400e+11 9.594358510360183e-01 -3.620616570890549e-03
1.584897959183700e+11 9.594758253992504e-01 -3.966805856698702e-03
1.585306122449000e+11 9.595133508971276e-01 -4.316849138032137e-03
1.585714285714300e+11 9.595484349043299e-01 -4.670848925554301e-03
1.586122448979600e+11 9.595810867585242e-01 -5.028905664001527e-03
1.586530612244900e+11 9.596113177419741e-01 -5.391117904808194e-03
1.586938775510200e+11 9.596391411217563e-01 -5.757582132212506e-03
1.587346938775500e+11 9.596645721190887e-01 -6.128392624599018e-03
1.587755102040800e+11 9.596876278551123e-01 -6.503641316846681e-03
1.588163265306100e+11 9.597083273332105e-01 -6.883417715243810e-03
1.588571428571400e+11 9.597266914414215e-01 -7.267808693675620e-03
1.588979591836700e+11 9.597427428702370e-01 -7.656898135199272e-03
1.589387755102000e+11 9.597565060768118e-01 -8.050766862192225e-03
1.589795918367300e+11 9.597680073020300e-01 -8.449492685707799e-03
1.590204081632700e+11 9.597772745963705e-01 -8.853150199187318e-03
1.590612244898000e+11 9.597843378233404e-01 -9.261810368713366e-03
1.591020408163300e+11 9.597892285897081e-01 -9.675540287015182e-03
1.591428571428600e+11 9.597919801531067e-01 -1.009440298046812e-02
1.591836734693900e+11 9.597926275121054e-01 -1.051845732917538e-02
1.592244897959200e+11 9.597912074729765e-01 -1.094775802290461e-02
1.592653061224500e+11 9.597877586983479e-01 -1.138235559303868e-02
1.593061224489800e+11 9.597823216864397e-01 -1.182229646758782e-02
1.593469387755100e+11 9.597749387191741e-01 -1.226762283668519e-02
1.593877551020400e+11 9.597656537680361e-01 -1.271837254435836e-02
1.594285714285700e+11 9.597545124087935e-01 -1.317457915272009e-02
1.594693877551000e+11 9.597415618519829e-01 -1.363627194275756e-02
1.595102040816300e+11 9.597268509002942e-01 -1.410347603501319e-02
1.595510204081600e+11 9.597104298816074e-01 -1.457621259969261e-02
1.595918367346900e+11 9.596923505758888e-01 -1.505449887274166e-02
1.596326530612200e+11 9.596726661239702e-01 -1.553834803086762e-02
1.596734693877600e+11 9.596514308960373e-01 -1.602776906734658e-02
1.597142857142900e+11 9.596287004141018e-01 -1.652276692082716e-02
1.597551020408200e+11 9.596045313366456e-01 -1.702334269103359e-02
1.597959183673500e+11 9.595789815017121e-01 -1.752949348387512e-02
1.598367346938800e+11 9.595521098546961e-01 -1.804121221494169e-02
1.598775510204100e+11 9.595239764366615e-01 -1.855848747253862e-02
1.599183673469400e+11 9.594946423665712e-01 -1.908130371736918e-02
1.599591836734700e+11 9.594641699161001e-01 -1.960964120030064e-02
1.600000000000000e+11 9.594326226341572e-01 -2.014347564315419e-02
1.600408163265300e+11 9.594000654720716e-01 -2.068277796101788e-02
1.600816326530600e+11 9.593665656284860e-01 -2.122751491724817e-02
1.601224489795900e+11 9.593321926318833e-01 -2.177764991750468e-02
1.601632653061200e+11 9.592970183827760e-01 -2.233314321131233e-02
1.602040816326500e+11 9.592611172317830e-01 -2.289395162325724e-02
1.602448979591800e+11 9.592245659263534e-01 -2.346002850996786e-02
1.602857142857100e+11 9.591874436290352e-01 -2.403132352368628e-02
1.603265306122400e+11 9.591498319050261e-01 -2.460778236076188e-02
1.603673469387800e+11 9.591118146764465e-01 -2.518934674503291e-02
1.604081632653100e+11 9.590734781349984e-01 -2.577595436675642e-02
1.604489795918400e+11 9.590349106202837e-01 -2.636753867771540e-02
1.604897959183700e+11 9.589962025217326e-01 -2.696402861384260e-02
1.605306122449000e+11 9.589574461353138e-01 -2.756534838155671e-02
1.605714285714300e+11 9.589187355848143e-01 -2.817141759797364e-02
1.606122448979600e+11 9.588801666455832e-01 -2.878215124870846e-02
1.606530612244900e+11 9.588418365112739e-01 -2.939745952778917e-02
1.606938775510200e+11 9.588038436527176e-01 -3.001724773177728e-02
1.607346938775500e+11 9.587662877123505e-01 -3.064141612506520e-02
1.607755102040800e+11 9.587292693901950e-01 -3.126985992072311e-02
1.608163265306100e+11 9.586928903920603e-01 -3.190246963451596e-02
1.608571428571400e+11 9.586572533572554e-01 -3.253913133182224e-02
1.608979591836700e+11 9.586224616791980e-01 -3.317972713564406e-02
1.609387755102000e+11 9.585886194504953e-01 -3.382413545669171e-02
1.609795918367300e+11 9.585558314502215e-01 -3.447223135808501e-02
1.610204081632700e+11 9.585242031039909e-01 -3.512388695938079e-02
1.610612244898000e+11 9.584938403525757e-01 -3.577897183475201e-02
1.611020408163300e+11 9.584648495244990e-01 -3.643735341655150e-02
1.611428571428600e+11 9.584373370608568e-01 -3.709889720176205e-02
1.611836734693900e+11 9.584114093289186e-01 -3.776346681054233e-02
1.612244897959200e+11 9.583871725293177e-01 -3.843092414319086e-02
1.612653061224500e+11 9.583647325507623e-01 -3.910112961065446e-02
1.613061224489800e+11 9.583441948589875e-01 -3.977394192616139e-02
1.613469387755100e+11 9.583256643869795e-01 -4.044921802658680e-02
1.613877551020400e+11 9.583092456467679e-01 -4.112681310462082e-02
1.614285714285700e+11 9.582950427086729e-01 -4.180658069327200e-02
1.614693877551000e+11 9.582831593247166e-01 -4.248837291771274e-02
1.615102040816300e+11 9.582736989547201e-01 -4.317204061139863e-02
1.615510204081600e+11 9.582667648323820e-01 -4.385743318475462e-02
1.615918367346900e+11 9.582624600401047e-01 -4.454439838607756e-02
1.616326530612200e+11 9.582608875769437e-01 -4.523278225733013e-02
1.616734693877600e+11 9.582621504140938e-01 -4.592242910802295e-02
1.617142857142900e+11 9.582663515974039e-01 -4.661318146086163e-02
1.617551020408200e+11 9.582735942912473e-01 -4.730487993757206e-02
1.617959183673500e+11 9.582839818206480e-01 -4.799736319621321e-02
1.618367346938800e+11 9.582976176639665e-01 -4.869046816138983e-02
1.618775510204100e+11 9.583146053400585e-01 -4.938403004431259e-02
1.619183673469400e+11 9.583350483222500e-01 -5.007788222604291e-02
1.619591836734700e+11 9.583590499168769e-01 -5.077185637572327e-02
1.620000000000000e+11 9.583867131608769e-01 -5.146578246187204e-02
1.620408163265300e+11 9.584181405553780e-01 -5.215948883373928e-02
1.620816326530600e+11 9.584534337381451e-01 -5.285280237095080e-02
1.621224489795900e+11 9.584926932859958e-01 -5.354554839974521e-02
1.621632653061200e+11 9.585360183845281e-01 -5.423755058693683e-02
1.622040816326500e+11 9.585835066949805e-01 -5.492863098934473e-02
1.622448979591800e+11 9.586352541632336e-01 -5.561861006304115e-02
1.622857142857100e+11 9.586913549195978e-01 -5.630730668677522e-02
1.623265306122400e+11 9.587519011183101e-01 -5.699453823933927e-02
1.623673469387800e+11 9.588169827541072e-01 -5.768012069360503e-02
1.624081632653100e+11 9.588866874876402e-01 -5.836386868534908e-02
1.624489795918400e+11 9.589611006395766e-01 -5.904559582036927e-02
1.624897959183700e+11 9.590403051374373e-01 -5.972511482653160e-02
1.625306122449000e+11 9.591243814211006e-01 -6.040223779821956e-02
1.625714285714300e+11 9.592134073403085e-01 -6.107677642804994e-02
1.626122448979600e+11 9.593074580542236e-01 -6.174854214099439e-02
1.626530612244900e+11 9.594066058948655e-01 -6.241734631974162e-02
1.626938775510200e+11 9.595109205191703e-01 -6.308300037190583e-02
1.627346938775500e+11 9.596204687306439e-01 -6.374531619027531e-02
1.627755102040800e+11 9.597353143108114e-01 -6.440410704298676e-02
1.628163265306100e+11 9.598555182573975e-01 -6.505918801476075e-02
1.628571428571400e+11 9.599811387597375e-01 -6.571037614653777e-02
1.628979591836700e+11 9.601122311341073e-01 -6.635749041075732e-02
1.629387755102000e+11 9.602488477978545e-01 -6.700035186147500e-02
1.629795918367300e+11 9.603910383391104e-01 -6.763878360305005e-02
1.630204081632700e+11 9.605388495229329e-01 -6.827261081040076e-02
1.630612244898000e+11 9.606923252949684e-01 -6.890166085183015e-02
1.631020408163300e+11 9.608515069338973e-01 -6.952576323991680e-02
1.631428571428600e+11 9.610164331473233e-01 -7.014474955200441e-02
1.631836734693900e+11 9.611871402339854e-01 -7.075845339850685e-02
1.632244897959200e+11 9.613636622119284e-01 -7.136671038285684e-02
1.632653061224500e+11 9.615460308437813e-01 -7.196935810739644e-02
1.633061224489800e+11 9.617342756132280e-01 -7.256623620918136e-02
1.633469387755100e+11 9.619284237844389e-01 -7.315718637102110e-02
1.633877551020400e+11 9.621285005913811e-01 -7.374205241965057e-02
1.634285714285700e+11 9.623345293495038e-01 -7.432068050392052e-02
1.634693877551000e+11 9.625465314679059e-01 -7.489291928442786e-02
1.635102040816300e+11 9.627645264314992e-01 -7.545862000015388e-02
1.635510204081600e+11 9.629885318522129e-01 -7.601763656789569e-02
1.635918367346900e+11 9.632185635017529e-01 -7.656982562303107e-02
1.636326530612200e+11 9.634546353312283e-01 -7.711504673423582e-02
1.636734693877600e+11 9.636967593654109e-01 -7.765316270174903e-02
1.637142857142900e+11 9.639449455792145e-01 -7.818403971155011e-02
1.637551020408200e+11 9.641992018000409e-01 -7.870754729266502e-02
1.637959183673500e+11 9.644595337038842e-01 -7.922355811154018e-02
1.638367346938800e+11 9.647259448763796e-01 -7.973194778716003e-02
1.638775510204100e+11 9.649984367856584e-01 -8.023259493705721e-02
1.639183673469400e+11 9.652770086121205e-01 -8.072538127415670e-02
1.639591836734700e+11 9.655616571414943e-01 -8.121019146746425e-02
1.640000000000000e+11 9.658523767817452e-01 -8.168691295784836e-02
1.640408163265300e+11 9.661491596868800e-01 -8.215543584300726e-02
1.640816326530600e+11 9.664519957721721e-01 -8.261565287958698e-02
1.641224489795900e+11 9.667608727361917e-01 -8.306745952516384e-02
1.641632653061200e+11 9.670757761026669e-01 -8.351075391903352e-02
1.642040816326500e+11 9.673966892205457e-01 -8.394543694088070e-02
1.642448979591800e+11 9.677235932065129e-01 -8.437141251936661e-02
1.642857142857100e+11 9.680564668906841e-01 -8.478858796278280e-02
1.643265306122400e+11 9.683952867607881e-01 -8.519687419905075e-02
1.643673469387800e+11 9.687400267975991e-01 -8.559618608821284e-02
1.644081632653100e+11 9.690906583790402e-01 -8.598644253124832e-02
1.644489795918400e+11 9.694471501986974e-01 -8.636756687525945e-02
1.644897959183700e+11 9.698094681802046e-01 -8.673948720011070e-02
1.645306122449000e+11 9.701775755256260e-01 -8.710213641915746e-02
1.645714285714300e+11 9.705514325954165e-01 -8.745545226033725e-02
1.646122448979600e+11 9.709309968224227e-01 -8.779937749118562e-02
1.646530612244900e+11 9.713162225710815e-01 -8.813386029393208e-02
1.646938775510200e+11 9.717070610694467e-01 -8.845885435085572e-02
1.647346938775500e+11 9.721034604625008e-01 -8.877431878299442e-02
1.647755102040800e+11 9.725053658350683e-01 -8.908021803172407e-02
1.648163265306100e+11 9.729127194068116e-01 -8.937652200102597e-02
1.648571428571400e+11 9.733254607835666e-01 -8.966320623664713e-02
1.648979591836700e+11 9.737435270519554e-01 -8.994025200836764e-02
1.649387755102000e+11 9.741668530024686e-01 -9.020764609414043e-02
1.649795918367300e+11 9.745953711883164e-01 -9.046538090302139e-02
1.650204081632700e+11 9.750290121499665e-01 -9.071345473835803e-02
1.650612244898000e+11 9.754677046691445e-01 -9.095187186389909e-02
1.651020408163300e+11 9.759113759668376e-01 -9.118064238224755e-02
1.651428571428600e+11 9.763599518155152e-01 -9.139978218408394e-02
1.651836734693900e+11 9.768133567183599e-01 -9.160931283389023e-02
1.652244897959200e+11 9.772715140863918e-01 -9.180926128219535e-02
1.652653061224500e+11 9.777343462754675e-01 -9.199965977373570e-02
1.653061224489800e+11 9.782017745344904e-01 -9.218054588041491e-02
1.653469387755100e+11 9.786737190611295e-01 -9.235196207405301e-02
1.653877551020400e+11 9.791500991491042e-01 -9.251395515300656e-02
1.654285714285700e+11 9.796308332127116e-01 -9.266657576098192e-02
1.654693877551000e+11 9.801158387661647e-01 -9.280987804713582e-02
1.655102040816300e+11 9.806050324253544e-01 -9.294391940971884e-02
1.655510204081600e+11 9.810983298904060e-01 -9.306876007933754e-02
1.655918367346900e+11 9.815956459198788e-01 -9.318446249273966e-02
1.656326530612200e+11 9.820968943759701e-01 -9.329109072998648e-02
1.656734693877600e+11 9.826019882643550e-01 -9.338871027956056e-02
1.657142857142900e+11 9.831108397873957e-01 -9.347738792561008e-02
1.657551020408200e+11 9.836233604092477e-01 -9.355719161236577e-02
1.657959183673500e+11 9.841394608009634e-01 -9.362819045564036e-02
1.658367346938800e+11 9.846590507987004e-01 -9.369045492710708e-02
1.658775510204100e+11 9.851820393689088e-01 -9.374405694028039e-02
1.659183673469400e+11 9.857083345256109e-01 -9.378907002523901e-02
1.659591836734700e+11 9.862378433372225e-01 -9.382556952069897e-02
1.660000000000000e+11 9.867704719173886e-01 -9.385363271034712e-02
1.660408163265300e+11 9.873061252507309e-01 -9.387333932700703e-02
1.660816326530600e+11 9.878447070245354e-01 -9.388477187388942e-02
1.661224489795900e+11 9.883861195676008e-01 -9.388801590246111e-02
1.661632653061200e+11 9.889302638891736e-01 -9.388316001390591e-02
1.662040816326500e+11 9.894770398117940e-01 -9.387029579029960e-02
1.662448979591800e+11 9.900263459607866e-01 -9.384951809298241e-02
1.662857142857100e+11 9.905780797534640e-01 -9.382092530429494e-02
1.663265306122400e+11 9.911321374931760e-01 -9.378461928817389e-02
1.663673469387800e+11 9.916884146474473e-01 -9.374070508862364e-02
1.664081632653100e+11 9.922468062267631e-01 -9.368929065690716e-02
1.664489795918400e+11 9.928072068751292e-01 -9.363048718230974e-02
1.664897959183700e+11 9.933695109113228e-01 -9.356440928429588e-02
1.665306122449000e+11 9.939336125465292e-01 -9.349117482771649e-02
1.665714285714300e+11 9.944994061923704e-01 -9.341090449762665e-02
1.666122448979600e+11 9.950667868185288e-01 -9.332372150448937e-02
1.666530612244900e+11 9.956356503106728e-01 -9.322975145032322e-02
1.666938775510200e+11 9.962058936812200e-01 -9.312912226146781e-02
1.667346938775500e+11 9.967774152007397e-01 -9.302196411646441e-02
1.667755102040800e+11 9.973501144682412e-01 -9.290840939005600e-02
1.668163265306100e+11 9.979238925096234e-01 -9.278859266884613e-02
1.668571428571400e+11 9.984986519078367e-01 -9.266265045647583e-02
1.668979591836700e+11 9.990742970724025e-01 -9.253072056116929e-02
1.669387755102000e+11 9.996507342880564e-01 -9.239294174576333e-02
1.669795918367300e+11 1.000227871756274e+00 -9.224945371279764e-02
1.670204081632700e+11 1.000805619560265e+00 -9.210039703846336e-02
1.670612244898000e+11 1.001383889702431e+00 -9.194591291445021e-02
1.671020408163300e+11 1.001962596147777e+00 -9.178614268002920e-02
1.671428571428600e+11 1.002541654914770e+00 -9.162122752139233e-02
1.671836734693900e+11 1.003120984081178e+00 -9.145130841934036e-02
1.672244897959200e+11 1.003700503915857e+00 -9.127652599797503e-02
1.672653061224500e+11 1.004280136936517e+00 -9.109702025955818e-02
1.673061224489800e+11 1.004859807880796e+00 -9.091293054746627e-02
1.673469387755100e+11 1.005439443743757e+00 -9.072439552070524e-02
1.673877551020400e+11 1.006018973869030e+00 -9.053155328056979e-02
1.674285714285700e+11 1.006598330027803e+00 -9.033454131695072e-02
1.674693877551000e+11 1.007177446398322e+00 -9.013349653135702e-02
1.675102040816300e+11 1.007756259577909e+00 -8.992855531235772e-02
1.675510204081600e+11 1.008334708699890e+00 -8.971985339038693e-02
1.675918367346900e+11 1.008912735568747e+00 -8.950752575946665e-02
1.676326530612200e+11 1.009490284806461e+00 -8.929170664338552e-02
1.676734693877600e+11 1.010067303945690e+00 -8.907252961593733e-02
1.677142857142900e+11 1.010643743417640e+00 -8.885012767641168e-02
1.677551020408200e+11 1.011219556646169e+00 -8.862463297747193e-02
1.677959183673500e+11 1.011794700200738e+00 -8.839617658110495e-02
1.678367346938800e+11 1.012369133948447e+00 -8.816488823688123e-02
1.678775510204100e+11 1.012942821097239e+00 -8.793089621789539e-02
1.679183673469400e+11 1.013515728254642e+00 -8.769432710670981e-02
1.679591836734700e+11 1.014087825552307e+00 -8.745530566640342e-02
1.680000000000000e+11 1.014659086672689e+00 -8.721395446936335e-02
1.680408163265300e+11 1.015229488783762e+00 -8.697039336369761e-02
1.680816326530600e+11 1.015799012443563e+00 -8.672473905200254e-02
1.681224489795900e+11 1.016367641499920e+00 -8.647710491935742e-02
1.681632653061200e+11 1.016935363043807e+00 -8.622760115674410e-02
1.682040816326500e+11 1.017502167347331e+00 -8.597633453293591e-02
1.682448979591800e+11 1.018068047795535e+00 -8.572340827509760e-02
1.682857142857100e+11 1.018633000742124e+00 -8.546892206815748e-02
1.683265306122400e+11 1.019197025355483e+00 -8.521297224284868e-02
1.683673469387800e+11 1.019760123464601e+00 -8.495565184584021e-02
1.684081632653100e+11 1.020322299478252e+00 -8.469705050279720e-02
1.684489795918400e+11 1.020883560262424e+00 -8.443725458809948e-02
1.684897959183700e+11 1.021443914999578e+00 -8.417634763395970e-02
1.685306122449000e+11 1.022003375077439e+00 -8.391441043797752e-02
1.685714285714300e+11 1.022561953902428e+00 -8.365152095738378e-02
1.686122448979600e+11 1.023119666818063e+00 -8.338775408492066e-02
1.686530612244900e+11 1.023676531005647e+00 -8.312318191919617e-02
1.686938775510200e+11 1.024232565411563e+00 -8.285787392477999e-02
1.687346938775500e+11 1.024787790689451e+00 -8.259189670912050e-02
1.687755102040800e+11 1.025342229058308e+00 -8.232531383173339e-02
1.688163265306100e+11 1.025895904198402e+00 -8.205818579845124e-02
1.688571428571400e+11 1.026448841189772e+00 -8.179057004674767e-02
1.688979591836700e+11 1.027001066482640e+00 -8.152252088706249e-02
1.689387755102000e+11 1.027552607795718e+00 -8.125408932441726e-02
1.689795918367300e+11 1.028103493997075e+00 -8.098532281465169e-02
1.690204081632700e+11 1.028653754996002e+00 -8.071626530579400e-02
1.690612244898000e+11 1.029203421640456e+00 -8.044695739884326e-02
1.691020408163300e+11 1.029752525661715e+00 -8.017743637320149e-02
1.691428571428600e+11 1.030301099532866e+00 -7.990773618357594e-02
1.691836734693900e+11 1.030849176364088e+00 -7.963788747727095e-02
1.692244897959200e+11 1.031396789669993e+00 -7.936791769682339e-02
1.692653061224500e+11 1.031943973153560e+00 -7.909785119756800e-02
1.693061224489800e+11 1.032490760540560e+00 -7.882770923823681e-02
1.693469387755100e+11 1.033037185413304e+00 -7.855751017760632e-02
1.693877551020400e+11 1.033583281003957e+00 -7.828726976471356e-02
1.694285714285700e+11 1.034129079938709e+00 -7.801700135058498e-02
1.694693877551000e+11 1.034674614034218e+00 -7.774671595165533e-02
1.695102040816300e+11 1.035219914110740e+00 -7.747642236697953e-02
1.695510204081600e+11 1.035765009783573e+00 -7.720612727936486e-02
1.695918367346900e+11 1.036309929239073e+00 -7.693583551838892e-02
1.696326530612200e+11 1.036854699094623e+00 -7.666555038897604e-02
1.696734693877600e+11 1.037399344263905e+00 -7.639527397918180e-02
1.697142857142900e+11 1.037943887829774e+00 -7.612500724732546e-02
1.697551020408200e+11 1.038488350906903e+00 -7.585475011376233e-02
1.697959183673500e+11 1.039032752486713e+00 -7.558450157655809e-02
1.698367346938800e+11 1.039577109312673e+00 -7.531426004953221e-02
1.698775510204100e+11 1.040121435743475e+00 -7.504402368435567e-02
1.699183673469400e+11 1.040665743608612e+00 -7.477379073967753e-02
1.699591836734700e+11 1.041210042011341e+00 -7.450355970494053e-02
1.700000000000000e+11 1.041754337196463e+00 -7.423332938532465e-02
