! Generated by Phase I extraction
# Hz S RI R 50
6.700000000000000e+10 2.127580863380481e-01 -1.654433670271535e-02 6.517581397083052e-01 -6.523756862950014e-01 6.533187384022082e-01 -6.503789057854342e-01 5.436753456785352e-02 1.051295067601019e-01
6.704800000000000e+10 2.146579094534513e-01 -6.513000353746312e-03 6.513198908003344e-01 -6.527111569275764e-01 6.530328993204175e-01 -6.505666679826387e-01 5.322750183172444e-02 1.038553889187549e-01
6.709600000000000e+10 2.229792315320740e-01 -1.536715044089435e-03 6.508792690379950e-01 -6.530482627962221e-01 6.527483557633665e-01 -6.507530633464946e-01 5.818558370765502e-02 1.101243165333697e-01
6.714400000000000e+10 2.282482701428821e-01 -4.452264631353178e-03 6.504362564780186e-01 -6.533870497324020e-01 6.524651320665819e-01 -6.509381089956559e-01 5.301015405261904e-02 1.096870667716200e-01
6.719200000000000e+10 2.290899531351274e-01 -5.997981981282752e-03 6.499908343272345e-01 -6.537275629243697e-01 6.521832528436649e-01 -6.511218200386797e-01 5.375703488660729e-02 1.111514164357644e-01
6.724000000000000e+10 2.276989498038469e-01 -4.534265469299595e-03 6.495429829855690e-01 -6.540698473195228e-01 6.519027432713012e-01 -6.513042100565307e-01 5.139966249260027e-02 1.112465760809865e-01
6.728800000000000e+10 2.252970380593074e-01 -3.791751676401216e-03 6.490926831116390e-01 -6.544139464956151e-01 6.516236279875807e-01 -6.514852916252757e-01 5.331848763321484e-02 1.106209365187526e-01
6.733600000000000e+10 2.252058611685679e-01 -1.871044010852619e-03 6.486399172464850e-01 -6.547599015027515e-01 6.513459301665884e-01 -6.516650777494757e-01 5.292341485087174e-02 1.108123218097918e-01
6.738400000000000e+10 2.284359948744873e-01 -5.547256157422915e-04 6.481846709691915e-01 -6.551077500335375e-01 6.510696707541429e-01 -6.518435825152864e-01 5.121949079328744e-02 1.100256238427604e-01
6.743200000000000e+10 2.306961387187202e-01 -2.743797210894383e-03 6.477269324408750e-01 -6.554575267778460e-01 6.507948683094714e-01 -6.520208203484545e-01 5.084134243836169e-02 1.118640043854493e-01
6.748000000000000e+10 2.326079212610391e-01 -4.174801413585336e-03 6.472666920349368e-01 -6.558092637795105e-01 6.505215399723170e-01 -6.521968059217580e-01 5.070670672076259e-02 1.096196223019168e-01
6.752800000000000e+10 2.307949496426124e-01 -4.967961205934054e-03 6.468039398563595e-01 -6.561629920291878e-01 6.502497019465617e-01 -6.523715533982738e-01 5.120391050559563e-02 1.080353209491512e-01
6.757600000000000e+10 2.268078961833105e-01 -3.986529658390834e-03 6.463386659318345e-01 -6.565187422397525e-01 6.499793701440888e-01 -6.525450760359625e-01 5.197819968720489e-02 1.085931502092874e-01
6.762400000000000e+10 2.257645859475853e-01 -3.375260162035711e-03 6.458708605060732e-01 -6.568765446734294e-01 6.497105603444595e-01 -6.527173866186441e-01 5.210695642577998e-02 1.071925994252305e-01
6.767200000000000e+10 2.254029893402463e-01 -1.677060763410931e-03 6.454005145440702e-01 -6.572364286525019e-01 6.494432878431139e-01 -6.528884970996981e-01 5.156183215809758e-02 1.080806706847487e-01
6.772000000000000e+10 2.261185556125562e-01 -2.691432826003203e-03 6.449276203422960e-01 -6.575984220430853e-01 6.491775668982903e-01 -6.530584193222112e-01 5.210551658021104e-02 1.074262316271378e-01
6.776800000000000e+10 2.271133399964444e-01 -1.576743442449949e-03 6.444521713878311e-01 -6.579625508591206e-01 6.489134099562874e-01 -6.532271654456872e-01 5.107473327566849e-02 1.076702390457592e-01
6.781600000000000e+10 2.281539860216391e-01 -3.582974225909209e-03 6.439741621030401e-01 -6.583288392554869e-01 6.486508276592051e-01 -6.533947478371297e-01 5.114381719085798e-02 1.067775452835294e-01
6.786400000000000e+10 2.261609342763894e-01 -3.684581884155025e-03 6.434935876971034e-01 -6.586973098388058e-01 6.483898290776219e-01 -6.535611790475645e-01 5.056319126667145e-02 1.073206724991810e-01
6.791200000000000e+10 2.253550115647823e-01 -4.433256257357111e-03 6.430104444029329e-01 -6.590679841706532e-01 6.481304222150878e-01 -6.537264715176482e-01 5.188069297635389e-02 1.085067824399150e-01
6.796000000000000e+10 2.259769942914948e-01 -3.006461426105581e-03 6.425247297449103e-01 -6.594408836014150e-01 6.478726145883368e-01 -6.538906376593304e-01 5.354351907155822e-02 1.064846536621723e-01
6.800800000000000e+10 2.267019723550269e-01 -2.014257844156539e-03 6.420364422560935e-01 -6.598160281852467e-01 6.476164120468885e-01 -6.540536903116433e-01 5.410308318025209e-02 1.074745406225675e-01
6.805600000000000e+10 2.274601132784478e-01 -4.017725672496825e-03 6.415455819134759e-01 -6.601934361465908e-01 6.473618190895676e-01 -6.542156433120175e-01 5.405325190274512e-02 1.063179913552717e-01
6.810400000000000e+10 2.281913932829556e-01 -4.655588868464874e-03 6.410521496464153e-01 -6.605731233761769e-01 6.471088384706133e-01 -6.543765112371128e-01 5.493041599273488e-02 1.054679816313114e-01
6.815200000000000e+10 2.265598764584599e-01 -6.472364324296565e-03 6.405561479358618e-01 -6.609551038942371e-01 6.468574711525228e-01 -6.545363088458269e-01 5.478040116827273e-02 1.042162097402532e-01
6.820000000000000e+10 2.241272578819916e-01 -7.122236367602590e-03 6.400575813867239e-01 -6.613393893318839e-01 6.466077159573990e-01 -6.546950518489155e-01 5.451414519366959e-02 1.046109393445691e-01
6.824800000000000e+10 2.235964761053920e-01 -6.724885930426967e-03 6.395564572376197e-01 -6.617259887236806e-01 6.463595695112127e-01 -6.548527573498720e-01 5.312028985364185e-02 1.056871255806993e-01
6.829600000000000e+10 2.243479976911959e-01 -3.659903080785030e-03 6.390527848302692e-01 -6.621149082575185e-01 6.461130268834507e-01 -6.550094437348679e-01 5.390306819623053e-02 1.048029099916117e-01
6.834400000000000e+10 2.262544328061168e-01 -2.327439728067268e-03 6.385465740820957e-01 -6.625061527467812e-01 6.458680821347556e-01 -6.551651297077099e-01 5.559149207595944e-02 1.049255284140254e-01
6.839200000000000e+10 2.275596326081172e-01 -2.754315833991611e-03 6.380378347462023e-01 -6.628997264201321e-01 6.456247285830329e-01 -6.553198340440596e-01 5.554308586753147e-02 1.047215489840654e-01
6.844000000000000e+10 2.283045979254288e-01 -7.415509304086823e-03 6.375265764501560e-01 -6.632956330168700e-01 6.453829588387724e-01 -6.554735747241816e-01 5.734432524274734e-02 1.040793722714416e-01
6.848800000000000e+10 2.251464059252336e-01 -6.610280123365168e-03 6.370128085791150e-01 -6.636938755732187e-01 6.451427647398865e-01 -6.556263690751142e-01 5.508791301558307e-02 1.037532767180872e-01
6.853600000000000e+10 2.234735772850375e-01 -8.456010789257777e-03 6.364965416939924e-01 -6.640944555831445e-01 6.449041372461863e-01 -6.557782346499470e-01 5.627242985606396e-02 1.014292719745817e-01
6.858400000000000e+10 2.221173036185061e-01 -5.524574395787000e-03 6.359777874345025e-01 -6.644973718277801e-01 6.446670653473028e-01 -6.559291906718777e-01 5.540976340080572e-02 1.028252336980033e-01
6.863200000000000e+10 2.224103060736384e-01 -3.914986270442084e-03 6.354565594701274e-01 -6.649026208191097e-01 6.444315357752091e-01 -6.560792589550074e-01 5.630845928167460e-02 1.013936700894692e-01
6.868000000000000e+10 2.245080854786793e-01 -4.254363680781794e-03 6.349328735432271e-01 -6.653101964397186e-01 6.441975328389747e-01 -6.562284637992358e-01 5.694261607215204e-02 1.010064957166859e-01
6.872800000000000e+10 2.259752459404821e-01 -5.177373298709453e-03 6.344067479002777e-01 -6.657200900656645e-01 6.439650384975156e-01 -6.563768317614725e-01 5.664326001170968e-02 1.019382169310167e-01
6.877600000000000e+10 2.269374617893553e-01 -7.525046948718041e-03 6.338782029632072e-01 -6.661322911386771e-01 6.437340329738327e-01 -6.565243909658738e-01 5.744795617214773e-02 1.017690900271936e-01
6.882400000000000e+10 2.229860694404433e-01 -8.694965550848536e-03 6.333472598961233e-01 -6.665467881391067e-01 6.435044959075541e-01 -6.566711699375992e-01 5.635064977343959e-02 1.017658129909537e-01
6.887200000000000e+10 2.226622680285407e-01 -1.022505554186507e-02 6.328139393194475e-01 -6.669635695235322e-01 6.432764075092708e-01 -6.568171967504234e-01 5.647931866010045e-02 1.005598802749271e-01
6.892000000000000e+10 2.197150162016248e-01 -7.231085927131176e-03 6.322782604932313e-01 -6.673826244333968e-01 6.430497483444216e-01 -6.569624994621683e-01 5.613171126282794e-02 1.016798332316316e-01
6.896800000000000e+10 2.208499603025829e-01 -7.722329936973795e-03 6.317402420724166e-01 -6.678039425200918e-01 6.428244988340468e-01 -6.571071069045240e-01 5.769702405377118e-02 1.000900090529461e-01
6.901600000000000e+10 2.218114876242169e-01 -5.056149339584115e-03 6.311999034357361e-01 -6.682275125839306e-01 6.426006377739816e-01 -6.572510498011472e-01 5.784195481727351e-02 1.012602827196661e-01
6.906400000000000e+10 2.235910132107876e-01 -8.082550201799227e-03 6.306572667035536e-01 -6.686533212427574e-01 6.423781409046926e-01 -6.573943624291347e-01 5.977256121899372e-02 9.928896018537553e-02
6.911200000000000e+10 2.229703360101253e-01 -8.518542610048679e-03 6.301123578691302e-01 -6.690813519072747e-01 6.421569800081230e-01 -6.575370830750998e-01 5.921565711083237e-02 9.966947227456976e-02
6.916000000000000e+10 2.217246286332307e-01 -9.907358400550643e-03 6.295652058034495e-01 -6.695115858833472e-01 6.419371239613075e-01 -6.576792533408194e-01 5.994612376205753e-02 9.827184065831644e-02
6.920800000000000e+10 2.199980661172683e-01 -8.705624816306684e-03 6.290158406438356e-01 -6.699440037035739e-01 6.417185401702454e-01 -6.578209169237276e-01 5.950092114593369e-02 9.849001153246659e-02
6.925600000000000e+10 2.193127310931769e-01 -3.306266314823486e-03 6.284642920472042e-01 -6.703785869853128e-01 6.415011965144677e-01 -6.579621178453077e-01 6.225861168248134e-02 1.003263179728403e-01
6.930400000000000e+10 2.206551379927376e-01 -3.516510427715779e-03 6.279105878694384e-01 -6.708153192595909e-01 6.412850623878289e-01 -6.581028993388445e-01 6.152156883622849e-02 9.926702969193854e-02
6.935200000000000e+10 2.194141787904259e-01 -1.297399086707154e-03 6.273547552234523e-01 -6.712541846303219e-01 6.410701087474724e-01 -6.582433032156716e-01 5.958143685787679e-02 1.005773562389396e-01
6.940000000000000e+10 2.214089407047823e-01 -2.614205811752311e-03 6.267968210542717e-01 -6.716951674095647e-01 6.408563074927167e-01 -6.583833706457695e-01 5.920826707559911e-02 9.926690809578931e-02
6.944800000000000e+10 2.185672976585347e-01 -1.205972685545165e-03 6.262368125181315e-01 -6.721382512327451e-01 6.406436298183534e-01 -6.585231430131575e-01 6.067801938690328e-02 1.002803824812818e-01
6.949600000000000e+10 2.201885715063249e-01 -2.935234704232087e-03 6.256747577173961e-01 -6.725834178792239e-01 6.404320451800462e-01 -6.586626627910032e-01 6.212924241740574e-02 9.972245866782828e-02
6.954400000000000e+10 2.181967971292104e-01 -1.377599357042338e-03 6.251106867797234e-01 -6.730306465861338e-01 6.402215201477703e-01 -6.588019744407237e-01 6.225962957964447e-02 1.015703222815946e-01
6.959200000000000e+10 2.177873543508285e-01 -1.609574179074790e-03 6.245446326298466e-01 -6.734799134676017e-01 6.400120186294631e-01 -6.589411244157309e-01 6.181254540222885e-02 9.956660852151115e-02
6.964000000000000e+10 2.177733115387656e-01 -1.467925879133662e-05 6.239766306067634e-01 -6.739311918541273e-01 6.398035025428318e-01 -6.590801606446279e-01 6.223697323839821e-02 9.984006687079483e-02
6.968800000000000e+10 2.192990817701116e-01 6.300494463736903e-04 6.234067170475645e-01 -6.743844535897139e-01 6.395959330285014e-01 -6.592191313508234e-01 6.242113093460474e-02 9.995233219670752e-02
6.973600000000000e+10 2.208873920402043e-01 3.049050270599101e-05 6.228349278079091e-01 -6.748396707333322e-01 6.393892717708086e-01 -6.593580837462785e-01 6.284717037498834e-02 9.949809595362531e-02
6.978400000000000e+10 2.209603966178391e-01 -2.357394578762086e-04 6.222612975635261e-01 -6.752968159600405e-01 6.391834818977534e-01 -6.594970630953780e-01 6.251544740905139e-02 9.950378771756524e-02
6.983200000000000e+10 2.207914423800965e-01 -1.758973680672979e-03 6.216858600819779e-01 -6.757558622149379e-01 6.389785276394124e-01 -6.596361130007251e-01 6.217136060091979e-02 9.896309001083572e-02
6.988000000000000e+10 2.197841273215876e-01 -1.238043286007939e-03 6.211086488584506e-01 -6.762167817051625e-01 6.387743734950141e-01 -6.597752762024244e-01 6.160735203030580e-02 9.959003721572847e-02
6.992800000000000e+10 2.189947166205574e-01 -1.837735269944848e-03 6.205296976198325e-01 -6.766795455113277e-01 6.385709835248963e-01 -6.599145953460820e-01 6.254545399412964e-02 9.876609952400972e-02
6.997600000000000e+10 2.203198067072583e-01 3.771391746470689e-04 6.199490404674038e-01 -6.771441232175472e-01 6.383683208553078e-01 -6.600541132934031e-01 6.263108376175892e-02 9.925290042219635e-02
7.002400000000000e+10 2.210111947715850e-01 -7.211658303788964e-04 6.193667120292524e-01 -6.776104831323484e-01 6.381663476320922e-01 -6.601938733690003e-01 6.459757148029274e-02 9.812370188672574e-02
7.007200000000000e+10 2.221157788409135e-01 -6.121039356329389e-04 6.187827477120279e-01 -6.780785916621426e-01 6.379650249135552e-01 -6.603339191237003e-01 6.472417670499572e-02 9.786715624968881e-02
7.012000000000000e+10 2.231556618120273e-01 -1.387333769604271e-03 6.181971839661031e-01 -6.785484138454158e-01 6.377643128675725e-01 -6.604742946754759e-01 6.481845261723586e-02 9.775674126511244e-02
7.016800000000000e+10 2.223181217072559e-01 -1.914644631152533e-03 6.176100580982915e-01 -6.790199135762450e-01 6.375641709159798e-01 -6.606150445724566e-01 6.527390837931640e-02 9.714562782428345e-02
7.021600000000000e+10 2.224243158770336e-01 -2.732253528321389e-03 6.170214079778163e-01 -6.794930538426203e-01 6.373645578222167e-01 -6.607562135522695e-01 6.583121372436415e-02 9.624042902242753e-02
7.026400000000000e+10 2.202148901004732e-01 -1.867978695895269e-03 6.164312716348176e-01 -6.799677971112048e-01 6.371654321490070e-01 -6.608978461716234e-01 6.473701469652229e-02 9.658026198231431e-02
7.031200000000000e+10 2.202224530821885e-01 -7.508752028222336e-04 6.158396870756415e-01 -6.804441056326125e-01 6.369667524417988e-01 -6.610399868935267e-01 6.506362795805626e-02 9.755576826701656e-02
7.036000000000000e+10 2.188936055810733e-01 2.560815801272486e-04 6.152466920341866e-01 -6.809219408549025e-01 6.367684770495783e-01 -6.611826801888298e-01 6.465734143369598e-02 9.719181943856053e-02
7.040800000000000e+10 2.218055617962130e-01 -5.560795241240851e-04 6.146523239345673e-01 -6.814012636090823e-01 6.365705639744750e-01 -6.613259701520589e-01 6.615644251418810e-02 9.735102052321229e-02
7.045600000000000e+10 2.216104431583181e-01 -9.295341658003851e-04 6.140566193905930e-01 -6.818820343051772e-01 6.363729710824230e-01 -6.614699000944727e-01 6.651821070347590e-02 9.764317168022592e-02
7.050400000000000e+10 2.233960664618572e-01 -1.541476606369166e-03 6.134596140047921e-01 -6.823642138212177e-01 6.361756566109480e-01 -6.616145120150353e-01 6.755174032280567e-02 9.863975451923070e-02
7.055200000000000e+10 2.231527470722990e-01 -2.102309783129510e-03 6.128613422566871e-01 -6.828477636341462e-01 6.359785795963979e-01 -6.617598462640233e-01 6.758625804238665e-02 9.876944654704341e-02
7.060000000000000e+10 2.228000969686182e-01 -2.168072543371159e-03 6.122618375198164e-01 -6.833326459384738e-01 6.357817001107088e-01 -6.619059414943214e-01 6.893279408502495e-02 9.834503160978689e-02
7.064800000000000e+10 2.243960025455901e-01 -1.912449151635228e-03 6.116611324426388e-01 -6.838188232987630e-01 6.355849792063286e-01 -6.620528349104241e-01 6.874605527425502e-02 9.741398315575121e-02
7.069600000000000e+10 2.229368628462186e-01 -1.588588983978588e-03 6.110592594771872e-01 -6.843062584709846e-01 6.353883782941167e-01 -6.622005629689637e-01 6.880134522134813e-02 9.821000259213766e-02
7.074400000000000e+10 2.265182938161570e-01 -1.710835001208240e-03 6.104562514647546e-01 -6.847949139242675e-01 6.351918587231680e-01 -6.623491617973885e-01 6.867829005372918e-02 9.666435354078746e-02
7.079200000000000e+10 2.238288904677916e-01 -2.700278736860467e-03 6.098521414348512e-01 -6.852847518198784e-01 6.349953817700453e-01 -6.624986672569017e-01 6.931299616453329e-02 9.799208700907461e-02
7.084000000000000e+10 2.280407057719817e-01 -3.303701928392218e-03 6.092469619596655e-01 -6.857757346181219e-01 6.347989092773252e-01 -6.626491143780444e-01 7.004895679015649e-02 9.730665257509918e-02
7.088800000000000e+10 2.240469542080525e-01 -3.744796767075995e-03 6.086407445885542e-01 -6.862678254785107e-01 6.346024043304654e-01 -6.628005368630611e-01 6.995945207664322e-02 9.961196899631154e-02
7.093600000000000e+10 2.275018353722787e-01 -4.419156700934487e-03 6.080335196554691e-01 -6.867609888462102e-01 6.344058316434855e-01 -6.629529664894928e-01 7.160734420315597e-02 9.730920715179953e-02
7.098400000000000e+10 2.244199353816367e-01 -4.384963707879525e-03 6.074253156847402e-01 -6.872551905455458e-01 6.342091579364177e-01 -6.631064328160478e-01 7.174906936139963e-02 9.894131533133889e-02
7.103200000000000e+10 2.266596094525925e-01 -4.001984404382819e-03 6.068161592159813e-01 -6.877503984064601e-01 6.340123524531200e-01 -6.632609629330887e-01 7.313998832916910e-02 9.912240015842988e-02
7.108000000000000e+10 2.270195482753193e-01 -4.599588641347703e-03 6.062060744711801e-01 -6.882465822625223e-01 6.338153870290301e-01 -6.634165811401458e-01 7.409881193905911e-02 9.816903770385789e-02
7.112800000000000e+10 2.274996980784635e-01 -3.946492887167791e-03 6.055950841486458e-01 -6.887437136603425e-01 6.336182358667496e-01 -6.635733092526920e-01 7.408610262774322e-02 9.821280979239753e-02
7.117600000000000e+10 2.274525377240056e-01 -5.293151092269681e-03 6.049832101737038e-01 -6.892417652465617e-01 6.334208751598531e-01 -6.637311671883031e-01 7.479723456277536e-02 9.734998814777858e-02
7.122400000000000e+10 2.277514388384070e-01 -5.141528208132201e-03 6.043704741727959e-01 -6.897407101795615e-01 6.332232822584741e-01 -6.638901736643565e-01 7.528448988825215e-02 9.832461133808845e-02
7.127200000000000e+10 2.285831971966164e-01 -6.064715202278569e-03 6.037568981473672e-01 -6.902405217155378e-01 6.330254353451714e-01 -6.640503468614362e-01 7.499628107312419e-02 9.777983579614717e-02
7.132000000000000e+10 2.267043605192214e-01 -5.319382009778045e-03 6.031425045908789e-01 -6.907411726585920e-01 6.328273129668449e-01 -6.642117046366439e-01 7.444568799601708e-02 9.902812806991690e-02
7.136800000000000e+10 2.283385278499199e-01 -5.014389503761318e-03 6.025273170145056e-01 -6.912426353354325e-01 6.326288941097143e-01 -6.643742646469233e-01 7.488856408303038e-02 9.807579085769523e-02
7.141600000000000e+10 2.268493628666894e-01 -4.399049858591454e-03 6.019113593428814e-01 -6.917448813360308e-01 6.324301579777808e-01 -6.645380439393030e-01 7.473451675395004e-02 9.996978342865262e-02
7.146400000000000e+10 2.281024891690106e-01 -2.792404015904133e-03 6.012946559415140e-01 -6.922478820805147e-01 6.322310844390676e-01 -6.647030589320905e-01 7.458615432229602e-02 9.798397145570174e-02
7.151200000000000e+10 2.267662370881806e-01 -3.642257430889094e-03 6.006772305380907e-01 -6.927516089112932e-01 6.320316547558765e-01 -6.648693245513314e-01 7.469156130856419e-02 9.832199158370020e-02
7.156000000000000e+10 2.271278325211347e-01 -2.046257991910398e-03 6.000591050678933e-01 -6.932560342261990e-01 6.318318522746424e-01 -6.650368533111498e-01 7.464678939207617e-02 9.640881935436389e-02
7.160800000000000e+10 2.258161990321824e-01 -4.766217459167952e-03 5.994402986646294e-01 -6.937611320126338e-01 6.316316630404097e-01 -6.652056548023288e-01 7.531475812083792e-02 9.685995245669875e-02
7.165600000000000e+10 2.264607014744577e-01 -3.263805070782442e-03 5.988208272730687e-01 -6.942668779588609e-01 6.314310755426265e-01 -6.653757357810851e-01 7.596229840395943e-02 9.466306770017512e-02
7.170400000000000e+10 2.256516100834058e-01 -4.970630604279629e-03 5.982007044710604e-01 -6.947732491944537e-01 6.312300801033942e-01 -6.655471007568108e-01 7.592787222745208e-02 9.623766724902101e-02
7.175200000000000e+10 2.286826431588485e-01 -4.289552415963530e-03 5.975799424488084e-01 -6.952802235393881e-01 6.310286675028411e-01 -6.657197534010891e-01 7.857049861763765e-02 9.942321265118526e-02
7.180000000000000e+10 2.260858421181869e-01 -4.568554881244585e-03 5.969585541469786e-01 -6.957877780064566e-01 6.308268274865835e-01 -6.658936977014517e-01 7.823448388553345e-02 9.813342285874721e-02
7.184800000000000e+10 2.255023219704600e-01 -2.715063298438500e-03 5.963365557324881e-01 -6.962958880254285e-01 6.306245485845174e-01 -6.660689382711991e-01 7.591820940180195e-02 9.565192835229827e-02
7.189600000000000e+10 2.261925503762212e-01 -4.224264361191847e-03 5.957139654604658e-01 -6.968045276866047e-01 6.304218181101641e-01 -6.662454805988980e-01 7.698918829641853e-02 9.673766684112348e-02
7.194400000000000e+10 2.274079198386597e-01 -5.032584356409911e-03 5.950908014294930e-01 -6.973136701438448e-01 6.302186223650972e-01 -6.664233306146121e-01 7.803087236715156e-02 9.675617645398348e-02
7.199200000000000e+10 2.289417560723872e-01 -6.011849373831616e-03 5.944670807624878e-01 -6.978232886572880e-01 6.300149474943176e-01 -6.666024935933181e-01 7.901011045733382e-02 9.727089945167276e-02
7.204000000000000e+10 2.276521457254349e-01 -5.878060714174902e-03 5.938428185802814e-01 -6.983333576092713e-01 6.298107815285879e-01 -6.667829731080477e-01 7.954246916971339e-02 9.639789726608061e-02
7.208800000000000e+10 2.275177746278078e-01 -5.290186694627066e-03 5.932180270158530e-01 -6.988438533784056e-01 6.296061153077208e-01 -6.669647701991545e-01 8.011681985815787e-02 9.668258555783879e-02
7.213600000000000e+10 2.262134181016734e-01 -6.075335839352058e-03 5.925927149431434e-01 -6.993547544759613e-01 6.294009432435743e-01 -6.671478829796850e-01 8.033804101007747e-02 9.619395296028938e-02
7.218400000000000e+10 2.258126324157425e-01 -6.396779108615541e-03 5.919668889813087e-01 -6.998660414285216e-01 6.291952620215244e-01 -6.673323070949784e-01 8.022982788653459e-02 9.528160166732343e-02
7.223200000000000e+10 2.282689397403087e-01 -5.054324935888275e-03 5.913405550018992e-01 -7.003776961397451e-01 6.289890693941065e-01 -6.675180367720577e-01 8.031492286854217e-02 9.530276671226828e-02
7.228000000000000e+10 2.288887033753013e-01 -5.275576657888464e-03 5.907137194521940e-01 -7.008897013706479e-01 6.287823624604333e-01 -6.677050660060425e-01 7.951637936272245e-02 9.555138057657207e-02
7.232800000000000e+10 2.292114105975855e-01 -4.290616814344118e-03 5.900863904563221e-01 -7.014020390793725e-01 6.285751371560323e-01 -6.678933899245052e-01 8.053778264060292e-02 9.563880206768301e-02
7.237600000000000e+10 2.298572914560245e-01 -5.633677207653549e-03 5.894585787897081e-01 -7.019146897562457e-01 6.283673876793584e-01 -6.680830052223967e-01 8.087362165795151e-02 9.536622635262387e-02
7.242400000000000e+10 2.280368331925527e-01 -5.334918555557315e-03 5.888302967387928e-01 -7.024276325455162e-01 6.281591071875016e-01 -6.682739096519447e-01 8.044050345953975e-02 9.520805202579778e-02
7.247200000000000e+10 2.292310255072820e-01 -5.695895428896168e-03 5.882015568945824e-01 -7.029408470939839e-01 6.279502891802796e-01 -6.684661005607722e-01 8.187181066654343e-02 9.625400747784416e-02
7.252000000000000e+10 2.286241485809337e-01 -4.199131612506025e-03 5.875723695097866e-01 -7.034543145892281e-01 6.277409289766889e-01 -6.686595730856812e-01 8.189435697792613e-02 9.462679664980596e-02
7.256800000000000e+10 2.292415936748469e-01 -6.948461907754722e-03 5.869427414084841e-01 -7.039680190968139e-01 6.275310256047528e-01 -6.688543183073500e-01 8.366297425339966e-02 9.518663033903907e-02
7.261600000000000e+10 2.300786150528169e-01 -4.910665405733840e-03 5.863126752864475e-01 -7.044819481924023e-01 6.273205825117130e-01 -6.690503231196187e-01 8.258381646165780e-02 9.304539134108727e-02
7.266400000000000e+10 2.301326638569430e-01 -6.943626194105778e-03 5.856821701397521e-01 -7.049960928991515e-01 6.271096071092690e-01 -6.692475710133945e-01 8.334878167423816e-02 9.305304790968522e-02
7.271200000000000e+10 2.304411521195153e-01 -5.664811486523001e-03 5.850512229100420e-01 -7.055104467212976e-01 6.268981091359948e-01 -6.694460436987884e-01 8.230171358252591e-02 9.271361889512589e-02
7.276000000000000e+10 2.299075842405821e-01 -6.756215502850485e-03 5.844198301956245e-01 -7.060250037419856e-01 6.266860990926474e-01 -6.696457226579277e-01 8.234293732887478e-02 9.257811517115037e-02
7.280800000000000e+10 2.296377449887898e-01 -6.114073318565335e-03 5.837879897509053e-01 -7.065397576719010e-01 6.264735866996923e-01 -6.698465906007205e-01 8.214940944082258e-02 9.333821544252617e-02
7.285600000000000e+10 2.290575076744000e-01 -5.759660541847663e-03 5.831557003875092e-01 -7.070547016624407e-01 6.262605810231231e-01 -6.700486315937522e-01 8.193006408909952e-02 9.349140608677643e-02
7.290400000000000e+10 2.291229089889216e-01 -5.383186887926689e-03 5.825229610708172e-01 -7.075698293130999e-01 6.260470913459000e-01 -6.702518300380879e-01 8.247117058902138e-02 9.403176463579012e-02
7.295200000000000e+10 2.290945455824166e-01 -5.294723582085259e-03 5.818897690990505e-01 -7.080851360613070e-01 6.258331289000559e-01 -6.704561690170565e-01 8.300376704709714e-02 9.345193851570156e-02
7.300000000000000e+10 2.295819583998410e-01 -5.386967670623097e-03 5.812561188151173e-01 -7.086006204571074e-01 6.256187079867186e-01 -6.706616289064475e-01 8.362664718144959e-02 9.361973485981785e-02
7.304800000000000e+10 2.294371998746936e-01 -6.844286268985865e-03 5.806220007625984e-01 -7.091162846373883e-01 6.254038466651715e-01 -6.708681869241098e-01 8.397098436858076e-02 9.281001173624109e-02
7.309600000000000e+10 2.298325842015103e-01 -6.383909031327752e-03 5.799874029049126e-01 -7.096321337625224e-01 6.251885657977718e-01 -6.710758178911685e-01 8.427245050087209e-02 9.261626973260405e-02
7.314400000000000e+10 2.289310121122759e-01 -7.998035771038836e-03 5.793523120159917e-01 -7.101481746541257e-01 6.249728875422249e-01 -6.712844960690971e-01 8.405688479794078e-02 9.213708938397548e-02
7.319200000000000e+10 2.291320480486339e-01 -6.133219643322489e-03 5.787167157514965e-01 -7.106644143885343e-01 6.247568334955891e-01 -6.714941965441122e-01 8.380425792198973e-02 9.173341940127616e-02
7.324000000000000e+10 2.281859893279665e-01 -7.197315130056931e-03 5.780806031488180e-01 -7.111808595104240e-01 6.245404236459933e-01 -6.717048964071045e-01 8.361166992591015e-02 9.215565170748961e-02
7.328800000000000e+10 2.284904259941477e-01 -4.847381813013361e-03 5.774439650409928e-01 -7.116975161240028e-01 6.243236764874687e-01 -6.719165745712219e-01 8.307824601953243e-02 9.240230853595538e-02
7.333600000000000e+10 2.298847860952042e-01 -4.859678514165168e-03 5.768067927116081e-01 -7.122143906264369e-01 6.241066097563356e-01 -6.721292110183021e-01 7.983618188373538e-02 9.779291191698998e-02
7.338400000000000e+10 2.304354996061854e-01 -3.956924819595513e-03 5.761690769284510e-01 -7.127314904542209e-01 6.238892420561332e-01 -6.723427851646155e-01 8.081601868731342e-02 9.711023946617324e-02
7.343200000000000e+10 2.310282535821920e-01 -5.341682195957831e-03 5.755308065638723e-01 -7.132488246135013e-01 6.236715967366639e-01 -6.725572712523036e-01 8.039245772041305e-02 9.717167422697849e-02
7.348000000000000e+10 2.288403484200190e-01 -5.755113614339327e-03 5.748919685548587e-01 -7.137664034332970e-01 6.234537013703819e-01 -6.727726393077562e-01 8.417311961924323e-02 9.233731687832919e-02
7.352800000000000e+10 2.289914272029148e-01 -6.037531150979783e-03 5.742525489526392e-01 -7.142842377222560e-01 6.232355869604038e-01 -6.729888555494873e-01 8.413644151198890e-02 9.266536823989620e-02
7.357600000000000e+10 2.282058787347982e-01 -5.424977157043073e-03 5.736125339485721e-01 -7.148023377384528e-01 6.230172831759632e-01 -6.732058874307192e-01 8.455529215242499e-02 9.269793009438936e-02
7.362400000000000e+10 2.284932925195045e-01 -4.802348611935971e-03 5.729719110084942e-01 -7.153207121656974e-01 6.227988174929112e-01 -6.734237043599435e-01 8.425405859277207e-02 9.226972367726870e-02
7.367200000000000e+10 2.284465679189984e-01 -4.352021116214535e-03 5.723306691552775e-01 -7.158393677911804e-01 6.225802150697645e-01 -6.736422780460602e-01 8.403428877991967e-02 9.216662868867116e-02
7.372000000000000e+10 2.301536595773985e-01 -4.325933577648424e-03 5.716887984022054e-01 -7.163583097548641e-01 6.223614991443890e-01 -6.738615822102506e-01 7.871597039629395e-02 9.652515192601034e-02
7.376800000000000e+10 2.305358059269047e-01 -4.421021232359509e-03 5.710462883534889e-01 -7.168775422936796e-01 6.221426921403262e-01 -6.740815914942963e-01 7.931922492480133e-02 9.645906650189680e-02
7.381600000000000e+10 2.304782055751723e-01 -4.546008803410637e-03 5.704031268732661e-01 -7.173970698576265e-01 6.219238207148349e-01 -6.743022763805725e-01 7.931687086499599e-02 9.593011865881255e-02
7.386400000000000e+10 2.310890694478389e-01 -4.218554842468907e-03 5.697592991867113e-01 -7.179168976714765e-01 6.217049161107575e-01 -6.745236025527765e-01 7.995965816981329e-02 9.507190776088341e-02
7.391200000000000e+10 2.303815722298312e-01 -4.667003092625895e-03 5.691147876644167e-01 -7.184370321824834e-01 6.214860142924326e-01 -6.747455306172714e-01 8.750318678057986e-02 9.244133220537301e-02
7.396000000000000e+10 2.304415312260939e-01 -4.291880471122158e-03 5.684695725771400e-01 -7.189574808113192e-01 6.212671548082906e-01 -6.749680166643706e-01 8.746933625720840e-02 9.280605427711559e-02
7.400800000000000e+10 2.301870176573947e-01 -4.401896106088079e-03 5.678236336876495e-01 -7.194782510636724e-01 6.210483756982406e-01 -6.751910175436152e-01 8.748805910045568e-02 9.369259770844143e-02
7.405600000000000e+10 2.304040838714170e-01 -4.575053363955549e-03 5.671769521197265e-01 -7.199993490942856e-01 6.208297119170914e-01 -6.754144920124278e-01 8.794421886557795e-02 9.363326264374910e-02
7.410400000000000e+10 2.308406802638484e-01 -4.130230532708834e-03 5.665295112796579e-01 -7.205207791160064e-01 6.206111952702067e-01 -6.756384009948007e-01 8.870502741210554e-02 9.335487834712133e-02
7.415200000000000e+10 2.307863618775809e-01 -4.304702654659612e-03 5.658812965611894e-01 -7.210425437322564e-01 6.203928544849395e-01 -6.758627074199871e-01 8.864594009853435e-02 9.309277359469104e-02
7.420000000000000e+10 2.312958357563166e-01 -4.314772241117180e-03 5.652322945679186e-01 -7.215646443043872e-01 6.201747160780648e-01 -6.760873755631398e-01 8.906860342521640e-02 9.283580423577405e-02
7.424800000000000e+10 2.311472625974991e-01 -5.257671939212619e-03 5.645824917940101e-01 -7.220870818388433e-01 6.199568060259744e-01 -6.763123697779635e-01 8.915223189765868e-02 9.243452109747174e-02
7.429600000000000e+10 2.309391428550563e-01 -4.814152611561015e-03 5.639318733112793e-01 -7.226098581285749e-01 6.197391513953480e-01 -6.765376532536621e-01 8.944311195687070e-02 9.222881309979654e-02
7.434400000000000e+10 2.302270488338569e-01 -5.512252674318412e-03 5.632804222059257e-01 -7.231329763862938e-01 6.195217806308414e-01 -6.767631876344377e-01 8.940173224393781e-02 9.212048802462326e-02
7.439200000000000e+10 2.304557773872254e-01 -4.832183297383890e-03 5.626281203309713e-01 -7.236564409690089e-01 6.193047231457359e-01 -6.769889333531608e-01 8.941663169765321e-02 9.206665416522126e-02
7.444000000000000e+10 2.304257099574505e-01 -4.585584393307957e-03 5.619749497377100e-01 -7.241802563045552e-01 6.190880078933312e-01 -6.772148509422531e-01 8.954114485581473e-02 9.189914718356984e-02
7.448800000000000e+10 2.308993954468761e-01 -4.314333741391758e-03 5.613208939748185e-01 -7.247044257645797e-01 6.188716618914659e-01 -6.774409025241096e-01 8.960008756661127e-02 9.190977971199303e-02
7.453600000000000e+10 2.319174129976112e-01 -4.556296841006986e-03 5.606659390241217e-01 -7.252289507340756e-01 6.186557092968216e-01 -6.776670527102741e-01 8.966658133642000e-02 9.165281367620733e-02
7.458400000000000e+10 2.314656930627917e-01 -5.509049566963492e-03 5.600100731863390e-01 -7.257538306279231e-01 6.184401714321225e-01 -6.778932685199504e-01 8.969444884590089e-02 9.206967229084365e-02
7.463200000000000e+10 2.324588931825761e-01 -5.370653186651796e-03 5.593532858096357e-01 -7.262790637792196e-01 6.182250677455575e-01 -6.781195185690322e-01 8.995797267876353e-02 9.175538496395261e-02
7.468000000000000e+10 2.314100171022172e-01 -6.007190218582373e-03 5.586955656752975e-01 -7.268046487526869e-01 6.180104172793032e-01 -6.783457718386204e-01 9.009205865129605e-02 9.213439437104723e-02
7.472800000000000e+10 2.315966500967610e-01 -5.418619177195710e-03 5.580368996199520e-01 -7.273305853457147e-01 6.177962396925470e-01 -6.785719966485841e-01 9.023045891787877e-02 9.178313213498131e-02
7.477600000000000e+10 2.308888823615087e-01 -5.505563512915980e-03 5.573772723512618e-01 -7.278568746947121e-01 6.175825556821836e-01 -6.787981605335098e-01 9.027084135881329e-02 9.170636488319296e-02
7.482400000000000e+10 2.310797174879755e-01 -5.532972049573032e-03 5.567166673080105e-01 -7.283835184474559e-01 6.173693861649040e-01 -6.790242308689184e-01 9.032427599583041e-02 9.159810686872662e-02
7.487200000000000e+10 2.306223628602176e-01 -5.700270229590806e-03 5.560550684197494e-01 -7.289105176226641e-01 6.171567510267622e-01 -6.792501761741497e-01 9.014759364931212e-02 9.144464535756390e-02
7.492000000000000e+10 2.310695967630506e-01 -5.396814935916627e-03 5.553924612633163e-01 -7.294378714801082e-01 6.169446675706504e-01 -6.794759674891693e-01 9.000339313382849e-02 9.146337694817600e-02
7.496800000000000e+10 2.301748645509519e-01 -5.887687463423752e-03 5.547288337500004e-01 -7.299655771614096e-01 6.167331499261165e-01 -6.797015788629827e-01 8.947823643251623e-02 9.118575328497786e-02
7.501600000000000e+10 2.303121866042216e-01 -5.650256658334957e-03 5.540641750956662e-01 -7.304936300940947e-01 6.165222097224965e-01 -6.799269869530926e-01 8.945508821333338e-02 9.116442849301867e-02
7.506400000000000e+10 2.297680633686490e-01 -6.005376941774766e-03 5.533984753853076e-01 -7.310220248606378e-01 6.163118571432983e-01 -6.801521700718706e-01 8.902132068722468e-02 9.096164172599459e-02
7.511200000000000e+10 2.301747248972492e-01 -5.800197727570978e-03 5.527317245106963e-01 -7.315507558199913e-01 6.161021018916385e-01 -6.803771071707345e-01 8.917229930977488e-02 9.107432982021536e-02
7.516000000000000e+10 2.296131761029987e-01 -6.572006918991579e-03 5.520639120202905e-01 -7.320798174403974e-01 6.158929533959236e-01 -6.806017776504989e-01 8.858533199857725e-02 9.093586174137608e-02
7.520800000000000e+10 2.305827296423129e-01 -6.869590440583858e-03 5.513950276070962e-01 -7.326092039830462e-01 6.156844204573166e-01 -6.808261615686653e-01 9.015869454277088e-02 9.130471702142025e-02
7.525600000000000e+10 2.298530348376375e-01 -7.085278566584676e-03 5.507250615251118e-01 -7.331389090569082e-01 6.154765102276583e-01 -6.810502404769515e-01 8.990074976418727e-02 9.057621949894676e-02
7.530400000000000e+10 2.303621568555690e-01 -7.204103144788705e-03 5.500540056056760e-01 -7.336689247382742e-01 6.152692275493378e-01 -6.812739980018261e-01 9.096324885774425e-02 9.004698587829982e-02
7.535200000000000e+10 2.300668008723887e-01 -6.864797569642556e-03 5.493818530753758e-01 -7.341992415930955e-01 6.150625747151908e-01 -6.814974197974586e-01 9.086934689778513e-02 8.970097559041854e-02
7.540000000000000e+10 2.302358155673864e-01 -7.185848445143535e-03 5.487085983413036e-01 -7.347298489921538e-01 6.148565523898967e-01 -6.817204930297460e-01 9.121647779744402e-02 8.940975877708009e-02
7.544800000000000e+10 2.299035742223239e-01 -7.409339232816197e-03 5.480342359410530e-01 -7.352607359937571e-01 6.146511605340906e-01 -6.819432053556310e-01 9.099469917515930e-02 8.894274855973107e-02
7.549600000000000e+10 2.295781820249644e-01 -6.816706655156119e-03 5.473587599433801e-01 -7.357918918921363e-01 6.144463991092544e-01 -6.821655446432163e-01 9.127149871434741e-02 8.870075331836012e-02
7.554400000000000e+10 2.297244365127826e-01 -6.539298341577432e-03 5.466821639061237e-01 -7.363233063581068e-01 6.142422678856795e-01 -6.823874990889894e-01 9.144755157524255e-02 8.873651665429606e-02
7.559200000000000e+10 2.297806137243354e-01 -6.536197222919782e-03 5.460044415104021e-01 -7.368549688396321e-01 6.140387657663029e-01 -6.826090576096759e-01 9.114841026583927e-02 8.873098192258630e-02
7.564000000000000e+10 2.301119028438197e-01 -6.828840209696455e-03 5.453255875259643e-01 -7.373868681460853e-01 6.138358902603457e-01 -6.828302101819819e-01 9.127569086430380e-02 8.872386491572637e-02
7.568800000000000e+10 2.295777899454263e-01 -7.413402842040208e-03 5.446455978717899e-01 -7.379189920274454e-01 6.136336368948440e-01 -6.830509484507530e-01 9.116266974810354e-02 8.915514079616371e-02
7.573600000000000e+10 2.298623258814385e-01 -7.939640696025728e-03 5.439644695251739e-01 -7.384513273387550e-01 6.134319994432754e-01 -6.832712654297217e-01 9.104312100023541e-02 8.904090752512867e-02
7.578400000000000e+10 2.284173756008755e-01 -9.045638246265813e-03 5.432821997807353e-01 -7.389838605054549e-01 6.132309705001360e-01 -6.834911548250255e-01 9.140474684063984e-02 8.953989782063014e-02
7.583200000000000e+10 2.280994328095345e-01 -8.641607380117338e-03 5.425987852252183e-01 -7.395165781874641e-01 6.130305423503232e-01 -6.837106102689715e-01 9.125912702258433e-02 8.916969684028998e-02
7.588000000000000e+10 2.269040500638113e-01 -8.972335704459575e-03 5.419142212154887e-01 -7.400494677725629e-01 6.128307075919578e-01 -6.839296248662476e-01 9.137663215956332e-02 8.928928097573761e-02
7.592800000000000e+10 2.264310378058131e-01 -8.562825146462068e-03 5.412285015004783e-01 -7.405825174297482e-01 6.126314594893869e-01 -6.841481909964119e-01 9.101177448199059e-02 8.930792675802772e-02
7.597600000000000e+10 2.261127260254056e-01 -8.404183176021592e-03 5.405416187382229e-01 -7.411157160313755e-01 6.124327919226252e-01 -6.843663005625619e-01 9.162648199315122e-02 8.970265719398604e-02
7.602400000000000e+10 2.270182503640614e-01 -7.254141169836537e-03 5.398535650984273e-01 -7.416490524821326e-01 6.122346984841471e-01 -6.845839456231604e-01 9.123830849767267e-02 8.833938688873116e-02
7.607200000000000e+10 2.275437494876103e-01 -8.208722264731055e-03 5.391643323565686e-01 -7.421825154896639e-01 6.120371723987289e-01 -6.848011184943148e-01 9.118383061679182e-02 8.902587535662210e-02
7.612000000000000e+10 2.279176017447687e-01 -7.852424354012472e-03 5.384739127764200e-01 -7.427160933619882e-01 6.118402059983802e-01 -6.850178123498079e-01 9.073330414818369e-02 8.842471373658840e-02
7.616800000000000e+10 2.280283595200580e-01 -8.674706544518584e-03 5.377822993158341e-01 -7.432497738217757e-01 6.116437902308146e-01 -6.852340213886572e-01 9.067724122145189e-02 8.859233835344515e-02
7.621600000000000e+10 2.288838559752709e-01 -9.605173031734065e-03 5.370894854357533e-01 -7.437835441263325e-01 6.114479150291878e-01 -6.854497406628562e-01 9.147799867873316e-02 8.858771822840657e-02
7.626400000000000e+10 2.280315642913575e-01 -1.028673676844389e-02 5.363954645788650e-01 -7.443173913978079e-01 6.112525696133937e-01 -6.856649657350917e-01 9.150515076181838e-02 8.824630382843576e-02
7.631200000000000e+10 2.283303558134316e-01 -1.091826935411677e-02 5.357002293921396e-01 -7.448513031851732e-01 6.110577433387495e-01 -6.858796922397875e-01 9.248863600063528e-02 8.729661529250959e-02
7.636000000000000e+10 2.273936452969621e-01 -1.067242589588916e-02 5.350037711408238e-01 -7.453852677478784e-01 6.108634260207686e-01 -6.860939153273607e-01 9.237841240547179e-02 8.631092222680541e-02
7.640800000000000e+10 2.279560992619489e-01 -1.118530320540195e-02 5.343060795293660e-01 -7.459192746114179e-01 6.106696085802044e-01 -6.863076293856198e-01 9.382540692047911e-02 8.540694006823284e-02
7.645600000000000e+10 2.271433603286823e-01 -1.027091939298369e-02 5.336071427358760e-01 -7.464533145260818e-01 6.104762828832615e-01 -6.865208278802156e-01 9.342488107972571e-02 8.502042793478840e-02
7.650400000000000e+10 2.274661273821375e-01 -1.089869139792213e-02 5.329069483276332e-01 -7.469873791514814e-01 6.102834412744598e-01 -6.867335040120072e-01 9.432326355370010e-02 8.398673440496020e-02
7.655200000000000e+10 2.271613383958097e-01 -1.043967905820801e-02 5.322054841697565e-01 -7.475214600141188e-01 6.100910755865779e-01 -6.869456515877284e-01 9.410430637009722e-02 8.344680519669481e-02
7.660000000000000e+10 2.273372805465432e-01 -1.116845047467945e-02 5.315027395756226e-01 -7.480555480597632e-01 6.098991764238489e-01 -6.871572658529578e-01 9.456385460921113e-02 8.278320560001085e-02
7.664800000000000e+10 2.262606882638337e-01 -1.067867369910543e-02 5.307987054585636e-01 -7.485896338905529e-01 6.097077327862886e-01 -6.873683432234975e-01 9.431126245015728e-02 8.237961754932610e-02
7.669600000000000e+10 2.270805052207415e-01 -1.062967192843614e-02 5.300933735982076e-01 -7.491237080123224e-01 6.095167330429435e-01 -6.875788811665245e-01 9.472788007977430e-02 8.237225091474080e-02
7.674400000000000e+10 2.262920012802259e-01 -1.016330333873460e-02 5.293867357798893e-01 -7.496577613045684e-01 6.093261653521621e-01 -6.877888777579754e-01 9.449858521165738e-02 8.240232315060070e-02
7.679200000000000e+10 2.275873846350233e-01 -9.436448945768800e-03 5.286787832710088e-01 -7.501917856228757e-01 6.091360186225883e-01 -6.879983307481417e-01 9.597254376232149e-02 8.284070430114346e-02
7.684000000000000e+10 2.292991717053006e-01 -1.111267588690453e-02 5.279695061482460e-01 -7.507257739569396e-01 6.089462825166952e-01 -6.882072373934527e-01 9.721974169765826e-02 8.249978780625232e-02
7.688800000000000e+10 2.273330828895801e-01 -1.058394822752721e-02 5.272588942811370e-01 -7.512597193729534e-01 6.087569473872915e-01 -6.884155948532863e-01 9.569784512659293e-02 8.262363885843731e-02
7.693600000000000e+10 2.291493054066232e-01 -1.310071794060351e-02 5.265469384896670e-01 -7.517936147333744e-01 6.085680035873807e-01 -6.886234011044373e-01 9.770901580496673e-02 8.174888653182841e-02
7.698400000000000e+10 2.277029103904183e-01 -1.330112812494004e-02 5.258336306170426e-01 -7.523274524156628e-01 6.083794405099353e-01 -6.888306551664323e-01 9.657296957762758e-02 8.165054066516819e-02
7.703200000000000e+10 2.269132590492001e-01 -1.444038702375638e-02 5.251189635499605e-01 -7.528612247978858e-01 6.081912471360659e-01 -6.890373569431786e-01 9.712895476028129e-02 8.123875745558602e-02
7.708000000000000e+10 2.252131342206802e-01 -1.347059587328985e-02 5.244029301950915e-01 -7.533949249989988e-01 6.080034127187172e-01 -6.892435066006545e-01 9.620926790622489e-02 8.149579890305740e-02
7.712800000000000e+10 2.247793476445609e-01 -1.357653038338222e-02 5.236855226250530e-01 -7.539285473368361e-01 6.078159275980557e-01 -6.894491038960746e-01 9.660817487641501e-02 8.126435906712581e-02
7.717600000000000e+10 2.245522513089961e-01 -1.191480492558795e-02 5.229667315362168e-01 -7.544620875122071e-01 6.076287833955278e-01 -6.896541477711975e-01 9.599133619771373e-02 8.096977649881273e-02
7.722400000000000e+10 2.254654828358552e-01 -1.167042279011590e-02 5.222465466700559e-01 -7.549955421820486e-01 6.074419727463860e-01 -6.898586365775271e-01 9.687540020058182e-02 8.054137042389740e-02
7.727200000000000e+10 2.259543443195469e-01 -1.017806708002317e-02 5.215249579424457e-01 -7.555289079754874e-01 6.072554883255763e-01 -6.900625689687451e-01 9.590424577669263e-02 8.089268116188711e-02
7.732000000000000e+10 2.278160001327225e-01 -1.099355352302538e-02 5.208019572061178e-01 -7.560621806655019e-01 6.070693218092772e-01 -6.902659447417038e-01 9.644495014159837e-02 8.135480563103709e-02
7.736800000000000e+10 2.280037910966140e-01 -1.127131449204408e-02 5.200775382248264e-01 -7.565953546392451e-01 6.068834632804442e-01 -6.904687647402817e-01 9.701599769929885e-02 8.110519569310114e-02
7.741600000000000e+10 2.275259781540127e-01 -1.345530946519794e-02 5.193516968515749e-01 -7.571284228612866e-01 6.066979021827932e-01 -6.906710306046223e-01 9.645336056310991e-02 8.007809242325582e-02
7.746400000000000e+10 2.269624493855993e-01 -1.369186487383862e-02 5.186244299000002e-01 -7.576613775938928e-01 6.065126280265793e-01 -6.908727440364958e-01 9.590854157749325e-02 7.937912052508056e-02
7.751200000000000e+10 2.267326462689081e-01 -1.303270850489918e-02 5.178957338303461e-01 -7.581942116593082e-01 6.063276313472858e-01 -6.910739059501552e-01 9.725487034209906e-02 7.947304350290949e-02
7.756000000000000e+10 2.259181282312484e-01 -1.321015980747385e-02 5.171656040065685e-01 -7.587269188988350e-01 6.061429042052849e-01 -6.912745160697009e-01 9.618257106146416e-02 7.837341611182873e-02
7.760800000000000e+10 2.256222970483164e-01 -1.272511280755086e-02 5.164340351719751e-01 -7.592594940870113e-01 6.059584402724446e-01 -6.914745726050950e-01 9.640054196048969e-02 7.762701914109922e-02
7.765600000000000e+10 2.265653129211388e-01 -1.213249538446983e-02 5.157010221228217e-01 -7.597919322727524e-01 6.057742336435469e-01 -6.916740735252007e-01 9.806590700010102e-02 7.600885322829981e-02
7.770400000000000e+10 2.228776273932555e-01 -1.134305762188686e-02 5.149665607858688e-01 -7.603242282663805e-01 6.055902778726101e-01 -6.918730174924037e-01 9.435695402148772e-02 7.762276880202112e-02
7.775200000000000e+10 2.253532773402649e-01 -1.020922109521436e-02 5.142306486126980e-01 -7.608563760522721e-01 6.054065664144062e-01 -6.920714045068329e-01 9.664524069381218e-02 7.751179051405764e-02
7.780000000000000e+10 2.258558290739667e-01 -1.143782768858065e-02 5.134932833315772e-01 -7.613883690405286e-01 6.052230912675705e-01 -6.922692353414091e-01 9.736658597748638e-02 7.639213914529849e-02
7.784800000000000e+10 2.255778788657757e-01 -1.191189119778659e-02 5.127544636273994e-01 -7.619201999265941e-01 6.050398442105861e-01 -6.924665109797562e-01 9.725667346094130e-02 7.653118965467369e-02
7.789600000000000e+10 2.248867346806376e-01 -1.216222993973164e-02 5.120141888976665e-01 -7.624518612877176e-01 6.048568171205735e-01 -6.926632326694556e-01 9.726158368772392e-02 7.638066464741736e-02
7.794400000000000e+10 2.245690824542286e-01 -1.168532969823587e-02 5.112724589543569e-01 -7.629833456011081e-01 6.046740022280865e-01 -6.928594018624760e-01 9.706581076718505e-02 7.702717299789068e-02
7.799200000000000e+10 2.250797830826337e-01 -1.163062006948115e-02 5.105292740221627e-01 -7.635146452975333e-01 6.044913919637739e-01 -6.930550200902266e-01 9.809068012935097e-02 7.732414277748355e-02
7.804000000000000e+10 2.247825928257517e-01 -1.136611565108919e-02 5.097846347505591e-01 -7.640457527082386e-01 6.043089790438946e-01 -6.932500890229303e-01 9.769687699475027e-02 7.772366478580589e-02
7.808800000000000e+10 2.254610604268054e-01 -1.133394166963156e-02 5.090385423280033e-01 -7.645766601986057e-01 6.041267564916655e-01 -6.934446102640253e-01 9.845548386277700e-02 7.800258071787217e-02
7.813600000000000e+10 2.256699504623425e-01 -1.170167668082714e-02 5.082909982397310e-01 -7.651073600120010e-01 6.039447176102551e-01 -6.936385853677501e-01 9.877580285358567e-02 7.816036918501779e-02
7.818400000000000e+10 2.259642551257344e-01 -1.241621925095307e-02 5.075420043561759e-01 -7.656378443677951e-01 6.037628559301309e-01 -6.938320157215030e-01 9.903553586502571e-02 7.859943713329630e-02
7.823200000000000e+10 2.257906786717420e-01 -1.227529242173973e-02 5.067915629533601e-01 -7.661681053318636e-01 6.035811652656441e-01 -6.940249025656370e-01 9.927746538809609e-02 7.842185286245459e-02
7.828000000000000e+10 2.257310907811606e-01 -1.239959881790797e-02 5.060396772541623e-01 -7.666981346059454e-01 6.033996394890082e-01 -6.942172472027982e-01 1.006740260342327e-01 7.958409347005538e-02
7.832800000000000e+10 2.243562823019508e-01 -1.246100944032298e-02 5.052863520772264e-01 -7.672279229833272e-01 6.032182719831958e-01 -6.944090515686527e-01 9.977972680188367e-02 7.854939936939238e-02
7.837600000000000e+10 2.237393621601114e-01 -1.306156896973710e-02 5.045315941491991e-01 -7.677574601374476e-01 6.030370558504524e-01 -6.946003180947268e-01 9.960759975717932e-02 7.831327140143017e-02
7.842400000000000e+10 2.244968524943375e-01 -1.245143468240044e-02 5.037754115781792e-01 -7.682867349697829e-01 6.028559836728764e-01 -6.947910501577659e-01 1.006763032070792e-01 7.734128438784388e-02
7.847200000000000e+10 2.233331539791089e-01 -1.351278931204910e-02 5.030178129404349e-01 -7.688157363727689e-01 6.026750483607601e-01 -6.949812513173247e-01 1.000263248593211e-01 7.644421540161034e-02
7.852000000000000e+10 2.244060557638006e-01 -1.014671332945791e-02 5.022588065931458e-01 -7.693444535391558e-01 6.024942440139320e-01 -6.951709248654037e-01 9.959139181296794e-02 7.797942010059986e-02
7.856800000000000e+10 2.234200699141283e-01 -1.389885701111408e-02 5.014984001531145e-01 -7.698728763849929e-01 6.023135659280532e-01 -6.953600738285782e-01 1.006257741249654e-01 7.567817285513070e-02
7.861600000000000e+10 2.246872379114537e-01 -1.231159563412254e-02 5.007366012596088e-01 -7.704009939995058e-01 6.021330099698790e-01 -6.955487009998524e-01 1.008525255143606e-01 7.463732878961339e-02
7.866400000000000e+10 2.234157841304902e-01 -1.302512481640473e-02 4.999734185507144e-01 -7.709287958324161e-01 6.019525716729327e-01 -6.957368095465237e-01 1.004692863603877e-01 7.495002846745526e-02
7.871200000000000e+10 2.246299784448598e-01 -1.184304142246453e-02 4.992088624462797e-01 -7.714562708118546e-01 6.017722456066352e-01 -6.959244039186142e-01 1.008721271333095e-01 7.370052545968775e-02
7.876000000000000e+10 2.230821366879763e-01 -1.256432029063645e-02 4.984429449562170e-01 -7.719834070900572e-01 6.015920252564358e-01 -6.961114899532391e-01 1.001723398565764e-01 7.369888259347773e-02
7.880800000000000e+10 2.237349066503215e-01 -1.006532871363532e-02 4.976756790058658e-01 -7.725101923335963e-01 6.014119038057425e-01 -6.962980742876480e-01 1.002286365877921e-01 7.448375336631316e-02
7.885600000000000e+10 2.231500386545969e-01 -1.122727872167932e-02 4.969070774741848e-01 -7.730366145235417e-01 6.012318745259543e-01 -6.964841636066136e-01 1.014560147480837e-01 7.398198705402885e-02
7.890400000000000e+10 2.235099095900035e-01 -1.196569837499226e-02 4.961371525456228e-01 -7.735626620710887e-01 6.010519317040913e-01 -6.966697634074333e-01 1.022240672658243e-01 7.292864272164082e-02
7.895200000000000e+10 2.230634550126833e-01 -1.210412823919835e-02 4.953659160323935e-01 -7.740883234513131e-01 6.008720703676345e-01 -6.968548790653343e-01 1.024698108445192e-01 7.321361154562464e-02
7.900000000000000e+10 2.222129494333155e-01 -1.271244939486262e-02 4.945933805252455e-01 -7.746135868487596e-01 6.006922853816388e-01 -6.970395168581628e-01 1.031624728381417e-01 7.322114768456350e-02
7.904800000000000e+10 2.225329653557097e-01 -1.252039426793129e-02 4.938195603451252e-01 -7.751384396578179e-01 6.005125703157427e-01 -6.972236846750680e-01 1.039969398861376e-01 7.305777867921587e-02
7.909600000000000e+10 2.215193965964382e-01 -1.370854862992061e-02 4.930444718134632e-01 -7.756628681990064e-01 6.003329171129546e-01 -6.974073921729891e-01 1.046924329816776e-01 7.329775467390343e-02
7.914400000000000e+10 2.214485832888014e-01 -1.334108610302293e-02 4.922681327540012e-01 -7.761868583093651e-01 6.001533169170968e-01 -6.975906502931976e-01 1.057322110439693e-01 7.282580311354461e-02
7.919200000000000e+10 2.201077955037105e-01 -1.308800889555473e-02 4.914905611782402e-01 -7.767103961077363e-01 5.999737610313428e-01 -6.977734704303268e-01 1.056030163203512e-01 7.267006599310030e-02
7.924000000000000e+10 2.207233739429424e-01 -1.265359343316735e-02 4.907117741117333e-01 -7.772334688383249e-01 5.997942424264567e-01 -6.979558632607493e-01 1.066002260382828e-01 7.252332966925525e-02
7.928800000000000e+10 2.208881872362369e-01 -1.243795104248807e-02 4.899317868143484e-01 -7.777560649494595e-01 5.996147557869086e-01 -6.981378382445597e-01 1.060774637878038e-01 7.170800823158911e-02
7.933600000000000e+10 2.211246326916896e-01 -1.216435794635009e-02 4.891506136391998e-01 -7.782781734782800e-01 5.994352972219665e-01 -6.983194041080458e-01 1.062592116648182e-01 7.236312492763802e-02
7.938400000000000e+10 2.204189407619304e-01 -1.284929946264557e-02 4.883682696437825e-01 -7.787997828674273e-01 5.992558624622221e-01 -6.985005701322730e-01 1.057907211577627e-01 7.191724036422062e-02
7.943200000000000e+10 2.210775503827554e-01 -1.161447970009974e-02 4.875847720234774e-01 -7.793208801791822e-01 5.990764457051717e-01 -6.986813470151237e-01 1.062392604434014e-01 7.221666764178730e-02
7.948000000000000e+10 2.206094667696282e-01 -1.286320348988240e-02 4.868001399546562e-01 -7.798414509253618e-01 5.988970392491373e-01 -6.988617471834577e-01 1.053230398215682e-01 7.245087682970880e-02
7.952800000000000e+10 2.210698227497417e-01 -1.061873089609242e-02 4.860143939418223e-01 -7.803614795215691e-01 5.987176345007371e-01 -6.990417839270502e-01 1.047035802158920e-01 7.257303394735805e-02
7.957600000000000e+10 2.198269578170259e-01 -1.225921517653695e-02 4.852275545102703e-01 -7.808809502878912e-01 5.985382231662163e-01 -6.992214703235841e-01 1.049367513934917e-01 7.263743207041157e-02
7.962400000000000e+10 2.213597791344480e-01 -9.614367033594463e-03 4.844396408006175e-01 -7.813998483685640e-01 5.983587983948970e-01 -6.994008180759238e-01 1.060580122943511e-01 7.315554316184876e-02
7.967200000000000e+10 2.198946975302053e-01 -1.099736612677125e-02 4.836506696166040e-01 -7.819181602389739e-01 5.981793556033582e-01 -6.995798369686537e-01 1.061485146150558e-01 7.225267696199797e-02
7.972000000000000e+10 2.215084598639599e-01 -9.031856377669506e-03 4.828606561028234e-01 -7.824358735681002e-01 5.979998920938422e-01 -6.997585350766655e-01 1.066238937095035e-01 7.342547506422904e-02
7.976800000000000e+10 2.206981158135517e-01 -9.534902201240047e-03 4.820696151246676e-01 -7.829529762969636e-01 5.978204056834114e-01 -6.999369198923923e-01 1.051989551451310e-01 7.200447339462032e-02
7.981600000000000e+10 2.213640852080177e-01 -1.044391539419628e-02 4.812775627836308e-01 -7.834694556948305e-01 5.976408935188425e-01 -7.001149991688841e-01 1.079068574071627e-01 6.794417036486874e-02
7.986400000000000e+10 2.209373529852082e-01 -1.166607321182895e-02 4.804845166968050e-01 -7.839852980085577e-01 5.974613512445214e-01 -7.002927815193573e-01 1.063339284467509e-01 6.791271711799172e-02
7.991200000000000e+10 2.215570835627839e-01 -1.041361144211213e-02 4.796904959624991e-01 -7.845004892181712e-01 5.972817732433718e-01 -7.004702772188774e-01 1.058434548026104e-01 6.840859812821928e-02
7.996000000000000e+10 2.201015608832115e-01 -1.256151559902533e-02 4.788955201376308e-01 -7.850150151825883e-01 5.971021531860659e-01 -7.006474977029534e-01 1.057099195186597e-01 6.811666236886003e-02
8.000800000000000e+10 2.201983172852252e-01 -1.189598881082903e-02 4.780996087611615e-01 -7.855288617603589e-01 5.969224845669040e-01 -7.008244547273630e-01 1.058431659120541e-01 6.813247779825991e-02
8.005600000000000e+10 2.192743480416526e-01 -1.151189149978926e-02 4.773027802785202e-01 -7.860420151031382e-01 5.967427611330022e-01 -7.010011603434136e-01 1.047227803235643e-01 6.831929922648876e-02
8.010400000000000e+10 2.200031003649994e-01 -1.199550225568356e-02 4.765050516257759e-01 -7.865544616185557e-01 5.965629773245504e-01 -7.011776266565662e-01 1.064174510984118e-01 6.945021641614017e-02
8.015200000000000e+10 2.202850688293305e-01 -1.169614800658877e-02 4.757064384806425e-01 -7.870661881279117e-01 5.963831276694487e-01 -7.013538652745352e-01 1.065612416533575e-01 6.893123973518861e-02
8.020000000000000e+10 2.221190374401843e-01 -1.209490187850698e-02 4.749069559534456e-01 -7.875771823377932e-01 5.962032066647432e-01 -7.015298871413164e-01 1.076525461351920e-01 6.854585899877856e-02
8.024800000000000e+10 2.224136625048034e-01 -1.258418865189827e-02 4.741066186328919e-01 -7.880874321938308e-01 5.960232086532056e-01 -7.017057030248959e-01 1.077202547154473e-01 6.843434342271362e-02
8.029600000000000e+10 2.225863301363011e-01 -1.340392838241684e-02 4.733054418195936e-01 -7.885969256239096e-01 5.958431274475414e-01 -7.018813240621026e-01 1.084944117991696e-01 6.811840851293526e-02
8.034400000000000e+10 2.225551345627677e-01 -1.437172796054435e-02 4.725034417447960e-01 -7.891056501306212e-01 5.956629557727061e-01 -7.020567622734342e-01 1.091107145846064e-01 6.708184772763698e-02
8.039200000000000e+10 2.221027630099344e-01 -1.423372746394828e-02 4.717006362175921e-01 -7.896135926331320e-01 5.954826848228334e-01 -7.022320310405021e-01 1.094006172254220e-01 6.737010652672044e-02
8.044000000000000e+10 2.214435797095655e-01 -1.314877470598333e-02 4.708970446869106e-01 -7.901207396050176e-01 5.953023042045752e-01 -7.024071454511347e-01 1.084640868919445e-01 6.671969749185297e-02
8.048800000000000e+10 2.219685727840518e-01 -1.286799448294009e-02 4.700926878460236e-01 -7.906270769198237e-01 5.951218024076607e-01 -7.025821222832539e-01 1.094172647609080e-01 6.808551315220926e-02
8.053600000000000e+10 2.217509454744012e-01 -1.280152090468278e-02 4.692875863371886e-01 -7.911325907462745e-01 5.949411672661455e-01 -7.027569788807829e-01 1.102306076641241e-01 6.709207842381641e-02
8.058400000000000e+10 2.229227059088154e-01 -1.283506199244418e-02 4.684817603111093e-01 -7.916372676932856e-01 5.947603867091784e-01 -7.029317324127615e-01 1.110742653318429e-01 6.750229234640900e-02
8.063200000000000e+10 2.235875151162837e-01 -1.215807983258813e-02 4.676752291328307e-01 -7.921410950998686e-01 5.945794488630597e-01 -7.031063998494883e-01 1.106460719149910e-01 6.644156483878592e-02
8.068000000000000e+10 2.232513954824868e-01 -1.425689893246281e-02 4.668680119991432e-01 -7.926440605212660e-01 5.943983417351622e-01 -7.032809983649347e-01 1.108237885532318e-01 6.655650310813226e-02
8.072800000000000e+10 2.236642366966396e-01 -1.308814506064469e-02 4.660601285003035e-01 -7.931461510559207e-01 5.942170523703296e-01 -7.034555459465489e-01 1.106394817939829e-01 6.663550812821117e-02
8.077600000000000e+10 2.227759031549447e-01 -1.492842392290687e-02 4.652515993106035e-01 -7.936473530069006e-01 5.940355663545963e-01 -7.036300617959869e-01 1.108514114614941e-01 6.692932825419372e-02
8.082400000000000e+10 2.228649441614309e-01 -1.341961472790279e-02 4.644424459505719e-01 -7.941476520407503e-01 5.938538678216528e-01 -7.038045661279663e-01 1.114656458206461e-01 6.668503248942241e-02
8.087200000000000e+10 2.219471151006003e-01 -1.404199652329059e-02 4.636326898078290e-01 -7.946470338074425e-01 5.936719403460365e-01 -7.039790793930978e-01 1.113173826036315e-01 6.663206721151690e-02
8.092000000000000e+10 2.229218633692939e-01 -1.260746769546484e-02 4.628223511095639e-01 -7.951454845152643e-01 5.934897680944379e-01 -7.041536213221014e-01 1.113637079552392e-01 6.695859627708595e-02
8.096800000000000e+10 2.225849126222464e-01 -1.314551523511777e-02 4.620114485161677e-01 -7.956429915232421e-01 5.933073359172231e-01 -7.043282105375344e-01 1.116275322140227e-01 6.651334630349200e-02
8.101600000000000e+10 2.229987294033452e-01 -1.339455604566108e-02 4.611999998554174e-01 -7.961395427551753e-01 5.931246290896383e-01 -7.045028649387393e-01 1.128980412918522e-01 6.590262971219414e-02
8.106400000000000e+10 2.225871427623787e-01 -1.295001830298290e-02 4.603880234642137e-01 -7.966351259107392e-01 5.929416315684863e-01 -7.046776030372789e-01 1.134640115930386e-01 6.602398285498827e-02
8.111200000000000e+10 2.222415529241495e-01 -1.354100101263046e-02 4.595755395449598e-01 -7.971297278549746e-01 5.927583253041872e-01 -7.048524449543542e-01 1.133802018320749e-01 6.517737727072434e-02
8.116000000000000e+10 2.219489842678189e-01 -1.411717560220565e-02 4.587625699457309e-01 -7.976233343876041e-01 5.925746904165234e-01 -7.050274123318914e-01 1.118174310509252e-01 6.503805275680374e-02
8.120800000000000e+10 2.217236910823348e-01 -1.339248437930198e-02 4.579491368298057e-01 -7.981159311463373e-01 5.923907061209723e-01 -7.052025274057634e-01 1.114989354089594e-01 6.454460385332224e-02
8.125600000000000e+10 2.213535429179800e-01 -1.481486216765523e-02 4.571352603613980e-01 -7.986075046748664e-01 5.922063519619354e-01 -7.053778113095995e-01 1.138911153314566e-01 6.522524940113834e-02
8.130400000000000e+10 2.208796882988214e-01 -1.462726108247344e-02 4.563209567975930e-01 -7.990980428972744e-01 5.920216096130037e-01 -7.055532829670068e-01 1.137437094617562e-01 6.470518422029441e-02
8.135200000000000e+10 2.210729529287378e-01 -1.329588977486521e-02 4.555062383875671e-01 -7.995875355818529e-01 5.918364635542931e-01 -7.057289589926198e-01 1.121990731518891e-01 6.553835037826171e-02
8.140000000000000e+10 2.214765054087356e-01 -1.210659052644612e-02 4.546911145840402e-01 -8.000759739535680e-01 5.916508999358396e-01 -7.059048544798711e-01 1.118633038410329e-01 6.631951016743048e-02
8.144800000000000e+10 2.208426558431294e-01 -1.309121083843027e-02 4.538755947590900e-01 -8.005633487395941e-01 5.914649042363147e-01 -7.060809845693895e-01 1.130488069811535e-01 6.430479579004407e-02
8.149600000000000e+10 2.219621390916696e-01 -1.232556312990954e-02 4.530596907501603e-01 -8.010496484392180e-01 5.912784593181719e-01 -7.062573657949203e-01 1.144516073402464e-01 6.238270087397518e-02
8.154400000000000e+10 2.208429659314505e-01 -1.364265790801228e-02 4.522434170544743e-01 -8.015348599532296e-01 5.910915447338601e-01 -7.064340169730181e-01 1.135224909472916e-01 6.330004295312749e-02
8.159200000000000e+10 2.242337554409158e-01 -1.196097402972623e-02 4.514267900592007e-01 -8.020189696122934e-01 5.909041377049578e-01 -7.066109582984290e-01 1.119885892621826e-01 6.211670138111252e-02
8.164000000000000e+10 2.234753870791538e-01 -1.393548388231615e-02 4.506098250654967e-01 -8.025019639958014e-01 5.907162147478221e-01 -7.067882092622491e-01 1.138378367473613e-01 6.021197006008124e-02
8.168800000000000e+10 2.242036627242486e-01 -1.373709692821599e-02 4.497925332922395e-01 -8.029838306115332e-01 5.905277547963522e-01 -7.069657865916731e-01 1.145313615910689e-01 6.074118254002233e-02
8.173600000000000e+10 2.241329963515020e-01 -1.333470655542322e-02 4.489749209734301e-01 -8.034645597944823e-01 5.903387404934424e-01 -7.071437034082714e-01 1.137059950363203e-01 6.238811962830638e-02
8.178400000000000e+10 2.249773561802950e-01 -1.254784729338299e-02 4.481569902390027e-01 -8.039441438890698e-01 5.901491584503986e-01 -7.073219698182641e-01 1.126143064967574e-01 6.218270113434438e-02
8.183200000000000e+10 2.243349980769336e-01 -1.232265592985844e-02 4.473387411286155e-01 -8.044225758379494e-01 5.899589971779045e-01 -7.075005937814205e-01 1.127264280485534e-01 6.128967972529427e-02
8.188000000000000e+10 2.251673013554784e-01 -1.207707987311521e-02 4.465201741267604e-01 -8.048998475649769e-01 5.897682449548538e-01 -7.076795828783318e-01 1.142237041781057e-01 6.009785055093994e-02
8.192800000000000e+10 2.252779818166482e-01 -1.253781842285657e-02 4.457012913868298e-01 -8.053759491250215e-01 5.895768883595744e-01 -7.078589456665048e-01 1.149551686303323e-01 6.043908197913506e-02
8.197600000000000e+10 2.257485866028951e-01 -1.253646940985277e-02 4.448820971887067e-01 -8.058508692979474e-01 5.893849120499520e-01 -7.080386920392917e-01 1.152430052036611e-01 6.091746286153830e-02
8.202400000000000e+10 2.251588213334411e-01 -1.305465803497934e-02 4.440625973991654e-01 -8.063245961430767e-01 5.891922992805632e-01 -7.082188328403410e-01 1.157627548152082e-01 6.132809589569090e-02
8.207200000000000e+10 2.247444543302452e-01 -1.254934629009257e-02 4.432427985637595e-01 -8.067971174557348e-01 5.889990328962902e-01 -7.083993789686952e-01 1.164632111381636e-01 6.243391640278612e-02
8.212000000000000e+10 2.244240860138289e-01 -1.197085321024282e-02 4.424227066523300e-01 -8.072684213795871e-01 5.888050964508931e-01 -7.085803406717722e-01 1.175000940641711e-01 6.219363767388840e-02
8.216800000000000e+10 2.244854885210974e-01 -1.264560998828095e-02 4.416023262269083e-01 -8.077384965804608e-01 5.886104751731236e-01 -7.087617265455823e-01 1.182665967922956e-01 6.160387998244752e-02
8.221600000000000e+10 2.248913522624250e-01 -1.217879767128667e-02 4.407816605162198e-01 -8.082073321799378e-01 5.884151560991143e-01 -7.089435432819305e-01 1.185136040522515e-01 6.184170012930063e-02
8.226400000000000e+10 2.254401335193273e-01 -1.276303966645882e-02 4.399607120870178e-01 -8.086749177178406e-01 5.882191273761322e-01 -7.091257964565488e-01 1.193100030158233e-01 6.189937040507946e-02
8.231200000000000e+10 2.257975939509853e-01 -1.279003662207786e-02 4.391394837725695e-01 -8.091412423274020e-01 5.880223780839523e-01 -7.093084911588721e-01 1.193890106184258e-01 6.220875040676149e-02
8.236000000000000e+10 2.267864922415021e-01 -1.343426273429191e-02 4.383179797767306e-01 -8.096062948315073e-01 5.878248972405942e-01 -7.094916328234913e-01 1.197315000204257e-01 6.328684839517601e-02
8.240800000000000e+10 2.273929466650310e-01 -1.494179730975807e-02 4.374962060872674e-01 -8.100700633459975e-01 5.876266730310091e-01 -7.096752276893376e-01 1.199087807920500e-01 6.264835365018386e-02
8.245600000000000e+10 2.278471690925500e-01 -1.610044688014742e-02 4.366741704001736e-01 -8.105325353066147e-01 5.874276930031558e-01 -7.098592826439315e-01 1.193639465773315e-01 6.275120939989393e-02
8.250400000000000e+10 2.273924621581385e-01 -1.705454295341993e-02 4.358518809642125e-01 -8.109936980967195e-01 5.872279450079313e-01 -7.100438046627457e-01 1.185861069363745e-01 6.258915165299196e-02
8.255200000000000e+10 2.268636908903224e-01 -1.699937151667810e-02 4.350293452851965e-01 -8.114535397974313e-01 5.870274183962888e-01 -7.102287997682665e-01 1.184882142517023e-01 6.298922943079462e-02
8.260000000000000e+10 2.269000140058156e-01 -1.649502197398772e-02 4.342065688756523e-01 -8.119120498141467e-01 5.868261050051898e-01 -7.104142722169574e-01 1.184061433614732e-01 6.254165100097059e-02
8.264800000000000e+10 2.265533983532164e-01 -1.611045701861303e-02 4.333835550591376e-01 -8.123692191531309e-01 5.866239992089525e-01 -7.106002242297660e-01 1.175977652999997e-01 6.219257829491914e-02
8.269600000000000e+10 2.268427538635480e-01 -1.604378192508067e-02 4.325603061080873e-01 -8.128250397379944e-01 5.864210970200527e-01 -7.107866565093712e-01 1.173224572627949e-01 6.255396166198532e-02
8.274400000000000e+10 2.272456349073300e-01 -1.566178631056575e-02 4.317368257394742e-01 -8.132795034213407e-01 5.862173939648769e-01 -7.109735698501319e-01 1.175833999146225e-01 6.205442020759301e-02
8.279200000000000e+10 2.276640824385112e-01 -1.580142182209429e-02 4.309131212895286e-01 -8.137326006467189e-01 5.860128830904738e-01 -7.111609669480891e-01 1.173249730216202e-01 6.174029394382782e-02
8.284000000000000e+10 2.278016661425095e-01 -1.619241306717123e-02 4.300892043253118e-01 -8.141843201757696e-01 5.858075545496244e-01 -7.113488527685928e-01 1.171907765930769e-01 6.125096299097132e-02
8.288800000000000e+10 2.276390151081722e-01 -1.708957222164494e-02 4.292650889293749e-01 -8.146346497646533e-01 5.856013968456601e-01 -7.115372334583684e-01 1.164408235810970e-01 6.108941431315082e-02
8.293600000000000e+10 2.272446910122758e-01 -1.790346897673228e-02 4.284407886353004e-01 -8.150835778473503e-01 5.853943998824928e-01 -7.117261140678031e-01 1.157709747055596e-01 6.114998312748660e-02
8.298400000000000e+10 2.271415960919949e-01 -1.799996218473688e-02 4.276163126456527e-01 -8.155310956722571e-01 5.851865576238483e-01 -7.119154957463338e-01 1.159921439926951e-01 6.166976178717858e-02
8.303200000000000e+10 2.274819222128429e-01 -1.844453301583670e-02 4.267916638286771e-01 -8.159771976631476e-01 5.849778698780763e-01 -7.121053747357268e-01 1.162160394889662e-01 6.173134274312503e-02
8.308000000000000e+10 2.268614917733695e-01 -1.880116030663066e-02 4.259668401630473e-01 -8.164218808123941e-01 5.847683411505212e-01 -7.122957430104502e-01 1.163870157749908e-01 6.176178536289851e-02
8.312800000000000e+10 2.263920929172000e-01 -1.861307610905815e-02 4.251418387563804e-01 -8.168651427019658e-01 5.845579775125052e-01 -7.124865909784471e-01 1.161405682493061e-01 6.152029900470171e-02
8.317600000000000e+10 2.262514759150951e-01 -1.883619094374782e-02 4.243166601869017e-01 -8.173069792988699e-01 5.843467827206283e-01 -7.126779104384553e-01 1.165522422137550e-01 6.099021097452324e-02
8.322400000000000e+10 2.259623705406540e-01 -1.898469534540276e-02 4.234913112122012e-01 -8.177473834093177e-01 5.841347555600984e-01 -7.128696964398482e-01 1.168341261899259e-01 6.042012443953648e-02
8.327200000000000e+10 2.261932692475584e-01 -1.902066037888667e-02 4.226658046694530e-01 -8.181863447700984e-01 5.839218899557332e-01 -7.130619474493340e-01 1.182561053763144e-01 6.014497689025636e-02
8.332000000000000e+10 2.263228424033016e-01 -1.960568026602214e-02 4.218401562168377e-01 -8.186238516700499e-01 5.837081777228150e-01 -7.132546635178256e-01 1.190076226078001e-01 6.009211180464403e-02
8.336800000000000e+10 2.256964983976090e-01 -2.017274378615997e-02 4.210143798155766e-01 -8.190598936693310e-01 5.834936123841477e-01 -7.134478431013163e-01 1.193382842316521e-01 5.940896834570888e-02
8.341600000000000e+10 2.257683105940138e-01 -2.029584281500392e-02 4.201884837138401e-01 -8.194944635655678e-01 5.832781931531420e-01 -7.136414799051707e-01 1.201908787407080e-01 5.955912252426658e-02
8.346400000000000e+10 2.259796510525545e-01 -2.064616355220255e-02 4.193624686005999e-01 -8.199275585396009e-01 5.830619261314205e-01 -7.138355617811412e-01 1.203833811372166e-01 5.995303085354847e-02
8.351200000000000e+10 2.256402729460797e-01 -2.110526162105752e-02 4.185363294757319e-01 -8.203591795104124e-01 5.828448231887833e-01 -7.140300721521584e-01 1.204342252110481e-01 5.940677950539284e-02
8.356000000000000e+10 2.244851044216603e-01 -2.075949841690322e-02 4.177100597364550e-01 -8.207893293511689e-01 5.826268986786636e-01 -7.142249926266871e-01 1.204288608858263e-01 5.916579369591379e-02
8.360800000000000e+10 2.242582137088622e-01 -2.036645483307926e-02 4.168836554243079e-01 -8.212180103431317e-01 5.824081661623686e-01 -7.144203065192171e-01 1.203904038173526e-01 5.877720560535012e-02
8.365600000000000e+10 2.238002311804179e-01 -2.045771881980611e-02 4.160571176247403e-01 -8.216452226987874e-01 5.821886355500947e-01 -7.146160004664277e-01 1.200928236741435e-01 5.930174759793229e-02
8.370400000000000e+10 2.238467170841899e-01 -2.077787462576284e-02 4.152304527760793e-01 -8.220709644136186e-01 5.819683126636795e-01 -7.148120646310518e-01 1.201689396109627e-01 5.919975983589133e-02
8.375200000000000e+10 2.236083783683041e-01 -2.100906504811140e-02 4.144036707719910e-01 -8.224952322715758e-01 5.817472005539250e-01 -7.150084914417264e-01 1.198292579687307e-01 5.955788403739576e-02
8.380000000000000e+10 2.232860256302224e-01 -2.148262226663284e-02 4.135767825808749e-01 -8.229180232857177e-01 5.815253016906728e-01 -7.152052739096680e-01 1.198287466472830e-01 5.996841085683956e-02
8.384800000000000e+10 2.229397956721316e-01 -2.181250080002959e-02 4.127497975511685e-01 -8.233393360702214e-01 5.813026203453036e-01 -7.154024035359531e-01 1.201953326154357e-01 6.056533848332614e-02
8.389600000000000e+10 2.230504557917687e-01 -2.158004088535027e-02 4.119227215890107e-01 -8.237591715483835e-01 5.810791641194358e-01 -7.155998690361260e-01 1.208594481538759e-01 6.071626664751394e-02
8.394400000000000e+10 2.228478043152870e-01 -2.183546546071024e-02 4.110955572144602e-01 -8.241775329490740e-01 5.808549439558423e-01 -7.157976565682599e-01 1.221669161417866e-01 5.995955762815711e-02
8.399200000000000e+10 2.225440737730371e-01 -2.138956269889847e-02 4.102683052931560e-01 -8.245944253057622e-01 5.806299732114959e-01 -7.159957503954505e-01 1.221884674641821e-01 5.924490790591939e-02
8.404000000000000e+10 2.226496519310334e-01 -2.095695652947947e-02 4.094409670643905e-01 -8.250098547497673e-01 5.804042659289776e-01 -7.161941345643130e-01 1.219181936970927e-01 5.861054331617403e-02
8.408800000000000e+10 2.238953703541358e-01 -2.015518328245603e-02 4.086135461825746e-01 -8.254238272575077e-01 5.801778349043523e-01 -7.163927945613606e-01 1.221695067397956e-01 5.810993765907780e-02
8.413600000000000e+10 2.244538726634953e-01 -1.979843294739022e-02 4.077860497593028e-01 -8.258363479373587e-01 5.799506907088722e-01 -7.165917184283096e-01 1.220402499384306e-01 5.808415981961984e-02
8.418400000000000e+10 2.250958865048785e-01 -2.028005602736096e-02 4.069584886237356e-01 -8.262474208419526e-01 5.797228419051840e-01 -7.167908966553680e-01 1.214897710173408e-01 5.709449219113533e-02
8.423200000000000e+10 2.248949186114862e-01 -2.176449903276775e-02 4.061308759655958e-01 -8.266570494843568e-01 5.794942962849983e-01 -7.169903211593228e-01 1.198768601216229e-01 5.684019972389902e-02
8.428000000000000e+10 2.243929359460415e-01 -2.115180043840999e-02 4.053032253053861e-01 -8.270652380491111e-01 5.792650624779997e-01 -7.171899838242025e-01 1.205008072615122e-01 5.673538325475803e-02
8.432800000000000e+10 2.238219971405349e-01 -2.270229889261197e-02 4.044755472321404e-01 -8.274719923050852e-01 5.790351520279834e-01 -7.173898748443881e-01 1.200947003413289e-01 5.650179556052916e-02
8.437600000000000e+10 2.221052263037671e-01 -2.274002231489654e-02 4.036478497308779e-01 -8.278773200488575e-01 5.788045799223288e-01 -7.175899819790933e-01 1.198443495823428e-01 5.623420590316886e-02
8.442400000000000e+10 2.213514799471305e-01 -2.311906070078726e-02 4.028201382461302e-01 -8.282812309893539e-01 5.785733637926450e-01 -7.177902911454779e-01 1.195245885566368e-01 5.597034958311248e-02
8.447200000000000e+10 2.199785559355037e-01 -2.291965228137527e-02 4.019924182367871e-01 -8.286837355160914e-01 5.783415218576279e-01 -7.179907881218965e-01 1.193353761334270e-01 5.588007658958857e-02
8.452000000000000e+10 2.193830728494168e-01 -2.221439516849050e-02 4.011646976284705e-01 -8.290848434078186e-01 5.781090706829550e-01 -7.181914604636150e-01 1.192134135462304e-01 5.574159366957611e-02
8.456800000000000e+10 2.194078198747152e-01 -2.208693222161509e-02 4.003369876468424e-01 -8.294845634734863e-01 5.778760242736261e-01 -7.183922981297853e-01 1.196962909298661e-01 5.583479193319219e-02
8.461600000000000e+10 2.198109521545618e-01 -2.145300950970419e-02 3.995093015686301e-01 -8.298829037866995e-01 5.776423951225598e-01 -7.185932927643653e-01 1.201524078387699e-01 5.556393197035843e-02
8.466400000000000e+10 2.201064989176631e-01 -2.218537697905671e-02 3.986816520632925e-01 -8.302798732202239e-01 5.774081967281720e-01 -7.187944357080395e-01 1.205315034881787e-01 5.507535063338288e-02
8.471200000000000e+10 2.198348181093830e-01 -2.157449476927500e-02 3.978540481906683e-01 -8.306754829472595e-01 5.771734464234728e-01 -7.189957157648275e-01 1.204606464242853e-01 5.502246809458704e-02
8.476000000000000e+10 2.194643550723888e-01 -2.202399555025255e-02 3.970264941455739e-01 -8.310697477717460e-01 5.769381664723117e-01 -7.191971176191319e-01 1.204006253249024e-01 5.402933003938403e-02
8.480800000000000e+10 2.186751559204910e-01 -2.151427561636464e-02 3.961989893173665e-01 -8.314626849621204e-01 5.767023838331455e-01 -7.193986227520329e-01 1.203100585801177e-01 5.424278213623571e-02
8.485600000000000e+10 2.176874311990920e-01 -2.078374102854096e-02 3.953715318174576e-01 -8.318543127311093e-01 5.764661270789593e-01 -7.196002120662910e-01 1.201874321481879e-01 5.394874948842307e-02
8.490400000000000e+10 2.169318781281858e-01 -1.950907404364871e-02 3.945441228637701e-01 -8.322446480451489e-01 5.762294226697978e-01 -7.198018685306354e-01 1.201125680394649e-01 5.422120645865536e-02
8.495200000000000e+10 2.177901344622050e-01 -1.824375053606390e-02 3.937167690707722e-01 -8.326337053035598e-01 5.759922928911970e-01 -7.200035786370163e-01 1.201503471093283e-01 5.410906553338116e-02
8.500000000000000e+10 2.193473954164200e-01 -1.950730113023922e-02 3.928894819703924e-01 -8.330214960524034e-01 5.757547558478144e-01 -7.202053323560402e-01 1.196777411471404e-01 5.349689079399877e-02
8.504800000000000e+10 2.188550154245072e-01 -1.955611938293250e-02 3.920622760712313e-01 -8.334080300990095e-01 5.755168276516756e-01 -7.204071215783104e-01 1.198109800597782e-01 5.370929784079802e-02
8.509600000000000e+10 2.179362519409636e-01 -2.151981728531840e-02 3.912351652145771e-01 -8.337933180638273e-01 5.752785253098899e-01 -7.206089378103484e-01 1.195979310842113e-01 5.216738267801620e-02
8.514400000000000e+10 2.173522860648549e-01 -2.158904979254542e-02 3.904081592967092e-01 -8.341773723437926e-01 5.750398692067703e-01 -7.208107698159675e-01 1.221837187416408e-01 5.322260537851446e-02
8.519200000000000e+10 2.171628195295497e-01 -2.423163263491135e-02 3.895812641372189e-01 -8.345602075080656e-01 5.748008827766014e-01 -7.210126039625629e-01 1.198104105830766e-01 5.134556725467461e-02
8.524000000000000e+10 2.137356265793638e-01 -2.568665751873482e-02 3.887544846633437e-01 -8.349418383557102e-01 5.745615907330283e-01 -7.212144259631469e-01 1.208864536075120e-01 5.030968791547991e-02
8.528800000000000e+10 2.154955477956144e-01 -2.264135973292146e-02 3.879278282084355e-01 -8.353222801355893e-01 5.743220155379382e-01 -7.214162239088125e-01 1.208560185390542e-01 5.351431699261910e-02
8.533600000000000e+10 2.141447386248283e-01 -2.203657526261045e-02 3.871013082871873e-01 -8.357015458798966e-01 5.740821724070624e-01 -7.216179924077614e-01 1.204934339070264e-01 5.094655562675141e-02
8.538400000000000e+10 2.148356627998490e-01 -1.897582134354941e-02 3.862749442388742e-01 -8.360796457324564e-01 5.738420719342208e-01 -7.218197308160527e-01 1.222612681470072e-01 5.372120456394752e-02
8.543200000000000e+10 2.150470290534282e-01 -1.926727735359158e-02 3.854487605249488e-01 -8.364565877001616e-01 5.736017199913247e-01 -7.220214437855351e-01 1.219039263287861e-01 5.250200647842879e-02
8.548000000000000e+10 2.150391685560220e-01 -1.792057026161997e-02 3.846227827971371e-01 -8.368323792972386e-01 5.733611221752511e-01 -7.222231364847655e-01 1.222873466070011e-01 5.324960485944703e-02
8.552800000000000e+10 2.166215942143486e-01 -1.864039500921035e-02 3.837970349979721e-01 -8.372070290511211e-01 5.731202860027920e-01 -7.224248130425410e-01 1.227782179655238e-01 5.233547606478951e-02
8.557600000000000e+10 2.151262768888712e-01 -2.073476162245606e-02 3.829715380484752e-01 -8.375805471229046e-01 5.728792220574912e-01 -7.226264746961232e-01 1.211828638924307e-01 5.256004277085118e-02
8.562400000000000e+10 2.149604007472193e-01 -2.084487612028293e-02 3.821463100913573e-01 -8.379529449452560e-01 5.726379443949019e-01 -7.228281207621643e-01 1.216817986508377e-01 5.211388630539835e-02
8.567200000000000e+10 2.140309273516073e-01 -2.137093839722807e-02 3.813213682645528e-01 -8.383242339335322e-01 5.723964675320432e-01 -7.230297504086125e-01 1.214232942398481e-01 5.158712567699093e-02
8.572000000000000e+10 2.150209078684849e-01 -2.100465633542209e-02 3.804967311821696e-01 -8.386944248803064e-01 5.721548047524936e-01 -7.232313639335350e-01 1.219792649896315e-01 5.119084366139350e-02
8.576800000000000e+10 2.126039259427755e-01 -2.122864522437341e-02 3.796724198319752e-01 -8.390635275463800e-01 5.719129670229970e-01 -7.234329635311354e-01 1.204585208839172e-01 5.158142217144202e-02
8.581600000000000e+10 2.149732133156675e-01 -1.853328394981219e-02 3.788484577171407e-01 -8.394315506171449e-01 5.716709634827264e-01 -7.236345534435589e-01 1.223979326131698e-01 5.211370548396336e-02
8.586400000000000e+10 2.139206258020182e-01 -2.126205091502591e-02 3.780248698930778e-01 -8.397985022101063e-01 5.714288008974943e-01 -7.238361390752382e-01 1.216526280041230e-01 5.150157145466713e-02
8.591200000000000e+10 2.159247585721242e-01 -1.833500032231273e-02 3.772016826372952e-01 -8.401643898888288e-01 5.711864857248843e-01 -7.240377261104498e-01 1.231563587716921e-01 5.193321812286575e-02
8.596000000000000e+10 2.156584291042263e-01 -1.954147024145971e-02 3.763789214288285e-01 -8.405292219077041e-01 5.709440247229451e-01 -7.242393197328935e-01 1.234173985354572e-01 5.161268155150247e-02
8.600800000000000e+10 2.154191758975477e-01 -1.977733453143595e-02 3.755566106018632e-01 -8.408930067716409e-01 5.707014263627357e-01 -7.244409240077095e-01 1.235993442694258e-01 5.053543032289105e-02
8.605600000000000e+10 2.140796181127485e-01 -2.041074642477865e-02 3.747347734761350e-01 -8.412557533724545e-01 5.704587005501279e-01 -7.246425419480764e-01 1.224678600684495e-01 4.971403081574104e-02
8.610400000000000e+10 2.133982451818897e-01 -1.886501700441218e-02 3.739134330728042e-01 -8.416174705818282e-01 5.702158578487173e-01 -7.248441762125223e-01 1.228486258270144e-01 5.006397626085491e-02
8.615200000000000e+10 2.133460209753374e-01 -1.836068294813861e-02 3.730926122488818e-01 -8.419781672158679e-01 5.699729085793334e-01 -7.250458295788701e-01 1.232765063363055e-01 4.992235164784336e-02
8.620000000000000e+10 2.124601459616207e-01 -1.714917943192652e-02 3.722723338318439e-01 -8.423378513000815e-01 5.697298630176385e-01 -7.252475046798644e-01 1.232204762427035e-01 5.026872634397886e-02
8.624800000000000e+10 2.112982682708892e-01 -2.429126151543915e-02 3.714526204890926e-01 -8.426965300565836e-01 5.694867317359911e-01 -7.254492036624428e-01 1.150457827939695e-01 4.662938137476442e-02
8.629600000000000e+10 2.084969438388087e-01 -2.373922474367125e-02 3.706334945765746e-01 -8.430542099117413e-01 5.692435254588275e-01 -7.256509277212768e-01 1.130465763860815e-01 4.888525242971935e-02
8.634400000000000e+10 2.150939735141000e-01 -2.157779206087549e-02 3.698149725130049e-01 -8.434108989169232e-01 5.690002552701667e-01 -7.258526781740992e-01 1.222258550269893e-01 4.498719264828779e-02
8.639200000000000e+10 2.132574054509271e-01 -1.823918315447903e-02 3.689970647920585e-01 -8.437666061778507e-01 5.687569311950532e-01 -7.260544560543423e-01 1.219361523608128e-01 4.963252020735827e-02
8.644000000000000e+10 2.124339857688642e-01 -1.804328379768274e-02 3.681797792903419e-01 -8.441213427358545e-01 5.685135645371563e-01 -7.262562611285863e-01 1.223852924534892e-01 4.886783357083805e-02
8.648800000000000e+10 2.132139689831005e-01 -1.976102932724183e-02 3.673631222073490e-01 -8.444751190908647e-01 5.682701671453581e-01 -7.264580920870368e-01 1.224607772179756e-01 4.795302367743630e-02
8.653600000000000e+10 2.121931180414717e-01 -1.996764776168963e-02 3.665470984414165e-01 -8.448279450090121e-01 5.680267509059297e-01 -7.266599461924202e-01 1.226942033457962e-01 4.748460477749052e-02
8.658400000000000e+10 2.119475586345950e-01 -2.270408747740813e-02 3.657317122473816e-01 -8.451798290959320e-01 5.677833278570563e-01 -7.268618205737591e-01 1.230958674814240e-01 4.499920733046406e-02
8.663200000000000e+10 2.099868346982363e-01 -2.014168988452946e-02 3.649169672065991e-01 -8.455307795270014e-01 5.675399097006322e-01 -7.270637117476833e-01 1.225586244846594e-01 4.715835978288225e-02
8.668000000000000e+10 2.088728109649849e-01 -2.076526640631878e-02 3.641028653285001e-01 -8.458808045752064e-01 5.672965089274815e-01 -7.272656162996660e-01 1.216220007925047e-01 4.773689596156345e-02
8.672800000000000e+10 2.112506331393858e-01 -1.953382196510368e-02 3.632894062901640e-01 -8.462299125407882e-01 5.670531388024463e-01 -7.274675293988279e-01 1.234551384622322e-01 4.463299969068162e-02
8.677600000000000e+10 2.129952707017748e-01 -2.184502117419422e-02 3.624765867415256e-01 -8.465781123163031e-01 5.668098132366826e-01 -7.276694443064754e-01 1.245272752100021e-01 4.352466521544530e-02
8.682400000000000e+10 2.109726406273701e-01 -2.086822772314198e-02 3.616644018888943e-01 -8.469254137777705e-01 5.665665472064886e-01 -7.278713526471833e-01 1.234061663233977e-01 4.529548740846576e-02
8.687200000000000e+10 2.119536899984660e-01 -2.159961219905179e-02 3.608528447343295e-01 -8.472718279883026e-01 5.663233579079252e-01 -7.280732446010357e-01 1.242933062960388e-01 4.480306761861927e-02
8.692000000000000e+10 2.114213429940972e-01 -2.126197430009720e-02 3.600419067637414e-01 -8.476173655005552e-01 5.660802630598765e-01 -7.282751099598170e-01 1.239419701306259e-01 4.540218541339586e-02
8.696800000000000e+10 2.113186602734984e-01 -2.001067821839340e-02 3.592315790023828e-01 -8.479620364196744e-01 5.658372804023732e-01 -7.284769383043543e-01 1.241556349394716e-01 4.635666005032660e-02
8.701600000000000e+10 2.094853855991648e-01 -2.055765193909410e-02 3.584218528096327e-01 -8.483058496234903e-01 5.655944270853686e-01 -7.286787195674121e-01 1.231079977425892e-01 4.622949874233259e-02
8.706400000000000e+10 2.089902160197475e-01 -2.067732567913434e-02 3.576127194347998e-01 -8.486488124535960e-01 5.653517202378980e-01 -7.288804435480316e-01 1.234329191407557e-01 4.566029133144818e-02
8.711200000000000e+10 2.080237128153784e-01 -2.489750544906079e-02 3.568041688828766e-01 -8.489909311667801e-01 5.651091772599149e-01 -7.290820991432821e-01 1.229482118665006e-01 4.315353178803014e-02
8.716000000000000e+10 2.085624202117069e-01 -2.244622914357534e-02 3.559961895413665e-01 -8.493322119453059e-01 5.648668157638927e-01 -7.292836736710772e-01 1.241465412404363e-01 4.436413486896064e-02
8.720800000000000e+10 2.089454496811888e-01 -2.318096306980020e-02 3.551887677981478e-01 -8.496726616924860e-01 5.646246533573643e-01 -7.294851543049361e-01 1.247275177515111e-01 4.272111900303493e-02
8.725600000000000e+10 2.099127092676827e-01 -2.317223753021486e-02 3.543818888339290e-01 -8.500122870874737e-01 5.643827078652861e-01 -7.296865278821575e-01 1.260855089262523e-01 4.293895093512943e-02
8.730400000000000e+10 2.101539884474239e-01 -2.190494615399646e-02 3.535755373121274e-01 -8.503510948311774e-01 5.641409969654717e-01 -7.298877815400198e-01 1.260157625120621e-01 4.294906986590832e-02
8.735200000000000e+10 2.098180031996340e-01 -2.256555735726106e-02 3.527696982641125e-01 -8.506890910863052e-01 5.638995380754700e-01 -7.300889030035461e-01 1.256359701795476e-01 4.357327365558885e-02
8.740000000000000e+10 2.085565938922258e-01 -2.130077977169213e-02 3.519643578704588e-01 -8.510262812837098e-01 5.636583474725967e-01 -7.302898805240174e-01 1.247137119115139e-01 4.496431055450008e-02
8.744800000000000e+10 2.091162933843628e-01 -2.205786795639458e-02 3.511595027912122e-01 -8.513626702385240e-01 5.634174402682685e-01 -7.304907023626200e-01 1.248053038628392e-01 4.277084742837920e-02
8.749600000000000e+10 2.079959147269748e-01 -2.193746299283212e-02 3.503551190500443e-01 -8.516982621605826e-01 5.631768309101405e-01 -7.306913559462175e-01 1.242263589239955e-01 4.239546076355273e-02
8.754400000000000e+10 2.086048098381094e-01 -2.231230188098393e-02 3.495511906905161e-01 -8.520330607611648e-01 5.629365348308287e-01 -7.308918280388897e-01 1.261105892492667e-01 4.037741180419448e-02
8.759200000000000e+10 2.078130772864552e-01 -2.150922816371398e-02 3.487477001955817e-01 -8.523670691870089e-01 5.626965678277451e-01 -7.310921051779953e-01 1.264125462653569e-01 4.105646299597085e-02
8.764000000000000e+10 2.086535261545037e-01 -2.344285134872395e-02 3.479446296644703e-01 -8.527002902476883e-01 5.624569457264517e-01 -7.312921736714817e-01 1.265445181577468e-01 3.834383021488155e-02
8.768800000000000e+10 2.061783075747927e-01 -1.891262520717142e-02 3.471419612461478e-01 -8.530327259178357e-01 5.622176838294931e-01 -7.314920200890336e-01 1.243022561884464e-01 4.291074957656751e-02
8.773600000000000e+10 2.079626897584096e-01 -2.425946131290873e-02 3.463396779514166e-01 -8.533643772253184e-01 5.619787964666300e-01 -7.316916320721017e-01 1.258615597270630e-01 3.738472640291567e-02
8.778400000000000e+10 2.079719155824047e-01 -2.368896597830365e-02 3.455377639351632e-01 -8.536952428031489e-01 5.617402959633937e-01 -7.318909981363440e-01 1.266596074992106e-01 3.676336818126202e-02
8.783200000000000e+10 2.095673746366206e-01 -2.303859488329648e-02 3.447362043648377e-01 -8.540253208883085e-01 5.615021929935761e-01 -7.320901079571569e-01 1.278103373005033e-01 3.880635479579965e-02
8.788000000000000e+10 2.093410402302634e-01 -2.321404167705139e-02 3.439349844809804e-01 -8.543546101631764e-01 5.612644972172355e-01 -7.322889515379241e-01 1.277166135025452e-01 3.768083175933683e-02
8.792800000000000e+10 2.087693122978663e-01 -2.492032243994314e-02 3.431340888553594e-01 -8.546831097395577e-01 5.610272186845390e-01 -7.324875179890378e-01 1.272127522213672e-01 3.613707689792931e-02
8.797600000000000e+10 2.103208933495540e-01 -2.336844636587309e-02 3.423335009737853e-01 -8.550108190002074e-01 5.607903683641575e-01 -7.326857955473542e-01 1.293076309574840e-01 3.648097327407702e-02
8.802400000000000e+10 2.078608061610406e-01 -2.582783743275092e-02 3.415332018552860e-01 -8.553377381047047e-01 5.605539585554911e-01 -7.328837715309179e-01 1.266257503890747e-01 3.384143039239587e-02
8.807200000000000e+10 2.093259673813642e-01 -2.257209709951807e-02 3.407331716623052e-01 -8.556638671147880e-01 5.603180034058518e-01 -7.330814324461269e-01 1.280094100271245e-01 3.575767325303510e-02
8.812000000000000e+10 2.082591297070865e-01 -2.409063636633703e-02 3.399333890668466e-01 -8.559892066790521e-01 5.600825171816936e-01 -7.332787652030868e-01 1.277144992705815e-01 3.174881785387344e-02
8.816800000000000e+10 2.117611021618080e-01 -2.108066303135598e-02 3.391338329949530e-01 -8.563137566654685e-01 5.598475142701649e-01 -7.334757568354475e-01 1.285864664603808e-01 3.688859330602846e-02
8.821600000000000e+10 2.095305394314787e-01 -2.042410107039907e-02 3.383344834913037e-01 -8.566375170030556e-01 5.596130074148640e-01 -7.336723955588548e-01 1.254023411980068e-01 3.601905926482790e-02
8.826400000000000e+10 2.095816291969311e-01 -2.229876597005902e-02 3.375353240976861e-01 -8.569604858351536e-01 5.593790073123452e-01 -7.338686708324774e-01 1.259057960501317e-01 3.201545186320753e-02
8.831200000000000e+10 2.102305217824200e-01 -2.485178801542679e-02 3.367363405427808e-01 -8.572826590327882e-01 5.591455222014398e-01 -7.340645735756707e-01 1.259015898316475e-01 3.158421332490475e-02
8.836000000000000e+10 2.110307792747939e-01 -2.438857350599747e-02 3.359375182297242e-01 -8.576040322648931e-01 5.589125597687903e-01 -7.342600953130199e-01 1.266851438275665e-01 3.271663425031066e-02
8.840800000000000e+10 2.107816293189698e-01 -2.526418493678509e-02 3.351388400456383e-01 -8.579246023714013e-01 5.586801292018703e-01 -7.344552264191166e-01 1.270468899090117e-01 3.251618307980649e-02
8.845600000000000e+10 2.105101377972310e-01 -2.528984518552406e-02 3.343402847331753e-01 -8.582443678235848e-01 5.584482430101757e-01 -7.346499546006693e-01 1.273828705963048e-01 3.187997435355036e-02
8.850400000000000e+10 2.107462382627580e-01 -2.585370546024054e-02 3.335418270173646e-01 -8.585633289192677e-01 5.582169174094711e-01 -7.348442647336220e-01 1.282027635033738e-01 3.454932532196823e-02
8.855200000000000e+10 2.089147940209310e-01 -2.243824304232331e-02 3.327434388464954e-01 -8.588814875780139e-01 5.579861711621856e-01 -7.350381400788319e-01 1.253088553166409e-01 2.854797333848955e-02
8.860000000000000e+10 2.056657647102682e-01 -2.330672045315869e-02 3.319450930884257e-01 -8.591988462128284e-01 5.577560222283681e-01 -7.352315634147928e-01 1.253703608024120e-01 2.169618127782354e-02
8.864800000000000e+10 2.051772227975996e-01 -1.748708588487527e-02 3.311467643540939e-01 -8.595154066397541e-01 5.575264864891981e-01 -7.354245198810195e-01 1.309140676115390e-01 1.233810548777461e-02
8.869600000000000e+10 2.038842818655300e-01 -2.513571855809412e-02 3.303484286740740e-01 -8.598311708995623e-01 5.572975762242407e-01 -7.356169978732434e-01 1.174316533058374e-01 1.728695001164956e-02
8.874400000000000e+10 2.052249403007619e-01 -2.542818969032981e-02 3.295500631297855e-01 -8.601461412602505e-01 5.570693014064096e-01 -7.358089881435064e-01 1.178510697239817e-01 1.835734596733580e-02
8.879200000000000e+10 2.067504054801814e-01 -2.537534844002730e-02 3.287516399934782e-01 -8.604603223929344e-01 5.568416706913559e-01 -7.360004830682627e-01 1.178942129978495e-01 1.885941563863884e-02
8.884000000000000e+10 2.071219479742927e-01 -2.681207305869070e-02 3.279531238419158e-01 -8.607737216900713e-01 5.566146935348238e-01 -7.361914749014802e-01 1.204790687564041e-01 1.825203174987124e-02
8.888800000000000e+10 2.096305354551924e-01 -2.180511182134501e-02 3.271544705427976e-01 -8.610863496010523e-01 5.563883817477610e-01 -7.363819545119382e-01 1.326056185015234e-01 2.245852869867168e-02
8.893600000000000e+10 2.142777724534206e-01 -2.208433126345360e-02 3.263556283861745e-01 -8.613982201067369e-01 5.561627491931689e-01 -7.365719117953942e-01 1.299793025784710e-01 3.347135141055022e-02
8.898400000000000e+10 2.132499264304722e-01 -2.360629417512226e-02 3.255565450159603e-01 -8.617093478579785e-01 5.559378105189260e-01 -7.367613368799611e-01 1.277746281531812e-01 3.330873134715171e-02
8.903200000000000e+10 2.128336305164243e-01 -2.214764491209436e-02 3.247571725553474e-01 -8.620197454508913e-01 5.557135788290118e-01 -7.369502213825837e-01 1.278205811439313e-01 3.031073369615951e-02
8.908000000000000e+10 2.127635950589236e-01 -2.285328712057470e-02 3.239574679595873e-01 -8.623294232537814e-01 5.554900634550036e-01 -7.371385592190440e-01 1.259199833875924e-01 2.966969092612330e-02
8.912800000000000e+10 2.136431977145562e-01 -2.234754684647964e-02 3.231573930733682e-01 -8.626383902420941e-01 5.552672697916377e-01 -7.373263464584996e-01 1.259662738407861e-01 2.978710142333248e-02
8.917600000000000e+10 2.145662716774840e-01 -2.379913315428452e-02 3.223569130443346e-01 -8.629466546264467e-01 5.550451999511987e-01 -7.375135807657097e-01 1.273883397471963e-01 3.038260512908115e-02
8.922400000000000e+10 2.150498180548700e-01 -2.320400398407849e-02 3.215559938006266e-01 -8.632542242300666e-01 5.548238550073843e-01 -7.377002603511993e-01 1.271592315849123e-01 3.029060545907392e-02
8.927200000000000e+10 2.159998307179913e-01 -2.442496654731660e-02 3.207546011327767e-01 -8.635611072754495e-01 5.546032360402519e-01 -7.378863828639307e-01 1.282898393658292e-01 3.023025832504477e-02
8.932000000000000e+10 2.151563492035577e-01 -2.533557757940777e-02 3.199527003779785e-01 -8.638673120506982e-01 5.543833445299837e-01 -7.380719453317979e-01 1.277530410843106e-01 2.999417490811733e-02
8.936800000000000e+10 2.156910771333873e-01 -2.474962213109746e-02 3.191502580684250e-01 -8.641728466125552e-01 5.541641816178582e-01 -7.382569449652001e-01 1.277448954972685e-01 3.014199811938036e-02
8.941600000000000e+10 2.145414859459224e-01 -2.463597465875418e-02 3.183472431393884e-01 -8.644777183473100e-01 5.539457465481646e-01 -7.384413802980967e-01 1.280023307017567e-01 2.993894804397514e-02
8.946400000000000e+10 2.153660499829390e-01 -2.327536160373812e-02 3.175436281799042e-01 -8.647819330885544e-01 5.537280359315638e-01 -7.386252522090889e-01 1.278002165909628e-01 2.957471524652235e-02
8.951200000000000e+10 2.161170479246806e-01 -2.261456889034139e-02 3.167393897903412e-01 -8.650854954519116e-01 5.535110430651108e-01 -7.388085635238751e-01 1.291774977305098e-01 3.059588890588604e-02
8.956000000000000e+10 2.165270150321835e-01 -2.290068908651130e-02 3.159345085252574e-01 -8.653884087769088e-01 5.532947579705828e-01 -7.389913189335022e-01 1.270199072409221e-01 3.115746533188044e-02
8.960800000000000e+10 2.160365546938549e-01 -2.517092147565544e-02 3.151289692704460e-01 -8.656906746921410e-01 5.530791683803805e-01 -7.391735243438917e-01 1.281016955374243e-01 2.873726688297328e-02
8.965600000000000e+10 2.187042845864192e-01 -2.315866025226032e-02 3.143227601126695e-01 -8.659922935672779e-01 5.528642589280183e-01 -7.393551867630423e-01 1.280219757349105e-01 3.162465225042112e-02
8.970400000000000e+10 2.165141346895352e-01 -2.593565905592883e-02 3.135158714299020e-01 -8.662932653671828e-01 5.526500119293438e-01 -7.395363142692931e-01 1.292224026910919e-01 2.848608864987144e-02
8.975200000000000e+10 2.183998033185744e-01 -2.560251050656256e-02 3.127082964308666e-01 -8.665935889936538e-01 5.524364079317264e-01 -7.397169154022958e-01 1.292939287125832e-01 3.157322698465208e-02
8.980000000000000e+10 2.163598147918399e-01 -2.704541414982884e-02 3.119000303808453e-01 -8.668932630960600e-01 5.522234256890235e-01 -7.398969996384310e-01 1.294039150871585e-01 3.020712160076961e-02
8.984800000000000e+10 2.170507986634152e-01 -2.461179965508706e-02 3.110910708459552e-01 -8.671922858314777e-01 5.520110429312126e-01 -7.400765766670849e-01 1.306039727630730e-01 2.906036529999432e-02
8.989600000000000e+10 2.169893990958868e-01 -2.382130924680443e-02 3.102814166917278e-01 -8.674906554146030e-01 5.517992364972936e-01 -7.402556563851712e-01 1.279934718588384e-01 3.044535363707641e-02
8.994400000000000e+10 2.191829828392043e-01 -2.581476634023475e-02 3.094710685569608e-01 -8.677883699849376e-01 5.515879829578333e-01 -7.404342487947028e-01 1.315878270124272e-01 2.972676991282878e-02
8.999200000000000e+10 2.179139805396935e-01 -2.830566255713446e-02 3.086600279205591e-01 -8.680854273940725e-01 5.513772586667718e-01 -7.406123632217404e-01 1.317056845239721e-01 2.962706535591728e-02
9.004000000000000e+10 2.182768874055813e-01 -2.754003003194467e-02 3.078482988643098e-01 -8.683818253190988e-01 5.511670394115447e-01 -7.407900098094481e-01 1.325947609030055e-01 2.777999627648157e-02
9.008800000000000e+10 2.171472974238172e-01 -2.785408702822238e-02 3.070358879363808e-01 -8.686775613609157e-01 5.509572998429607e-01 -7.409672001871058e-01 1.323681099352938e-01 2.962826843621861e-02
9.013600000000000e+10 2.185717813397015e-01 -2.568049021509838e-02 3.062228042243574e-01 -8.689726331371572e-01 5.507480129659977e-01 -7.411439475120866e-01 1.335807772371265e-01 3.000370088932462e-02
9.018400000000000e+10 2.194353500976112e-01 -2.597666814000937e-02 3.054090581191958e-01 -8.692670381706670e-01 5.505391509322582e-01 -7.413202654601453e-01 1.307778152864982e-01 2.929905442763077e-02
9.023200000000000e+10 2.179056255985354e-01 -2.756478452452700e-02 3.045946606651168e-01 -8.695607733787564e-01 5.503306868282181e-01 -7.414961673876150e-01 1.303879706518251e-01 2.567987902916934e-02
9.028000000000000e+10 2.176202455644873e-01 -2.848127496960561e-02 3.037796225722627e-01 -8.698538354486752e-01 5.501225956017876e-01 -7.416716655372353e-01 1.300181202747671e-01 3.040777377717022e-02
9.032800000000000e+10 2.174620830133834e-01 -2.825503390364330e-02 3.029639533901254e-01 -8.701462221781228e-01 5.499148528566379e-01 -7.418467714045400e-01 1.322235535621940e-01 3.077636742878562e-02
9.037600000000000e+10 2.161916612940114e-01 -2.846582506826619e-02 3.021476624255728e-01 -8.704379318299633e-01 5.497074350938430e-01 -7.420214952488332e-01 1.325377858144102e-01 3.055006651354662e-02
9.042400000000000e+10 2.167305189781209e-01 -2.721193703557194e-02 3.013307597552005e-01 -8.707289628391388e-01 5.495003195565298e-01 -7.421958470020885e-01 1.337203507799641e-01 3.047298811969612e-02
9.047200000000000e+10 2.167541158290828e-01 -2.690583498046429e-02 3.005132570227388e-01 -8.710193135747848e-01 5.492934832688561e-01 -7.423698369581914e-01 1.335992518904281e-01 3.113585115713435e-02
9.052000000000000e+10 2.179261712266929e-01 -2.537852659358284e-02 2.996951673688231e-01 -8.713089821053538e-01 5.490869030976413e-01 -7.425434760521430e-01 1.366341560087904e-01 3.090669000432642e-02
9.056800000000000e+10 2.157469247251549e-01 -2.741657295290269e-02 2.988765045710658e-01 -8.715979664647537e-01 5.488805567814096e-01 -7.427167746741579e-01 1.365489982918232e-01 2.614223259969685e-02
9.061600000000000e+10 2.186348932289175e-01 -2.584219949130564e-02 2.980572837454051e-01 -8.718862650314276e-01 5.486744233453744e-01 -7.428897422965736e-01 1.333463850476902e-01 2.779115500992196e-02
9.066400000000000e+10 2.179979465846371e-01 -3.054754006573689e-02 2.972375196316255e-01 -8.721738778198044e-01 5.484684828622595e-01 -7.430623878292993e-01 1.351707942641094e-01 2.980722120355792e-02
9.071200000000000e+10 2.151800618353233e-01 -3.180127657817895e-02 2.964172264227922e-01 -8.724608055735400e-01 5.482627169032184e-01 -7.432347184586494e-01 1.346045355801143e-01 2.849578667477903e-02
9.076000000000000e+10 2.134194805695650e-01 -2.939460222628628e-02 2.955964183971402e-01 -8.727470494957703e-01 5.480571096448942e-01 -7.434067409746864e-01 1.339356816520895e-01 2.823174526658566e-02
9.080800000000000e+10 2.148100837372389e-01 -2.841711342237599e-02 2.947751098479163e-01 -8.730326112403677e-01 5.478516463220408e-01 -7.435784630863492e-01 1.350652957435211e-01 2.728271236257496e-02
9.085600000000000e+10 2.138234077406456e-01 -2.815740943688366e-02 2.939533152217121e-01 -8.733174923366051e-01 5.476463128071790e-01 -7.437498926914975e-01 1.335385053013439e-01 2.689035123523456e-02
9.090400000000000e+10 2.147455207072303e-01 -2.725524003093329e-02 2.931310501788721e-01 -8.736016945408752e-01 5.474410954176652e-01 -7.439210381238540e-01 1.333663480284235e-01 2.737855882536115e-02
9.095200000000000e+10 2.137280703553220e-01 -2.792883572546344e-02 2.923083303989908e-01 -8.738852198615138e-01 5.472359813775337e-01 -7.440919075945435e-01 1.326335708801067e-01 2.886422987206339e-02
9.100000000000000e+10 2.151135968838377e-01 -2.737557064294341e-02 2.914851714486809e-01 -8.741680706405829e-01 5.470309587740406e-01 -7.442625088308514e-01 1.338213567752491e-01 2.963084840262005e-02
9.104800000000000e+10 2.131127756856730e-01 -2.920375427396216e-02 2.906615889878651e-01 -8.744502493930785e-01 5.468260166254716e-01 -7.444328488371849e-01 1.351345163363473e-01 2.859377195559830e-02
9.109600000000000e+10 2.141908741368224e-01 -2.821904968045941e-02 2.898375995169482e-01 -8.747317585384685e-01 5.466211446059108e-01 -7.446029342763648e-01 1.355732710879534e-01 2.928934381015310e-02
9.114400000000000e+10 2.127153516300925e-01 -2.953569114441857e-02 2.890132211688028e-01 -8.750126004431260e-01 5.464163322114985e-01 -7.447727725433787e-01 1.366333149285364e-01 2.868692466137672e-02
9.119200000000000e+10 2.122351926571844e-01 -2.889599123169605e-02 2.881884744958145e-01 -8.752927770746431e-01 5.462115686339996e-01 -7.449423719130355e-01 1.365859008827129e-01 2.802149939799473e-02
9.124000000000000e+10 2.104232606375567e-01 -2.990909010188939e-02 2.873633823760199e-01 -8.755722904184232e-01 5.460068428004764e-01 -7.451117415945149e-01 1.381158737988419e-01 2.639509969610664e-02
9.128800000000000e+10 2.088571480352249e-01 -3.033282954088964e-02 2.865379690211457e-01 -8.758511426867288e-01 5.458021439068240e-01 -7.452808914237623e-01 1.357002286405677e-01 2.720970009392968e-02
9.133600000000000e+10 2.097407014551703e-01 -2.850745902355683e-02 2.857122588251908e-01 -8.761293368670146e-01 5.455974622503522e-01 -7.454498316758069e-01 1.377125256264198e-01 2.727976374616392e-02
9.138400000000000e+10 2.088013827160211e-01 -2.803068121859428e-02 2.848862757853067e-01 -8.764068765021257e-01 5.453927890145847e-01 -7.456185728592266e-01 1.372534694854738e-01 2.779534120341999e-02
9.143200000000000e+10 2.095942500474660e-01 -2.752785774846693e-02 2.840600438494471e-01 -8.766837657259186e-01 5.451881167394331e-01 -7.457871254344118e-01 1.377192076890913e-01 2.739103659950493e-02
9.148000000000000e+10 2.092862426167493e-01 -2.825191406783475e-02 2.832335869494897e-01 -8.769600088663004e-01 5.449834390336942e-01 -7.459554999506475e-01 1.369769948397557e-01 2.763058233831103e-02
9.152800000000000e+10 2.101156228458823e-01 -2.812659755122931e-02 2.824069294515092e-01 -8.772356101181040e-01 5.447787498833939e-01 -7.461237075441786e-01 1.372244165442112e-01 2.771655559723649e-02
9.157600000000000e+10 2.099374526524567e-01 -2.908382926826250e-02 2.815800960911843e-01 -8.775105736365714e-01 5.445740435321341e-01 -7.462917597601719e-01 1.375469696853124e-01 2.778644021215622e-02
9.162400000000000e+10 2.098803662464093e-01 -2.985175637739515e-02 2.807531119599003e-01 -8.777849033013775e-01 5.443693144298760e-01 -7.464596684886580e-01 1.371492555224070e-01 2.809818765891972e-02
9.167200000000000e+10 2.091739483962209e-01 -3.015373187076876e-02 2.799260025994836e-01 -8.780586029708300e-01 5.441645574328078e-01 -7.466274458664729e-01 1.371489050526985e-01 2.853128642520050e-02
9.172000000000000e+10 2.084600561468916e-01 -2.982362730792250e-02 2.790987937849634e-01 -8.783316764843550e-01 5.439597677595810e-01 -7.467951042453248e-01 1.381975427588467e-01 2.787978504128274e-02
9.176800000000000e+10 2.090679913726792e-01 -2.946919083269582e-02 2.782715114610796e-01 -8.786041277285987e-01 5.437549413134507e-01 -7.469626558683360e-01 1.384158736409866e-01 2.901824727109018e-02
9.181600000000000e+10 2.079571105722315e-01 -2.913191413903229e-02 2.774441814614539e-01 -8.788759609514817e-01 5.435500743680023e-01 -7.471301128974691e-01 1.391274833658822e-01 2.807089528828429e-02
9.186400000000000e+10 2.084014473390653e-01 -2.868281583728002e-02 2.766168296979910e-01 -8.791471807764221e-01 5.433451642923183e-01 -7.472974870208690e-01 1.398479906407525e-01 2.721511762004231e-02
9.191200000000000e+10 2.083970252762977e-01 -2.893540191682542e-02 2.757894819297518e-01 -8.794177921974237e-01 5.431402089702136e-01 -7.474647897255069e-01 1.392048146103170e-01 2.750387635932894e-02
9.196000000000000e+10 2.089669132569465e-01 -2.788445276130582e-02 2.749621637817154e-01 -8.796878006527314e-01 5.429352068513258e-01 -7.476320325244683e-01 1.395313362088050e-01 2.610783692492690e-02
9.200800000000000e+10 2.087033155235975e-01 -2.791240917339206e-02 2.741349006440842e-01 -8.799572119240769e-01 5.427301568303191e-01 -7.477992269211603e-01 1.393167215863594e-01 2.697772330891620e-02
9.205600000000000e+10 2.086168079313318e-01 -2.826723430586480e-02 2.733077173083334e-01 -8.802260319840807e-01 5.425250582314046e-01 -7.479663842832769e-01 1.387780911152550e-01 2.665331587775924e-02
9.210400000000000e+10 2.074525207362576e-01 -2.812610090180286e-02 2.724806382660818e-01 -8.804942667194566e-01 5.423199106404080e-01 -7.481335156786598e-01 1.388140139160103e-01 2.732170860241649e-02
9.215200000000000e+10 2.063314036438020e-01 -2.744242797050137e-02 2.716536880326879e-01 -8.807619216402969e-01 5.421147135852691e-01 -7.483006321374873e-01 1.382677404957947e-01 2.658272483826640e-02
9.220000000000000e+10 2.050656771413159e-01 -2.816096929519938e-02 2.708268907859045e-01 -8.810290018633021e-01 5.419094668465991e-01 -7.484677443618424e-01 1.378350138992945e-01 2.779839595337360e-02
9.224800000000000e+10 2.056069577577539e-01 -2.634607808125492e-02 2.700002701757631e-01 -8.812955120988217e-01 5.417041698003482e-01 -7.486348630262879e-01 1.382628996331554e-01 2.762700813147366e-02
9.229600000000000e+10 2.044751672422960e-01 -2.766782760563171e-02 2.691738491217098e-01 -8.815614565348422e-01 5.414988219356187e-01 -7.488019983706531e-01 1.384964340275876e-01 2.806822416274257e-02
9.234400000000000e+10 2.054223558177474e-01 -2.638091212768926e-02 2.683476498853931e-01 -8.818268385909728e-01 5.412934227742641e-01 -7.489691599654433e-01 1.399203583544125e-01 2.705540958522882e-02
9.239200000000000e+10 2.043760461601319e-01 -2.865394618250981e-02 2.675216940968107e-01 -8.820916608607605e-01 5.410879720111479e-01 -7.491363567765593e-01 1.401345065222622e-01 2.727221508785338e-02
9.244000000000000e+10 2.033480281942584e-01 -2.860165989811543e-02 2.666960028822453e-01 -8.823559254808951e-01 5.408824690513737e-01 -7.493035971462900e-01 1.404719746280476e-01 2.636169948426118e-02
9.248800000000000e+10 2.032273047624979e-01 -2.979641120494123e-02 2.658705968783933e-01 -8.826196342098791e-01 5.406769129807526e-01 -7.494708889363954e-01 1.414775370850148e-01 2.630617637296575e-02
9.253600000000000e+10 2.026487989562842e-01 -2.995091764902652e-02 2.650454962108063e-01 -8.828827883402902e-01 5.404713022067048e-01 -7.496382397085506e-01 1.419502003723527e-01 2.499534182867113e-02
9.258400000000000e+10 2.028081068776811e-01 -2.990685042100151e-02 2.642207206293413e-01 -8.831453889590936e-01 5.402656349757669e-01 -7.498056566667126e-01 1.416598642657600e-01 2.517532653495535e-02
9.263200000000000e+10 2.018608049511385e-01 -2.968367772716039e-02 2.633962890085441e-01 -8.834074371863279e-01 5.400599092284890e-01 -7.499731470299965e-01 1.416406052352185e-01 2.429852088902859e-02
9.268000000000000e+10 2.020516270306113e-01 -2.905296374910981e-02 2.625722193717525e-01 -8.836689340595317e-01 5.398541230200474e-01 -7.501407177265079e-01 1.420629750320761e-01 2.405523652515135e-02
9.272800000000000e+10 2.015232382381055e-01 -2.862815514544637e-02 2.617485285977556e-01 -8.839298804646593e-01 5.396482741918018e-01 -7.503083754188382e-01 1.413166659290708e-01 2.409472598660495e-02
9.277600000000000e+10 2.017534597505483e-01 -2.819711621980618e-02 2.609252320443284e-01 -8.841902774175568e-01 5.394423610590864e-01 -7.504761261978994e-01 1.415074413324080e-01 2.414428187811713e-02
9.282400000000000e+10 2.016108907222346e-01 -2.808878638266730e-02 2.601023428462147e-01 -8.844501259966047e-01 5.392363824823476e-01 -7.506439753390733e-01 1.414961029702564e-01 2.434116236731428e-02
9.287200000000000e+10 2.017018207158058e-01 -2.838032309882928e-02 2.592798717565324e-01 -8.847094272741622e-01 5.390303382732070e-01 -7.508119272433663e-01 1.415399319186640e-01 2.422172298442461e-02
9.292000000000000e+10 2.017918774567158e-01 -2.881207089775067e-02 2.584578275129972e-01 -8.849681821539165e-01 5.388242287490759e-01 -7.509799855747628e-01 1.418054800103642e-01 2.372363350775065e-02
9.296800000000000e+10 2.013181936612349e-01 -2.982797590926609e-02 2.576362175527275e-01 -8.852263910609763e-01 5.386180542091945e-01 -7.511481537408747e-01 1.419009314989216e-01 2.349367364175800e-02
9.301600000000000e+10 2.011432438343951e-01 -2.992098923905366e-02 2.568150487193905e-01 -8.854840538865538e-01 5.384118144150764e-01 -7.513164352053225e-01 1.422444685671881e-01 2.271486800332137e-02
9.306400000000000e+10 1.997215288472147e-01 -3.109688069856774e-02 2.559943277440329e-01 -8.857411700110309e-01 5.382055081274028e-01 -7.514848337524302e-01 1.416120498593772e-01 2.275750968573936e-02
9.311200000000000e+10 1.994977412224139e-01 -3.138082243154416e-02 2.551740613000401e-01 -8.859977383700681e-01 5.379991334314826e-01 -7.516533535014837e-01 1.424712672027874e-01 2.199003357412122e-02
9.316000000000000e+10 1.987691516392809e-01 -3.144670525494467e-02 2.543542550590512e-01 -8.862537578723551e-01 5.377926881431866e-01 -7.518219985062874e-01 1.415252936735709e-01 2.223185106159389e-02
9.320800000000000e+10 1.983711962616599e-01 -3.109941030275639e-02 2.535349125396796e-01 -8.865092278650875e-01 5.375861713186874e-01 -7.519907721764444e-01 1.423155754774394e-01 2.134184188065400e-02
9.325600000000000e+10 1.982486389042886e-01 -3.042072572375694e-02 2.527160335265178e-01 -8.867641487654784e-01 5.373795839912938e-01 -7.521596761964621e-01 1.418149479469796e-01 2.122062790378280e-02
9.330400000000000e+10 1.978877033487897e-01 -3.102227514396952e-02 2.518976135431283e-01 -8.870185220388181e-01 5.371729299641989e-01 -7.523287102787909e-01 1.418535445433634e-01 2.072933456631151e-02
9.335200000000000e+10 1.986975876041997e-01 -3.045021465319549e-02 2.510796445756970e-01 -8.872723499000267e-01 5.369662147997849e-01 -7.524978727327257e-01 1.413287685735468e-01 2.031096734922643e-02
9.340000000000000e+10 1.979308911256988e-01 -3.135856966794470e-02 2.502621168186439e-01 -8.875256348204856e-01 5.367594446836775e-01 -7.526671615639848e-01 1.408684111867436e-01 1.998904552100514e-02
9.344800000000000e+10 1.984133316181261e-01 -2.962769214423905e-02 2.494450204174187e-01 -8.877783790522317e-01 5.365526246292036e-01 -7.528365755242615e-01 1.408016109144130e-01 2.015313528858049e-02
9.349600000000000e+10 1.997177271769798e-01 -2.956342891920873e-02 2.486283463994015e-01 -8.880305841807246e-01 5.363457575798344e-01 -7.530061150702481e-01 1.413023322035989e-01 1.957629633077307e-02
9.354400000000000e+10 1.989628529754543e-01 -2.936934327741280e-02 2.478120871282707e-01 -8.882822509010440e-01 5.361388439164249e-01 -7.531757819637324e-01 1.407614056062547e-01 2.015708845731193e-02
9.359200000000000e+10 1.985888680066732e-01 -2.906825495811519e-02 2.469962354193612e-01 -8.885333794448277e-01 5.359318834938062e-01 -7.533455785653034e-01 1.398127253546065e-01 1.916321728533222e-02
9.364000000000000e+10 1.989155978224625e-01 -2.829297525958719e-02 2.461807830104967e-01 -8.887839696055091e-01 5.357248762752567e-01 -7.535155074025253e-01 1.396208938040437e-01 1.964417077414766e-02
9.368800000000000e+10 1.990497611494939e-01 -2.855141204729710e-02 2.453657192485132e-01 -8.890340207915672e-01 5.355178230973767e-01 -7.536855701702407e-01 1.404845613335157e-01 1.973577050150971e-02
9.373600000000000e+10 1.994367999619838e-01 -2.739740329064616e-02 2.445510307005598e-01 -8.892835323996580e-01 5.353107260166972e-01 -7.538557669919931e-01 1.412595080575042e-01 1.957624545568880e-02
9.378400000000000e+10 1.987004484231939e-01 -2.933547785744978e-02 2.437367012077249e-01 -8.895325041667853e-01 5.351035888072032e-01 -7.540260961176225e-01 1.413882704683587e-01 1.925131831721962e-02
9.383200000000000e+10 1.992642434679459e-01 -2.815649227131059e-02 2.429227121676457e-01 -8.897809362560575e-01 5.348964168969448e-01 -7.541965540331586e-01 1.420813649187147e-01 1.837764387677552e-02
9.388000000000000e+10 1.985789297160316e-01 -2.989141289039205e-02 2.421090423955521e-01 -8.900288291828913e-01 5.346892171575192e-01 -7.543671357886564e-01 1.419989251202761e-01 1.820359281836418e-02
9.392800000000000e+10 1.986369295232111e-01 -2.922621213691696e-02 2.412956686480032e-01 -8.902761838739968e-01 5.344819976995909e-01 -7.545378351403895e-01 1.419477054827321e-01 1.732584863034669e-02
9.397600000000000e+10 1.983151104725085e-01 -2.918593330735895e-02 2.404825659791958e-01 -8.905230015714695e-01 5.342747672541742e-01 -7.547086451600409e-01 1.414076426789070e-01 1.718015114875682e-02
9.402400000000000e+10 1.984262936621524e-01 -2.910449754871029e-02 2.396697089843038e-01 -8.907692836996139e-01 5.340675341413852e-01 -7.548795589934572e-01 1.411969798719151e-01 1.672375807712921e-02
9.407200000000000e+10 1.979764273318744e-01 -2.854258219526361e-02 2.388570731149835e-01 -8.910150311478243e-01 5.338603053058939e-01 -7.550505705587156e-01 1.410626003583134e-01 1.669615278352382e-02
9.412000000000000e+10 1.987024159633753e-01 -2.851714831295746e-02 2.380446354981381e-01 -8.912602440491181e-01 5.336530855684818e-01 -7.552216751603050e-01 1.407899393776134e-01 1.668881006248790e-02
9.416800000000000e+10 1.991704554295737e-01 -2.843592306087322e-02 2.372323751550450e-01 -8.915049216754001e-01 5.334458775136782e-01 -7.553928695856721e-01 1.403626412455026e-01 1.634266308923063e-02
9.421600000000000e+10 2.002507438127349e-01 -2.846585272987349e-02 2.364202718096726e-01 -8.917490626443783e-01 5.332386826094352e-01 -7.555641515073082e-01 1.402731025195631e-01 1.622395110210207e-02
9.426400000000000e+10 2.004999812530650e-01 -2.832521966863243e-02 2.356083039601551e-01 -8.919926653976645e-01 5.330315028177515e-01 -7.557355183710871e-01 1.400607835717669e-01 1.583742616754735e-02
9.431200000000000e+10 2.012124975841426e-01 -2.848609122064967e-02 2.347964466877679e-01 -8.922357286748244e-01 5.328243425104062e-01 -7.559069661247956e-01 1.398601421886422e-01 1.574443281698217e-02
9.436000000000000e+10 2.015383573491168e-01 -2.899542506008298e-02 2.339846709779785e-01 -8.924782518073195e-01 5.326172088689843e-01 -7.560784886626757e-01 1.396396387282927e-01 1.586892741029193e-02
9.440800000000000e+10 2.016910929755066e-01 -2.902361909305867e-02 2.331729439079820e-01 -8.927202348017975e-01 5.324101115150054e-01 -7.562500778620285e-01 1.398501796879666e-01 1.566595290879004e-02
9.445600000000000e+10 2.019131763296073e-01 -2.952070608060596e-02 2.323612309177029e-01 -8.929616773766772e-01 5.322030606761626e-01 -7.564217250819523e-01 1.401095461884834e-01 1.570334746465003e-02
9.450400000000000e+10 2.011370819239364e-01 -2.914423885922747e-02 2.315494983100881e-01 -8.932025784436914e-01 5.319960651195281e-01 -7.565934226152985e-01 1.401142169385250e-01 1.580755323879419e-02
9.455200000000000e+10 2.017124768943136e-01 -2.937114179655948e-02 2.307377150310127e-01 -8.934429357058939e-01 5.317891309655675e-01 -7.567651645212131e-01 1.405629896720149e-01 1.553203204398713e-02
9.460000000000000e+10 2.002273519978783e-01 -2.947864856089414e-02 2.299258525645419e-01 -8.936827456568230e-01 5.315822617062883e-01 -7.569369463835124e-01 1.402046471638470e-01 1.581676998011584e-02
9.464800000000000e+10 2.007501427359611e-01 -2.804012409837477e-02 2.291138836727134e-01 -8.939220040474827e-01 5.313754595325116e-01 -7.571087644731824e-01 1.407160781007147e-01 1.533872786879215e-02
9.469600000000000e+10 2.001545064347355e-01 -2.884269104223739e-02 2.283017797335938e-01 -8.941607064523037e-01 5.311687271266503e-01 -7.572806144429343e-01 1.405154543594985e-01 1.561277063816420e-02
9.474400000000000e+10 2.015863755238610e-01 -2.818332950073969e-02 2.274895096795791e-01 -8.943988486697703e-01 5.309620688732579e-01 -7.574524902434470e-01 1.407198859804460e-01 1.449983398316456e-02
9.479200000000000e+10 2.013493046171819e-01 -2.985257238450563e-02 2.266770396936423e-01 -8.946364266746347e-01 5.307554908765861e-01 -7.576243841282402e-01 1.404218601220144e-01 1.476701820482433e-02
9.484000000000000e+10 2.027006810087763e-01 -2.932850527380239e-02 2.258643347086821e-01 -8.948734363174855e-01 5.305489998937137e-01 -7.577962876311495e-01 1.401337884903111e-01 1.440697727658602e-02
9.488800000000000e+10 2.035300484281599e-01 -2.758366582962234e-02 2.250513603045250e-01 -8.951098728980424e-01 5.303426016169656e-01 -7.579681926285013e-01 1.402686336499954e-01 1.353913031160418e-02
9.493600000000000e+10 2.074619522906750e-01 -3.031483391140940e-02 2.242380841416217e-01 -8.953457306022815e-01 5.301362994595555e-01 -7.581400922277959e-01 1.392033755552219e-01 1.416237895924421e-02
9.498400000000000e+10 2.049356745256392e-01 -3.376432358758222e-02 2.234244770859348e-01 -8.955810025151396e-01 5.299300942929155e-01 -7.583119806102346e-01 1.380993850584162e-01 1.194940597410426e-02
9.503200000000000e+10 2.051423089024513e-01 -3.308213008217099e-02 2.226105124244889e-01 -8.958156820154217e-01 5.297239854076830e-01 -7.584838514785424e-01 1.372149241697451e-01 1.364857386117039e-02
9.508000000000000e+10 2.049891631300046e-01 -3.171119427159422e-02 2.217961620642400e-01 -8.960497634409713e-01 5.295179721318849e-01 -7.586556987368553e-01 1.384042878340002e-01 1.404188130117143e-02
9.512800000000000e+10 2.064396837208691e-01 -3.216421642291249e-02 2.209813968894725e-01 -8.962832404164714e-01 5.293120535061788e-01 -7.588275163388346e-01 1.391557294393673e-01 1.357638491719254e-02
9.517600000000000e+10 2.061220931871720e-01 -3.138217056547638e-02 2.201661876358904e-01 -8.965161060979735e-01 5.291062281338397e-01 -7.589992978614650e-01 1.393810625967893e-01 1.270321148381716e-02
9.522400000000000e+10 2.067637840819143e-01 -3.197705858471044e-02 2.193505057724249e-01 -8.967483532408072e-01 5.289004937894080e-01 -7.591710366684300e-01 1.399864629707160e-01 1.277491756720292e-02
9.527200000000000e+10 2.065467952841558e-01 -3.039746553504821e-02 2.185343241415537e-01 -8.969799742702051e-01 5.286948469678173e-01 -7.593427263793950e-01 1.406188046418555e-01 1.228924899764530e-02
9.532000000000000e+10 2.070495620589761e-01 -3.127511959117968e-02 2.177176174788624e-01 -8.972109612483528e-01 5.284892824759245e-01 -7.595143609212641e-01 1.408664123982707e-01 1.185313459249080e-02
9.536800000000000e+10 2.071375766843142e-01 -3.014503669439704e-02 2.169003621485228e-01 -8.974413060778820e-01 5.282837939541630e-01 -7.596859342417887e-01 1.408598039505086e-01 1.092239783585076e-02
9.541600000000000e+10 2.072806704795788e-01 -3.097130000643505e-02 2.160825358002035e-01 -8.976710006599076e-01 5.280783741246616e-01 -7.598574401712659e-01 1.407559416315875e-01 1.070599021158934e-02
9.546400000000000e+10 2.073774767627825e-01 -2.998900959420061e-02 2.152641170206719e-01 -8.979000369720483e-01 5.278730151337384e-01 -7.600288723404448e-01 1.402218694487808e-01 1.037455121030145e-02
9.551200000000000e+10 2.076112894289148e-01 -3.103987521513726e-02 2.144450849370124e-01 -8.981284070245160e-01 5.276677088109737e-01 -7.602002241190775e-01 1.398643753186924e-01 9.721305748792866e-03
9.556000000000000e+10 2.072867358995230e-01 -3.037652506898792e-02 2.136254187969466e-01 -8.983561026793879e-01 5.274624471036736e-01 -7.603714884473795e-01 1.396384154313264e-01 9.845328596113955e-03
9.560800000000000e+10 2.080169437505198e-01 -3.092501735173369e-02 2.128050970053847e-01 -8.985831158954873e-01 5.272572227109183e-01 -7.605426575264000e-01 1.395600018022848e-01 1.000766589479006e-02
9.565600000000000e+10 2.077383890425770e-01 -3.110310329318377e-02 2.119840958430841e-01 -8.988094389617752e-01 5.270520301633607e-01 -7.607137219119353e-01 1.394019319393034e-01 1.024262483910182e-02
9.570400000000000e+10 2.085622954736123e-01 -3.242134948384633e-02 2.111623886752698e-01 -8.990350644679242e-01 5.268468666420424e-01 -7.608846700316849e-01 1.397093697771159e-01 1.064835888804499e-02
9.575200000000000e+10 2.079611476763563e-01 -3.241726764538589e-02 2.103399465874975e-01 -8.992599851539580e-01 5.266417312146776e-01 -7.610554886459737e-01 1.403166075741222e-01 1.064641636490714e-02
9.580000000000000e+10 2.079772749930513e-01 -3.271344998936013e-02 2.095167400471380e-01 -8.994841933840072e-01 5.264366235439767e-01 -7.612261638800912e-01 1.403657294165870e-01 1.114352131111479e-02
9.584800000000000e+10 2.075739230597064e-01 -3.254211268719108e-02 2.086927420925281e-01 -8.997076801924727e-01 5.262315412027671e-01 -7.613966831305574e-01 1.411133506300681e-01 1.086658124272144e-02
9.589600000000000e+10 2.082425247853567e-01 -3.379930872354892e-02 2.078679309787212e-01 -8.999304345157650e-01 5.260264775145941e-01 -7.615670360851009e-01 1.417743948418521e-01 1.034370829953644e-02
9.594400000000000e+10 2.072989269223421e-01 -3.398252705533571e-02 2.070422910653142e-01 -9.001524434536297e-01 5.258214207694499e-01 -7.617372148483480e-01 1.416575663390380e-01 9.946765028926188e-03
9.599200000000000e+10 2.084487756280923e-01 -3.388771590894587e-02 2.062158113022146e-01 -9.003736931244860e-01 5.256163558129390e-01 -7.619072131619078e-01 1.423739353835665e-01 9.396982601386142e-03
9.604000000000000e+10 2.103312948984064e-01 -3.596869080705112e-02 2.053884812912194e-01 -9.005941695329448e-01 5.254112669423600e-01 -7.620770244700371e-01 1.430429408881418e-01 8.907566510457940e-03
9.608800000000000e+10 2.105035774311150e-01 -3.458036863950570e-02 2.045602873493634e-01 -9.008138597906414e-01 5.252061418093050e-01 -7.622466395565660e-01 1.431718727433521e-01 8.379418529197430e-03
9.613600000000000e+10 2.108423990129170e-01 -3.543780766680777e-02 2.037312094618379e-01 -9.010327529454156e-01 5.250009741658939e-01 -7.624160450078595e-01 1.432241578485210e-01 7.752189998869920e-03
9.618400000000000e+10 2.099698217104661e-01 -3.453160053002224e-02 2.029012211502174e-01 -9.012508399501161e-01 5.247957641571064e-01 -7.625852231774629e-01 1.424829648830190e-01 7.317221100305156e-03
9.623200000000000e+10 2.110654339851437e-01 -3.508342914720595e-02 2.020702923868284e-01 -9.014681130850901e-01 5.245905160124640e-01 -7.627541540336801e-01 1.428260613500477e-01 7.461710683648326e-03
9.628000000000000e+10 2.100620132534521e-01 -3.534581294021442e-02 2.012383936795499e-01 -9.016845649138128e-01 5.243852345332189e-01 -7.629228178103048e-01 1.426811659170137e-01 7.558167030248785e-03
9.632800000000000e+10 2.104987846972174e-01 -3.605962912474505e-02 2.004055004242885e-01 -9.019001872804610e-01 5.241799217072601e-01 -7.630911972953066e-01 1.430817006877575e-01 7.688445110759627e-03
9.637600000000000e+10 2.099418664127623e-01 -3.634443247716574e-02 1.995715945670010e-01 -9.021149708026800e-01 5.239745750573260e-01 -7.632592789368717e-01 1.426969683385622e-01 7.541635216650704e-03
9.642400000000000e+10 2.095402240768381e-01 -3.612571988737063e-02 1.987366637351876e-01 -9.023289051140579e-01 5.237691884721356e-01 -7.634270523191869e-01 1.425554636987804e-01 7.470800578246410e-03
9.647200000000000e+10 2.087683191403325e-01 -3.687311346605434e-02 1.979006985657300e-01 -9.025419795416638e-01 5.235637543983945e-01 -7.635945086622601e-01 1.423455017727698e-01 6.726212197926425e-03
9.652000000000000e+10 2.085762225590684e-01 -3.684846214762511e-02 1.970636893321664e-01 -9.027541836211299e-01 5.233582666389907e-01 -7.637616388446458e-01 1.423805556513960e-01 7.132163830513567e-03
9.656800000000000e+10 2.090298204533893e-01 -3.954479697108834e-02 1.962256241896906e-01 -9.029655076000965e-01 5.231527218966575e-01 -7.639284326737668e-01 1.459806945703946e-01 5.089225282042979e-03
9.661600000000000e+10 2.077409486663046e-01 -3.663937947761557e-02 1.953864894428793e-01 -9.031759425000723e-01 5.229471190129673e-01 -7.640948786289038e-01 1.436592119623799e-01 6.546396066356508e-03
9.666400000000000e+10 2.087396864955004e-01 -3.778213016176534e-02 1.945462713007231e-01 -9.033854822475798e-01 5.227414579741629e-01 -7.642609633228526e-01 1.443135616643886e-01 5.595616464403625e-03
9.671200000000000e+10 2.088728909921841e-01 -3.713326982990570e-02 1.937049576632721e-01 -9.035941198584175e-01 5.225357391039481e-01 -7.644266745617420e-01 1.447988775271680e-01 4.830949717374466e-03
9.676000000000000e+10 2.086671682466814e-01 -3.880383992233813e-02 1.928625402767350e-01 -9.038018480881725e-01 5.223299610868898e-01 -7.645920019089268e-01 1.443712652681848e-01 3.778798900957324e-03
9.680800000000000e+10 2.086561763151531e-01 -3.669728970250992e-02 1.920190153193541e-01 -9.040086595217224e-01 5.221241204371458e-01 -7.647569370391091e-01 1.449798121250832e-01 4.040176127567957e-03
9.685600000000000e+10 2.087912237941855e-01 -3.874667758341534e-02 1.911743821770318e-01 -9.042145467501446e-01 5.219182120573321e-01 -7.649214734041222e-01 1.446954328500059e-01 2.651508468701188e-03
9.690400000000000e+10 2.090103509418466e-01 -3.742184083512565e-02 1.903286424227493e-01 -9.044195026598727e-01 5.217122302715239e-01 -7.650856052444752e-01 1.462550136520239e-01 3.551750241443097e-03
9.695200000000000e+10 2.081991114129904e-01 -3.784231381105620e-02 1.894817983341481e-01 -9.046235209190568e-01 5.215061699830664e-01 -7.652493269359978e-01 1.453714481140433e-01 2.808842820155627e-03
9.700000000000000e+10 2.076851853985062e-01 -3.745523206498029e-02 1.886338532190961e-01 -9.048265957057483e-01 5.213000269995802e-01 -7.654126329374789e-01 1.461432740654411e-01 3.521125583575904e-03
9.704800000000000e+10 2.071180184627703e-01 -3.762672779870687e-02 1.877848112145763e-01 -9.050287213296714e-01 5.210937978099708e-01 -7.655755182694560e-01 1.449393495457140e-01 2.797907951619250e-03
9.709600000000000e+10 2.064797171738779e-01 -3.892263548220726e-02 1.869346781551424e-01 -9.052298921894952e-01 5.208874788890026e-01 -7.657379785496182e-01 1.465627394989691e-01 1.598221906419777e-03
9.714400000000000e+10 2.060632425586172e-01 -3.840271579892549e-02 1.860834616878123e-01 -9.054301028206139e-01 5.206810660787338e-01 -7.659000103830915e-01 1.472780050555215e-01 2.927559384298278e-03
9.719200000000000e+10 2.052402662156311e-01 -3.893757305270304e-02 1.852311709550752e-01 -9.056293480636007e-01 5.204745550252698e-01 -7.660616114200921e-01 1.463315720275447e-01 8.267418096223376e-04
9.724000000000000e+10 2.029665371147494e-01 -3.790811663987144e-02 1.843778159663365e-01 -9.058276231348719e-01 5.202679419856098e-01 -7.662227797260316e-01 1.450889508089899e-01 1.568338056933327e-03
9.728800000000000e+10 2.044449687546434e-01 -3.947250940908673e-02 1.835234071104789e-01 -9.060249238592905e-01 5.200612239839452e-01 -7.663835139473738e-01 1.473043847793368e-01 2.063907571426484e-03
9.733600000000000e+10 2.033350071459712e-01 -3.950818533150915e-02 1.826679545496120e-01 -9.062212458740212e-01 5.198543983102154e-01 -7.665438129417965e-01 1.471055680363339e-01 1.153641827828603e-03
9.738400000000000e+10 2.026687345286524e-01 -4.003136132017446e-02 1.818114693245755e-01 -9.064165851362311e-01 5.196474628468827e-01 -7.667036760838027e-01 1.474980132194847e-01 1.034850995331736e-03
9.743200000000000e+10 2.028410622465868e-01 -4.072109448162384e-02 1.809539631612675e-01 -9.066109377257210e-01 5.194404159088336e-01 -7.668631033049661e-01 1.475473927403855e-01 5.188875408557083e-04
9.748000000000000e+10 2.020814045366418e-01 -4.050408519722234e-02 1.800954483089276e-01 -9.068042998121889e-01 5.192332562431461e-01 -7.670220951558760e-01 1.476321521670802e-01 3.539099227688082e-04
9.752800000000000e+10 2.021222224107061e-01 -4.108731590809980e-02 1.792359371181055e-01 -9.069966678724549e-01 5.190259835026189e-01 -7.671806523727396e-01 1.477133255697547e-01 -6.124502059175758e-04
9.757600000000000e+10 2.024432224981239e-01 -3.985173209927302e-02 1.783754413048214e-01 -9.071880388032983e-01 5.188185983979207e-01 -7.673387754692107e-01 1.473679118867796e-01 5.078406997308287e-04
9.762400000000000e+10 2.026289058974762e-01 -4.069083554131628e-02 1.775139720025035e-01 -9.073784101564858e-01 5.186111029238357e-01 -7.674964647465317e-01 1.479879689319341e-01 -5.194375743536912e-04
9.767200000000000e+10 2.028103872159590e-01 -3.955184847610494e-02 1.766515396683385e-01 -9.075677796110043e-01 5.184035002752275e-01 -7.676537201616387e-01 1.481736911746898e-01 -9.458248341203987e-04
9.772000000000000e+10 2.031632281873231e-01 -3.929081867034444e-02 1.757881544993269e-01 -9.077561453867125e-01 5.181957943744370e-01 -7.678105416300542e-01 1.481853284888941e-01 -1.396667506978000e-03
9.776800000000000e+10 2.028516991678912e-01 -3.828262387202860e-02 1.749238266072721e-01 -9.079435062273700e-01 5.179879899485748e-01 -7.679669290632950e-01 1.479239944823873e-01 -4.834830914137833e-04
9.781600000000000e+10 2.039501032459592e-01 -3.635598718749444e-02 1.740585660545917e-01 -9.081298613954347e-01 5.177800924430764e-01 -7.681228824487737e-01 1.460033939319029e-01 -1.245120351809037e-03
9.786400000000000e+10 2.038427481256071e-01 -3.850786517985809e-02 1.731923825967923e-01 -9.083152100498068e-01 5.175721085247968e-01 -7.682784012997644e-01 1.490326824597404e-01 -5.135571849852986e-04
9.791200000000000e+10 2.020237008036029e-01 -4.006345163048299e-02 1.723252861583875e-01 -9.084995520086018e-01 5.173640456203439e-01 -7.684334839824658e-01 1.514722871668664e-01 -3.554682138788372e-03
9.796000000000000e+10 2.009554159534360e-01 -3.749815342622645e-02 1.714572855139113e-01 -9.086828873395351e-01 5.171559134887466e-01 -7.685881285134094e-01 1.477503229607784e-01 -2.616073164625592e-03
9.800800000000000e+10 2.008780365124752e-01 -3.824463568868858e-02 1.705883894261788e-01 -9.088652170063081e-01 5.169477227452037e-01 -7.687423337986570e-01 1.496524414025760e-01 -3.050382290934302e-03
9.805600000000000e+10 2.000578715387997e-01 -3.780898176113098e-02 1.697186071640837e-01 -9.090465422359957e-01 5.167394835708159e-01 -7.688960992475764e-01 1.475723059674695e-01 -2.912837719119315e-03
9.810400000000000e+10 2.004003793778073e-01 -3.825297172697852e-02 1.688479497293666e-01 -9.092268649714873e-01 5.165312053249126e-01 -7.690494251275148e-01 1.483175791609019e-01 -2.660039152431180e-03
9.815200000000000e+10 1.988783279833540e-01 -3.775741590575810e-02 1.679764291269009e-01 -9.094061879887096e-01 5.163228961644941e-01 -7.692023119024725e-01 1.482881804623981e-01 -3.484647129609275e-03
9.820000000000000e+10 1.988742624538354e-01 -3.898693307958592e-02 1.671040582679654e-01 -9.095845148762401e-01 5.161145639781872e-01 -7.693547600362726e-01 1.494915389614180e-01 -4.403463450836541e-03
9.824800000000000e+10 1.984072560913236e-01 -3.891960408843904e-02 1.662308498413388e-01 -9.097618495832109e-01 5.159062170053316e-01 -7.695067700359476e-01 1.499523366251662e-01 -4.920980867856686e-03
9.829600000000000e+10 1.994614986183665e-01 -4.000964548469919e-02 1.653568164127436e-01 -9.099381968668522e-01 5.156978639439993e-01 -7.696583425674527e-01 1.495706110593283e-01 -3.613480833922327e-03
9.834400000000000e+10 1.986329425666177e-01 -3.778832601530267e-02 1.644819706483458e-01 -9.101135616734084e-01 5.154895136665902e-01 -7.698094793063390e-01 1.483244104457171e-01 -5.335886359951476e-03
9.839200000000000e+10 1.987338861774185e-01 -3.913085352842130e-02 1.636063269334142e-01 -9.102879488493308e-01 5.152811744985614e-01 -7.699601830231323e-01 1.493067557226302e-01 -5.345618394969291e-03
9.844000000000000e+10 1.995729917674820e-01 -3.849290383473062e-02 1.627299015612823e-01 -9.104613628853407e-01 5.150728527777761e-01 -7.701104576880022e-01 1.495380944740633e-01 -4.524403169229218e-03
9.848800000000000e+10 1.986046837989680e-01 -4.011759112673426e-02 1.618527132516468e-01 -9.106338080321064e-01 5.148645532750568e-01 -7.702603085237134e-01 1.506049611192571e-01 -5.741620386170141e-03
9.853600000000000e+10 1.988958211253117e-01 -3.925786831145436e-02 1.609747819189418e-01 -9.108052883337593e-01 5.146562800805987e-01 -7.704097410072680e-01 1.502094006502266e-01 -6.319413542628372e-03
9.858400000000000e+10 1.982451082591054e-01 -3.944666683338591e-02 1.600961265728653e-01 -9.109758084698455e-01 5.144480386146217e-01 -7.705587601722291e-01 1.494427495138345e-01 -6.171676002348351e-03
9.863200000000000e+10 1.976114843400570e-01 -3.804249806896753e-02 1.592167637955797e-01 -9.111453738837918e-01 5.142398362276831e-01 -7.707073698125887e-01 1.483990830467363e-01 -6.835215925484863e-03
9.868000000000000e+10 1.976581443435257e-01 -3.806814158953412e-02 1.583367075334038e-01 -9.113139905840486e-01 5.140316824387979e-01 -7.708555726067962e-01 1.486783586067737e-01 -5.512871492775204e-03
9.872800000000000e+10 1.980886857882312e-01 -3.729847924440748e-02 1.574559703053161e-01 -9.114816645436623e-01 5.138235868056726e-01 -7.710033711619579e-01 1.491047718406946e-01 -5.076356259658240e-03
9.877600000000000e+10 1.980014294278888e-01 -3.709450731689327e-02 1.565745660981915e-01 -9.116484012782593e-01 5.136155572245995e-01 -7.711507692738081e-01 1.503293698649270e-01 -5.014817564945600e-03
9.882400000000000e+10 1.967592425034302e-01 -3.760203311796532e-02 1.556925124674010e-01 -9.118142053254217e-01 5.134075982234415e-01 -7.712977731025363e-01 1.514911488926082e-01 -6.326877032882656e-03
9.887200000000000e+10 1.962760476213655e-01 -3.663507753604757e-02 1.548098317148728e-01 -9.119790800674233e-01 5.131997104610133e-01 -7.714443918617117e-01 1.510208506544750e-01 -6.910718503368373e-03
9.892000000000000e+10 1.967639747276981e-01 -3.673626219812796e-02 1.539265496408884e-01 -9.121430280903119e-01 5.129918916632834e-01 -7.715906376707360e-01 1.504378861879691e-01 -7.034300943720955e-03
9.896800000000000e+10 1.967644238053471e-01 -3.680823675355777e-02 1.530426931287480e-01 -9.123060515671525e-01 5.127841385035494e-01 -7.717365238895798e-01 1.503331242454388e-01 -7.008485728949528e-03
9.901600000000000e+10 1.965485538524154e-01 -3.756515816858472e-02 1.521582872781736e-01 -9.124681530169951e-01 5.125764489072933e-01 -7.718820633032691e-01 1.508914772172965e-01 -7.431974978962243e-03
9.906400000000000e+10 1.955493515689123e-01 -3.818442847122477e-02 1.512733533684867e-01 -9.126293356374122e-01 5.123688238517317e-01 -7.720272671039068e-01 1.514623203269300e-01 -7.748149024155660e-03
9.911200000000000e+10 1.964099661768557e-01 -3.766023486815506e-02 1.503879088510078e-01 -9.127896030844069e-01 5.121612672049473e-01 -7.721721452116798e-01 1.495392115680290e-01 -7.724633273048353e-03
9.916000000000000e+10 1.959166166268941e-01 -3.845803028935372e-02 1.495019689344602e-01 -9.129489597750078e-01 5.119537843479990e-01 -7.723167072156006e-01 1.511249783843096e-01 -7.961428804695360e-03
9.920800000000000e+10 1.964960511285258e-01 -3.781919901332961e-02 1.486155491429973e-01 -9.131074100345286e-01 5.117463796371008e-01 -7.724609635241950e-01 1.520087749357427e-01 -8.652140944958416e-03
9.925600000000000e+10 1.968238424343316e-01 -3.836316222386245e-02 1.477286671679139e-01 -9.132649589899760e-01 5.115390551282295e-01 -7.726049256548093e-01 1.517076009721348e-01 -8.580069786125431e-03
9.930400000000000e+10 1.970604344216990e-01 -3.779376029641828e-02 1.468413432990047e-01 -9.134216122417631e-01 5.113318097400349e-01 -7.727486069419945e-01 1.512611110199166e-01 -8.169955191071103e-03
9.935200000000000e+10 1.977828113987686e-01 -3.876313945609957e-02 1.459536000067466e-01 -9.135773757060317e-01 5.111246401386212e-01 -7.728920222542767e-01 1.536709338541464e-01 -8.137971498303604e-03
9.940000000000000e+10 1.966473818126080e-01 -3.821211857696864e-02 1.450654605107294e-01 -9.137322556284635e-01 5.109175417335943e-01 -7.730351872265018e-01 1.521754661059551e-01 -9.551218110399402e-03
9.944800000000000e+10 1.972489624606576e-01 -3.805302343994970e-02 1.441769476281864e-01 -9.138862588287068e-01 5.107105106437159e-01 -7.731781179158631e-01 1.530349404038935e-01 -8.972136140538611e-03
9.949600000000000e+10 1.968952845542538e-01 -3.700512674998575e-02 1.432880826237979e-01 -9.140393931345289e-01 5.105035435378905e-01 -7.733208302991961e-01 1.515696965407835e-01 -1.019615782725591e-02
9.954400000000000e+10 1.973566310238012e-01 -3.748567125076492e-02 1.423988852346788e-01 -9.141916678040668e-01 5.102966378030829e-01 -7.734633398026893e-01 1.523993345655169e-01 -9.317049101431699e-03
9.959200000000000e+10 1.981055533334179e-01 -3.726810388856096e-02 1.415093736195892e-01 -9.143430930267989e-01 5.100897909514738e-01 -7.736056613428922e-01 1.529743987498631e-01 -8.834959627976674e-03
9.964000000000000e+10 1.955462368035230e-01 -3.686878629867926e-02 1.406195651305349e-01 -9.144936800675941e-01 5.098830004138881e-01 -7.737478096379022e-01 1.541208644049755e-01 -9.246759307131791e-03
9.968800000000000e+10 1.966551323245325e-01 -3.652052709952381e-02 1.397294769591504e-01 -9.146434409677275e-01 5.096762634843970e-01 -7.738897994773735e-01 1.536922944621416e-01 -9.247352838173182e-03
9.973600000000000e+10 1.958860214670608e-01 -3.554041814697659e-02 1.388391262397047e-01 -9.147923885675697e-01 5.094695765540611e-01 -7.740316464323387e-01 1.540167532571825e-01 -1.005715195180066e-02
9.978400000000000e+10 1.967494878014661e-01 -3.714785026111924e-02 1.379485300705159e-01 -9.149405358571077e-01 5.092629355189836e-01 -7.741733668982466e-01 1.532084486842633e-01 -8.987157582290144e-03
9.983200000000000e+10 1.959758598092559e-01 -3.768219544741169e-02 1.370577054170857e-01 -9.150878955688564e-01 5.090563354159222e-01 -7.743149782530391e-01 1.546862355635663e-01 -9.300405674799655e-03
9.988000000000000e+10 1.974406048260136e-01 -3.741248507737973e-02 1.361666695513259e-01 -9.152344802576377e-01 5.088497705485364e-01 -7.744564985178185e-01 1.526937645049841e-01 -1.039504577976697e-02
9.992800000000000e+10 1.956486960282196e-01 -3.937550634835858e-02 1.352754400848811e-01 -9.153803031517643e-01 5.086432343072530e-01 -7.745979462914798e-01 1.535583508260087e-01 -8.953142757136743e-03
9.997600000000000e+10 1.952129507139279e-01 -3.954501909049799e-02 1.343840352512770e-01 -9.155253770573057e-01 5.084367188549466e-01 -7.747393408536197e-01 1.544717458000713e-01 -9.342192376958151e-03
1.000240000000000e+11 1.970649079812533e-01 -4.010501806790740e-02 1.334924739967806e-01 -9.156697149163862e-01 5.082302151991769e-01 -7.748807022828509e-01 1.527888785296942e-01 -1.019477537851399e-02
1.000720000000000e+11 1.947521396229567e-01 -3.972538354347835e-02 1.326007757087431e-01 -9.158133303643109e-01 5.080237128057706e-01 -7.750220515001348e-01 1.536011575807385e-01 -8.841320886960862e-03
1.001200000000000e+11 1.962828622797170e-01 -3.934972300542560e-02 1.317089607862456e-01 -9.159562369251802e-01 5.078172000023164e-01 -7.751634103717406e-01 1.532980226090806e-01 -1.071863464263704e-02
1.001680000000000e+11 1.963475908807057e-01 -4.038622815404515e-02 1.308170498148856e-01 -9.160984479051626e-01 5.076106640169243e-01 -7.753048017183626e-01 1.530342898684431e-01 -1.006630721558786e-02
1.002160000000000e+11 1.977252667006909e-01 -3.907227087361706e-02 1.299250626982350e-01 -9.162399763335715e-01 5.074040916111255e-01 -7.754462488052253e-01 1.524366999201490e-01 -1.103955052898107e-02
1.002640000000000e+11 1.981009584305366e-01 -3.910356317183469e-02 1.290330179365873e-01 -9.163808352774573e-01 5.071974700650155e-01 -7.755877746751987e-01 1.532961097553111e-01 -1.001500631740934e-02
1.003120000000000e+11 1.975120309433678e-01 -3.800804985103268e-02 1.281409314779962e-01 -9.165210376358762e-01 5.069907878274614e-01 -7.757294015302543e-01 1.527928816257054e-01 -9.889225963064721e-03
1.003600000000000e+11 1.984899188822880e-01 -3.891787956075266e-02 1.272488172663684e-01 -9.166605961768128e-01 5.067840348956943e-01 -7.758711503413506e-01 1.545138997353370e-01 -1.105691983197563e-02
1.004080000000000e+11 1.953430159571914e-01 -3.621827007843608e-02 1.263566879086856e-01 -9.167995227788995e-01 5.065772016464947e-01 -7.760130417330726e-01 1.528700373209949e-01 -9.975709849728471e-03
1.004560000000000e+11 1.965262852507789e-01 -3.555001444109681e-02 1.254645568136710e-01 -9.169378303621932e-01 5.063702774267556e-01 -7.761550961116583e-01 1.549464746299889e-01 -1.231328441175369e-02
1.005040000000000e+11 1.960675234523254e-01 -3.919931357637301e-02 1.245724390877077e-01 -9.170755317445701e-01 5.061632484337131e-01 -7.762973339064043e-01 1.520385603510382e-01 -1.209207073355946e-02
1.005520000000000e+11 1.979780987322191e-01 -3.710335858137631e-02 1.236803524905572e-01 -9.172126390488212e-01 5.059560975029740e-01 -7.764397775294181e-01 1.550115702342034e-01 -1.235971447573251e-02
1.006000000000000e+11 1.939922621027757e-01 -3.577048931265209e-02 1.227883169229170e-01 -9.173491644093783e-01 5.057488046647813e-01 -7.765824508892658e-01 1.527540838653125e-01 -1.104238511600754e-02
1.006480000000000e+11 1.997401378639937e-01 -3.617061008605298e-02 1.218963522751280e-01 -9.174851200926406e-01 5.055413496402230e-01 -7.767253784249479e-01 1.517427391001214e-01 -1.273197854770642e-02
1.006960000000000e+11 1.928071360948209e-01 -3.351319185485802e-02 1.210044757523065e-01 -9.176205172430840e-01 5.053337134633933e-01 -7.768685838715691e-01 1.542619285760926e-01 -1.069872847858286e-02
1.007440000000000e+11 1.949758510381870e-01 -3.722795173605294e-02 1.201127007720688e-01 -9.177553664214599e-01 5.051258799422377e-01 -7.770120883984338e-01 1.564074917987103e-01 -1.147378610293241e-02
1.007920000000000e+11 1.970431074859964e-01 -3.693374871045436e-02 1.192210362820864e-01 -9.178896785502421e-01 5.049178345569569e-01 -7.771559098059443e-01 1.532679583594370e-01 -1.251287563933166e-02
1.008400000000000e+11 1.967988927964420e-01 -3.641037413930053e-02 1.183294885694018e-01 -9.180234648494690e-01 5.047095644584816e-01 -7.773000654686660e-01 1.551145533539340e-01 -1.202967568193265e-02
1.008880000000000e+11 1.970487601860722e-01 -3.711599841102130e-02 1.174380631068789e-01 -9.181567354803571e-01 5.045010572262052e-01 -7.774445723794413e-01 1.535757503769097e-01 -1.194317927044242e-02
1.009360000000000e+11 1.960844520815058e-01 -3.801013995620733e-02 1.165467667551015e-01 -9.182894997707454e-01 5.042922992329443e-01 -7.775894478296538e-01 1.558132340650092e-01 -1.114015318338348e-02
1.009840000000000e+11 1.964480870087075e-01 -3.795742031379923e-02 1.156556084065694e-01 -9.184217660384082e-01 5.040832744423563e-01 -7.777347095763906e-01 1.558695306969750e-01 -1.148932337071959e-02
1.010320000000000e+11 1.980597286470562e-01 -3.822535097178587e-02 1.147645988665194e-01 -9.185535423470715e-01 5.038739646112657e-01 -7.778803760539494e-01 1.556628812041909e-01 -1.155268131789272e-02
1.010800000000000e+11 1.984565286721791e-01 -3.853856617242170e-02 1.138737499231290e-01 -9.186848367592112e-01 5.036643499466744e-01 -7.780264660288496e-01 1.557463761521955e-01 -1.148674729824812e-02
1.011280000000000e+11 1.986936049686351e-01 -3.856387375443414e-02 1.129830736734946e-01 -9.188156572171939e-01 5.034544098045601e-01 -7.781729977180292e-01 1.560958265119310e-01 -1.149998325956804e-02
1.011760000000000e+11 2.009946447362213e-01 -3.986485802078826e-02 1.120925818192206e-01 -9.189460117652238e-01 5.032441235948587e-01 -7.783199884649569e-01 1.561762650039351e-01 -1.262831399711538e-02
1.012240000000000e+11 1.992589032958176e-01 -3.649453710403907e-02 1.112022852692006e-01 -9.190759085010742e-01 5.030334709688080e-01 -7.784674548137713e-01 1.569988536271033e-01 -1.153048088833149e-02
1.012720000000000e+11 2.008253692687356e-01 -3.801966354497045e-02 1.103121943320289e-01 -9.192053561446792e-01 5.028224324702466e-01 -7.786154120843560e-01 1.563041210123825e-01 -1.266565194259627e-02
1.013200000000000e+11 1.999008239503370e-01 -3.782163187194821e-02 1.094223186822695e-01 -9.193343626483743e-01 5.026109892383187e-01 -7.787638747636730e-01 1.557790973355503e-01 -1.235160886459042e-02
1.013680000000000e+11 2.012906689929366e-01 -3.673605139690003e-02 1.085326679279623e-01 -9.194629358110019e-01 5.023991227842124e-01 -7.789128566598008e-01 1.563963731147606e-01 -1.269265603864511e-02
1.014160000000000e+11 2.009993131429929e-01 -3.841279798921587e-02 1.076432514078964e-01 -9.195910831193936e-01 5.021868154409208e-01 -7.790623707115435e-01 1.553221173766405e-01 -1.320715817650385e-02
1.014640000000000e+11 2.007345563261066e-01 -3.858726807669938e-02 1.067540788213560e-01 -9.197188116837834e-01 5.019740500927864e-01 -7.792124291268308e-01 1.557778254730863e-01 -1.227834400037932e-02
1.015120000000000e+11 2.004042114642299e-01 -3.943710024507907e-02 1.058651611952130e-01 -9.198461286509616e-01 5.017608093239594e-01 -7.793630433870157e-01 1.563068548797635e-01 -1.334191819324982e-02
1.015600000000000e+11 2.008596042707234e-01 -3.780484187467041e-02 1.049765114046234e-01 -9.199730409903516e-01 5.015470752013599e-01 -7.795142249819333e-01 1.564613501444816e-01 -1.404105995828309e-02
1.016080000000000e+11 2.004160753618213e-01 -3.781038152636730e-02 1.040881449225529e-01 -9.200995555758347e-01 5.013328282538307e-01 -7.796659863756129e-01 1.560732232122423e-01 -1.434301360800681e-02
1.016560000000000e+11 2.005603359059259e-01 -4.021199190986046e-02 1.032000801829881e-01 -9.202256784418911e-01 5.011180470031472e-01 -7.798183403925257e-01 1.557087654769339e-01 -1.545941269212983e-02
1.017040000000000e+11 2.002197501341405e-01 -3.993365908547127e-02 1.023123383064950e-01 -9.203514144107441e-01 5.009027086185370e-01 -7.799712994939658e-01 1.558797166941349e-01 -1.495085328349177e-02
1.017520000000000e+11 2.002717344476544e-01 -4.074196225334553e-02 1.014249414194006e-01 -9.204767672159895e-01 5.006867898484839e-01 -7.801248759441254e-01 1.568173783292306e-01 -1.371910137383330e-02
1.018000000000000e+11 1.997968421278168e-01 -4.043774004012201e-02 1.005379126130741e-01 -9.206017395768087e-01 5.004702677938968e-01 -7.802790810234972e-01 1.587980355368972e-01 -1.443345930941378e-02
1.018480000000000e+11 2.060267420858285e-01 -3.762642114283225e-02 9.965127603140515e-02 -9.207263341070409e-01 5.002531209454923e-01 -7.804339249704109e-01 1.600215095467035e-01 -1.650856203630371e-02
1.018960000000000e+11 2.058544757860804e-01 -3.999044399925489e-02 9.876505642318632e-02 -9.208505544488798e-01 5.000353294264920e-01 -7.805894177303350e-01 1.576094892677323e-01 -1.820928317824146e-02
1.019440000000000e+11 2.008383201142339e-01 -4.137131185746980e-02 9.787928001589435e-02 -9.209744034787081e-01 4.998168760679088e-01 -7.807455688466853e-01 1.558194237827344e-01 -1.472494518820903e-02
1.019920000000000e+11 2.056528408856390e-01 -3.801952307937634e-02 9.699397502332865e-02 -9.210978829428369e-01 4.995977445008917e-01 -7.809023879142870e-01 1.597324662012588e-01 -1.595412575242711e-02
1.020400000000000e+11 2.047359682123522e-01 -3.647233947524394e-02 9.610917128881181e-02 -9.212209948423725e-01 4.993779194905618e-01 -7.810598831456428e-01 1.590822995849849e-01 -1.699651325315913e-02
1.020880000000000e+11 2.007049413320221e-01 -3.971813482267457e-02 9.522490207598940e-02 -9.213437422374962e-01 4.991573869325110e-01 -7.812180626517028e-01 1.565041765076203e-01 -1.779772063795253e-02
1.021360000000000e+11 1.983620700112079e-01 -4.024173682862518e-02 9.434120512246916e-02 -9.214661267314158e-01 4.989361321918798e-01 -7.813769357029081e-01 1.548338918282254e-01 -1.719466674312914e-02
1.021840000000000e+11 1.983804375669878e-01 -4.040586437603434e-02 9.345812214704977e-02 -9.215881481132218e-01 4.987141379526076e-01 -7.815365132297322e-01 1.549707969680876e-01 -1.641180671960614e-02
1.022320000000000e+11 1.987766140008604e-01 -4.031549726506126e-02 9.257569886044932e-02 -9.217098046858069e-01 4.984913847237019e-01 -7.816968066922283e-01 1.552876228996486e-01 -1.678558009846198e-02
1.022800000000000e+11 1.992278980040977e-01 -4.090359110857080e-02 9.169398368363355e-02 -9.218310939742164e-01 4.982678524240013e-01 -7.818578279697895e-01 1.553713744024943e-01 -1.676245114465032e-02
1.023280000000000e+11 2.011058802138589e-01 -3.962837652468049e-02 9.081302540103760e-02 -9.219520134559253e-01 4.980435225671230e-01 -7.820195882225388e-01 1.554542760060707e-01 -1.687419038476086e-02
1.023760000000000e+11 2.014718618005375e-01 -3.870735003107341e-02 8.993287108864149e-02 -9.220725611858859e-01 4.978183797167672e-01 -7.821820971189910e-01 1.566885812251371e-01 -1.718493057749916e-02
1.024240000000000e+11 1.995936808494761e-01 -4.227429939360446e-02 8.905356610355789e-02 -9.221927361452058e-01 4.975924128780012e-01 -7.823453619490879e-01 1.546690912555080e-01 -1.800063468171592e-02
1.024720000000000e+11 1.976102314006209e-01 -4.409860592845515e-02 8.817515428212851e-02 -9.223125385094961e-01 4.973656144415962e-01 -7.825093881804668e-01 1.536567335931996e-01 -1.702384265713317e-02
1.025200000000000e+11 1.953717666341137e-01 -4.391290299743286e-02 8.729768049520212e-02 -9.224319679923054e-01 4.971379769883302e-01 -7.826741816255994e-01 1.539672394874925e-01 -1.722298477435914e-02
1.025680000000000e+11 1.955977573811788e-01 -4.525637104595157e-02 8.642119352343605e-02 -9.225510234253336e-01 4.969094904422273e-01 -7.828397502719125e-01 1.533412770274002e-01 -1.589520061747896e-02
1.026160000000000e+11 1.970931268359155e-01 -4.287550390328822e-02 8.554574845544319e-02 -9.226697023777702e-01 4.966801397881805e-01 -7.830061053741419e-01 1.548906583275699e-01 -1.792377135205784e-02
1.026640000000000e+11 1.963372995393730e-01 -4.531070478803786e-02 8.467140571614654e-02 -9.227880016395410e-01 4.964499063615296e-01 -7.831732600028740e-01 1.538477105707061e-01 -1.641413871028957e-02
1.027120000000000e+11 1.963708650565260e-01 -4.149132246196086e-02 8.379822840598002e-02 -9.229059178295245e-01 4.962187714631899e-01 -7.833412274996449e-01 1.555313976042524e-01 -1.755352409374123e-02
1.027600000000000e+11 1.977245494526415e-01 -4.366886687005514e-02 8.292627892197305e-02 -9.230234479229371e-01 4.959867181792081e-01 -7.835100199946325e-01 1.548901158401774e-01 -1.738684781969046e-02
1.028080000000000e+11 1.975092974029971e-01 -4.570588643806518e-02 8.205561772147389e-02 -9.231405891381533e-01 4.957537327002408e-01 -7.836796481331535e-01 1.536343900426636e-01 -1.867619200398086e-02
1.028560000000000e+11 1.987018742066348e-01 -4.447995916407260e-02 8.118630404919294e-02 -9.232573386281699e-01 4.955198042061073e-01 -7.838501211469232e-01 1.541622524053044e-01 -1.832553762764770e-02
1.029040000000000e+11 1.992133193866867e-01 -4.421439371521903e-02 8.031839700904704e-02 -9.233736935724495e-01 4.952849229058248e-01 -7.840214481950727e-01 1.537379557847594e-01 -1.939184414157904e-02
1.029520000000000e+11 1.988465177922671e-01 -4.692002402133595e-02 7.945195865296210e-02 -9.234896506806473e-01 4.950490786497241e-01 -7.841936386229269e-01 1.530644052778966e-01 -1.903008815592105e-02
1.030000000000000e+11 1.995567626788462e-01 -4.313101150296149e-02 7.858705581384028e-02 -9.236052058070584e-01 4.948122583191871e-01 -7.843667038823288e-01 1.539994053213708e-01 -1.897039454543880e-02
1.030480000000000e+11 1.989804676694528e-01 -4.573863573049104e-02 7.772375933779957e-02 -9.237203542939921e-01 4.945744464379776e-01 -7.845406574892562e-01 1.538080207071780e-01 -1.907035001227461e-02
1.030960000000000e+11 1.982878672059152e-01 -4.523341021225304e-02 7.686214370915204e-02 -9.238350903465495e-01 4.943356265680293e-01 -7.847155140224507e-01 1.541946122185752e-01 -1.957533681894752e-02
1.031440000000000e+11 1.975476792846049e-01 -4.607977928435680e-02 7.600228338625835e-02 -9.239494081795336e-01 4.940957836102815e-01 -7.848912873451509e-01 1.541436437776814e-01 -1.887618345920482e-02
1.031920000000000e+11 1.967882919319640e-01 -4.374568002493655e-02 7.514425245119855e-02 -9.240633027641215e-01 4.938549039031337e-01 -7.850679901872762e-01 1.550417510113040e-01 -1.971799735280448e-02
1.032400000000000e+11 1.949041769456093e-01 -4.686082461773609e-02 7.428812531281788e-02 -9.241767698749445e-01 4.936129746435077e-01 -7.852456345237030e-01 1.542731197822943e-01 -1.861421072706296e-02
1.032880000000000e+11 1.946136697719648e-01 -4.564607009686592e-02 7.343397835253468e-02 -9.242898056278483e-01 4.933699829436592e-01 -7.854242321653181e-01 1.540885643543723e-01 -2.003287004146380e-02
1.033360000000000e+11 1.950778434327579e-01 -4.797192539356272e-02 7.258189062982155e-02 -9.244024061934476e-01 4.931259146182245e-01 -7.856037958986141e-01 1.540611417978859e-01 -1.931516039019468e-02
1.033840000000000e+11 1.943609715269712e-01 -4.608338791680455e-02 7.173194416434994e-02 -9.245145675248105e-01 4.928807535164793e-01 -7.857843400054703e-01 1.537161237575637e-01 -2.008887455780929e-02
1.034320000000000e+11 1.936855588460472e-01 -4.781546404812493e-02 7.088422302978434e-02 -9.246262851893986e-01 4.926344822856303e-01 -7.859658800767891e-01 1.538883394376872e-01 -1.914939620856188e-02
1.034800000000000e+11 1.939039543127400e-01 -4.685087233532896e-02 7.003881262707815e-02 -9.247375544382984e-01 4.923870833578444e-01 -7.861484322127417e-01 1.534134917398127e-01 -1.977544766052690e-02
1.035280000000000e+11 1.943759521053054e-01 -4.873048768099895e-02 6.919579853989044e-02 -9.248483702515592e-01 4.921385395932622e-01 -7.863320122963234e-01 1.531393081959585e-01 -1.944208183066027e-02
1.035760000000000e+11 1.949211519726050e-01 -4.669592005393938e-02 6.835526655921896e-02 -9.249587276337310e-01 4.918888347327600e-01 -7.865166355062614e-01 1.536554437269751e-01 -1.986540020422111e-02
1.036240000000000e+11 1.950931664711529e-01 -4.843977595542110e-02 6.751730333201243e-02 -9.250686218933739e-01 4.916379522097233e-01 -7.867023167493447e-01 1.531434848626007e-01 -1.965105689069848e-02
1.036720000000000e+11 1.963540651457525e-01 -4.912400310682600e-02 6.668199895450010e-02 -9.251780480530364e-01 4.913858741010798e-01 -7.868890717263918e-01 1.526924011444531e-01 -1.979540962320089e-02
1.037200000000000e+11 1.964296472084017e-01 -4.974851684397264e-02 6.584944749170092e-02 -9.252870007331194e-01 4.911325801635998e-01 -7.870769175324444e-01 1.525252346110997e-01 -1.969491750300726e-02
1.037680000000000e+11 1.975665879032685e-01 -5.008346786457903e-02 6.501974756674293e-02 -9.253954743648828e-01 4.908780471025688e-01 -7.872658731471217e-01 1.522357338734428e-01 -1.981411580691677e-02
1.038160000000000e+11 1.965714649677417e-01 -5.097521982406180e-02 6.419300202747502e-02 -9.255034630864578e-01 4.906222489767890e-01 -7.874559592980951e-01 1.517990051092825e-01 -1.990060709502333e-02
1.038640000000000e+11 1.987228012577258e-01 -5.074202793551984e-02 6.336931705858934e-02 -9.256109607613359e-01 4.903651576561547e-01 -7.876471981500679e-01 1.520784573744675e-01 -2.041909212245038e-02
1.039120000000000e+11 1.949847232194202e-01 -4.977468850551581e-02 6.254880048228435e-02 -9.257179610607602e-01 4.901067437869485e-01 -7.878396126040130e-01 1.524099488403947e-01 -2.010917436913066e-02
1.039600000000000e+11 1.976806559425820e-01 -5.020258500446199e-02 6.173156023821359e-02 -9.258244577344926e-01 4.898469788544759e-01 -7.880332251382867e-01 1.532897908073945e-01 -2.090075785592583e-02
1.040080000000000e+11 1.965144432770583e-01 -4.632800851416390e-02 6.091770314404809e-02 -9.259304442062456e-01 4.895858358847877e-01 -7.882280569710906e-01 1.541796301008049e-01 -2.106985010272165e-02
1.040560000000000e+11 1.958843000892970e-01 -5.204796850728928e-02 6.010733460867535e-02 -9.260359140380285e-01 4.893232905749716e-01 -7.884241277435927e-01 1.527799893066577e-01 -2.175013389983642e-02
1.041040000000000e+11 1.931624358438138e-01 -5.123153909019672e-02 5.930056035231494e-02 -9.261408606187860e-01 4.890593209158159e-01 -7.886214556274057e-01 1.517070169051375e-01 -2.294377424824871e-02
1.041520000000000e+11 1.965282013006209e-01 -5.015797227664723e-02 5.849748602673607e-02 -9.262452775569561e-01 4.887939056493489e-01 -7.888200585067600e-01 1.521982679546536e-01 -2.272224883598717e-02
1.042000000000000e+11 1.938636085314215e-01 -5.099838873042105e-02 5.769821943462434e-02 -9.263491582901624e-01 4.885270218396311e-01 -7.890199556431997e-01 1.520293201707058e-01 -2.413330292882295e-02
1.042480000000000e+11 1.950810559612059e-01 -5.093322072642029e-02 5.690287374820727e-02 -9.264524957044854e-01 4.882586431176246e-01 -7.892211686361280e-01 1.513711269458168e-01 -2.531589863505074e-02
1.042960000000000e+11 1.931110492680108e-01 -5.214857259214753e-02 5.611156781361331e-02 -9.265552826654512e-01 4.879887384780640e-01 -7.894237216644295e-01 1.501628412602177e-01 -2.516452056787197e-02
1.043440000000000e+11 1.933440221272701e-01 -5.258155349967709e-02 5.532442462939296e-02 -9.266575120580525e-01 4.877172739728947e-01 -7.896276407914433e-01 1.498961393127102e-01 -2.493226500341697e-02
1.043920000000000e+11 1.928859018846991e-01 -5.283883358128978e-02 5.454156701003315e-02 -9.267591764457154e-01 4.874442153320491e-01 -7.898329522689485e-01 1.504644425083934e-01 -2.455314175850048e-02
1.044400000000000e+11 1.940484065407411e-01 -5.342892120165640e-02 5.376311339365879e-02 -9.268602679350300e-01 4.871695315027543e-01 -7.900396799425519e-01 1.511565756312194e-01 -2.503997827411510e-02
1.044880000000000e+11 1.939926972893677e-01 -5.456961477079234e-02 5.298917499915249e-02 -9.269607780898667e-01 4.868931973174427e-01 -7.902478434086760e-01 1.521494755682968e-01 -2.565539265162334e-02
1.045360000000000e+11 1.941068729446762e-01 -5.314138284421498e-02 5.221985579425684e-02 -9.270606982325174e-01 4.866151939237736e-01 -7.904574578533832e-01 1.525813787777477e-01 -2.582343479768926e-02
1.045840000000000e+11 1.920554945089587e-01 -5.493807538713016e-02 5.145525566339099e-02 -9.271600196136442e-01 4.863355065030349e-01 -7.906685356797677e-01 1.513943414814036e-01 -2.747022729342919e-02
1.046320000000000e+11 1.941206104850599e-01 -5.293261018924250e-02 5.069547519708564e-02 -9.272587327718120e-01 4.860541209161293e-01 -7.908810890635050e-01 1.524370354906643e-01 -2.554777878269605e-02
1.046800000000000e+11 1.922753136866878e-01 -5.561808590683440e-02 4.994061876870032e-02 -9.273568277888984e-01 4.857710195235216e-01 -7.910951319731462e-01 1.532766662065994e-01 -2.844721740524040e-02
1.047280000000000e+11 1.932696811144829e-01 -5.303277056488165e-02 4.919079656902931e-02 -9.274542937823433e-01 4.854861805549140e-01 -7.913106801622284e-01 1.522596468692912e-01 -2.820595687268680e-02
1.047760000000000e+11 1.927727286903043e-01 -5.463829484537296e-02 4.844612169069793e-02 -9.275511197625421e-01 4.851995798270048e-01 -7.915277508537636e-01 1.518496524107339e-01 -2.947599845417788e-02
1.048240000000000e+11 1.949428619693525e-01 -5.330132329523708e-02 4.770670642918969e-02 -9.276472953401772e-01 4.849111936894641e-01 -7.917463600010028e-01 1.549707876914775e-01 -2.982565338486799e-02
1.048720000000000e+11 1.928589273144985e-01 -5.522857152857994e-02 4.697265793494591e-02 -9.277428105738670e-01 4.846210022721140e-01 -7.919665210378218e-01 1.533276825578945e-01 -3.026523605275081e-02
1.049200000000000e+11 1.933781309466995e-01 -5.190115492167331e-02 4.624407728753205e-02 -9.278376560399128e-01 4.843289925380587e-01 -7.921882437647138e-01 1.503440734484439e-01 -2.779824462930398e-02
1.049680000000000e+11 1.918295447076386e-01 -5.270531231691158e-02 4.552105938213282e-02 -9.279318224544214e-01 4.840351572025449e-01 -7.924115350788341e-01 1.523534525743937e-01 -3.099276363773105e-02
1.050160000000000e+11 1.914481314308384e-01 -5.262866862898412e-02 4.480369586507819e-02 -9.280252996580959e-01 4.837394921495371e-01 -7.926363998483987e-01 1.517777334461316e-01 -3.010803023562190e-02
1.050640000000000e+11 1.921132331043350e-01 -5.327760772791430e-02 4.409207876802260e-02 -9.281180779691215e-01 4.834419934490457e-01 -7.928628423542590e-01 1.521670053617235e-01 -3.133446866970232e-02
1.051120000000000e+11 1.910802791202035e-01 -5.139318175440893e-02 4.338630213144361e-02 -9.282101476142824e-01 4.831426557461839e-01 -7.930908675842332e-01 1.502203837946768e-01 -3.099631547288257e-02
1.051600000000000e+11 1.914085690884187e-01 -5.372932679350913e-02 4.268646181309604e-02 -9.283014989421684e-01 4.828414730343462e-01 -7.933204812377314e-01 1.504250710535269e-01 -3.088323567282774e-02
1.052080000000000e+11 1.911300071772392e-01 -5.214180148647585e-02 4.199265403600457e-02 -9.283921219962766e-01 4.825384394513316e-01 -7.935516892783516e-01 1.511789580245911e-01 -3.092658409876857e-02
1.052560000000000e+11 1.915199037977119e-01 -5.505442784804506e-02 4.130497372781477e-02 -9.284820065415080e-01 4.822335503866713e-01 -7.937844971197175e-01 1.518188008718725e-01 -3.127663903688892e-02
1.053040000000000e+11 1.910634007345921e-01 -5.388960773869941e-02 4.062351411333889e-02 -9.285711422044211e-01 4.819268031542504e-01 -7.940189092350823e-01 1.518744559295043e-01 -3.154601640237505e-02
1.053520000000000e+11 1.911721899282169e-01 -5.547406309594750e-02 3.994836761855897e-02 -9.286595184683517e-01 4.816181961222157e-01 -7.942549298855528e-01 1.518859765908559e-01 -3.258967911992343e-02
1.054000000000000e+11 1.904899259675387e-01 -5.408861201619073e-02 3.927962761353027e-02 -9.287471248306922e-01 4.813077272923580e-01 -7.944925638158178e-01 1.522954693540672e-01 -3.299488119202217e-02
1.054480000000000e+11 1.901211075830222e-01 -5.574538890638187e-02 3.861738946219034e-02 -9.288339506284401e-01 4.809953935479835e-01 -7.947318171670678e-01 1.516643999738910e-01 -3.329825271020401e-02
1.054960000000000e+11 1.896532005506532e-01 -5.337212822573063e-02 3.796175118598754e-02 -9.289199850650036e-01 4.806811902059538e-01 -7.949726979791898e-01 1.525317175128820e-01 -3.372511331993664e-02
1.055440000000000e+11 1.908093400569366e-01 -5.542562634770627e-02 3.731281261781349e-02 -9.290052169428515e-01 4.803651112147617e-01 -7.952152158463088e-01 1.525759680312325e-01 -3.466623738106239e-02
1.055920000000000e+11 1.895174573668681e-01 -5.106252049651628e-02 3.667067478582221e-02 -9.290896344554703e-01 4.800471507568927e-01 -7.954593819071746e-01 1.508226324265839e-01 -3.283671969552222e-02
1.056400000000000e+11 1.903755895224041e-01 -5.362632093859275e-02 3.603543753238815e-02 -9.291732264420424e-01 4.797273044706044e-01 -7.957052067439139e-01 1.519488360592647e-01 -3.645566065785990e-02
1.056880000000000e+11 1.887314569287500e-01 -5.195465464375760e-02 3.540719898977095e-02 -9.292559814364335e-01 4.794055699451275e-01 -7.959526996759518e-01 1.523174398807589e-01 -3.635931569629136e-02
1.057360000000000e+11 1.915827603706297e-01 -5.283215149672323e-02 3.478605497811583e-02 -9.293378887596381e-01 4.790819468176181e-01 -7.962018687860195e-01 1.501542131402210e-01 -3.289266604277514e-02
1.057840000000000e+11 1.887465959194835e-01 -5.059823309717471e-02 3.417209979530599e-02 -9.294189382137136e-01 4.787564358905014e-01 -7.964527215241507e-01 1.534386474585828e-01 -3.807033501441402e-02
1.058320000000000e+11 1.907866915259223e-01 -5.188451316838304e-02 3.356542819066129e-02 -9.294991185608940e-01 4.784290373854811e-01 -7.967052658902237e-01 1.520169301840765e-01 -3.686114895338138e-02
1.058800000000000e+11 1.892844373165191e-01 -5.060614402447627e-02 3.296613843438156e-02 -9.295784186210948e-01 4.780997489700765e-01 -7.969595117409574e-01 1.516537134169007e-01 -3.675564476477624e-02
1.059280000000000e+11 1.902506719967722e-01 -5.277670191009357e-02 3.237433480502257e-02 -9.296568268848955e-01 4.777685639511133e-01 -7.972154718832785e-01 1.508599844808300e-01 -3.742213839153398e-02
1.059760000000000e+11 1.883787257229927e-01 -5.215706073418030e-02 3.179012782956715e-02 -9.297343316121437e-01 4.774354703267188e-01 -7.974731622587493e-01 1.499966700340709e-01 -3.692409028650157e-02
1.060240000000000e+11 1.886877867006415e-01 -5.278765979426079e-02 3.121363259432213e-02 -9.298109210018507e-01 4.771004523502226e-01 -7.977326012827346e-01 1.503177266416086e-01 -3.731020146618325e-02
1.060720000000000e+11 1.875499490426898e-01 -5.353963426329480e-02 3.064496426936698e-02 -9.298865826440805e-01 4.767634934337617e-01 -7.979938081994753e-01 1.526245032431132e-01 -3.691152988027892e-02
1.061200000000000e+11 1.873471578519818e-01 -5.528206390497582e-02 3.008423419334848e-02 -9.299613042286121e-01 4.764245800849755e-01 -7.982568005553853e-01 1.550052301901871e-01 -3.776265605912778e-02
1.061680000000000e+11 1.869289285069157e-01 -5.351059894955851e-02 2.953154596295361e-02 -9.300350737266664e-01 4.760837049146418e-01 -7.985215920693082e-01 1.535391710836609e-01 -3.673370578000774e-02
1.062160000000000e+11 1.878388145616217e-01 -5.396823900298404e-02 2.898699483399839e-02 -9.301078798516601e-01 4.757408679204603e-01 -7.987881923190621e-01 1.579748199933922e-01 -3.819900719339514e-02
1.062640000000000e+11 1.866471144715401e-01 -5.266864672606257e-02 2.845067043233348e-02 -9.301797110221195e-01 4.753960735695362e-01 -7.990566082221056e-01 1.519157648137172e-01 -4.147704644606416e-02
1.063120000000000e+11 1.878595246472627e-01 -5.513348650172180e-02 2.792266345163489e-02 -9.302505560660408e-01 4.750493274294179e-01 -7.993268468909799e-01 1.559561469013831e-01 -4.158653269157038e-02
1.063600000000000e+11 1.872413661395083e-01 -5.236965901210174e-02 2.740306783622915e-02 -9.303204040514564e-01 4.747006307574432e-01 -7.995989176663927e-01 1.502041470357247e-01 -4.251747986419502e-02
1.064080000000000e+11 1.876385623093667e-01 -5.354431482876343e-02 2.689198476035292e-02 -9.303892446907212e-01 4.743499789439872e-01 -7.998728341107907e-01 1.483226603910009e-01 -3.869968013183252e-02
1.064560000000000e+11 1.880261188550718e-01 -5.749968284059477e-02 2.638952019762451e-02 -9.304570670160331e-01 4.739973618865250e-01 -8.001486136539213e-01 1.624376103947347e-01 -4.216860595399673e-02
1.065040000000000e+11 1.833981440700037e-01 -5.073111835247603e-02 2.589577964384921e-02 -9.305238596523226e-01 4.736427679928149e-01 -8.004262733254499e-01 1.454432960185534e-01 -4.416372307553007e-02
1.065520000000000e+11 1.874007816382209e-01 -5.242150947324321e-02 2.541086223756537e-02 -9.305896126186884e-01 4.732861931245311e-01 -8.007058277084349e-01 1.525246112570301e-01 -4.012566368498895e-02
1.066000000000000e+11 1.875636797550933e-01 -5.741248884242271e-02 2.493485288209628e-02 -9.306543137690326e-01 4.729276423693923e-01 -8.009872862123221e-01 1.602663956267815e-01 -4.107346379504842e-02
1.066480000000000e+11 1.871871995500451e-01 -5.489930353434135e-02 2.446782400436730e-02 -9.307179505097160e-01 4.725671311632040e-01 -8.012706513330469e-01 1.543149464433018e-01 -4.160096225595188e-02
1.066960000000000e+11 1.899885164870380e-01 -4.964206879425920e-02 2.400983947127704e-02 -9.307805123706652e-01 4.722046821460034e-01 -8.015559208048945e-01 1.497645053085707e-01 -3.921931965339417e-02
1.067440000000000e+11 1.850109037237195e-01 -5.599701790649541e-02 2.356096005136113e-02 -9.308419871292798e-01 4.718403212722561e-01 -8.018430923784262e-01 1.584404867298717e-01 -4.436091557608959e-02
1.067920000000000e+11 1.850082830655821e-01 -5.138254654025537e-02 2.312124991324594e-02 -9.309023627296863e-01 4.714740701009568e-01 -8.021321641980347e-01 1.548321753000920e-01 -4.382981380744113e-02
1.068400000000000e+11 1.856816559381647e-01 -5.316697405897371e-02 2.269077833586331e-02 -9.309616278426350e-01 4.711059450111574e-01 -8.024231374591302e-01 1.561654631883429e-01 -4.388507369576083e-02
1.068880000000000e+11 1.867138638058168e-01 -5.328576632887002e-02 2.226961897280664e-02 -9.310197702199000e-01 4.707359580497710e-01 -8.027160157969573e-01 1.564663132800299e-01 -4.350415453100900e-02
1.069360000000000e+11 1.859755922106604e-01 -5.270469265759690e-02 2.185784655847062e-02 -9.310767778148107e-01 4.703641196652839e-01 -8.030108032747421e-01 1.499698926528282e-01 -4.410411902105677e-02
1.069840000000000e+11 1.845158870418437e-01 -5.525249392359392e-02 2.145553365240910e-02 -9.311326381762554e-01 4.699904420804917e-01 -8.033075034960012e-01 1.580217325336811e-01 -4.525034820501949e-02
1.070320000000000e+11 1.843222325162393e-01 -5.409726308404381e-02 2.106274753006251e-02 -9.311873375722362e-01 4.696149391312465e-01 -8.036061183926727e-01 1.548520356611827e-01 -4.630641837585876e-02
1.070800000000000e+11 1.860091585208986e-01 -5.349127709247293e-02 2.067955166967371e-02 -9.312408630497921e-01 4.692376260913573e-01 -8.039066493084450e-01 1.550012716997655e-01 -4.395358313908557e-02
1.071280000000000e+11 1.856449896716898e-01 -5.242820420528709e-02 2.030600669919604e-02 -9.312932014844721e-01 4.688585174310771e-01 -8.042090980660801e-01 1.545094034306793e-01 -4.478935852765797e-02
1.071760000000000e+11 1.861714935490499e-01 -4.966562279488967e-02 1.994217312176078e-02 -9.313443391056183e-01 4.684776257118074e-01 -8.045134678876718e-01 1.548572393775642e-01 -4.750139030964556e-02
1.072240000000000e+11 1.868333348736642e-01 -5.253478568864022e-02 1.958811197925538e-02 -9.313942610696565e-01 4.680949605523591e-01 -8.048197637328072e-01 1.572679373224632e-01 -4.554310568747315e-02
1.072720000000000e+11 1.873683207140545e-01 -5.128442855053444e-02 1.924388436164106e-02 -9.314429515945392e-01 4.677105296128005e-01 -8.051279911627300e-01 1.572473200801527e-01 -4.714964008788055e-02
1.073200000000000e+11 1.870038319784527e-01 -5.340565205700628e-02 1.890955076262946e-02 -9.314903945284794e-01 4.673243397307160e-01 -8.054381560121076e-01 1.570590691785591e-01 -4.718455821415710e-02
1.073680000000000e+11 1.881671694800825e-01 -5.321223598587545e-02 1.858516947632071e-02 -9.315365732983198e-01 4.669363981885312e-01 -8.057502635409999e-01 1.562630743328269e-01 -4.603880370300820e-02
1.074160000000000e+11 1.874650766937734e-01 -5.421832590181890e-02 1.827079543212625e-02 -9.315814708113229e-01 4.665467138823050e-01 -8.060643183429513e-01 1.544727596463101e-01 -4.661102884716667e-02
1.074640000000000e+11 1.878308000198850e-01 -5.355157697514668e-02 1.796648046519372e-02 -9.316250689866786e-01 4.661552969357775e-01 -8.063803245634823e-01 1.570500705721163e-01 -4.471713921102010e-02
1.075120000000000e+11 1.851725326220399e-01 -5.555262321244196e-02 1.767227322767959e-02 -9.316673488221834e-01 4.657621582531185e-01 -8.066982854877408e-01 1.608697879609712e-01 -4.529998565429798e-02
1.075600000000000e+11 1.876434961189950e-01 -5.149688764669944e-02 1.738822138488224e-02 -9.317082914272924e-01 4.653673083384819e-01 -8.070182034290855e-01 1.562770020752475e-01 -4.782256817403981e-02
1.076080000000000e+11 1.866651939017444e-01 -5.290665030899671e-02 1.711437299513622e-02 -9.317478782305085e-01 4.649707565414333e-01 -8.073400813495275e-01 1.584793725293678e-01 -4.691159938485431e-02
1.076560000000000e+11 1.881533455707920e-01 -5.227627619179007e-02 1.685077735301761e-02 -9.317860893309642e-01 4.645725093938623e-01 -8.076639233887398e-01 1.587259054968599e-01 -4.416792443245983e-02
1.077040000000000e+11 1.853893134976986e-01 -5.238544621438396e-02 1.659748530147045e-02 -9.318229042576147e-01 4.641725708408388e-01 -8.079897347832099e-01 1.580536189383303e-01 -5.151149624866390e-02
1.077520000000000e+11 1.867154429367381e-01 -5.114223786986693e-02 1.635454772087501e-02 -9.318583020058236e-01 4.637709445196227e-01 -8.083175201656915e-01 1.582598353264918e-01 -4.971632013579202e-02
1.078000000000000e+11 1.861621159571302e-01 -5.233619302904467e-02 1.612200991397401e-02 -9.318922611102344e-01 4.633676355835951e-01 -8.086472828450647e-01 1.579432186321743e-01 -5.189404244927196e-02
1.078480000000000e+11 1.862381673317301e-01 -5.258983417459739e-02 1.589991041004427e-02 -9.319247598295592e-01 4.629626530884198e-01 -8.089790230443455e-01 1.577460023368625e-01 -5.075198591619959e-02
1.078960000000000e+11 1.861801048423536e-01 -5.269551777467889e-02 1.568827724709455e-02 -9.319557764394806e-01 4.625560118908711e-01 -8.093127363635253e-01 1.569191485081559e-01 -5.151499117483012e-02
1.079440000000000e+11 1.862921118156751e-01 -5.260958649538238e-02 1.548712790306420e-02 -9.319852889354183e-01 4.621477331028390e-01 -8.096484137522184e-01 1.529130061631017e-01 -4.863998433413800e-02
1.079920000000000e+11 1.862909270123480e-01 -5.356228955304352e-02 1.529647234024738e-02 -9.320132748899532e-01 4.617378416317598e-01 -8.099860433515398e-01 1.578594646880390e-01 -4.879430733923598e-02
1.080400000000000e+11 1.861962314205805e-01 -5.428089433936532e-02 1.511631893927236e-02 -9.320397097344951e-01 4.613263610154815e-01 -8.103256135748091e-01 1.576129283937057e-01 -4.954963168144524e-02
1.080880000000000e+11 1.864524699349781e-01 -5.109308933226969e-02 1.494668055117908e-02 -9.320645680727911e-01 4.609133094832871e-01 -8.106671152915688e-01 1.554356688673635e-01 -5.152521602965766e-02
1.081360000000000e+11 1.866068275551740e-01 -5.342303586020368e-02 1.478757540958358e-02 -9.320878239965972e-01 4.604986990613684e-01 -8.110105424384101e-01 1.579103262315643e-01 -5.178635763163791e-02
1.081840000000000e+11 1.862935542167001e-01 -5.391596303296281e-02 1.463902554593290e-02 -9.321094495685835e-01 4.600825365281483e-01 -8.113558919041506e-01 1.598437116910643e-01 -5.067970727960037e-02
1.082320000000000e+11 1.869107294364008e-01 -5.429751848686380e-02 1.450105165071685e-02 -9.321294166882009e-01 4.596648273564490e-01 -8.117031603372332e-01 1.611067994797661e-01 -5.189386619107617e-02
1.082800000000000e+11 1.875715129744029e-01 -5.465088728131132e-02 1.437366654584182e-02 -9.321476975511711e-01 4.592455814293566e-01 -8.120523406477363e-01 1.603000219796031e-01 -5.063108473664716e-02
1.083280000000000e+11 1.875655020099888e-01 -5.553013547775427e-02 1.425687051871785e-02 -9.321642642574600e-01 4.588248172767923e-01 -8.124034197127163e-01 1.593962106341747e-01 -5.003875365043403e-02
1.083760000000000e+11 1.877906953502945e-01 -5.492036733394753e-02 1.415065080159399e-02 -9.321790884371376e-01 4.584025625992202e-01 -8.127563780603123e-01 1.610550664326480e-01 -4.919082997675327e-02
1.084240000000000e+11 1.871002437462625e-01 -5.484931402323848e-02 1.405498477650425e-02 -9.321921411187735e-01 4.579788519051705e-01 -8.131111911199590e-01 1.619508908975249e-01 -5.044212367750515e-02
1.084720000000000e+11 1.871283214967695e-01 -5.373615207285541e-02 1.396984550205423e-02 -9.322033926905590e-01 4.575537227864569e-01 -8.134678319813141e-01 1.585421856949154e-01 -5.674581326396925e-02
1.085200000000000e+11 1.861515438974138e-01 -5.368151726546597e-02 1.389520635661219e-02 -9.322128129590685e-01 4.571272123709192e-01 -8.138262747777335e-01 1.554022296525935e-01 -5.449785492543899e-02
1.085680000000000e+11 1.871858969514056e-01 -5.264022543671038e-02 1.383104201878924e-02 -9.322203704773259e-01 4.566993531617478e-01 -8.141864966643008e-01 1.559602903614513e-01 -5.483715473717575e-02
1.086160000000000e+11 1.873459465274140e-01 -5.319484996803631e-02 1.377732799670183e-02 -9.322260323894480e-01 4.562701729683868e-01 -8.145484764643025e-01 1.552853384495647e-01 -5.244987614237642e-02
1.086640000000000e+11 1.885484211324465e-01 -5.384575364235698e-02 1.373403682331691e-02 -9.322297648333118e-01 4.558396982801641e-01 -8.149121923744459e-01 1.568177571487152e-01 -4.975108874283361e-02
1.087120000000000e+11 1.881066701080003e-01 -5.431502728745558e-02 1.370113420076116e-02 -9.322315327301725e-01 4.554079581008710e-01 -8.152776197642633e-01 1.592257313337781e-01 -5.052735782060563e-02
1.087600000000000e+11 1.884784770864300e-01 -5.512873135218093e-02 1.367857701874979e-02 -9.322313003267035e-01 4.549749868649247e-01 -8.156447295016079e-01 1.592099541021574e-01 -5.071380221640016e-02
1.088080000000000e+11 1.876163772291435e-01 -5.667148850463605e-02 1.366631397132100e-02 -9.322290322921519e-01 4.545408235185773e-01 -8.160134881524755e-01 1.592807784356126e-01 -5.129043953243304e-02
1.088560000000000e+11 1.879541100887105e-01 -5.683300824166262e-02 1.366428771679132e-02 -9.322246933952514e-01 4.541055097017194e-01 -8.163838596231062e-01 1.599845907839049e-01 -5.136040449962217e-02
1.089040000000000e+11 1.863044016566505e-01 -5.800420595468612e-02 1.367243714806611e-02 -9.322182484847040e-01 4.536690878311641e-01 -8.167558066985527e-01 1.599995678363888e-01 -5.157672558755844e-02
1.089520000000000e+11 1.867740286224285e-01 -5.699950978705534e-02 1.369069854732386e-02 -9.322096622591579e-01 4.532315999866620e-01 -8.171292918730806e-01 1.597295530971290e-01 -5.361100239030726e-02
1.090000000000000e+11 1.850817743366608e-01 -5.707220968452789e-02 1.371900598662895e-02 -9.321988991478908e-01 4.527930878803628e-01 -8.175042779800886e-01 1.584690293076792e-01 -5.574911542608261e-02
1.090480000000000e+11 1.874541851438735e-01 -5.454287155836039e-02 1.375729044675889e-02 -9.321859230672204e-01 4.523535921776144e-01 -8.178807281763019e-01 1.563827155470123e-01 -5.611964774248156e-02
1.090960000000000e+11 1.869273426157413e-01 -5.405117141936452e-02 1.380547863937620e-02 -9.321706971882010e-01 4.519131526804970e-01 -8.182586055235537e-01 1.590529020452955e-01 -5.635341799238414e-02
1.091440000000000e+11 1.892414014867127e-01 -5.288208774265855e-02 1.386349189706002e-02 -9.321531839435372e-01 4.514718083500183e-01 -8.186378718219450e-01 1.611735479400328e-01 -5.587049216316684e-02
1.091920000000000e+11 1.854455606185035e-01 -5.489511455612406e-02 1.393124545614382e-02 -9.321333452546687e-01 4.510295983910833e-01 -8.190184875741200e-01 1.600314256713513e-01 -5.829923181201908e-02
1.092400000000000e+11 1.859215452534668e-01 -5.667841134526222e-02 1.400864806715269e-02 -9.321111427125980e-01 4.505865625819321e-01 -8.194004117754969e-01 1.582212850319129e-01 -5.491207901703862e-02
1.092880000000000e+11 1.857508276708978e-01 -5.774840408326899e-02 1.409559959954972e-02 -9.320865378864411e-01 4.501427414999047e-01 -8.197836019258306e-01 1.574563829464925e-01 -5.447252479357193e-02
1.093360000000000e+11 1.863304082917218e-01 -5.791363041421617e-02 1.419199306356209e-02 -9.320594923900730e-01 4.496981761200599e-01 -8.201680142575966e-01 1.564358826520973e-01 -5.494930540972231e-02
1.093840000000000e+11 1.857921627687939e-01 -5.914702669811644e-02 1.429771488792625e-02 -9.320299678016938e-01 4.492529073532253e-01 -8.205536039375804e-01 1.568952525652267e-01 -5.402883446235156e-02
1.094320000000000e+11 1.852316562666832e-01 -5.997198429614702e-02 1.441264519480843e-02 -9.319979254978789e-01 4.488069756893224e-01 -8.209403251550916e-01 1.565776323978845e-01 -5.368655088552046e-02
1.094800000000000e+11 1.874833199756261e-01 -6.092385609354985e-02 1.453665842599190e-02 -9.319633272335817e-01 4.483604208475472e-01 -8.213281313611412e-01 1.568872275537593e-01 -4.811545884721229e-02
1.095280000000000e+11 1.850309655686203e-01 -6.171316471898686e-02 1.466962279616059e-02 -9.319261348878165e-01 4.479132827264558e-01 -8.217169750586589e-01 1.562321755248515e-01 -5.146736366692892e-02
1.095760000000000e+11 1.837897578506326e-01 -5.869396917307772e-02 1.481139973783315e-02 -9.318863104735315e-01 4.474656049293138e-01 -8.221068055634334e-01 1.565868466681409e-01 -5.845563019731565e-02
1.096240000000000e+11 1.818668547398631e-01 -5.869547028791965e-02 1.496184029793351e-02 -9.318438157805701e-01 4.470174361292360e-01 -8.224975684456141e-01 1.604994765327759e-01 -5.948454254482136e-02
1.096720000000000e+11 1.834642810767229e-01 -5.924290174293897e-02 1.512078230324997e-02 -9.317986125147364e-01 4.465688287355991e-01 -8.228892057247164e-01 1.602645558752498e-01 -6.044965620118619e-02
1.097200000000000e+11 1.847338784064622e-01 -5.849909219348508e-02 1.528804823213042e-02 -9.317506633287390e-01 4.461198404768703e-01 -8.232816554981023e-01 1.621552307870663e-01 -6.266906151990878e-02
1.097680000000000e+11 1.827176884552196e-01 -6.182431219681820e-02 1.546344605897170e-02 -9.316999313615814e-01 4.456705340716223e-01 -8.236748524122904e-01 1.593337755475515e-01 -5.855638148632102e-02
1.098160000000000e+11 1.831824132783174e-01 -6.142628934640769e-02 1.564676907623276e-02 -9.316463797292778e-01 4.452209753615610e-01 -8.240687285460543e-01 1.575498706641976e-01 -5.764879315048939e-02
1.098640000000000e+11 1.821276172340247e-01 -6.078567939740526e-02 1.583780046207836e-02 -9.315899717294529e-01 4.447712318548296e-01 -8.244632151377326e-01 1.584254067449103e-01 -5.812588396113997e-02
1.099120000000000e+11 1.816680646068166e-01 -6.076601854191208e-02 1.603631453401015e-02 -9.315306700935523e-01 4.443213713190780e-01 -8.248582428474039e-01 1.571144338541021e-01 -5.691557676899825e-02
1.099600000000000e+11 1.811526205871321e-01 -5.971389876346929e-02 1.624207636976030e-02 -9.314684374680967e-01 4.438714620660933e-01 -8.252537416445139e-01 1.562829323968030e-01 -5.823325343642571e-02
1.100080000000000e+11 1.822278753249730e-01 -5.914374025839684e-02 1.667434089321942e-02 -9.313350303624296e-01 4.429717856115961e-01 -8.260458614435006e-01 1.561643846128776e-01 -5.546646590502138e-02
1.100560000000000e+11 1.815210368156198e-01 -5.918891249532694e-02 1.713252324785849e-02 -9.311894572764374e-01 4.420727990622835e-01 -8.268389887881635e-01 1.556458043555532e-01 -5.735776288556071e-02
1.101040000000000e+11 1.821241614589910e-01 -5.927624999761275e-02 1.761448303117442e-02 -9.310314501306022e-01 4.411751382290379e-01 -8.276325373184071e-01 1.544223158139813e-01 -5.546411990373452e-02
1.101520000000000e+11 1.805310054204944e-01 -6.140676081713651e-02 1.811802788896393e-02 -9.308607630627750e-01 4.402794734685597e-01 -8.284259248522896e-01 1.547887988462334e-01 -5.583351300195694e-02
1.102000000000000e+11 1.804266188133603e-01 -6.017408538167520e-02 1.864094647793766e-02 -9.306771684704239e-01 4.393864925327817e-01 -8.292185822722882e-01 1.535628016679312e-01 -5.677540208077875e-02
1.102480000000000e+11 1.790439174921163e-01 -6.198340081524779e-02 1.945681824674904e-02 -9.303771291785674e-01 4.380535541551318e-01 -8.304050202928446e-01 1.531834160604518e-01 -5.392592350093726e-02
1.102960000000000e+11 1.795171987587637e-01 -6.067446712642815e-02 2.001861720400131e-02 -9.301604119465611e-01 4.371702531669997e-01 -8.311935690958583e-01 1.562959418369732e-01 -5.479386004495160e-02
1.103440000000000e+11 1.770623811980108e-01 -6.212766849564264e-02 2.059234903485349e-02 -9.299301669801097e-01 4.362919520038963e-01 -8.319796847249151e-01 1.557230710297337e-01 -5.480852200721066e-02
1.103920000000000e+11 1.785132098779960e-01 -6.037305809328646e-02 2.117603787600612e-02 -9.296862700305869e-01 4.354192584167148e-01 -8.327629740195281e-01 1.571625319150854e-01 -5.672199395602220e-02
1.104400000000000e+11 1.754961820262407e-01 -6.159774619294546e-02 2.176775604017920e-02 -9.294286167269470e-01 4.345527590887018e-01 -8.335430729595624e-01 1.557422770978842e-01 -5.719503396364138e-02
1.104880000000000e+11 1.773883727516117e-01 -5.978376072335233e-02 2.236562212990474e-02 -9.291571237373888e-01 4.336930299926509e-01 -8.343196401199664e-01 1.560998476409714e-01 -5.776351800309439e-02
1.105360000000000e+11 1.771513192079189e-01 -5.962168900781485e-02 2.326993373922400e-02 -9.287238005209053e-01 4.324173771045925e-01 -8.354771740474286e-01 1.559525872074242e-01 -5.788396472875130e-02
1.105840000000000e+11 1.737959311395387e-01 -6.046386861007016e-02 2.387531985497238e-02 -9.284174605326085e-01 4.315770356467450e-01 -8.362435816838087e-01 1.547253636749898e-01 -5.942543557637923e-02
1.106320000000000e+11 1.773305682823398e-01 -5.756574455261112e-02 2.448087639179846e-02 -9.280971106382834e-01 4.307453720519852e-01 -8.370054931479256e-01 1.545747745045618e-01 -5.877118350905343e-02
1.106800000000000e+11 1.766096963302955e-01 -5.705173513095056e-02 2.508509589783996e-02 -9.277627241417982e-01 4.299228848850285e-01 -8.377627089212193e-01 1.543718150268586e-01 -5.765779378648864e-02
1.107280000000000e+11 1.792232478542489e-01 -5.612747854568705e-02 2.568653889176774e-02 -9.274142850107369e-01 4.291100457151909e-01 -8.385150654944342e-01 1.546196220449283e-01 -5.821691098208687e-02
1.107760000000000e+11 1.782045925755680e-01 -5.773731543935824e-02 2.658051647429418e-02 -9.268652727178562e-01 4.279098068057897e-01 -8.396341983082399e-01 1.533428223916234e-01 -5.775649481739131e-02
1.108240000000000e+11 1.786895162310559e-01 -5.794073294887828e-02 2.716926048568454e-02 -9.264817115462192e-01 4.271228626730664e-01 -8.403738820765604e-01 1.530907197966907e-01 -5.691921464347002e-02
1.108720000000000e+11 1.776815140825561e-01 -5.961528469220694e-02 2.775094814889213e-02 -9.260841380827216e-01 4.263468492625850e-01 -8.411083807798180e-01 1.530015382365526e-01 -5.670734973708368e-02
1.109200000000000e+11 1.766384701152453e-01 -6.051646291208776e-02 2.832456409951832e-02 -9.256725977332338e-01 4.255820256654070e-01 -8.418376691285434e-01 1.531792414012437e-01 -5.771632039749100e-02
1.109680000000000e+11 1.758075227726589e-01 -6.073170098773319e-02 2.888915055227339e-02 -9.252471526505952e-01 4.248286020452671e-01 -8.425617475621898e-01 1.532478123500159e-01 -5.658973716014770e-02
1.110160000000000e+11 1.771215076101337e-01 -5.966095676030091e-02 2.944380604037437e-02 -9.248078845032246e-01 4.240867347742655e-01 -8.432806419471599e-01 1.557456361836016e-01 -5.670136518081654e-02
1.110640000000000e+11 1.768738632136491e-01 -5.969255327799231e-02 3.025535243478446e-02 -9.241232971096672e-01 4.229958120728680e-01 -8.443493829689271e-01 1.561244824946525e-01 -5.740101597326738e-02
1.111120000000000e+11 1.763491456060206e-01 -6.053905724627504e-02 3.078175967321597e-02 -9.236499701258128e-01 4.222831520905259e-01 -8.450556243609351e-01 1.555108376041544e-01 -5.648012349678613e-02
1.111600000000000e+11 1.772268857661234e-01 -5.964324264071252e-02 3.129583176335513e-02 -9.231632665719832e-01 4.215821495203281e-01 -8.457570284449452e-01 1.561743581329450e-01 -5.666588054657811e-02
1.112080000000000e+11 1.766308013258659e-01 -6.135143785439252e-02 3.179707016433905e-02 -9.226633564191179e-01 4.208927439700997e-01 -8.464537474960713e-01 1.554272990273914e-01 -5.526658431423875e-02
1.112560000000000e+11 1.765626898998716e-01 -6.095252551664812e-02 3.228499890872557e-02 -9.221504322260784e-01 4.202148706213965e-01 -8.471459318946324e-01 1.558845479672644e-01 -5.557169788085488e-02
1.113040000000000e+11 1.744878827079167e-01 -6.271267413287702e-02 3.275914831524641e-02 -9.216247140701278e-01 4.195484719706069e-01 -8.478337210585143e-01 1.537295497269952e-01 -5.423301415543307e-02
1.113520000000000e+11 1.764819123566321e-01 -6.143186009564131e-02 3.344350767156090e-02 -9.208127002713596e-01 4.185702838650177e-01 -8.488574407625519e-01 1.543806987163986e-01 -5.483274302665495e-02
1.114000000000000e+11 1.755705447122567e-01 -6.144104079944541e-02 3.388130438216052e-02 -9.202561463829930e-01 4.179323155020468e-01 -8.495348229291333e-01 1.535154216291180e-01 -5.486767136359045e-02
1.114480000000000e+11 1.767540611896530e-01 -6.119266849058236e-02 3.430406350635160e-02 -9.196877938968437e-01 4.173055199168051e-01 -8.502083243529880e-01 1.529803227603997e-01 -5.514757742017542e-02
1.114960000000000e+11 1.760384083989457e-01 -6.144671707884187e-02 3.471159815050758e-02 -9.191079953185753e-01 4.166897164619969e-01 -8.508781248984143e-01 1.521674722038779e-01 -5.628330628397495e-02
1.115440000000000e+11 1.766611819614395e-01 -6.142125358147633e-02 3.510378004803134e-02 -9.185171344704184e-01 4.160846730240059e-01 -8.515444169747119e-01 1.517999455207305e-01 -5.643223180960075e-02
1.115920000000000e+11 1.763579097743747e-01 -6.228447519864774e-02 3.566307074835192e-02 -9.176110104890736e-01 4.151966837028789e-01 -8.525377085251107e-01 1.511387983453355e-01 -5.710154537970582e-02
1.116400000000000e+11 1.762680808048110e-01 -6.210017154970151e-02 3.601663263796512e-02 -9.169943456293576e-01 4.146172719508324e-01 -8.531961149115442e-01 1.514387434513918e-01 -5.780736337908781e-02
1.116880000000000e+11 1.761040339129874e-01 -6.391040869729929e-02 3.635485827610568e-02 -9.163681460192626e-01 4.140475265812069e-01 -8.538517336716506e-01 1.516696467915286e-01 -5.782318834438220e-02
1.117360000000000e+11 1.759192006154219e-01 -6.237647649680649e-02 3.667778057742163e-02 -9.157328837209786e-01 4.134871469138819e-01 -8.545047248488314e-01 1.524785620942752e-01 -5.853905702293458e-02
1.117840000000000e+11 1.765373406539146e-01 -6.311834806209196e-02 3.698538529180476e-02 -9.150890506564752e-01 4.129358647675197e-01 -8.551552038760480e-01 1.531335408082559e-01 -5.922546402965718e-02
1.118320000000000e+11 1.767753812691478e-01 -6.355909648997678e-02 3.727762695469669e-02 -9.144371667291953e-01 4.123934278710036e-01 -8.558032469701078e-01 1.540670209881368e-01 -6.005656155622501e-02
1.118800000000000e+11 1.766837047798478e-01 -6.473690603543915e-02 3.768710183532788e-02 -9.134454601814119e-01 4.115957617025280e-01 -8.567708652636820e-01 1.539967653933845e-01 -6.060277825997189e-02
1.119280000000000e+11 1.763701607725671e-01 -6.481162131730285e-02 3.794097707640200e-02 -9.127759138902229e-01 4.110741363347346e-01 -8.574130878384608e-01 1.548845765972060e-01 -6.144498447705714e-02
1.119760000000000e+11 1.768049367854025e-01 -6.461138504565656e-02 3.817986635905959e-02 -9.121003450868495e-01 4.105601258647987e-01 -8.580531403379499e-01 1.545705541435224e-01 -6.183130204499869e-02
1.120240000000000e+11 1.750185813632232e-01 -6.133849784315117e-02 3.840407867749535e-02 -9.114193945565038e-01 4.100532435881068e-01 -8.586911198109393e-01 1.550324493324628e-01 -6.490106440436794e-02
1.120720000000000e+11 1.755066599725855e-01 -6.203070862456318e-02 3.861393794745956e-02 -9.107337360525567e-01 4.095529788244675e-01 -8.593271094893635e-01 1.526697220401811e-01 -6.353903083909702e-02
1.121200000000000e+11 1.753288636824417e-01 -6.142137669078108e-02 3.880975585488437e-02 -9.100440726662714e-01 4.090588217968761e-01 -8.599611622376392e-01 1.529896287016723e-01 -6.466803624834298e-02
1.121680000000000e+11 1.776097803978633e-01 -6.182573012933264e-02 3.907777068157815e-02 -9.090036696958007e-01 4.083279613289666e-01 -8.609086277122888e-01 1.533344079402803e-01 -6.386613146971970e-02
1.122160000000000e+11 1.781819946648941e-01 -6.364790245945488e-02 3.923983997667737e-02 -9.083072228598468e-01 4.078468929517367e-01 -8.615378571923659e-01 1.525732247473611e-01 -6.469827477182155e-02
1.122640000000000e+11 1.781515803504941e-01 -6.564109765282750e-02 3.938916829082136e-02 -9.076093984958481e-01 4.073701307163993e-01 -8.621651470436220e-01 1.520428826528736e-01 -6.263885564635087e-02
1.123120000000000e+11 1.744394091647176e-01 -5.921853323337962e-02 3.952623567718422e-02 -9.069110013715924e-01 4.068971162798976e-01 -8.627904696857122e-01 1.567315956212841e-01 -6.168723433620855e-02
1.123600000000000e+11 1.809042828883687e-01 -6.489639887989547e-02 3.965155998558333e-02 -9.062128677605387e-01 4.064272491402374e-01 -8.634137920945957e-01 1.537273463316614e-01 -6.371545652747931e-02
1.124080000000000e+11 1.776967338812322e-01 -6.873073498720364e-02 3.976572566285089e-02 -9.055158717192436e-01 4.059598665285306e-01 -8.640350721514954e-01 1.535485516878543e-01 -6.259449704892837e-02
1.124560000000000e+11 1.798019653776346e-01 -6.732558929235058e-02 3.991746221064713e-02 -9.044745354746215e-01 4.052618638789177e-01 -8.649630589142702e-01 1.541218379268911e-01 -6.138224242346988e-02
1.125040000000000e+11 1.734494248058698e-01 -6.691756131281906e-02 4.000674652940652e-02 -9.037844774762680e-01 4.047974109439652e-01 -8.655790593803748e-01 1.547277795407619e-01 -6.123833010768748e-02
1.125520000000000e+11 1.776433460742489e-01 -6.556489351576002e-02 4.008758184749225e-02 -9.030989007458177e-01 4.043326675620780e-01 -8.661929200067920e-01 1.551761874992953e-01 -6.150477824555373e-02
1.126000000000000e+11 1.781052116872973e-01 -6.471364260285177e-02 4.016085759591360e-02 -9.024188235149175e-01 4.038667770040796e-01 -8.668046033227030e-01 1.550809078110069e-01 -6.094068281361028e-02
1.126480000000000e+11 1.775814848496936e-01 -6.555553298588952e-02 4.022743913609422e-02 -9.017452903373822e-01 4.033989016123629e-01 -8.674140449524222e-01 1.550840445986883e-01 -5.943012941851859e-02
1.126960000000000e+11 1.758956272975458e-01 -6.302230500947065e-02 4.031662020976622e-02 -9.007495973162792e-01 4.026915737766622e-01 -8.683238176515023e-01 1.564300780386025e-01 -5.874428426107712e-02
1.127440000000000e+11 1.784088672647067e-01 -6.517466726369234e-02 4.037035217157925e-02 -9.000971045637233e-01 4.022151057198687e-01 -8.689273198758717e-01 1.563631039132973e-01 -5.974741288452716e-02
1.127920000000000e+11 1.785858495517022e-01 -6.660898571726701e-02 4.042079310574329e-02 -8.994549206279795e-01 4.017336410121082e-01 -8.695283870216373e-01 1.546147562166006e-01 -6.011524069480077e-02
1.128400000000000e+11 1.787506362333161e-01 -6.937510244355598e-02 4.046910386565174e-02 -8.988241656542045e-01 4.012462033233391e-01 -8.701270186034604e-01 1.532004941444422e-01 -5.912421623859210e-02
1.128880000000000e+11 1.798652511734951e-01 -6.980857751339202e-02 4.051648332084616e-02 -8.982059815809464e-01 4.007517601983326e-01 -8.707232393127324e-01 1.526611126356803e-01 -5.907535372527009e-02
1.129360000000000e+11 1.804581613308111e-01 -7.207818056528863e-02 4.056412986048306e-02 -8.976015226109412e-01 4.002492519202127e-01 -8.713170887503764e-01 1.511848122871581e-01 -5.909380900837897e-02
1.129840000000000e+11 1.808912815660661e-01 -7.026955093422897e-02 4.063859110681330e-02 -8.967230814059255e-01 3.994781113539208e-01 -8.722034888172214e-01 1.509397680131938e-01 -6.091640045261741e-02
1.130320000000000e+11 1.826687447657293e-01 -7.111093287506441e-02 4.069188904124600e-02 -8.961578900544056e-01 3.989509935565637e-01 -8.727915627384247e-01 1.516933676086703e-01 -6.096324051855826e-02
1.130800000000000e+11 1.818287177206895e-01 -7.096881313317784e-02 4.074941818065645e-02 -8.956102605084980e-01 3.984123924325607e-01 -8.733773781549794e-01 1.509163395038974e-01 -6.228255239889120e-02
1.131280000000000e+11 1.821137952703572e-01 -7.310121167305952e-02 4.081217121110420e-02 -8.950812005736736e-01 3.978615010416996e-01 -8.739609003383919e-01 1.504603250492374e-01 -6.299359156611990e-02
1.131760000000000e+11 1.813102919540879e-01 -7.359770883998858e-02 4.088109273355624e-02 -8.945716968182590e-01 3.972975490995966e-01 -8.745420680616829e-01 1.484944011074061e-01 -6.446200291192529e-02
1.132240000000000e+11 1.785195225860190e-01 -7.627469996359984e-02 4.095715402063511e-02 -8.940827166855229e-01 3.967197274977334e-01 -8.751208293911098e-01 1.481829403207276e-01 -6.516714152296685e-02
1.132720000000000e+11 1.798639344324348e-01 -7.182005056782997e-02 4.108694215947186e-02 -8.933897884446448e-01 3.958249811045315e-01 -8.759844205781215e-01 1.478529257291455e-01 -6.852726930684487e-02
1.133200000000000e+11 1.788232005104129e-01 -7.775527392702936e-02 4.118570935157139e-02 -8.929561148875567e-01 3.952082900971836e-01 -8.765571640932295e-01 1.482264950685719e-01 -6.699797781927637e-02
1.133680000000000e+11 1.784396549070366e-01 -7.774365207736710e-02 4.129582078028619e-02 -8.925459563052286e-01 3.945741530532670e-01 -8.771275966086065e-01 1.508442107848864e-01 -6.920149826758729e-02
1.134160000000000e+11 1.763970595371032e-01 -8.048436975411455e-02 4.141851142896312e-02 -8.921600204653261e-01 3.939215095635154e-01 -8.776957472565804e-01 1.515191698286121e-01 -6.772635662230161e-02
1.134640000000000e+11 1.757450131330771e-01 -7.704584230862233e-02 4.155482159811193e-02 -8.917989551142607e-01 3.932494518504386e-01 -8.782615676085481e-01 1.519648780907412e-01 -7.097261912511903e-02
1.135120000000000e+11 1.752316396007379e-01 -7.964292947160999e-02 4.178649905490804e-02 -8.913052345540319e-01 3.922034773395723e-01 -8.791055993598237e-01 1.523122976716175e-01 -6.934184812553959e-02
1.135600000000000e+11 1.756474288982533e-01 -7.539271306402272e-02 4.196009252901246e-02 -8.910086832623352e-01 3.914801293069757e-01 -8.796649148573504e-01 1.523400259133801e-01 -7.145737807883677e-02
1.136080000000000e+11 1.744564163489749e-01 -7.854250318706338e-02 4.214980210008629e-02 -8.907386537939652e-01 3.907354210219353e-01 -8.802213735968432e-01 1.524175128142162e-01 -7.076686542743077e-02
1.136560000000000e+11 1.744158102608827e-01 -7.465998276676356e-02 4.235629019028296e-02 -8.904955063973256e-01 3.899689105092253e-01 -8.807748552698234e-01 1.506089753158822e-01 -7.348746311021929e-02
1.137040000000000e+11 1.743129783027356e-01 -7.568635992019229e-02 4.258028619616520e-02 -8.902795918516787e-01 3.891800741582532e-01 -8.813252849325458e-01 1.513488259481438e-01 -7.421921541968675e-02
1.137520000000000e+11 1.750874396993033e-01 -7.753272214435759e-02 4.282260723382887e-02 -8.900912553651321e-01 3.883682842240564e-01 -8.818726320187671e-01 1.504366503138672e-01 -7.341652700983332e-02
1.138000000000000e+11 1.764610382057973e-01 -7.668378097174708e-02 4.322231634588940e-02 -8.898611957391545e-01 3.871060256945675e-01 -8.826878437593775e-01 1.514830120885639e-01 -7.265752644803086e-02
1.138480000000000e+11 1.771099213853014e-01 -7.703204893231977e-02 4.351431086612322e-02 -8.897432065160074e-01 3.862337353488988e-01 -8.832274429176769e-01 1.518702597578628e-01 -7.224590563942722e-02
1.138960000000000e+11 1.759961630056825e-01 -7.784290297181369e-02 4.382782547834966e-02 -8.896538024055664e-01 3.853360226306147e-01 -8.837639097774689e-01 1.521082270191101e-01 -7.095137684685722e-02
1.139440000000000e+11 1.776232853635737e-01 -7.951101678678058e-02 4.416359170346941e-02 -8.895931946721181e-01 3.844123825832642e-01 -8.842971233315651e-01 1.532207967462884e-01 -7.066500651323508e-02
1.139920000000000e+11 1.753262572174225e-01 -7.912135862041089e-02 4.452212228640361e-02 -8.895615498978604e-01 3.834624974306558e-01 -8.848268795929811e-01 1.528185464401877e-01 -7.058477383063920e-02
1.140400000000000e+11 1.740526499108959e-01 -7.899382789299639e-02 4.490374376002613e-02 -8.895589802076401e-01 3.824862084361936e-01 -8.853529130190309e-01 1.526147472378357e-01 -7.151855737321001e-02
1.140880000000000e+11 1.768706835359222e-01 -7.941070610463000e-02 4.551991049606195e-02 -8.896097629321541e-01 3.809721241526082e-01 -8.861343421661297e-01 1.534639804672868e-01 -7.111253305905048e-02
1.141360000000000e+11 1.740548323947931e-01 -7.898887262670064e-02 4.596021057672948e-02 -8.896799990602753e-01 3.799295399432119e-01 -8.866498437192132e-01 1.521155115164693e-01 -7.158515526448206e-02
1.141840000000000e+11 1.752156704116862e-01 -7.886615421487962e-02 4.642452562573746e-02 -8.897792291786785e-01 3.788602724964090e-01 -8.871607455643360e-01 1.520587834308891e-01 -7.218957366043413e-02
1.142320000000000e+11 1.727974410565931e-01 -7.747637156491559e-02 4.691319669290854e-02 -8.899073588730929e-01 3.777641638664073e-01 -8.876668634505738e-01 1.495752070601863e-01 -7.349514034655402e-02
1.142800000000000e+11 1.741695551958741e-01 -7.741967498499312e-02 4.742652772733653e-02 -8.900643033299473e-01 3.766410367777900e-01 -8.881680210099340e-01 1.483614063491616e-01 -7.309893772025594e-02
1.143280000000000e+11 1.748633049754002e-01 -7.714737778388719e-02 4.824316262804870e-02 -8.903535896787249e-01 3.749053890748152e-01 -8.889100284993167e-01 1.482880616441037e-01 -7.284376247195470e-02
1.143760000000000e+11 1.743077757449707e-01 -7.645883543179077e-02 4.881885003831038e-02 -8.905822186599557e-01 3.737142144746815e-01 -8.893979310101533e-01 1.468392979324319e-01 -7.252058147999055e-02
1.144240000000000e+11 1.748283196186746e-01 -7.854206156226293e-02 4.941955552200278e-02 -8.908393163873906e-01 3.724958198878846e-01 -8.898801764209111e-01 1.473158538475477e-01 -7.152758544519026e-02
1.144720000000000e+11 1.735900937152159e-01 -7.711526047778415e-02 5.004502328847212e-02 -8.911247528817486e-01 3.712504094145314e-01 -8.903564933373904e-01 1.456762601212900e-01 -7.236286300129255e-02
1.145200000000000e+11 1.728710094206867e-01 -7.738607079349577e-02 5.069478124369548e-02 -8.914383984213053e-01 3.699783224717563e-01 -8.908265707712567e-01 1.450616189882441e-01 -7.216080966248327e-02
1.145680000000000e+11 1.720848723880760e-01 -7.700768591064532e-02 5.136818910501897e-02 -8.917801301874040e-01 3.686799899822349e-01 -8.912900905877682e-01 1.445601585821764e-01 -7.353251913536923e-02
1.146160000000000e+11 1.710009223111429e-01 -7.663673208213409e-02 5.242096649086004e-02 -8.923451436053048e-01 3.666843253910483e-01 -8.919724486139010e-01 1.433565678434022e-01 -7.507892629202483e-02
1.146640000000000e+11 1.710481568528057e-01 -7.706052134000836e-02 5.315012717241294e-02 -8.927565336800751e-01 3.653224804887700e-01 -8.924184689100366e-01 1.430777885270918e-01 -7.580016025948570e-02
1.147120000000000e+11 1.714527344975228e-01 -7.713940974495187e-02 5.390019697275923e-02 -8.931954315845066e-01 3.639360947453261e-01 -8.928572913467725e-01 1.440953784426893e-01 -7.567488826839895e-02
1.147600000000000e+11 1.715970403692558e-01 -7.757758602201881e-02 5.467019328458315e-02 -8.936615611479057e-01 3.625257240046187e-01 -8.932888893893502e-01 1.457318975303969e-01 -7.707779046439731e-02
1.148080000000000e+11 1.722033668784053e-01 -7.799927499904129e-02 5.545889844617425e-02 -8.941545855793581e-01 3.610920400187293e-01 -8.937132511309505e-01 1.473054574937447e-01 -7.669788294964740e-02
1.148560000000000e+11 1.721696325056189e-01 -7.769588458409078e-02 5.626480436329863e-02 -8.946741003388938e-01 3.596358819615956e-01 -8.941303565328171e-01 1.481698023391665e-01 -7.705649857212263e-02
1.149040000000000e+11 1.720270037940957e-01 -7.752681532641631e-02 5.750186464937787e-02 -8.955019894422707e-01 3.574118073258303e-01 -8.947423222091999e-01 1.482387228186338e-01 -7.869751899013584e-02
1.149520000000000e+11 1.715778803333540e-01 -7.757489167717625e-02 5.834236645204143e-02 -8.960854570916783e-01 3.559043061964368e-01 -8.951411721563617e-01 1.501628242494392e-01 -8.124584764358961e-02
1.150000000000000e+11 1.724276713405593e-01 -7.605474711103770e-02 5.919290161732749e-02 -8.966933386042359e-01 3.543785367004139e-01 -8.955327750137415e-01 1.482408226680479e-01 -8.141309328417039e-02
