! Generated by Phase I extraction
# Hz S RI R 50
1.000000000000000e+07 -1.260599779654798e-02 -1.251862837987700e-02 9.788149186730956e-01 -1.917238639648404e-02 9.785398166289724e-01 -9.299045076235881e-03 2.254641484059750e-02 1.625079303466063e-03
5.186875000000000e+07 7.485669810175574e-03 -1.132756038177316e-02 9.786148673263609e-01 -1.961988921407647e-02 9.783420136318294e-01 -9.854929037162917e-03 2.832413089273804e-02 -3.239563888168009e-03
9.373750000000000e+07 6.948076413491994e-03 -8.483941687685794e-03 9.784148174972150e-01 -2.006739065193786e-02 9.781442116969272e-01 -1.041081040996555e-02 1.606236369647671e-02 -3.492721111365369e-03
1.356062500000000e+08 6.616551551421719e-03 -9.051037040650528e-03 9.782147705533027e-01 -2.051488917243004e-02 9.779464119307421e-01 -1.096668514347539e-02 1.638262228719924e-02 -5.640406706644412e-03
1.774750000000000e+08 1.401931439852222e-02 -5.267098142358529e-03 9.780147278131555e-01 -2.096238321934080e-02 9.777486155190362e-01 -1.152254764607547e-02 1.660758919151974e-02 -1.473975258108529e-03
2.193437500000000e+08 1.572535765496642e-02 -1.436309224033211e-03 9.778146912761796e-01 -2.140987016403694e-02 9.775508245264029e-01 -1.207839049375026e-02 1.667037872900777e-02 -2.178202632811696e-03
2.612125000000000e+08 1.538556970472947e-02 2.114547656952465e-03 9.776146630225103e-01 -2.185734643002527e-02 9.773530408743584e-01 -1.263420519833456e-02 1.659960056875837e-02 1.354498496335590e-04
3.030812500000000e+08 1.402155292637326e-02 1.113348967161156e-03 9.774146445659997e-01 -2.230480762321583e-02 9.771552660500561e-01 -1.318998264097247e-02 1.692204969942516e-02 4.508720035277904e-04
3.449500000000000e+08 1.274400575375172e-02 2.873245932620492e-03 9.772146373550460e-01 -2.275224853529035e-02 9.769575014802567e-01 -1.374571300866576e-02 1.554790985328395e-02 3.455459327584006e-03
3.868187500000000e+08 1.643421138727549e-02 3.217572441329371e-03 9.770146427062512e-01 -2.319966315194242e-02 9.767597484025243e-01 -1.430138587952346e-02 1.770309251104139e-02 3.087680639660917e-03
4.286875000000000e+08 1.520845275023444e-02 7.357265361131908e-03 9.768146622689015e-01 -2.364704483890236e-02 9.765620084445145e-01 -1.485699042693607e-02 1.593352593496809e-02 4.470883884013124e-03
4.705562500000000e+08 1.183294946586527e-02 7.408473289358552e-03 9.766146975646390e-01 -2.409438647600657e-02 9.763642830010495e-01 -1.541251538280126e-02 1.403560769424508e-02 5.851849377043207e-03
5.124250000000000e+08 1.345110194346014e-02 7.422504797734874e-03 9.764147505701530e-01 -2.454168063852618e-02 9.761665737867947e-01 -1.596794903136919e-02 1.608494643733274e-02 5.488320547541734e-03
5.542937500000000e+08 1.166295633494246e-02 7.167778343264646e-03 9.762148237277393e-01 -2.498891975845767e-02 9.759688828870761e-01 -1.652327929845080e-02 1.513251778918888e-02 5.619993199334809e-03
5.961625000000000e+08 1.214307444668451e-02 7.244489933042517e-03 9.760149196779854e-01 -2.543609625769258e-02 9.757712126055983e-01 -1.707849374581314e-02 1.438378568291705e-02 5.552307326048317e-03
6.380312500000000e+08 1.246987739775096e-02 7.051291170066968e-03 9.758150414119383e-01 -2.588320271883500e-02 9.755735655799691e-01 -1.763357960457683e-02 1.465770691530941e-02 6.395169047690065e-03
6.799000000000000e+08 1.461242713129295e-02 7.021508164494921e-03 9.756151923321380e-01 -2.633023205440141e-02 9.753759448393977e-01 -1.818852381544236e-02 1.592885601490880e-02 6.468749471956311e-03
7.217687500000000e+08 1.448495825080904e-02 7.916008258001558e-03 9.754153762255101e-01 -2.677717764665130e-02 9.751783538295705e-01 -1.874331308443832e-02 1.633940738337361e-02 7.356242827821462e-03
7.636375000000000e+08 1.390990069665001e-02 7.633903783315446e-03 9.752155970436941e-01 -2.722403351908035e-02 9.749807962561148e-01 -1.929793389490455e-02 1.621626023115526e-02 7.389766351368473e-03
8.055062500000000e+08 1.362606792091750e-02 8.646662437715899e-03 9.750158588745511e-01 -2.767079450684721e-02 9.747832760285999e-01 -1.985237258475541e-02 1.539088163544708e-02 7.776468828320541e-03
8.473750000000000e+08 1.232550348968813e-02 8.968652910582567e-03 9.748161660410150e-01 -2.811745641655784e-02 9.745857973299539e-01 -2.040661536898035e-02 1.487715922260675e-02 8.240537256175020e-03
8.892437500000000e+08 1.446357180497249e-02 8.992868825997412e-03 9.746165231631370e-01 -2.856401618232096e-02 9.743883647081122e-01 -2.096064840720692e-02 1.665273010781742e-02 8.318101717682942e-03
9.311125000000000e+08 1.676279619724618e-02 9.525231951831340e-03 9.744169352897166e-01 -2.901047201491399e-02 9.741909832155149e-01 -2.151445781672830e-02 1.880025855397449e-02 8.405415869142372e-03
9.729812500000000e+08 1.481765298593954e-02 1.036311767703088e-02 9.742174076697639e-01 -2.945682353644680e-02 9.739936581959631e-01 -2.206802966881013e-02 1.687659049588201e-02 8.818162737444471e-03
1.014850000000000e+09 1.632396933919597e-02 1.046209170681297e-02 9.740179454563301e-01 -2.990307192103630e-02 9.737963949982272e-01 -2.262135005912834e-02 1.808858896493546e-02 8.784429559340310e-03
1.056718750000000e+09 1.684971630278918e-02 1.048363294661375e-02 9.738185539694535e-01 -3.034922003487469e-02 9.735991992408494e-01 -2.317440514186917e-02 1.853353744060648e-02 9.479586258335750e-03
1.098587500000000e+09 1.877957463095306e-02 1.046447587573141e-02 9.736192385566714e-01 -3.079527256588306e-02 9.734020766461883e-01 -2.372718114970294e-02 2.024103105414923e-02 9.610217802607785e-03
1.140456250000000e+09 1.681204003716950e-02 1.103226025600695e-02 9.734200045571552e-01 -3.124123615336382e-02 9.732050330104438e-01 -2.427966438068372e-02 1.853729781327953e-02 1.045524870893112e-02
1.182325000000000e+09 1.709255181158694e-02 1.150105773092994e-02 9.732208570857401e-01 -3.168711951383488e-02 9.730080739610669e-01 -2.483184124345010e-02 2.019385836294066e-02 1.033521772123978e-02
1.224193750000000e+09 1.824693926369164e-02 1.055712162424257e-02 9.730218012548069e-01 -3.213293358122406e-02 9.728112051716035e-01 -2.538369830123138e-02 2.098618975989561e-02 1.298990015141770e-02
1.266062500000000e+09 1.628474398615158e-02 9.003338770516659e-03 9.728228422085595e-01 -3.257869162707419e-02 9.726144323028758e-01 -2.593522231185557e-02 1.705538094575338e-02 7.192672485351863e-03
1.307931250000000e+09 1.498808344522355e-02 1.150234781935411e-02 9.726239849674725e-01 -3.302440929555740e-02 9.724177610196832e-01 -2.648640030436954e-02 2.447003027082759e-02 1.410204740653351e-02
1.349800000000000e+09 1.685464225550331e-02 1.207900159502077e-02 9.724252346320962e-01 -3.347010434134452e-02 9.722211968969479e-01 -2.703722006394808e-02 2.197773318901206e-02 1.278070874155346e-02
1.391668750000000e+09 1.552895549916147e-02 1.264225392002271e-02 9.722265965426850e-01 -3.391579466606308e-02 9.720247452622726e-01 -2.758766945044687e-02 2.022247895293192e-02 1.284597359015897e-02
1.433537500000000e+09 1.625804834879745e-02 1.275877411251890e-02 9.720280761460313e-01 -3.436149729672087e-02 9.718284115418793e-01 -2.813773633327481e-02 1.931940615338760e-02 1.288818699671594e-02
1.475406250000000e+09 1.713980203651123e-02 1.271638276924644e-02 9.718296791865113e-01 -3.480722841647799e-02 9.716322012695449e-01 -2.868740857548641e-02 1.956087689644371e-02 1.286157502363810e-02
1.517275000000000e+09 1.788354416064096e-02 1.293015926938653e-02 9.716314116700661e-01 -3.525300336999722e-02 9.714361201662634e-01 -2.923667412546369e-02 2.045803886697237e-02 1.303140120378966e-02
1.559143750000000e+09 1.899459437820317e-02 1.278062645845858e-02 9.714332798250863e-01 -3.569883669609148e-02 9.712401741188333e-01 -2.978552103813391e-02 2.118347103034477e-02 1.294657347907407e-02
1.601012500000000e+09 1.893533229055708e-02 1.333824820502546e-02 9.712352900039559e-01 -3.614474213423077e-02 9.710443690711307e-01 -3.033393748223669e-02 2.120199227238819e-02 1.316920785721710e-02
1.642881250000000e+09 1.706177153036939e-02 1.325994625692856e-02 9.710374485983185e-01 -3.659073265023998e-02 9.708487109415518e-01 -3.088191176262585e-02 2.018206060010979e-02 1.300884470344700e-02
1.684750000000000e+09 1.833431182050727e-02 1.320043893686767e-02 9.708397620788639e-01 -3.703682045804589e-02 9.706532056607644e-01 -3.142943233255813e-02 2.064823681986459e-02 1.290166956370059e-02
1.726618750000000e+09 1.950125615751037e-02 1.347974045015696e-02 9.706422371486464e-01 -3.748301702444459e-02 9.704578593751889e-01 -3.197648776352615e-02 2.163760371308252e-02 1.324826983813596e-02
1.768487500000000e+09 1.928762454693511e-02 1.328635510670245e-02 9.704448807148325e-01 -3.792933312410084e-02 9.702626783959003e-01 -3.252306675399430e-02 2.127054570300132e-02 1.310972522905320e-02
1.810356250000000e+09 1.947478100649068e-02 1.385798472094286e-02 9.702476997594726e-01 -3.837577886045004e-02 9.700676690745537e-01 -3.306915815994467e-02 2.145471174925101e-02 1.344042211584859e-02
1.852225000000000e+09 1.956392530126628e-02 1.367471030640734e-02 9.700507013593455e-01 -3.882236372296985e-02 9.698728378471508e-01 -3.361475101861120e-02 2.188608870586559e-02 1.335516504795717e-02
1.894093750000000e+09 2.126961754299615e-02 1.366881190788695e-02 9.698538926691194e-01 -3.926909659668743e-02 9.696781912522455e-01 -3.415983457118110e-02 2.284142584886562e-02 1.339944235513073e-02
1.935962500000000e+09 2.014581492904757e-02 1.372029660575873e-02 9.696572809158166e-01 -3.971598577548808e-02 9.694837358889971e-01 -3.470439827314890e-02 2.191952703310337e-02 1.330388609225333e-02
1.977831250000000e+09 1.998964236484705e-02 1.405426229156950e-02 9.694608732990809e-01 -4.016303897984124e-02 9.692894783180528e-01 -3.524843176001708e-02 2.184555496989577e-02 1.358667322724048e-02
2.019700000000000e+09 2.084548439666571e-02 1.412926798368074e-02 9.692646770698080e-01 -4.061026340960201e-02 9.690954251841096e-01 -3.579192488053834e-02 2.281780906686602e-02 1.382123131446866e-02
2.061568750000000e+09 2.166653500135618e-02 1.405338676985844e-02 9.690686995390363e-01 -4.105766576716497e-02 9.689015832607816e-01 -3.633486771386473e-02 2.345748805878645e-02 1.378415056575334e-02
2.103437500000000e+09 2.115824355679579e-02 1.429646803924892e-02 9.688729480342817e-01 -4.150525227516294e-02 9.687079593841236e-01 -3.687725056929732e-02 2.326973866956279e-02 1.477281881111678e-02
2.145306250000000e+09 2.150891975997259e-02 1.418033611199100e-02 9.686774298339647e-01 -4.195302868752798e-02 9.685145603897656e-01 -3.741906398729723e-02 2.381549109501981e-02 1.477341348601233e-02
2.187175000000000e+09 2.217167085809164e-02 1.423134229271104e-02 9.684821521807371e-01 -4.240100030874377e-02 9.683213931162795e-01 -3.796029876743401e-02 2.407074643738989e-02 1.484940525852613e-02
2.229043750000000e+09 2.194717792304185e-02 1.418922072086243e-02 9.682871222768847e-01 -4.284917200288739e-02 9.681284643845005e-01 -3.850094594660525e-02 2.414177924644342e-02 1.512443007883966e-02
2.270912500000000e+09 2.194544872508232e-02 1.418768144965070e-02 9.680923472566245e-01 -4.329754821286888e-02 9.679357809728475e-01 -3.904099680635082e-02 2.415378431409649e-02 1.517719043339980e-02
2.312781250000000e+09 2.240530633587652e-02 1.406943152281793e-02 9.678978342029116e-01 -4.374613297889333e-02 9.677433496383028e-01 -3.958044286837160e-02 2.472834069716499e-02 1.546288732009228e-02
2.354650000000000e+09 2.359773696764475e-02 1.407373435395308e-02 9.677035901941093e-01 -4.419492994601806e-02 9.675511771379494e-01 -4.011927588850223e-02 2.554373624339239e-02 1.556341821457501e-02
2.396518750000000e+09 2.354200255395990e-02 1.417241323764180e-02 9.675096222556564e-01 -4.464394236958025e-02 9.673592701676241e-01 -4.065748787093588e-02 2.575098744746913e-02 1.568571735416956e-02
2.438387500000000e+09 2.273901272126305e-02 1.406914809664231e-02 9.673159372674569e-01 -4.509317311534523e-02 9.671676352587476e-01 -4.119507105946477e-02 2.538565819567754e-02 1.594696048835608e-02
2.480256250000000e+09 2.388724594346316e-02 1.424878753246017e-02 9.671225419380426e-01 -4.554262468965756e-02 9.669762787845930e-01 -4.173201795752458e-02 2.616804797876189e-02 1.611478749671409e-02
2.522125000000000e+09 2.309891297807678e-02 1.420503629139163e-02 9.669294429016945e-01 -4.599229924307183e-02 9.667852070353175e-01 -4.226832132072406e-02 2.615123557137778e-02 1.615729289922168e-02
2.563993750000000e+09 2.363737546006247e-02 1.401651108481351e-02 9.667366466411477e-01 -4.644219858066879e-02 9.665944261454479e-01 -4.280397416416437e-02 2.585586696922847e-02 1.633932922613670e-02
2.605862500000000e+09 2.329422385393069e-02 1.450612037713724e-02 9.665441595406283e-01 -4.689232418226018e-02 9.664039421324410e-01 -4.333896974776746e-02 2.627598262927648e-02 1.664276815889546e-02
2.647731250000000e+09 2.386971032507514e-02 1.423576950702534e-02 9.663519879205313e-01 -4.734267721853304e-02 9.662137609282437e-01 -4.387330157003112e-02 2.698262932847059e-02 1.665287159461443e-02
2.689600000000000e+09 2.344937455698879e-02 1.422221438544129e-02 9.661601380134923e-01 -4.779325855948868e-02 9.660238883697058e-01 -4.440696338308738e-02 2.654655170809681e-02 1.676419177588654e-02
2.731468750000000e+09 2.263435957877910e-02 1.429614142821512e-02 9.659686159198241e-01 -4.824406879125179e-02 9.658343301325555e-01 -4.493994919267771e-02 2.623142082973177e-02 1.678720034707241e-02
2.773337500000000e+09 2.375026264674080e-02 1.405270887686182e-02 9.657774276692110e-01 -4.869510820369798e-02 9.656450918063021e-01 -4.547225325470420e-02 2.681828908549931e-02 1.669241153498997e-02
2.815206250000000e+09 2.356098154196524e-02 1.436463288973154e-02 9.655865793176269e-01 -4.914637682087804e-02 9.654561789773942e-01 -4.600387007492920e-02 2.669228311821381e-02 1.701975722798483e-02
2.857075000000000e+09 2.423152302817860e-02 1.389567482762406e-02 9.653960768947214e-01 -4.959787441033581e-02 9.652675971769359e-01 -4.653479440360099e-02 2.734426890183720e-02 1.694520159218534e-02
2.898943750000000e+09 2.415641187206751e-02 1.391628016438808e-02 9.652059264251184e-01 -5.004960050252042e-02 9.650793519033907e-01 -4.706502124358851e-02 2.681485130898680e-02 1.696585730217292e-02
2.940812500000000e+09 2.488243799808503e-02 1.388440337063666e-02 9.650161338647231e-01 -5.050155438149734e-02 9.648914485629557e-01 -4.759454584451255e-02 2.770496474758657e-02 1.711872759163993e-02
2.982681250000000e+09 2.561131493141202e-02 1.365003260400778e-02 9.648267051483237e-01 -5.095373510295188e-02 9.647038925409539e-01 -4.812336368410443e-02 2.804962411879863e-02 1.713955636001413e-02
3.024550000000000e+09 2.503406354476521e-02 1.380734216355498e-02 9.646376460969057e-01 -5.140614149891683e-02 9.645166891312499e-01 -4.865147045428133e-02 2.747530931313606e-02 1.744417329058764e-02
3.066418750000000e+09 2.458659873348182e-02 1.386714981586454e-02 9.644489623709195e-01 -5.185877217288869e-02 9.643298435000310e-01 -4.917886205690490e-02 2.718516628480643e-02 1.723053694999551e-02
3.108287500000000e+09 2.466265691707036e-02 1.375745168226535e-02 9.642606595332411e-01 -5.231162550385371e-02 9.641433607539825e-01 -4.970553460478571e-02 2.745852711315271e-02 1.752003010543699e-02
3.150156250000000e+09 2.549879909912691e-02 1.386299328861056e-02 9.640727431458020e-01 -5.276469967447602e-02 9.639572460543500e-01 -5.023148442005482e-02 2.822915535106438e-02 1.750350252608177e-02
3.192025000000000e+09 2.575586974539598e-02 1.371769279226374e-02 9.638852187574866e-01 -5.321799268640570e-02 9.637715046044616e-01 -5.075670803918373e-02 2.851916330904936e-02 1.767930476004312e-02
3.233893750000000e+09 2.572384293725501e-02 1.368957004466692e-02 9.636980918300200e-01 -5.367150235213333e-02 9.635861415869769e-01 -5.128120219729265e-02 2.855190195015093e-02 1.771051150575280e-02
3.275762500000000e+09 2.548273275188205e-02 1.344640728596696e-02 9.635113676978200e-01 -5.412522631369723e-02 9.634011621081234e-01 -5.180496383254221e-02 2.840583422342935e-02 1.752905899674234e-02
3.317631250000000e+09 2.533395481233083e-02 1.348581528394024e-02 9.633250516185956e-01 -5.457916204582164e-02 9.632165712182897e-01 -5.232799008461734e-02 2.860405933492689e-02 1.781513467029602e-02
3.359500000000000e+09 2.678833438818917e-02 1.350705685156241e-02 9.631391488095655e-01 -5.503330687089049e-02 9.630323739570534e-01 -5.285027830199211e-02 2.956654459637492e-02 1.796897785023926e-02
3.401368750000000e+09 2.679076208851134e-02 1.341108165487028e-02 9.629536644667765e-01 -5.548765797424108e-02 9.628485753623668e-01 -5.337182604272088e-02 3.023473775922219e-02 1.790355005554768e-02
3.443237500000000e+09 2.716416320701756e-02 1.322395494212089e-02 9.627686036545260e-01 -5.594221239304262e-02 9.626651803512548e-01 -5.389263102680807e-02 2.984375550280464e-02 1.796816312685057e-02
3.485106250000000e+09 2.626175868579130e-02 1.334946590759568e-02 9.625839712415747e-01 -5.639696703370765e-02 9.624821936566841e-01 -5.441269116445906e-02 2.921643622981570e-02 1.797245759299776e-02
3.526975000000000e+09 2.665320553491779e-02 1.314924492352945e-02 9.623997719603967e-01 -5.685191868187301e-02 9.622996198747299e-01 -5.493200455347803e-02 2.979441497741686e-02 1.797757207779690e-02
3.568843750000000e+09 2.787219784982410e-02 1.291906332081984e-02 9.622160105020239e-01 -5.730706401590740e-02 9.621174635637796e-01 -5.545056950832595e-02 3.046211340138642e-02 1.797685904067797e-02
3.610712500000000e+09 2.760331728527170e-02 1.314247454364852e-02 9.620326914889984e-01 -5.776239960478381e-02 9.619357292117888e-01 -5.596838453174215e-02 3.044084684277630e-02 1.835211837175597e-02
3.652581250000000e+09 2.761074864825163e-02 1.278850081877571e-02 9.618498193679826e-01 -5.821792190745929e-02 9.617544211254927e-01 -5.648544830259550e-02 2.998806786944755e-02 1.829725811775771e-02
3.694450000000000e+09 2.707722118818287e-02 1.305767699684827e-02 9.616673984419235e-01 -5.867362728460600e-02 9.615735434642526e-01 -5.700175968372353e-02 2.985092883368105e-02 1.842046174652883e-02
3.736318750000000e+09 2.762294389711544e-02 1.272548730938992e-02 9.614854329471471e-01 -5.912951200546781e-02 9.613931003142947e-01 -5.751731771978934e-02 3.034381884890471e-02 1.846372303698832e-02
3.778187500000000e+09 2.769393251648838e-02 1.279015251720695e-02 9.613039271078962e-01 -5.958557227088093e-02 9.612130957456588e-01 -5.803212164523139e-02 3.047271751439451e-02 1.846639543601805e-02
3.820056250000000e+09 2.827687576699565e-02 1.271171624641925e-02 9.611228851081220e-01 -6.004180420816561e-02 9.610335337829050e-01 -5.854617087075088e-02 3.113066188833069e-02 1.881214332781213e-02
3.861925000000000e+09 2.857071137341976e-02 1.250529471831604e-02 9.609423110789452e-01 -6.049820387758374e-02 9.608544184042770e-01 -5.905946498911492e-02 3.157123867165926e-02 1.871322017040627e-02
3.903793750000000e+09 2.805454543106475e-02 1.245535302880131e-02 9.607622090466545e-01 -6.095476726565305e-02 9.606757534771481e-01 -5.957200374759549e-02 3.104443849454346e-02 1.869463475587988e-02
3.945662500000000e+09 2.821097555621221e-02 1.221601068826886e-02 9.605825828836938e-01 -6.141149028892111e-02 9.604975427155162e-01 -6.008378705246915e-02 3.110349504018091e-02 1.858325716413113e-02
3.987531250000000e+09 2.877265928375393e-02 1.229008660239054e-02 9.604034363802887e-01 -6.186836881949673e-02 9.603197897610621e-01 -6.059481498077299e-02 3.186840465152210e-02 1.876463647732556e-02
4.029400000000000e+09 2.907775309907269e-02 1.204800412864384e-02 9.602247732857746e-01 -6.232539868370272e-02 9.601424982154649e-01 -6.110508777085869e-02 3.206934316447897e-02 1.879378287596507e-02
4.071268750000000e+09 2.895018568848662e-02 1.186628837791649e-02 9.600465972200105e-01 -6.278257566397485e-02 9.599656715521141e-01 -6.161460582232067e-02 3.200475284438035e-02 1.865818424116903e-02
4.113137500000000e+09 2.956302443746813e-02 1.166434055814882e-02 9.598689116653601e-01 -6.323989549458546e-02 9.597893131038664e-01 -6.212336967356592e-02 3.221904936875965e-02 1.876936851782746e-02
4.155006250000000e+09 2.944414558946599e-02 1.182441494634730e-02 9.596917199791998e-01 -6.369735387326637e-02 9.596134260752597e-01 -6.263138001110349e-02 3.172999256666434e-02 1.886441965317334e-02
4.196875000000000e+09 2.891959190802695e-02 1.162975132309405e-02 9.595150253720527e-01 -6.415494646340338e-02 9.594380135203038e-01 -6.313863765912768e-02 3.173861685196488e-02 1.912700693867478e-02
4.238743750000000e+09 3.043988950797652e-02 1.163971267640924e-02 9.593388309843353e-01 -6.461266890539072e-02 9.592630784326333e-01 -6.364514358534677e-02 3.283988558125728e-02 1.925772685943345e-02
4.280612500000000e+09 3.033805155003746e-02 1.178841256940807e-02 9.591631399166460e-01 -6.507051681276016e-02 9.590886237830111e-01 -6.415089889103762e-02 3.289786029544053e-02 1.921228313617455e-02
4.322481250000000e+09 2.991850801257848e-02 1.161044732456557e-02 9.589879551019836e-01 -6.552848576004330e-02 9.589146523665404e-01 -6.465590477703917e-02 3.266455414509114e-02 1.940910904808464e-02
4.364350000000000e+09 2.998800370213688e-02 1.136665126873481e-02 9.588132792887816e-01 -6.598657130989050e-02 9.587411668031727e-01 -6.516016258220446e-02 3.256485670293138e-02 1.925744568380292e-02
4.406218750000000e+09 2.984548044356487e-02 1.117521026881436e-02 9.586391151103513e-01 -6.644476900970139e-02 9.585681696087187e-01 -6.566367377157518e-02 3.296226728632348e-02 1.933273669587425e-02
4.448087500000000e+09 3.112562232888701e-02 1.091016134638887e-02 9.584654651199257e-01 -6.690307439880110e-02 9.583956632443563e-01 -6.616643994551079e-02 3.354334046621884e-02 1.931120924065857e-02
4.489956250000000e+09 3.076717888662773e-02 1.099059955693576e-02 9.582923317802942e-01 -6.736148299919278e-02 9.582236501069414e-01 -6.666846281785933e-02 3.361789868214046e-02 1.949067712098557e-02
4.531825000000000e+09 3.116626775148856e-02 1.073688319110712e-02 9.581197173642618e-01 -6.781999031475643e-02 9.580521324431954e-01 -6.716974421468419e-02 3.376393920080536e-02 1.953034959698497e-02
4.573693750000000e+09 3.097397728333279e-02 1.059016772901186e-02 9.579476239660697e-01 -6.827859183986851e-02 9.578811123654267e-01 -6.767028608115613e-02 3.361153373260931e-02 1.941088990554442e-02
4.615562500000000e+09 3.103331023948093e-02 1.043267899367325e-02 9.577760535152339e-01 -6.873728305558365e-02 9.577105918527885e-01 -6.817009046951679e-02 3.374684671897520e-02 1.952551656147233e-02
4.657431250000000e+09 3.191665469303921e-02 1.021486245484456e-02 9.576050078064067e-01 -6.919605943921089e-02 9.575405727857804e-01 -6.866915955479304e-02 3.443012552154368e-02 1.961919823320939e-02
4.699300000000000e+09 3.161066564565070e-02 1.038444287809170e-02 9.574344885248323e-01 -6.965491645963826e-02 9.573710569563002e-01 -6.916749561987887e-02 3.416373224373583e-02 1.976457127408470e-02
4.741168750000000e+09 3.180374999434278e-02 1.014504215808936e-02 9.572644971457055e-01 -7.011384957435150e-02 9.572020459682774e-01 -6.966510105952195e-02 3.418803268510413e-02 1.951132834842295e-02
4.783037500000000e+09 3.224640829278280e-02 1.008553055180638e-02 9.570950349737384e-01 -7.057285424301149e-02 9.570335412749927e-01 -7.016197838681489e-02 3.453991572031885e-02 1.980309286653675e-02
4.824906250000000e+09 3.268195232557482e-02 1.002720442206679e-02 9.569261031727819e-01 -7.103192593220779e-02 9.568655442116225e-01 -7.065813022737924e-02 3.475412479478264e-02 1.984558361918067e-02
4.866775000000000e+09 3.276879644938385e-02 9.903113196949212e-03 9.567577027294107e-01 -7.149106011724329e-02 9.566980559563553e-01 -7.115355932291591e-02 3.481205158657077e-02 1.979526946789195e-02
4.908643750000000e+09 3.287716484503374e-02 9.910367159814856e-03 9.565898344451991e-01 -7.195025227880444e-02 9.565310775314023e-01 -7.164826851819719e-02 3.491866164246565e-02 2.009593425475879e-02
4.950512500000000e+09 3.337393879057999e-02 9.736357107594920e-03 9.564224989342985e-01 -7.240949791356739e-02 9.563646097896713e-01 -7.214226076940497e-02 3.505089834905181e-02 2.004833190831899e-02
4.992381250000000e+09 3.297374947196048e-02 9.907621496037263e-03 9.562556966264226e-01 -7.286879251869260e-02 9.561986534244428e-01 -7.263553912550291e-02 3.477642810832950e-02 2.019447965949120e-02
5.034250000000000e+09 3.362024237259417e-02 9.682364434831749e-03 9.560894277515417e-01 -7.332813160186299e-02 9.560332089523054e-01 -7.312810673929751e-02 3.541190007877064e-02 2.019847842755729e-02
5.076118750000000e+09 3.375080291293010e-02 9.757965836782567e-03 9.559236923967486e-01 -7.378751068696246e-02 9.558682767771721e-01 -7.361996687730843e-02 3.570012303501672e-02 2.032336904768695e-02
5.117987500000000e+09 3.393509608528306e-02 9.649623917907748e-03 9.557584904791674e-01 -7.424692531420729e-02 9.557038571345501e-01 -7.411112289843767e-02 3.608620093771208e-02 2.057117945061459e-02
5.159856250000000e+09 3.371347298353506e-02 9.311042517015953e-03 9.555938217111827e-01 -7.470637104812554e-02 9.555399500768712e-01 -7.460157827089250e-02 3.585996221660211e-02 2.017426761985113e-02
5.201725000000000e+09 3.388996364876148e-02 9.081896201406533e-03 9.554296855684127e-01 -7.516584347372557e-02 9.553765554415296e-01 -7.509133656082220e-02 3.603812792072436e-02 2.029761774013897e-02
5.243593750000000e+09 3.443666618755073e-02 9.190912076036844e-03 9.552660813280166e-01 -7.562533821196973e-02 9.552136728888706e-01 -7.558040144286268e-02 3.636459112548680e-02 2.031969227003803e-02
5.285462500000000e+09 3.433845250961461e-02 9.063587193944957e-03 9.551030080701082e-01 -7.608485090431259e-02 9.550513018928982e-01 -7.606877668037379e-02 3.606350202505185e-02 2.056649941170643e-02
5.327331250000000e+09 3.483198120667429e-02 9.283739450172220e-03 9.549404646528052e-01 -7.654437721646695e-02 9.548894417253174e-01 -7.655646612724794e-02 3.659019285833267e-02 2.074032411155667e-02
5.369200000000000e+09 3.463194686806619e-02 8.781408535694583e-03 9.547784497268984e-01 -7.700391284385316e-02 9.547280914648694e-01 -7.704347373354223e-02 3.655845493527758e-02 2.068759960836639e-02
5.411068750000000e+09 3.526611159494587e-02 8.961786422768438e-03 9.546169617138607e-01 -7.746345350351640e-02 9.545672499634704e-01 -7.752980352656640e-02 3.691050527319983e-02 2.093421478788570e-02
5.452937500000000e+09 3.518337873242658e-02 8.782486972443335e-03 9.544559988023871e-01 -7.792299494706208e-02 9.544069158545645e-01 -7.801545961981142e-02 3.717343381079023e-02 2.078596353016114e-02
5.494806250000000e+09 3.497654224624257e-02 8.837256759473073e-03 9.542955589308620e-01 -7.838253294322625e-02 9.542470875427320e-01 -7.850044618597771e-02 3.717970790685802e-02 2.108605110823993e-02
5.536675000000000e+09 3.527249590907372e-02 8.691625367984285e-03 9.541356397852271e-01 -7.884206328499661e-02 9.540877631992659e-01 -7.898476746975482e-02 3.751939446629051e-02 2.106234584394073e-02
5.578543750000000e+09 3.488232229851524e-02 8.316355437164535e-03 9.539762388336203e-01 -7.930158178416388e-02 9.539289407924150e-01 -7.946842777056119e-02 3.730274697804187e-02 2.095992062416753e-02
5.620412500000000e+09 3.572596415028061e-02 8.301090909403197e-03 9.538173533161691e-01 -7.976108426852999e-02 9.537706180846615e-01 -7.995143142979505e-02 3.758046424271481e-02 2.094374806821423e-02
5.662281250000000e+09 3.532932290879439e-02 8.385989651074371e-03 9.536589802701093e-01 -8.022056659601962e-02 9.536127926497404e-01 -8.043378283337276e-02 3.757386612361548e-02 2.094710189234118e-02
5.704150000000000e+09 3.564804998076725e-02 8.428435550856313e-03 9.535011165176568e-01 -8.068002464128166e-02 9.534554618694359e-01 -8.091548639790508e-02 3.780227900505249e-02 2.116098758335547e-02
5.746018750000000e+09 3.560266513902183e-02 8.130041268563459e-03 9.533437586828302e-01 -8.113945430670877e-02 9.532986229566687e-01 -8.139654657305535e-02 3.794344053695722e-02 2.105652734071855e-02
5.787887500000000e+09 3.533009582624334e-02 8.221173696084183e-03 9.531869031873261e-01 -8.159885151418433e-02 9.531422729526596e-01 -8.187696782329483e-02 3.769203132690638e-02 2.111272324986672e-02
5.829756250000000e+09 3.539916886093891e-02 8.255485472963328e-03 9.530305462638241e-01 -8.205821221069191e-02 9.529864087405796e-01 -8.235675463394128e-02 3.771908333627075e-02 2.104295251910989e-02
5.871625000000000e+09 3.487928231190023e-02 7.984598797602561e-03 9.528746840042038e-01 -8.251753236992485e-02 9.528310270966340e-01 -8.283591150660900e-02 3.770843935405834e-02 2.101010311001121e-02
5.913493750000000e+09 3.523509053749475e-02 7.845145424175958e-03 9.527193123850511e-01 -8.297680799929290e-02 9.526761247254422e-01 -8.331444295310773e-02 3.760065736455691e-02 2.100634434109172e-02
5.955362500000000e+09 3.507101096826559e-02 7.508697306780041e-03 9.525644272871526e-01 -8.343603515548843e-02 9.525216982750219e-01 -8.379235351011027e-02 3.756300833290300e-02 2.087969215415377e-02
5.997231250000000e+09 3.543283408442784e-02 7.562145406788190e-03 9.524100245471390e-01 -8.389520993828144e-02 9.523677443870585e-01 -8.426964772986530e-02 3.759756505960669e-02 2.098303193606391e-02
6.039100000000000e+09 3.531073001938023e-02 7.456919553540985e-03 9.522560999680412e-01 -8.435432850518791e-02 9.522142597011981e-01 -8.474633019161695e-02 3.790612971136462e-02 2.092976826576864e-02
6.080968750000000e+09 3.524123246330110e-02 7.258677617500068e-03 9.521026493318936e-01 -8.481338706500353e-02 9.520612408561776e-01 -8.522240550132665e-02 3.793038315728643e-02 2.093836696390839e-02
6.122837500000000e+09 3.552495203873961e-02 7.181176072549230e-03 9.519496684145510e-01 -8.527238188756223e-02 9.519086844863350e-01 -8.569787829511223e-02 3.807995857901685e-02 2.096550644630754e-02
6.164706250000000e+09 3.555333678148044e-02 7.311201944564276e-03 9.517971530003020e-01 -8.573130930441752e-02 9.517565872170720e-01 -8.617275324333407e-02 3.826020779693862e-02 2.115747997118671e-02
6.206575000000000e+09 3.577804373711233e-02 7.115990855799995e-03 9.516450988858081e-01 -8.619016571376052e-02 9.516049456669913e-01 -8.664703505042150e-02 3.862262626879054e-02 2.126620314695541e-02
6.248443750000000e+09 3.558992251747480e-02 7.318557120280246e-03 9.514935018560174e-01 -8.664894758443280e-02 9.514537563976329e-01 -8.712072845994293e-02 3.871369276835738e-02 2.132386240329190e-02
6.290312500000000e+09 3.526634519368881e-02 6.781509625663438e-03 9.513423576759688e-01 -8.710765145085317e-02 9.513030159026885e-01 -8.759383825200910e-02 3.889203137023563e-02 2.113565249330529e-02
6.332181250000000e+09 3.607118001421678e-02 6.523835528564706e-03 9.511916620934631e-01 -8.756627392052684e-02 9.511527205924591e-01 -8.806636924842130e-02 3.924994891570911e-02 2.107328984107014e-02
6.374050000000000e+09 3.593101723779910e-02 6.530853443909488e-03 9.510414108660399e-01 -8.802481167750464e-02 9.510028668075116e-01 -8.853832631069922e-02 3.916085194022714e-02 2.131172286244452e-02
6.415918750000000e+09 3.570279389321215e-02 6.487865286579408e-03 9.508915997327764e-01 -8.848326146621602e-02 9.508534507890083e-01 -8.900971434456538e-02 3.902711233790697e-02 2.119250677287041e-02
6.457787500000000e+09 3.606606222344298e-02 6.138944069991676e-03 9.507422244159155e-01 -8.894162010600049e-02 9.507044686779985e-01 -8.948053828825393e-02 3.932096922439361e-02 2.117776533231387e-02
6.499656250000000e+09 3.601968043914953e-02 6.445020965371004e-03 9.505932806766605e-01 -8.939988449078781e-02 9.505559165760152e-01 -8.995080311721886e-02 3.917804334293053e-02 2.137557568762259e-02
6.541525000000000e+09 3.618081263948812e-02 6.021021019517182e-03 9.504447642847212e-01 -8.985805158729042e-02 9.504077905046768e-01 -9.042051383817072e-02 3.947097026874122e-02 2.126601652590636e-02
6.583393750000000e+09 3.631300159648177e-02 5.925057424437247e-03 9.502966710582148e-01 -9.031611843340046e-02 9.502600864488635e-01 -9.088967549192507e-02 3.962233433556198e-02 2.134182951339924e-02
6.625262500000000e+09 3.646321005653181e-02 5.921417849300536e-03 9.501489968512924e-01 -9.077408213713362e-02 9.501128003360219e-01 -9.135829314566099e-02 3.963561782472780e-02 2.141876392469305e-02
6.667131250000000e+09 3.619758018370757e-02 5.808588929958709e-03 9.500017375365170e-01 -9.123193987452971e-02 9.499659280273619e-01 -9.182637188647481e-02 3.945586073640900e-02 2.147549844089930e-02
6.709000000000000e+09 3.641594316169090e-02 5.738267558661460e-03 9.498548890362882e-01 -9.168968889445776e-02 9.498194653469070e-01 -9.229391682798682e-02 3.997956943090062e-02 2.140748341028186e-02
6.750868750000000e+09 3.645222371360280e-02 5.621496709945747e-03 9.497084473388639e-01 -9.214732651557409e-02 9.496734080954062e-01 -9.276093310437337e-02 4.013809727104932e-02 2.140744297924792e-02
6.792737500000000e+09 3.621459777333103e-02 5.325716633638062e-03 9.495624084890225e-01 -9.260485012937972e-02 9.495277520357451e-01 -9.322742586129523e-02 4.023144636989482e-02 2.130566601955784e-02
6.834606250000000e+09 3.649214913880955e-02 5.319998804523916e-03 9.494167685645646e-01 -9.306225720449117e-02 9.493824928745066e-01 -9.369340026696935e-02 4.012661802698152e-02 2.123799780152693e-02
6.876475000000000e+09 3.601493709449032e-02 5.071492356431695e-03 9.492715236941230e-01 -9.351954527674534e-02 9.492376262885494e-01 -9.415886150213441e-02 3.994474906473241e-02 2.108259400517926e-02
6.918343750000000e+09 3.676296105340978e-02 4.734002474424753e-03 9.491266700558580e-01 -9.397671196404614e-02 9.490931479316456e-01 -9.462381476605831e-02 4.008458991085367e-02 2.104322530846592e-02
6.960212500000000e+09 3.698688953850419e-02 4.804548583759460e-03 9.489822039178553e-01 -9.443375495801087e-02 9.489490534893421e-01 -9.508826527438213e-02 4.001904353577330e-02 2.111730881033665e-02
7.002081250000000e+09 3.720754138333067e-02 4.768928258392392e-03 9.488381216397022e-01 -9.489067201036487e-02 9.488053386712261e-01 -9.555221823908024e-02 4.034308271112213e-02 2.127439958531781e-02
7.043950000000000e+09 3.757995174365620e-02 4.426912491807307e-03 9.486944196400676e-01 -9.534746094853877e-02 9.486619991910499e-01 -9.601567887528524e-02 4.026712314373018e-02 2.113531132008272e-02
7.085818750000000e+09 3.754367199267611e-02 4.513643579782890e-03 9.485510943816111e-01 -9.580411965403896e-02 9.485190307767549e-01 -9.647865238661812e-02 4.030870951528300e-02 2.123861061109364e-02
7.127687500000000e+09 3.777049031616591e-02 4.087317450475446e-03 9.484081423628532e-01 -9.626064606908036e-02 9.483764291576219e-01 -9.694114396257854e-02 4.085275334101871e-02 2.114737674792177e-02
7.169556250000000e+09 3.819569814503233e-02 3.781301382693698e-03 9.482655601304213e-01 -9.671703819995527e-02 9.482341900960460e-01 -9.740315877611611e-02 4.091226017037433e-02 2.106098762940513e-02
7.211425000000000e+09 3.841296205390468e-02 3.647717722054523e-03 9.481233442374555e-01 -9.717329410622484e-02 9.480923093644131e-01 -9.786470197231360e-02 4.101670517818144e-02 2.102486057283580e-02
7.253293750000000e+09 3.883814228869123e-02 3.326184534521015e-03 9.479814912180448e-01 -9.762941190395415e-02 9.479507827237103e-01 -9.832577867383076e-02 4.055727951348571e-02 2.102045005615180e-02
7.295162500000000e+09 3.905231222120861e-02 3.570840487514413e-03 9.478399975801252e-01 -9.808538975648790e-02 9.478096059221944e-01 -9.878639397134757e-02 4.160625282207425e-02 2.136118326606574e-02
7.337031250000000e+09 3.952050293891623e-02 3.000274362546252e-03 9.476988597991144e-01 -9.854122588131572e-02 9.476687746944782e-01 -9.924655293113439e-02 4.181878748897833e-02 2.114286779444697e-02
7.378900000000000e+09 3.941953868377051e-02 3.198701476910962e-03 9.475580742567513e-01 -9.899691853660424e-02 9.475282846740197e-01 -9.970626058762719e-02 4.221135529884480e-02 2.131025073344867e-02
7.420768750000000e+09 3.998913893605501e-02 2.695614018949645e-03 9.474176371806740e-01 -9.945246602847957e-02 9.473881313576217e-01 -1.001655219437227e-01 4.264579012263595e-02 2.124870923004158e-02
7.462637500000000e+09 3.937367987851913e-02 2.956614616641193e-03 9.472775446119521e-01 -9.990786669962454e-02 9.472483100850134e-01 -1.006243419665502e-01 4.246311323674702e-02 2.123947407001377e-02
7.504506250000000e+09 3.910033653451422e-02 2.508861001448261e-03 9.471377923860120e-01 -1.003631189167198e-01 9.471088160120252e-01 -1.010827255712467e-01 4.249385101833297e-02 2.120573731800452e-02
7.546375000000000e+09 3.910709637679406e-02 2.076062744421547e-03 9.469983761732556e-01 -1.008182210843480e-01 9.469696441499116e-01 -1.015406776334023e-01 4.214921918079927e-02 2.103002546385854e-02
7.588243750000000e+09 3.879563379764588e-02 2.459025476511247e-03 9.468592915211550e-01 -1.012731716357234e-01 9.468307894063267e-01 -1.019982029844499e-01 4.169509562041206e-02 2.138817974001912e-02
7.630112500000000e+09 3.900430994482209e-02 1.955430638471128e-03 9.467205338900501e-01 -1.017279690397484e-01 9.466922466180487e-01 -1.024553064202071e-01 4.171516447718083e-02 2.109558524334417e-02
7.671981250000000e+09 3.953402649439971e-02 2.092537029616850e-03 9.465820987620684e-01 -1.021826118181375e-01 9.465540106438372e-01 -1.029119927126752e-01 4.208867579608504e-02 2.140128075763476e-02
7.713850000000000e+09 3.946003495796876e-02 2.266826417883597e-03 9.464439816427077e-01 -1.026370985440888e-01 9.464160763637269e-01 -1.033682666060890e-01 4.236148829100924e-02 2.143880738324261e-02
7.755718750000000e+09 3.891561441344885e-02 1.874790485838406e-03 9.463061780186995e-01 -1.030914278379032e-01 9.462784386405680e-01 -1.038241328170950e-01 4.226230607456471e-02 2.124744527289063e-02
7.797587500000000e+09 3.980273837331371e-02 1.974685940941863e-03 9.461686833629919e-01 -1.035455983513043e-01 9.461410923156840e-01 -1.042795960345555e-01 4.275051088455634e-02 2.135268996942738e-02
7.839456250000000e+09 3.942646649090960e-02 1.676714214380262e-03 9.460314931646759e-01 -1.039996087795413e-01 9.460040322439011e-01 -1.047346609332305e-01 4.280309655611034e-02 2.115419832965103e-02
7.881325000000000e+09 3.985386528671495e-02 1.440801305025699e-03 9.458946028985674e-01 -1.044534578490490e-01 9.458672532573305e-01 -1.051893321546396e-01 4.280455265843509e-02 2.097557871681636e-02
7.923193750000000e+09 3.994359545544134e-02 1.350639133976919e-03 9.457580080455411e-01 -1.049071443128494e-01 9.457307501785019e-01 -1.056436143176748e-01 4.279099856934345e-02 2.084931303633577e-02
7.965062500000000e+09 3.980621218910867e-02 1.556901073702800e-03 9.456217040830395e-01 -1.053606669511841e-01 9.455945178049132e-01 -1.060975120097149e-01 4.274148552013927e-02 2.095299136114915e-02
8.006931250000000e+09 4.015335941971978e-02 1.243537982530676e-03 9.454856865077106e-01 -1.058140245748279e-01 9.454585509416703e-01 -1.065510297980868e-01 4.302038897354898e-02 2.086870483307874e-02
8.048800000000000e+09 3.992598161503426e-02 1.269003274608062e-03 9.453499508492562e-01 -1.062672160350860e-01 9.453228444029349e-01 -1.070041722313930e-01 4.263245308625140e-02 2.103536934861715e-02
8.090668750000000e+09 3.997433045140256e-02 1.099917562134296e-03 9.452144926721185e-01 -1.067202402148931e-01 9.451873930190307e-01 -1.074569438374037e-01 4.272835391487028e-02 2.103639161584858e-02
8.132537500000000e+09 3.974004302682047e-02 1.173993541729962e-03 9.450793076080950e-01 -1.071730960468005e-01 9.450521916581313e-01 -1.079093491445134e-01 4.271131603784935e-02 2.114445000668133e-02
8.174406250000000e+09 3.974091342423071e-02 1.239101822814857e-03 9.449443913737037e-01 -1.076257825154920e-01 9.449172352528395e-01 -1.083613926693389e-01 4.276090931442474e-02 2.134885691468746e-02
8.216275000000000e+09 3.948133739432454e-02 7.632372493212794e-04 9.448097397650822e-01 -1.080782986756603e-01 9.447825187974367e-01 -1.088130789297395e-01 4.321024626984193e-02 2.095571259783717e-02
8.258143750000000e+09 4.026052667315937e-02 5.124957970412308e-04 9.446753486654031e-01 -1.085306436505846e-01 9.446480373593208e-01 -1.092644124366755e-01 4.310225129055086e-02 2.101501146124697e-02
8.300012500000000e+09 3.990241043823402e-02 7.212745642366991e-04 9.445412140499716e-01 -1.089828166101918e-01 9.445137860694554e-01 -1.097153976902192e-01 4.314736898565068e-02 2.098923177621410e-02
8.341881250000000e+09 3.999936689194043e-02 2.112165767394508e-04 9.444073319339579e-01 -1.094348167794480e-01 9.443797600884221e-01 -1.101660391808594e-01 4.293421706436620e-02 2.085551879243202e-02
8.383750000000000e+09 4.020969144436731e-02 3.471437449509879e-04 9.442736984203278e-01 -1.098866434328587e-01 9.442459546671724e-01 -1.106163413775725e-01 4.300699808879194e-02 2.096738426235271e-02
8.425618750000000e+09 3.999790822119226e-02 -1.767326380622507e-04 9.441403096855648e-01 -1.103382959080897e-01 9.441123651442155e-01 -1.110663087387421e-01 4.267800567732653e-02 2.072474188819932e-02
8.467487500000000e+09 4.089427831717972e-02 -4.709295537072353e-04 9.440071620007044e-01 -1.107897735912208e-01 9.439789869629138e-01 -1.115159456981445e-01 4.276750392339533e-02 2.096341862846713e-02
8.509356250000000e+09 4.098800496363723e-02 3.484644514774157e-05 9.438742517666953e-01 -1.112410759343401e-01 9.438458157062476e-01 -1.119652566760650e-01 4.278156662389541e-02 2.104861856647578e-02
8.551225000000000e+09 4.073912324424492e-02 -2.016225579569775e-04 9.437415754683250e-01 -1.116922024422988e-01 9.437128470575897e-01 -1.124142460722540e-01 4.278316845356863e-02 2.107997248482921e-02
8.593093750000000e+09 4.127443886025499e-02 -2.198751358663706e-04 9.436091296899738e-01 -1.121431526823308e-01 9.435800768368341e-01 -1.128629182787886e-01 4.301159166985625e-02 2.113093015109328e-02
8.634962500000000e+09 4.105189759251465e-02 -3.788030080442840e-04 9.434769111014060e-01 -1.125939262967994e-01 9.434475009815299e-01 -1.133112776862769e-01 4.311643608464143e-02 2.111423596856186e-02
8.676831250000000e+09 4.116919823732931e-02 -9.680540115834522e-04 9.433449164412975e-01 -1.130445229843382e-01 9.433151155376588e-01 -1.137593286661248e-01 4.347933957688492e-02 2.109004109777874e-02
8.718700000000000e+09 4.152695639282927e-02 -7.573584031910043e-04 9.432131425011052e-01 -1.134949425095405e-01 9.431829166413326e-01 -1.142070755801447e-01 4.339134068952841e-02 2.096381850510925e-02
8.760568750000000e+09 4.136468167638098e-02 -1.047680441401668e-03 9.430815861027132e-01 -1.139451846870828e-01 9.430509005071304e-01 -1.146545227591013e-01 4.337887203517018e-02 2.125529224966973e-02
8.802437500000000e+09 4.154125895401153e-02 -9.611896079431296e-04 9.429502441008879e-01 -1.143952493985353e-01 9.429190634247742e-01 -1.151016745210758e-01 4.340784181403667e-02 2.120515689727870e-02
8.844306250000000e+09 4.177114092735249e-02 -1.376966516195461e-03 9.428191133919497e-01 -1.148451365888153e-01 9.427874017714383e-01 -1.155485351652131e-01 4.363981352580339e-02 2.140686723525400e-02
8.886175000000000e+09 4.186681204443847e-02 -1.542807989460643e-03 9.426881909307435e-01 -1.152948462561701e-01 9.426559120411308e-01 -1.159951089575131e-01 4.399829684896783e-02 2.126298106856741e-02
8.928043750000000e+09 4.239403123569126e-02 -2.085236533897298e-03 9.425574737009467e-01 -1.157443784500082e-01 9.425245908103045e-01 -1.164414001297062e-01 4.377813282427331e-02 2.120079983456846e-02
8.969912500000000e+09 4.238566235494025e-02 -1.644909606672517e-03 9.424269587260956e-01 -1.161937332682085e-01 9.423934347614400e-01 -1.168874128709312e-01 4.388222507430631e-02 2.127086656645092e-02
9.011781250000000e+09 4.268329040000603e-02 -2.021854436290664e-03 9.422966430715666e-01 -1.166429108578469e-01 9.422624406829161e-01 -1.173331513375529e-01 4.417170324749634e-02 2.106342771404351e-02
9.053650000000000e+09 4.248224441008278e-02 -2.403373536519392e-03 9.421665238818525e-01 -1.170919114047279e-01 9.421316054903192e-01 -1.177786196410435e-01 4.382926783325347e-02 2.080640989721371e-02
9.095518750000000e+09 4.329286833052325e-02 -2.245657533140636e-03 9.420365983613344e-01 -1.175407351467747e-01 9.420009262122025e-01 -1.182238218568980e-01 4.392231086827467e-02 2.075939474313445e-02
9.137387500000000e+09 4.338270513259417e-02 -2.085434808546571e-03 9.419068637945829e-01 -1.179893823539034e-01 9.418704000037927e-01 -1.186687620166780e-01 4.410225869464945e-02 2.089529883751745e-02
9.179256250000000e+09 4.328992534123642e-02 -2.173733444571444e-03 9.417773175318861e-01 -1.184378533248721e-01 9.417400241332369e-01 -1.191134441103080e-01 4.417435289355484e-02 2.102174765944948e-02
9.221125000000000e+09 4.339555820213224e-02 -2.146486915926928e-03 9.416479569335227e-01 -1.188861483842309e-01 9.416097959220292e-01 -1.195578720848287e-01 4.454921027312814e-02 2.086503883125333e-02
9.262993750000000e+09 4.305808956333946e-02 -2.715077406779870e-03 9.415187793955996e-01 -1.193342678858179e-01 9.414797127571342e-01 -1.200020498432915e-01 4.475909809725100e-02 2.094179443254735e-02
9.304862500000000e+09 4.417951255534626e-02 -2.725441199282201e-03 9.413897823312870e-01 -1.197822122181589e-01 9.413497720659469e-01 -1.204459812437949e-01 4.509305754184040e-02 2.113951585726980e-02
9.346731250000000e+09 4.362109303162879e-02 -2.535432056211503e-03 9.412609631539183e-01 -1.202299817844041e-01 9.412199713055115e-01 -1.208896700903574e-01 4.532227304570859e-02 2.120504648330324e-02
9.388600000000000e+09 4.361401505020390e-02 -3.243446787359498e-03 9.411323192122737e-01 -1.206775769892505e-01 9.410903078962444e-01 -1.213331201152476e-01 4.543018130257676e-02 2.121930171007104e-02
9.430468750000000e+09 4.425219476890246e-02 -3.387800138019970e-03 9.410038477803959e-01 -1.211249982480689e-01 9.409607792106008e-01 -1.217763349935436e-01 4.571740354422665e-02 2.106709441898616e-02
9.472337500000000e+09 4.369463650841621e-02 -3.165529028240708e-03 9.408755460835473e-01 -1.215722459926174e-01 9.408313825898048e-01 -1.222193183524296e-01 4.569830005571838e-02 2.098187083674086e-02
9.514206250000000e+09 4.359141825402946e-02 -3.594075952005435e-03 9.407474112274297e-01 -1.220193206750724e-01 9.407021152657753e-01 -1.226620737584061e-01 4.583603559333345e-02 2.089612197121963e-02
9.556075000000000e+09 4.386994223789081e-02 -3.482583981090824e-03 9.406194402547718e-01 -1.224662227575949e-01 9.405729744159659e-01 -1.231046047143064e-01 4.561772194898277e-02 2.115302338233123e-02
9.597943750000000e+09 4.422506462814117e-02 -4.082808566845784e-03 9.404916301357336e-01 -1.229129527242921e-01 9.404439571649957e-01 -1.235469146786822e-01 4.612589460629566e-02 2.115288438709602e-02
9.639812500000000e+09 4.531880299695836e-02 -4.240905639439814e-03 9.403639777406967e-01 -1.233595110728289e-01 9.403150605645602e-01 -1.239890070452381e-01 4.604949968250810e-02 2.111334882065145e-02
9.681681250000000e+09 4.491055305774184e-02 -3.151813054089035e-03 9.402364798051983e-01 -1.238058982899891e-01 9.401862815611726e-01 -1.244308851236850e-01 4.610326565645178e-02 2.138532367111879e-02
9.723550000000000e+09 4.425121365714790e-02 -3.613662108991971e-03 9.401091329124649e-01 -1.242521148481514e-01 9.400576169981129e-01 -1.248725521422877e-01 4.608351407842116e-02 2.117588322078909e-02
9.765418750000000e+09 4.417365751208780e-02 -4.091965724760767e-03 9.399819335506240e-01 -1.246981612117041e-01 9.399290636726318e-01 -1.253140112467240e-01 4.598128591375766e-02 2.099731014689452e-02
9.807287500000000e+09 4.476735077946636e-02 -4.386847573784901e-03 9.398548781439607e-01 -1.251440378616762e-01 9.398006183684970e-01 -1.257552655228863e-01 4.559149709159454e-02 2.102279325342657e-02
9.849156250000000e+09 4.467161262341487e-02 -3.766160714289560e-03 9.397279630582582e-01 -1.255897453022446e-01 9.396722778767518e-01 -1.261963180018396e-01 4.501720031504308e-02 2.150219946416354e-02
9.891025000000000e+09 4.430260154722097e-02 -3.609299710992113e-03 9.396011846056593e-01 -1.260352840557813e-01 9.395440390015980e-01 -1.266371716736218e-01 4.550281472655265e-02 2.189577083726760e-02
9.932893750000000e+09 4.407136921289858e-02 -3.674713877358397e-03 9.394745390589970e-01 -1.264806546822310e-01 9.394158985681612e-01 -1.270778294908919e-01 4.581416486164322e-02 2.172985846501756e-02
9.974762500000000e+09 4.438433632183163e-02 -4.336286994448370e-03 9.393480226588898e-01 -1.269258577683735e-01 9.392878534107972e-01 -1.275182943658504e-01 4.606157908959080e-02 2.191058408222460e-02
1.001663125000000e+10 4.602760045717585e-02 -4.344216766139698e-03 9.392216316121029e-01 -1.273708939235744e-01 9.391599003682004e-01 -1.279585691757270e-01 4.656874722069234e-02 2.197130101854514e-02
1.005850000000000e+10 4.566051447536154e-02 -3.917285414256383e-03 9.390953620859157e-01 -1.278157637743415e-01 9.390320362670969e-01 -1.283986567436242e-01 4.667782415698812e-02 2.228840394973320e-02
1.010036875000000e+10 4.642718970076457e-02 -4.600871881079038e-03 9.389692101524646e-01 -1.282604679518717e-01 9.389042578661291e-01 -1.288385598270546e-01 4.731825393158979e-02 2.241995153441346e-02
1.014223750000000e+10 4.656244354153893e-02 -5.200057563552599e-03 9.388431718237022e-01 -1.287050070810217e-01 9.387765618870680e-01 -1.292782811133733e-01 4.759731495880062e-02 2.238190288960305e-02
1.018410625000000e+10 4.679548372755736e-02 -6.008451841733715e-03 9.387172430387217e-01 -1.291493817678888e-01 9.386489449929196e-01 -1.297178232000601e-01 4.814471691300139e-02 2.210511978812404e-02
1.022597500000000e+10 4.700435769928343e-02 -6.285510713492269e-03 9.385914196660381e-01 -1.295935925875804e-01 9.385214037734714e-01 -1.301571885946049e-01 4.853850202576036e-02 2.190319677252248e-02
1.026784375000000e+10 4.624821764309994e-02 -6.041531690655920e-03 9.384656975245792e-01 -1.300376400847092e-01 9.383939347606942e-01 -1.305963797199979e-01 4.861758460922378e-02 2.169741089272596e-02
1.030971250000000e+10 4.564635632371574e-02 -6.879565261570676e-03 9.383400723781081e-01 -1.304815247799779e-01 9.382665344184009e-01 -1.310353989057116e-01 4.837635810485202e-02 2.093102340922497e-02
1.035158125000000e+10 4.541837732312073e-02 -7.471850765010765e-03 9.382145399886078e-01 -1.309252471617325e-01 9.381391991981664e-01 -1.314742484036116e-01 4.759207246046845e-02 2.076970993214525e-02
1.039345000000000e+10 4.598800846281820e-02 -7.338979424395895e-03 9.380890961992079e-01 -1.313688077079841e-01 9.380119256189487e-01 -1.319129304072414e-01 4.752958049905752e-02 2.055163835043028e-02
1.043531875000000e+10 4.597985886119429e-02 -7.314332229338049e-03 9.379637370095857e-01 -1.318122069070436e-01 9.378847103400551e-01 -1.323514470862270e-01 4.745201101607729e-02 2.052304144035297e-02
1.047718750000000e+10 4.562894356048747e-02 -6.648722494710662e-03 9.378384585751338e-01 -1.322554452649159e-01 9.377575501381640e-01 -1.327898005895633e-01 4.780938720505837e-02 2.068592098120303e-02
1.051905625000000e+10 4.505053331038907e-02 -7.456623540968536e-03 9.377132571798461e-01 -1.326985233285798e-01 9.376304419022392e-01 -1.332279930596943e-01 4.718380400656887e-02 2.018595641468083e-02
1.056092500000000e+10 4.555764882067422e-02 -6.772659753074056e-03 9.375881292228575e-01 -1.331414416798681e-01 9.375033826023013e-01 -1.336660266286328e-01 4.740939123886023e-02 2.050327822257764e-02
1.060279375000000e+10 4.495877697110136e-02 -7.486397227550929e-03 9.374630712374453e-01 -1.335842009518426e-01 9.373763693286198e-01 -1.341039034403417e-01 4.761823648595658e-02 2.014385184771254e-02
1.064466250000000e+10 4.548787598794841e-02 -7.333567791899769e-03 9.373380798636358e-01 -1.340268018231168e-01 9.372493992429899e-01 -1.345416256449726e-01 4.710000220036584e-02 2.032872830906716e-02
1.068653125000000e+10 4.502545839288367e-02 -7.587989631590359e-03 9.372131518334849e-01 -1.344692450138018e-01 9.371224695680677e-01 -1.349791954031545e-01 4.767084629796142e-02 2.032358679126560e-02
1.072840000000000e+10 4.533724583345568e-02 -8.364918059435874e-03 9.370882839996740e-01 -1.349115312961622e-01 9.369955776041728e-01 -1.354166148940876e-01 4.703381343630132e-02 2.029430800787719e-02
1.077026875000000e+10 4.533431945811481e-02 -7.996538923423750e-03 9.369634733237600e-01 -1.353536614825502e-01 9.368687206979790e-01 -1.358538863063087e-01 4.699647550376494e-02 2.061623571642214e-02
1.081213750000000e+10 4.579998722684923e-02 -8.144179416371616e-03 9.368387168606714e-01 -1.357956364302358e-01 9.367418962606668e-01 -1.362910118495378e-01 4.702634152205132e-02 2.064698786091450e-02
1.085400625000000e+10 4.564929078855882e-02 -8.508906772872634e-03 9.367140118037351e-01 -1.362374570380313e-01 9.366151018104364e-01 -1.367279937437321e-01 4.743333179110240e-02 2.062207383343602e-02
1.089587500000000e+10 4.696864964221997e-02 -9.101651291807367e-03 9.365893554855494e-01 -1.366791242358476e-01 9.364883349639506e-01 -1.371648342166231e-01 4.728453548476863e-02 2.057289336684046e-02
1.093774375000000e+10 4.662722758384479e-02 -8.236608593084135e-03 9.364647452945745e-01 -1.371206389665840e-01 9.363615933764284e-01 -1.376015354964059e-01 4.705313112317958e-02 2.107778425648076e-02
1.097961250000000e+10 4.646497219244795e-02 -7.366092311668012e-03 9.363401786448708e-01 -1.375620022055488e-01 9.362348747039576e-01 -1.380380998112232e-01 4.773709314685710e-02 2.145206165946422e-02
1.102148125000000e+10 4.553254742224561e-02 -7.468733862172324e-03 9.362156529688156e-01 -1.380032149792893e-01 9.361081766006233e-01 -1.384745293993346e-01 4.828003711055111e-02 2.148358207634285e-02
1.106335000000000e+10 4.457602100193351e-02 -7.008791855636844e-03 9.360911656691462e-01 -1.384442783317884e-01 9.359814966946830e-01 -1.389108264847765e-01 4.846953896283267e-02 2.150458436238032e-02
1.110521875000000e+10 4.429099714389090e-02 -8.263996120349091e-03 9.359667141030580e-01 -1.388851933205738e-01 9.358548325636322e-01 -1.393469932592828e-01 4.807791484402617e-02 2.108120576177459e-02
1.114708750000000e+10 4.495880753628922e-02 -7.726408633078748e-03 9.358422956278560e-01 -1.393259610155548e-01 9.357281817957767e-01 -1.397830318733163e-01 4.802827329822380e-02 2.127047053193976e-02
1.118895625000000e+10 4.501684024436463e-02 -7.816198631257536e-03 9.357179076204514e-01 -1.397665825179959e-01 9.356015420345242e-01 -1.402189444580827e-01 4.814532938985325e-02 2.115210692846480e-02
1.123082500000000e+10 4.466841349842708e-02 -8.062516909544595e-03 9.355935474795338e-01 -1.402070589463110e-01 9.354749109654108e-01 -1.406547331218402e-01 4.834415527468673e-02 2.116607101849740e-02
1.127269375000000e+10 4.527692088094550e-02 -8.660032338702887e-03 9.354692126404960e-01 -1.406473914202202e-01 9.353482863355104e-01 -1.410903999286740e-01 4.840937422738307e-02 2.094788473121260e-02
1.131456250000000e+10 4.502342602990844e-02 -9.305123635865657e-03 9.353449005699122e-01 -1.410875810511500e-01 9.352216659515948e-01 -1.415259468928260e-01 4.792620293056119e-02 2.076998639621321e-02
1.135643125000000e+10 4.647969274579000e-02 -9.640177445939632e-03 9.352206087843371e-01 -1.415276289269458e-01 9.350950477036668e-01 -1.419613759660758e-01 4.820038832200821e-02 2.063248285535112e-02
1.139830000000000e+10 4.654482764793900e-02 -9.730325205819790e-03 9.350963348883805e-01 -1.419675361134690e-01 9.349684295953447e-01 -1.423966890406044e-01 4.855579863298267e-02 2.064285264876944e-02
1.144016875000000e+10 4.658447954222614e-02 -9.872264848220335e-03 9.349720765198618e-01 -1.424073036278429e-01 9.348418096926731e-01 -1.428318879408877e-01 4.840212275129830e-02 2.084732959867722e-02
1.148203750000000e+10 4.639402233118287e-02 -9.855934811202558e-03 9.348478313508838e-01 -1.428469324480668e-01 9.347151861289903e-01 -1.432669744043805e-01 4.852369969847479e-02 2.097221807661995e-02
1.152390625000000e+10 4.639328732746924e-02 -1.065706658590641e-02 9.347235971212609e-01 -1.432864235190742e-01 9.345885571356308e-01 -1.437019500938435e-01 4.853557678744261e-02 2.069207269819923e-02
1.156577500000000e+10 4.713152157196417e-02 -1.012087558507930e-02 9.345993717058065e-01 -1.437257777663660e-01 9.344619210916826e-01 -1.441368166009724e-01 4.891796394176211e-02 2.043892474737535e-02
1.160764375000000e+10 4.602050326150225e-02 -9.358790019431152e-03 9.344751531258526e-01 -1.441649961306912e-01 9.343352765178098e-01 -1.445715754843337e-01 4.946225642324825e-02 2.038997438771188e-02
1.164951250000000e+10 4.549435138845274e-02 -1.003281101477454e-02 9.343509395435903e-01 -1.446040795712617e-01 9.342086220598923e-01 -1.450062282817998e-01 4.904938270074743e-02 2.027998822070970e-02
1.169138125000000e+10 4.621960108654275e-02 -1.044330123070021e-02 9.342267292083107e-01 -1.450430290757804e-01 9.340819564221031e-01 -1.454407765108352e-01 4.901788996490571e-02 2.029357453320828e-02
1.173325000000000e+10 4.673920030464511e-02 -1.009935739440193e-02 9.341025204690609e-01 -1.454818456481785e-01 9.339552783721005e-01 -1.458752216704897e-01 5.001371070816308e-02 2.059299154685488e-02
1.177511875000000e+10 4.695036773725785e-02 -1.104775542712032e-02 9.339783117857886e-01 -1.459205303246040e-01 9.338285867534261e-01 -1.463095652351118e-01 4.999329579704855e-02 1.988879713393601e-02
1.181698750000000e+10 4.724861975482768e-02 -9.999083597332906e-03 9.338541015936908e-01 -1.463590841492999e-01 9.337018803618865e-01 -1.467438086407707e-01 5.004701405808473e-02 2.001214333009227e-02
1.185885625000000e+10 4.669467553091626e-02 -1.042605691356462e-02 9.337298883213005e-01 -1.467975081777070e-01 9.335751579650452e-01 -1.471779532993389e-01 5.018605757605388e-02 1.991225625787976e-02
1.190072500000000e+10 4.719757209692398e-02 -1.089775642531239e-02 9.336056703753394e-01 -1.472358035035268e-01 9.334484182930280e-01 -1.476120006000552e-01 5.014747491976355e-02 1.955417621199594e-02
1.194259375000000e+10 4.701302679266278e-02 -1.126196898783453e-02 9.334814461549287e-01 -1.476739712376274e-01 9.333216600438682e-01 -1.480459519052996e-01 5.057649339847246e-02 1.962764788442102e-02
1.198446250000000e+10 4.715347633368727e-02 -1.192384904772817e-02 9.333572140170849e-01 -1.481120125113729e-01 9.331948818627487e-01 -1.484798085727652e-01 5.034500409154994e-02 1.955994466268692e-02
1.202633125000000e+10 4.864826558179727e-02 -1.201533709218981e-02 9.332329722460351e-01 -1.485499284639532e-01 9.330680823129920e-01 -1.489135719276775e-01 5.055699711331463e-02 1.958952424299940e-02
1.206820000000000e+10 4.874023908437823e-02 -1.193345400704007e-02 9.331087190924122e-01 -1.489877202360910e-01 9.329412599011541e-01 -1.493472432655852e-01 5.143430365233081e-02 1.947516592678787e-02
1.211006875000000e+10 4.812172825517962e-02 -1.229349383976046e-02 9.329844526956810e-01 -1.494253889594606e-01 9.328144129938948e-01 -1.497808238578646e-01 5.193933094671532e-02 1.904528270299695e-02
1.215193750000000e+10 4.652858069571787e-02 -1.289995778725098e-02 9.328601709689734e-01 -1.498629357094180e-01 9.326875397822280e-01 -1.502143149061264e-01 5.014886062785112e-02 1.906292413147312e-02
1.219380625000000e+10 4.589347191384038e-02 -1.262214342548828e-02 9.327358716225208e-01 -1.503003615324887e-01 9.325606382654933e-01 -1.506477175591552e-01 4.904864483290344e-02 1.906930324861479e-02
1.223567500000000e+10 4.606114301606119e-02 -1.330447046254162e-02 9.326115523669811e-01 -1.507376674658218e-01 9.324337064915879e-01 -1.510810329397616e-01 4.801809499423789e-02 1.913080553118527e-02
1.227754375000000e+10 4.732717110535415e-02 -1.270589470432268e-02 9.324872110640576e-01 -1.511748545837155e-01 9.323067426749979e-01 -1.515142621686062e-01 4.796232579722979e-02 1.981069316045274e-02
1.231941250000000e+10 4.696178407491554e-02 -1.203324713631231e-02 9.323628457763553e-01 -1.516119239924855e-01 9.321797452414792e-01 -1.519474063734277e-01 4.855057406206442e-02 1.999869785868461e-02
1.236128125000000e+10 4.703772942395162e-02 -1.295682679877567e-02 9.322384547513886e-01 -1.520488768307232e-01 9.320527128220202e-01 -1.523804667093102e-01 4.868422412879990e-02 2.005197007891232e-02
1.240315000000000e+10 4.749827654493648e-02 -1.225015571627848e-02 9.321140364055959e-01 -1.524857142589030e-01 9.319256442257012e-01 -1.528134443390917e-01 4.903186404539180e-02 2.008335733405966e-02
1.244501875000000e+10 4.692187351303759e-02 -1.355594216028498e-02 9.319895893063344e-01 -1.529224374487652e-01 9.317985384365354e-01 -1.532463404262850e-01 4.959304202679623e-02 1.988565749663877e-02
1.248688750000000e+10 4.808871366900976e-02 -1.366028805972547e-02 9.318651121408134e-01 -1.533590475938138e-01 9.316713945781935e-01 -1.536791561519234e-01 5.010552095852188e-02 1.989968554852906e-02
1.252875625000000e+10 4.768006873367928e-02 -1.421717390409688e-02 9.317406036861879e-01 -1.537955458777773e-01 9.315442118693333e-01 -1.541118926724435e-01 5.030647668492113e-02 1.979747581159078e-02
1.257062500000000e+10 4.804287594178510e-02 -1.468183513187170e-02 9.316160627589865e-01 -1.542319334980236e-01 9.314169895704779e-01 -1.545445511335594e-01 5.047258526554329e-02 1.986896328318829e-02
1.261249375000000e+10 4.840379268319499e-02 -1.525165636880585e-02 9.314914881959299e-01 -1.546682116486653e-01 9.312897269822981e-01 -1.549771326707898e-01 5.118826798712476e-02 1.949063835379665e-02
1.265436250000000e+10 4.744215771872747e-02 -1.646304699477568e-02 9.313668788577737e-01 -1.551043815150835e-01 9.311624234498054e-01 -1.554096384059133e-01 5.132653821878089e-02 1.874738938344533e-02
1.269623125000000e+10 4.811817870890794e-02 -1.722920457950090e-02 9.312422336005362e-01 -1.555404442798603e-01 9.310350783410178e-01 -1.558420694612823e-01 5.076098115721998e-02 1.797054745228983e-02
1.273810000000000e+10 4.665672537336652e-02 -1.698922749290315e-02 9.311175512777816e-01 -1.559764011522928e-01 9.309076910563632e-01 -1.562744269932334e-01 4.937029173748766e-02 1.756668703551876e-02
1.277996875000000e+10 4.623328022619664e-02 -1.635164831993801e-02 9.309928307682084e-01 -1.564122533933530e-01 9.307802610405211e-01 -1.567067122380378e-01 4.841932622315679e-02 1.781750262593464e-02
1.282183750000000e+10 4.595273308604577e-02 -1.667132461159051e-02 9.308680710491801e-01 -1.568480023973493e-01 9.306527879333180e-01 -1.571389265512779e-01 4.699536103050626e-02 1.807894189898197e-02
1.286370625000000e+10 4.681302113432898e-02 -1.578396863405992e-02 9.307432712845284e-01 -1.572836497520121e-01 9.305252715871501e-01 -1.575710715109340e-01 4.688924150155589e-02 1.883852995396938e-02
1.290557500000000e+10 4.687071903875727e-02 -1.570134683677856e-02 9.306184308745785e-01 -1.577191972092875e-01 9.303977120911132e-01 -1.580031488965027e-01 4.694560352198950e-02 1.902568199891087e-02
1.294744375000000e+10 4.739881247408666e-02 -1.499159705119209e-02 9.304935494377626e-01 -1.581546466584812e-01 9.302701097369200e-01 -1.584351606552619e-01 4.634533345689563e-02 1.962674087701238e-02
1.298931250000000e+10 4.831956639514673e-02 -1.396023775638256e-02 9.303686268137211e-01 -1.585900001223807e-01 9.301424650190195e-01 -1.588671088830354e-01 4.676944031358937e-02 2.005317457201303e-02
1.303118125000000e+10 4.712530710196974e-02 -1.408716192061157e-02 9.302436630846479e-01 -1.590252597855615e-01 9.300147786365586e-01 -1.592989958475755e-01 4.770220575259058e-02 2.019185934626104e-02
1.307305000000000e+10 4.922032410504185e-02 -1.442123607375335e-02 9.301186584881527e-01 -1.594604280232250e-01 9.298870514254973e-01 -1.597308240266754e-01 4.879802645005957e-02 2.079064245883651e-02
1.311491875000000e+10 4.858093352173929e-02 -1.330818284629659e-02 9.299936132346379e-01 -1.598955073709330e-01 9.297592841722231e-01 -1.601625960724486e-01 5.036012377352899e-02 2.061833151896297e-02
1.315678750000000e+10 5.027426206966392e-02 -1.427690217736325e-02 9.298685274483459e-01 -1.603305004431334e-01 9.296314775121852e-01 -1.605943147359035e-01 5.081631992704114e-02 2.050502038528127e-02
1.319865625000000e+10 5.030807077901860e-02 -1.367175882376805e-02 9.297434010380961e-01 -1.607654098944836e-01 9.295036317999809e-01 -1.610259828625556e-01 5.145308101638450e-02 2.001849995580187e-02
1.324052500000000e+10 4.970660388623115e-02 -1.400778433258159e-02 9.296182336302500e-01 -1.612002383551478e-01 9.293757470387630e-01 -1.614576032646073e-01 5.167032501848499e-02 2.001342925317120e-02
1.328239375000000e+10 5.123523437921852e-02 -1.464770702775273e-02 9.294930245441752e-01 -1.616349884038842e-01 9.292478228628490e-01 -1.618891787172169e-01 5.180091835598837e-02 1.972055291596054e-02
1.332426250000000e+10 5.005871456730045e-02 -1.352462979505843e-02 9.293677728230890e-01 -1.620696625617581e-01 9.291198585565900e-01 -1.623207119561617e-01 5.107645917765968e-02 1.979584733464498e-02
1.336613125000000e+10 5.010890935934310e-02 -1.558477271664124e-02 9.292424772587201e-01 -1.625042632467233e-01 9.289918530689414e-01 -1.627522056211052e-01 5.109264172094456e-02 1.974146756497267e-02
1.340800000000000e+10 5.132254590335661e-02 -1.536081872792807e-02 9.291171364884074e-01 -1.629387927912032e-01 9.288638051145697e-01 -1.631836622861909e-01 5.031753006148681e-02 1.968316499271492e-02
1.344986875000000e+10 5.065437540798288e-02 -1.568530353565749e-02 9.289917490277114e-01 -1.633732534044510e-01 9.287357132223645e-01 -1.636150844139204e-01 4.988290176827102e-02 1.993141691881512e-02
1.349173750000000e+10 5.270566583233696e-02 -1.561963213279621e-02 9.288663133271203e-01 -1.638076471534566e-01 9.286075758098653e-01 -1.640464743176164e-01 4.941877552973374e-02 2.002412036128679e-02
1.353360625000000e+10 5.191807359998515e-02 -1.415472719585193e-02 9.287408278530525e-01 -1.642419759732835e-01 9.284793912708090e-01 -1.644778341793475e-01 4.910403223837306e-02 2.075285026450119e-02
1.357547500000000e+10 5.270221502031679e-02 -1.543944283897793e-02 9.286152910631548e-01 -1.646762416687149e-01 9.283511579764051e-01 -1.649091660482730e-01 4.915860593184636e-02 2.087637929228472e-02
1.361734375000000e+10 5.457266731793507e-02 -1.388392837772917e-02 9.284897014251541e-01 -1.651104459330044e-01 9.282228743245826e-01 -1.653404718584092e-01 4.976632562351447e-02 2.148398953520872e-02
1.365921250000000e+10 5.230966015570360e-02 -1.421330953297538e-02 9.283640574285255e-01 -1.655445903036334e-01 9.280945387598654e-01 -1.657717533863848e-01 5.149272446943171e-02 2.129669087946287e-02
1.370108125000000e+10 5.175118232523723e-02 -1.492935703730829e-02 9.282383574043048e-01 -1.659786761221666e-01 9.279661496481934e-01 -1.662030122360004e-01 5.122491974198712e-02 2.074969032738750e-02
1.374295000000000e+10 4.937155848249813e-02 -1.600520791219982e-02 9.281125995626343e-01 -1.664127046146847e-01 9.278377052829054e-01 -1.666342498862010e-01 5.097096123879737e-02 2.048327380977798e-02
1.378481875000000e+10 5.129982829294167e-02 -1.825273530798998e-02 9.279867820887537e-01 -1.668466769458398e-01 9.277092039875500e-01 -1.670654677261855e-01 5.091493367309768e-02 1.993529963253941e-02
1.382668750000000e+10 5.232991655740706e-02 -1.918216702103061e-02 9.278609032545935e-01 -1.672805942603563e-01 9.275806442486818e-01 -1.674966671418453e-01 5.111620948206099e-02 2.021138580806572e-02
1.386855625000000e+10 5.339965250020402e-02 -1.883496541957323e-02 9.277349612997706e-01 -1.677144576791842e-01 9.274520245628666e-01 -1.679278494883381e-01 5.167076504422389e-02 2.008404536268155e-02
1.391042500000000e+10 5.270566176793203e-02 -1.882841097407937e-02 9.276089543259501e-01 -1.681482682527186e-01 9.273233433271563e-01 -1.683590160262574e-01 5.125458742099764e-02 1.997536569746042e-02
1.395229375000000e+10 5.220417920999015e-02 -1.810941804571291e-02 9.274828802719101e-01 -1.685820269144297e-01 9.271945988375359e-01 -1.687901678827249e-01 5.075175437380463e-02 1.985875210280405e-02
1.399416250000000e+10 5.301273326856795e-02 -1.796892936766033e-02 9.273567369889406e-01 -1.690157344829817e-01 9.270657893662585e-01 -1.692213060694525e-01 5.006680449624201e-02 1.988704671874116e-02
1.403603125000000e+10 5.253192076230069e-02 -1.727761723158656e-02 9.272305223748016e-01 -1.694493916747929e-01 9.269369132723644e-01 -1.696524314685278e-01 5.136896963672039e-02 2.013448191550264e-02
1.407790000000000e+10 5.364970878386463e-02 -1.780434607843688e-02 9.271042343941387e-01 -1.698829991080936e-01 9.268079690212245e-01 -1.700835448407079e-01 5.241701735348899e-02 1.995413936958655e-02
1.411976875000000e+10 5.094612719685936e-02 -1.658501850236793e-02 9.269778709257742e-01 -1.703165573146361e-01 9.266789550441111e-01 -1.705146468666427e-01 5.263716398995501e-02 2.034531619224975e-02
1.416163750000000e+10 5.001186439539359e-02 -1.820144349586852e-02 9.268514296237118e-01 -1.707500667546291e-01 9.265498695958264e-01 -1.709457381548305e-01 5.291332891855001e-02 1.978445340352736e-02
1.420350625000000e+10 4.949595142921599e-02 -1.846989169032829e-02 9.267249079381503e-01 -1.711835278481390e-01 9.264207107545251e-01 -1.713768192643652e-01 5.293772118853894e-02 1.955073415625794e-02
1.424537500000000e+10 4.774680526848538e-02 -1.860360970341288e-02 9.265983031437676e-01 -1.716169409869562e-01 9.262914764398876e-01 -1.718078907168758e-01 5.229366959579174e-02 1.923125259448748e-02
1.428724375000000e+10 4.808692767535538e-02 -2.128450512815755e-02 9.264716123410643e-01 -1.720503065329133e-01 9.261621644064721e-01 -1.722389529904966e-01 5.056276237321745e-02 1.898564505034201e-02
1.432911250000000e+10 5.144534701890774e-02 -1.945415145261110e-02 9.263448325733710e-01 -1.724836248477977e-01 9.260327723403845e-01 -1.726700065357882e-01 4.891898805368319e-02 1.967244992620634e-02
1.437098125000000e+10 5.210482589360849e-02 -1.951901862115688e-02 9.262179609971605e-01 -1.729168962502576e-01 9.259032980877322e-01 -1.731010517716552e-01 4.924112299737438e-02 1.998435344930865e-02
1.441285000000000e+10 5.434254421781126e-02 -1.789722719240309e-02 9.260909949024925e-01 -1.733501210175964e-01 9.257737396022198e-01 -1.735320890540110e-01 4.927316375603937e-02 2.133148655497233e-02
1.445471875000000e+10 5.263564838767617e-02 -1.531759392931615e-02 9.259639316331252e-01 -1.737832993308748e-01 9.256440948506989e-01 -1.739631186251248e-01 5.019169458025711e-02 2.227098296381155e-02
1.449658750000000e+10 5.064070526779482e-02 -1.733624346955053e-02 9.258367685557930e-01 -1.742164312362060e-01 9.255143618085626e-01 -1.743941405665546e-01 5.057919939800357e-02 2.200764032117826e-02
1.453845625000000e+10 5.303300174231318e-02 -1.814363732564150e-02 9.257095031452314e-01 -1.746495165966868e-01 9.253845385308151e-01 -1.748251547384099e-01 5.071513411658478e-02 2.186736644288052e-02
1.458032500000000e+10 5.301582648466500e-02 -1.942590040853114e-02 9.255821331213981e-01 -1.750825551022874e-01 9.252546232649211e-01 -1.752561608253468e-01 5.124710088179574e-02 2.105197204872982e-02
1.462219375000000e+10 5.360661787650251e-02 -2.009157578799601e-02 9.254546564749743e-01 -1.755155462530673e-01 9.251246144877451e-01 -1.756871583045306e-01 5.206515743164388e-02 2.059912934174041e-02
1.466406250000000e+10 5.223994801585603e-02 -2.045548851916728e-02 9.253270713874956e-01 -1.759484894038795e-01 9.249945108363157e-01 -1.761181464860356e-01 5.177668767820973e-02 1.999398486901360e-02
1.470593125000000e+10 5.205478136065074e-02 -2.056769341500925e-02 9.251993761537128e-01 -1.763813837521451e-01 9.248643110568809e-01 -1.765491245136944e-01 5.119013505294935e-02 1.984265469244914e-02
1.474780000000000e+10 5.160516709246956e-02 -2.098869435842603e-02 9.250715692943832e-01 -1.768142283993635e-01 9.247340141126651e-01 -1.769800914216867e-01 5.077903378124635e-02 1.963227422456762e-02
1.478966875000000e+10 5.158341484557028e-02 -2.084677546419066e-02 9.249436495903518e-01 -1.772470224317530e-01 9.246036192086881e-01 -1.774110462062740e-01 5.125589648492042e-02 1.950155347657533e-02
1.483153750000000e+10 5.245255138392881e-02 -2.035592592844728e-02 9.248156160514032e-01 -1.776797649457512e-01 9.244731257923097e-01 -1.778419878751846e-01 5.177346503272200e-02 1.975546865889389e-02
1.487340625000000e+10 5.032606644153090e-02 -1.931975355050834e-02 9.246874678560730e-01 -1.781124550772366e-01 9.243425334381290e-01 -1.782729154513065e-01 5.148265294075616e-02 1.981682096233242e-02
1.491527500000000e+10 5.186972943590014e-02 -2.020781299974070e-02 9.245592042778231e-01 -1.785450919886554e-01 9.242118417957703e-01 -1.787038279658200e-01 5.078483753026252e-02 2.014361320470378e-02
1.495714375000000e+10 5.089961259699911e-02 -1.740413188522773e-02 9.244308246967637e-01 -1.789776748913215e-01 9.240810506485361e-01 -1.791347244925366e-01 5.169129406922163e-02 2.058797588297894e-02
1.499901250000000e+10 5.056336009799076e-02 -1.928387271040508e-02 9.243023286199018e-01 -1.794102030687594e-01 9.239501599368705e-01 -1.795656041678200e-01 5.263427290883957e-02 2.009821881829530e-02
1.504088125000000e+10 5.198464780909397e-02 -1.794780552384426e-02 9.241737156394056e-01 -1.798426758525515e-01 9.238191697207947e-01 -1.799964661602926e-01 5.352574956224222e-02 2.011136702756219e-02
1.508275000000000e+10 5.010687445107831e-02 -1.830538016327951e-02 9.240449853354216e-01 -1.802750926344373e-01 9.236880800911258e-01 -1.804273096896110e-01 5.407039759424358e-02 1.936463754488995e-02
1.512461875000000e+10 5.254803964491572e-02 -2.149273174437836e-02 9.239161372066579e-01 -1.807074528382450e-01 9.235568910952398e-01 -1.808581340056510e-01 5.368975967441938e-02 1.868696143056421e-02
1.516648750000000e+10 5.366315166891131e-02 -1.887762269565735e-02 9.237871706550158e-01 -1.811397559392282e-01 9.234256027028591e-01 -1.812889383842988e-01 5.384834006710309e-02 1.907481204479297e-02
1.520835625000000e+10 5.146765033746394e-02 -2.195351914509388e-02 9.236580849383563e-01 -1.815720014656599e-01 9.232942147339234e-01 -1.817197221350044e-01 5.438823180127395e-02 1.853595003534683e-02
1.525022500000000e+10 5.351139136988976e-02 -2.213895046467243e-02 9.235288791574893e-01 -1.820041890014084e-01 9.231627268625686e-01 -1.821504846084245e-01 5.395380366139062e-02 1.852673408068789e-02
1.529209375000000e+10 5.147982745373066e-02 -2.239959868536243e-02 9.233995522102592e-01 -1.824363182211174e-01 9.230311385505097e-01 -1.825812251994782e-01 5.402199996416000e-02 1.793607335303149e-02
1.533396250000000e+10 5.142529447738308e-02 -2.354290512007156e-02 9.232701027953972e-01 -1.828683889000032e-01 9.228994490614301e-01 -1.830119433871159e-01 5.358508106794252e-02 1.821849865441632e-02
1.537583125000000e+10 5.074565361262973e-02 -2.103341062561734e-02 9.231405293806358e-01 -1.833004010147878e-01 9.227676573991641e-01 -1.834426388148878e-01 5.384119776664915e-02 1.897137397754222e-02
1.541770000000000e+10 4.801607164006796e-02 -2.191352301424284e-02 9.230108302040131e-01 -1.837323547212901e-01 9.226357622928191e-01 -1.838733113041100e-01 5.426230197874428e-02 1.895400668207243e-02
1.545956875000000e+10 4.913343034808761e-02 -2.129748554160968e-02 9.228810032811525e-01 -1.841642503351009e-01 9.225037622190605e-01 -1.843039608353943e-01 5.404891081391051e-02 1.915971744052087e-02
1.550143750000000e+10 4.742123016774321e-02 -2.136478811816259e-02 9.227510464045805e-01 -1.845960883133392e-01 9.223716553753794e-01 -1.847345875021185e-01 5.339879066574687e-02 1.882559600495647e-02
1.554330625000000e+10 4.787253400028636e-02 -2.052302795039572e-02 9.226209572118165e-01 -1.850278692152360e-01 9.222394397538634e-01 -1.851651915134092e-01 5.282073425452610e-02 1.947319750476903e-02
1.558517500000000e+10 4.649897873571428e-02 -2.027318518471998e-02 9.224907333094736e-01 -1.854595937338724e-01 9.221071132245499e-01 -1.855957731895838e-01 5.252674317189526e-02 1.942164654708953e-02
1.562704375000000e+10 4.822339173619267e-02 -2.043030247368139e-02 9.223603724181665e-01 -1.858912626963316e-01 9.219746737087796e-01 -1.860263329417912e-01 5.198809666154647e-02 1.932522187648398e-02
1.566891250000000e+10 4.895077472005479e-02 -2.031392808539410e-02 9.222298725190996e-01 -1.863228770040236e-01 9.218421192736864e-01 -1.864568712353191e-01 5.259478498041618e-02 1.873032412464163e-02
1.571078125000000e+10 4.981381355284881e-02 -2.138133705237810e-02 9.220992319698516e-01 -1.867544375949415e-01 9.217094482766278e-01 -1.868873885593851e-01 5.343500864097345e-02 1.788005273025279e-02
1.575265000000000e+10 5.024983001832252e-02 -2.076276548200280e-02 9.219684494839557e-01 -1.871859454717546e-01 9.215766593312642e-01 -1.873178854625767e-01 5.364987354737656e-02 1.756072485380642e-02
1.579451875000000e+10 4.833294591684832e-02 -2.280267515478616e-02 9.218375239720743e-01 -1.876174016795373e-01 9.214437511547156e-01 -1.877483625644144e-01 5.388578254820078e-02 1.651454375390250e-02
1.583638750000000e+10 5.037112703141334e-02 -2.449758735249261e-02 9.217064545279681e-01 -1.880488073267848e-01 9.213107225539282e-01 -1.881788205206185e-01 5.315903568664136e-02 1.565234327755168e-02
1.587825625000000e+10 4.930056608264088e-02 -2.475752026139839e-02 9.215752404517848e-01 -1.884801635366589e-01 9.211775724304379e-01 -1.886092599955644e-01 5.248151906800626e-02 1.472694739745649e-02
1.592012500000000e+10 5.071840626068451e-02 -2.643684912426495e-02 9.214438812786619e-01 -1.889114714801496e-01 9.210442998172049e-01 -1.890396816957330e-01 5.127545692570148e-02 1.435111058640885e-02
1.596199375000000e+10 5.020437453982030e-02 -2.529381393698607e-02 9.213123768336843e-01 -1.893427324597989e-01 9.209109039252232e-01 -1.894700864300575e-01 5.089490598682355e-02 1.479222407998462e-02
1.600386250000000e+10 4.991560801734985e-02 -2.572401992326303e-02 9.211807271780379e-01 -1.897739479769854e-01 9.207773840909563e-01 -1.899004752313486e-01 5.077301758198131e-02 1.519843810214581e-02
1.604573125000000e+10 4.969709040623387e-02 -2.523263978972570e-02 9.210489324097966e-01 -1.902051198124501e-01 9.206437396319828e-01 -1.903308494048366e-01 5.020668110220809e-02 1.634676983629623e-02
1.608760000000000e+10 4.990258836441860e-02 -2.496424447673694e-02 9.209169925989219e-01 -1.906362499963282e-01 9.205099697550496e-01 -1.907612105062890e-01 5.024461315965464e-02 1.686611909058891e-02
1.612946875000000e+10 5.026442780662234e-02 -2.549836176658181e-02 9.207849078392945e-01 -1.910673407617746e-01 9.203760736200584e-01 -1.911915603274257e-01 5.020185245055973e-02 1.758142896061374e-02
1.617133750000000e+10 5.007796262264694e-02 -2.521713337260150e-02 9.206526781978251e-01 -1.914983944997330e-01 9.202420503009531e-01 -1.916219008464487e-01 5.047272402004641e-02 1.766803540855691e-02
1.621320625000000e+10 4.897736905279716e-02 -2.558125968314313e-02 9.205203037494959e-01 -1.919294137169021e-01 9.201078988191477e-01 -1.920522341621249e-01 4.968114721121027e-02 1.800187958545126e-02
1.625507500000000e+10 4.921034000482405e-02 -2.472055482323493e-02 9.203877845996752e-01 -1.923604010409790e-01 9.199736181918451e-01 -1.924825625357400e-01 4.924239562187351e-02 1.874739912376050e-02
1.629694375000000e+10 4.854030212139746e-02 -2.481337642663591e-02 9.202551210041725e-01 -1.927913592407721e-01 9.198392075465239e-01 -1.929128884034988e-01 4.969772387902708e-02 1.908953183207874e-02
1.633881250000000e+10 4.901684988184838e-02 -2.521266321671171e-02 9.201223133600402e-01 -1.932222912296671e-01 9.197046661361061e-01 -1.933432143703029e-01 5.095565467414564e-02 1.878056666646072e-02
1.638068125000000e+10 4.731197646705135e-02 -2.460114017586279e-02 9.199893621634434e-01 -1.936531999817310e-01 9.195699933013683e-01 -1.937735431343964e-01 5.083301332813768e-02 1.798074670415432e-02
1.642255000000000e+10 4.698871222071845e-02 -2.652138743448363e-02 9.198562680219279e-01 -1.940840885434151e-01 9.194351884473345e-01 -1.942038774542728e-01 4.952145086902890e-02 1.801881783950299e-02
1.646441875000000e+10 4.902683756350166e-02 -2.610955922966499e-02 9.197230317232683e-01 -1.945149600755614e-01 9.193002511587508e-01 -1.946342202186861e-01 4.948212163364946e-02 1.836364662859313e-02
1.650628750000000e+10 4.899759926719440e-02 -2.645070162554868e-02 9.195896542693061e-01 -1.949458178600890e-01 9.191651812378430e-01 -1.950645744669915e-01 4.934575743159313e-02 1.862616704326247e-02
1.654815625000000e+10 4.896125584587202e-02 -2.602644025018026e-02 9.194561367987505e-01 -1.953766652805051e-01 9.190299786300574e-01 -1.954949433686030e-01 4.942648112755019e-02 1.928969336835467e-02
1.659002500000000e+10 5.007178070504726e-02 -2.694099323736189e-02 9.193224805724073e-01 -1.958075057981361e-01 9.188946434072668e-01 -1.959253302064982e-01 4.875494491115344e-02 1.922397931556837e-02
1.663189375000000e+10 5.073182059650529e-02 -2.649618010567117e-02 9.191886870074040e-01 -1.962383428833495e-01 9.187591758029455e-01 -1.963557383219375e-01 4.998162769695198e-02 1.921146718595623e-02
1.667376250000000e+10 5.255462432515963e-02 -2.733145580453596e-02 9.190547577189732e-01 -1.966691800004395e-01 9.186235762437945e-01 -1.967861710767619e-01 5.009906875201084e-02 1.918317473110774e-02
1.671563125000000e+10 5.344044847023768e-02 -2.621846763977934e-02 9.189206944030520e-01 -1.971000205988794e-01 9.184878452263190e-01 -1.972166318045218e-01 4.967585133735590e-02 2.035554698136735e-02
1.675750000000000e+10 5.329952609467303e-02 -2.547306558323467e-02 9.187864987602479e-01 -1.975308680431328e-01 9.183519832471370e-01 -1.976471237821985e-01 5.077157706508650e-02 2.071477003633472e-02
1.679936875000000e+10 5.439024493449220e-02 -2.659207524073365e-02 9.186521725329800e-01 -1.979617256147334e-01 9.182159908495584e-01 -1.980776502166029e-01 5.107402120576653e-02 2.069223009919173e-02
1.684123750000000e+10 5.420956276402766e-02 -2.535017155331177e-02 9.185177174589176e-01 -1.983925965114470e-01 9.180798685720276e-01 -1.985082142486659e-01 5.283211748336615e-02 2.073732970151850e-02
1.688310625000000e+10 5.320479255540570e-02 -2.639812041952822e-02 9.183831352107567e-01 -1.988234838120164e-01 9.179436168950220e-01 -1.989388188727254e-01 5.320931637681045e-02 2.032455643665905e-02
1.692497500000000e+10 5.472372980698657e-02 -2.625315912500313e-02 9.182484272171183e-01 -1.992543904739806e-01 9.178072360792922e-01 -1.993694670109969e-01 5.474352736610649e-02 2.031786768718655e-02
1.696684375000000e+10 5.333369302899705e-02 -2.640673271575450e-02 9.181135947133452e-01 -1.996853192688562e-01 9.176707261884076e-01 -1.998001614284430e-01 5.696755127892417e-02 1.958665223334209e-02
1.700871250000000e+10 5.417623950901389e-02 -2.795705592565520e-02 9.179786386480949e-01 -2.001162727617382e-01 9.175340869591243e-01 -2.002309046411643e-01 5.665389532180064e-02 1.824198234201008e-02
1.705058125000000e+10 5.566177494117361e-02 -2.689228536236309e-02 9.178435595367938e-01 -2.005472533232526e-01 9.173973175720589e-01 -2.006616989686266e-01 5.647737261298620e-02 1.907414679281505e-02
1.709245000000000e+10 5.530885057250480e-02 -2.631507545942156e-02 9.177083573986879e-01 -2.009782630758674e-01 9.172604166769306e-01 -2.010925464964261e-01 5.643443553202048e-02 1.866906135791467e-02
1.713431875000000e+10 5.410074269079321e-02 -2.534522836065618e-02 9.175730319859631e-01 -2.014093038628624e-01 9.171233826297258e-01 -2.015234490644712e-01 5.470978020870126e-02 1.707907373573189e-02
1.717618750000000e+10 5.261386038695978e-02 -2.485910086184157e-02 9.174375831908248e-01 -2.018403774418563e-01 9.169862138777708e-01 -2.019544083900471e-01 5.122443186121386e-02 1.839308747344372e-02
1.721805625000000e+10 5.406411016504103e-02 -2.392933638507486e-02 9.173020112316814e-01 -2.022714856681802e-01 9.168489090635614e-01 -2.023854260829248e-01 5.141178929272836e-02 1.851724933518351e-02
1.725992500000000e+10 5.476411734145981e-02 -2.400898597433684e-02 9.171663165137223e-01 -2.027026303022924e-01 9.167114670655538e-01 -2.028165037183015e-01 5.289460727824534e-02 1.830403642971588e-02
1.730179375000000e+10 5.516531781563096e-02 -2.265123622402984e-02 9.170304994276529e-01 -2.031338130479272e-01 9.165738867803496e-01 -2.032476427026322e-01 5.249185886152554e-02 1.925492958422765e-02
1.734366250000000e+10 5.444350834510247e-02 -2.376559987118080e-02 9.168945603255491e-01 -2.035650355116748e-01 9.164361669441460e-01 -2.036788443032297e-01 5.346927757531091e-02 1.980735123716005e-02
1.738553125000000e+10 5.745858010064255e-02 -2.469157744257082e-02 9.167584994950967e-01 -2.039962991955118e-01 9.162983061870736e-01 -2.041101096712863e-01 5.357372867432416e-02 1.949748339870621e-02
1.742740000000000e+10 5.705649597128241e-02 -2.350422960352164e-02 9.166223171445242e-01 -2.044276054227834e-01 9.161603030032782e-01 -2.045414397868327e-01 5.460066272656629e-02 1.942162449661274e-02
1.746926875000000e+10 5.673031832245300e-02 -2.413525074085900e-02 9.164860133575076e-01 -2.048589552921303e-01 9.160221556576416e-01 -2.049728353954339e-01 5.423976575068835e-02 1.952747139830299e-02
1.751113750000000e+10 5.714441377216317e-02 -2.281025457014633e-02 9.163495880742297e-01 -2.052903497521707e-01 9.158838622571330e-01 -2.054042971162073e-01 5.515521812315942e-02 2.007906783994661e-02
1.755300625000000e+10 5.644290073354569e-02 -2.416597841246684e-02 9.162130411534096e-01 -2.057217896921602e-01 9.157454209074261e-01 -2.058358255578450e-01 5.604607935224321e-02 1.872859783607436e-02
1.759487500000000e+10 5.681537059281287e-02 -2.399784634277228e-02 9.160763722598244e-01 -2.061532760084749e-01 9.156068295054441e-01 -2.062674212680504e-01 5.576880089145098e-02 1.814466541449926e-02
1.763674375000000e+10 5.377979326258848e-02 -2.463931706703601e-02 9.159395808861757e-01 -2.065848095932465e-01 9.154680858011566e-01 -2.066990847827810e-01 5.526452112372046e-02 1.780266392513145e-02
1.767861250000000e+10 5.490149801538216e-02 -2.592396831763737e-02 9.158026663760729e-01 -2.070163913920181e-01 9.153291874169671e-01 -2.071308167028970e-01 5.406697025101499e-02 1.743188694497757e-02
1.772048125000000e+10 5.525665372656394e-02 -2.771663534624665e-02 9.156656280454925e-01 -2.074480225121657e-01 9.151901319620890e-01 -2.075626177619777e-01 5.408382129604333e-02 1.688721573706935e-02
1.776235000000000e+10 5.738860651860642e-02 -2.810384842353908e-02 9.155284651731075e-01 -2.078797042348380e-01 9.150509170776669e-01 -2.079944888502932e-01 5.349737277521179e-02 1.641771693058332e-02
1.780421875000000e+10 5.661555715591154e-02 -2.752210692828968e-02 9.153911769555799e-01 -2.083114379990801e-01 9.149115404046579e-01 -2.084264309998639e-01 5.368647403504644e-02 1.707378082231212e-02
1.784608750000000e+10 5.642073096798220e-02 -2.684681360140303e-02 9.152537623627759e-01 -2.087432254049947e-01 9.147719994023117e-01 -2.088584454070268e-01 5.353408194490764e-02 1.764324545335399e-02
1.788795625000000e+10 5.511331114810428e-02 -2.643422888873030e-02 9.151162199573277e-01 -2.091750682097251e-01 9.146322911966538e-01 -2.092905334133773e-01 5.367100794881011e-02 1.804522351551565e-02
1.792982500000000e+10 5.556624893742197e-02 -2.686240771004251e-02 9.149785480000060e-01 -2.096069683253299e-01 9.144924126559607e-01 -2.097226965217183e-01 5.391308726723804e-02 1.788422386221749e-02
1.797169375000000e+10 5.577904989524778e-02 -2.605653804162223e-02 9.148407443995817e-01 -2.100389278024818e-01 9.143523603424969e-01 -2.101549363455419e-01 5.376462194748481e-02 1.893019971004949e-02
1.801356250000000e+10 5.492300189174095e-02 -2.576792489033449e-02 9.147028065792540e-01 -2.104709487374544e-01 9.142121304160516e-01 -2.105872546048914e-01 5.424575031879984e-02 1.963969920531021e-02
1.805543125000000e+10 5.536016531885129e-02 -2.579555249319461e-02 9.145647315551088e-01 -2.109030332133638e-01 9.140717187018614e-01 -2.110196529655537e-01 5.417799060009243e-02 1.978765477265781e-02
1.809730000000000e+10 5.469950346724727e-02 -2.500619569849405e-02 9.144265161461894e-01 -2.113351832731940e-01 9.139311208646489e-01 -2.114521330345348e-01 5.420760631995195e-02 1.985137552312426e-02
1.813916875000000e+10 5.633233281945743e-02 -2.717068743003071e-02 9.142881572578868e-01 -2.117674008027537e-01 9.137903325928055e-01 -2.118846964325399e-01 5.494847817710939e-02 1.933580270859057e-02
1.818103750000000e+10 5.640379066163247e-02 -2.792927438775583e-02 9.141496517425562e-01 -2.121996876516430e-01 9.136493495222707e-01 -2.123173447644517e-01 5.607276051839878e-02 1.883395219414261e-02
1.822290625000000e+10 5.560186406955148e-02 -2.839340126564997e-02 9.140109962359614e-01 -2.126320456014792e-01 9.135081671029895e-01 -2.127500794691584e-01 5.644746797638710e-02 1.820668574869430e-02
1.826477500000000e+10 5.499693889422066e-02 -3.132329327725261e-02 9.138721871640738e-01 -2.130644762729173e-01 9.133667805496468e-01 -2.131829018060644e-01 5.586149793792652e-02 1.735960337058201e-02
1.830664375000000e+10 5.581246242377043e-02 -3.075700796760972e-02 9.137332208198524e-01 -2.134969811488143e-01 9.132251849473947e-01 -2.136158128716761e-01 5.513417133800828e-02 1.733403010122930e-02
1.834851250000000e+10 5.404744950571796e-02 -3.271831239703633e-02 9.135940934234505e-01 -2.139295616155812e-01 9.130833753356019e-01 -2.140488136428509e-01 5.400255390643616e-02 1.653093499145325e-02
1.839038125000000e+10 5.650810362521446e-02 -3.178909959444851e-02 9.134548013827636e-01 -2.143622189064995e-01 9.129413468689213e-01 -2.144819050192577e-01 5.365150869893107e-02 1.688251278392501e-02
1.843225000000000e+10 5.311808312392732e-02 -3.142510506061454e-02 9.133153413226172e-01 -2.147949542053963e-01 9.127990949188619e-01 -2.149150878321572e-01 5.373228309567391e-02 1.585458014112943e-02
1.847411875000000e+10 5.241396395981799e-02 -3.228501303896102e-02 9.131757100623720e-01 -2.152277686170405e-01 9.126566150238837e-01 -2.153483628270891e-01 5.365079766618353e-02 1.533263101263808e-02
1.851598750000000e+10 4.921259126748478e-02 -3.081841446981372e-02 9.130359046190301e-01 -2.156606632572196e-01 9.125139028878712e-01 -2.157817307448347e-01 5.266617293336676e-02 1.530675053837294e-02
1.855785625000000e+10 4.941860551262573e-02 -3.289528147710698e-02 9.128959221476827e-01 -2.160936393355935e-01 9.123709543203256e-01 -2.162151923917454e-01 5.152198294005364e-02 1.486391742834682e-02
1.859972500000000e+10 4.947563871842135e-02 -3.128681993514847e-02 9.127557600976710e-01 -2.165266981784101e-01 9.122277653758026e-01 -2.166487486824752e-01 5.001549303531721e-02 1.547747843434564e-02
1.864159375000000e+10 5.027769014859607e-02 -3.229553211762907e-02 9.126154162113788e-01 -2.169598412384272e-01 9.120843323708313e-01 -2.170824006515346e-01 4.836441359851316e-02 1.570185040245747e-02
1.868346250000000e+10 5.247179513290184e-02 -3.045045577289043e-02 9.124748886305276e-01 -2.173930701463778e-01 9.119406520178607e-01 -2.175161495086574e-01 4.881419369082158e-02 1.680769066036751e-02
1.872533125000000e+10 5.223428433396649e-02 -3.054341949009192e-02 9.123341759750252e-01 -2.178263866902869e-01 9.117967214731200e-01 -2.179499966215392e-01 4.857562763423660e-02 1.713644018186831e-02
1.876720000000000e+10 5.317716249975208e-02 -2.907124373410443e-02 9.121932771134260e-01 -2.182597927436374e-01 9.116525381746254e-01 -2.183839434901473e-01 4.895719808173520e-02 1.792591641888668e-02
1.880906875000000e+10 5.146822512050792e-02 -2.887111641548170e-02 9.120521911813299e-01 -2.186932902630281e-01 9.115080998135803e-01 -2.188179916698977e-01 5.099200769322783e-02 1.851916476056333e-02
1.885093750000000e+10 5.231045758652265e-02 -2.956908799910384e-02 9.119109175007744e-01 -2.191268812117608e-01 9.113634041987282e-01 -2.192521427155242e-01 5.221369861225852e-02 1.843122337057693e-02
1.889280625000000e+10 5.305724117715588e-02 -2.983945937084089e-02 9.117694553973839e-01 -2.195605675167573e-01 9.112184491829024e-01 -2.196863980874283e-01 5.181538821258864e-02 1.822234697785266e-02
1.893467500000000e+10 5.130344141352629e-02 -2.871873870126738e-02 9.116278041133856e-01 -2.199943510423449e-01 9.110732325674904e-01 -2.201207591424862e-01 5.117189669239917e-02 1.780535246642989e-02
1.897654375000000e+10 5.191575013369518e-02 -2.923330141447165e-02 9.114859628675049e-01 -2.204282335614170e-01 9.109277521282750e-01 -2.205552271266278e-01 5.003747956198670e-02 1.728535309225821e-02
1.901841250000000e+10 5.133547901650721e-02 -2.829730209160296e-02 9.113439309962134e-01 -2.208622168026441e-01 9.107820057872743e-01 -2.209898032196261e-01 4.790115875427982e-02 1.822152429441502e-02
1.906028125000000e+10 5.275752318731285e-02 -2.800260457655059e-02 9.112017081759266e-01 -2.212963025528421e-01 9.106359918153729e-01 -2.214244886225645e-01 4.765712298652815e-02 1.950251887861328e-02
1.910215000000000e+10 5.440009977460113e-02 -2.857837258609172e-02 9.110592942724079e-01 -2.217304926217459e-01 9.104897087685059e-01 -2.218592845615299e-01 4.821024629146208e-02 2.074748778302166e-02
1.914401875000000e+10 5.696063346703990e-02 -2.728924274892078e-02 9.109166892836242e-01 -2.221647888018111e-01 9.103431554470880e-01 -2.222941922470619e-01 4.884646195880690e-02 2.175991184981498e-02
1.918588750000000e+10 5.764333644343188e-02 -2.693725506923641e-02 9.107738932424120e-01 -2.225991927777042e-01 9.101963308119750e-01 -2.227292128186663e-01 5.023289844895439e-02 2.232171757371399e-02
1.922775625000000e+10 6.033221645582460e-02 -2.636838580350430e-02 9.106309060278410e-01 -2.230337061147787e-01 9.100492337958431e-01 -2.231643472835593e-01 5.127166709920170e-02 2.301629935449260e-02
1.926962500000000e+10 6.088687330067578e-02 -2.627227809906833e-02 9.104877273141766e-01 -2.234683300977157e-01 9.099018632809933e-01 -2.235995963527731e-01 5.233554999780028e-02 2.339776286477319e-02
1.931149375000000e+10 6.063110853385788e-02 -2.663131394943180e-02 9.103443563715679e-01 -2.239030657766094e-01 9.097542180144572e-01 -2.240349604067632e-01 5.302132312550834e-02 2.365464569181390e-02
1.935336250000000e+10 6.019419806796258e-02 -2.727007110315316e-02 9.102007922856449e-01 -2.243379138698904e-01 9.096062966602467e-01 -2.244704394579737e-01 5.505100203170867e-02 2.328565055667822e-02
1.939523125000000e+10 6.021247842487928e-02 -2.843244229154428e-02 9.100570339194116e-01 -2.247728746862142e-01 9.094580978350527e-01 -2.249060331260974e-01 5.687939829084000e-02 2.213508136166151e-02
1.943710000000000e+10 5.936314273610255e-02 -2.962653919121257e-02 9.099130796817879e-01 -2.252079480696504e-01 9.093096198718432e-01 -2.253417405859915e-01 5.822168594602398e-02 2.193921865955989e-02
1.947896875000000e+10 6.107741184907606e-02 -3.241915536619877e-02 9.097689275873184e-01 -2.256431333583453e-01 9.091608608998316e-01 -2.257775605386197e-01 5.925167908563507e-02 2.044657065903237e-02
1.952083750000000e+10 6.015998485682182e-02 -3.290349538429935e-02 9.096245752934410e-01 -2.260784293540647e-01 9.090118187967596e-01 -2.262134911692750e-01 5.910617527553580e-02 1.925439901306761e-02
1.956270625000000e+10 6.216489735981149e-02 -3.537646915960978e-02 9.094800200379560e-01 -2.265138343311646e-01 9.088624911542376e-01 -2.266495300952355e-01 5.877651894233617e-02 1.891937731022795e-02
1.960457500000000e+10 6.144432854051884e-02 -3.374115282126401e-02 9.093352587008494e-01 -2.269493460839001e-01 9.087128753358034e-01 -2.270856744511204e-01 5.797038474596637e-02 1.985640806503548e-02
1.964644375000000e+10 6.024766616332470e-02 -3.325246026518826e-02 9.091902878938067e-01 -2.273849619328401e-01 9.085629685236174e-01 -2.275219208874454e-01 5.838027371062481e-02 1.921066608232196e-02
1.968831250000000e+10 5.876969513401224e-02 -3.408919278700424e-02 9.090451041722356e-01 -2.278206786483568e-01 9.084127678732350e-01 -2.279582655213674e-01 5.803466370836734e-02 1.872885088879516e-02
1.973018125000000e+10 5.811527636174030e-02 -3.384467493910939e-02 9.088997041225957e-01 -2.282564925004922e-01 9.082622706935306e-01 -2.283947040012421e-01 5.746289909561226e-02 1.857715736236370e-02
1.977205000000000e+10 6.040611183465837e-02 -3.459203326206198e-02 9.087540846359299e-01 -2.286923994708817e-01 9.081114746120764e-01 -2.288312316488382e-01 5.707025962303432e-02 1.823999426636644e-02
1.981391875000000e+10 5.960507246401077e-02 -3.340798827288971e-02 9.086082428244053e-01 -2.291283953080189e-01 9.079603775445961e-01 -2.292678434306115e-01 5.783058164246522e-02 1.845550024200785e-02
1.985578750000000e+10 6.225154590695887e-02 -3.532490541322036e-02 9.084621759364019e-01 -2.295644754056326e-01 9.078089775241789e-01 -2.297045338949555e-01 5.938923569156550e-02 1.792852882350031e-02
1.989765625000000e+10 6.085695613815148e-02 -3.465455112627295e-02 9.083158811556653e-01 -2.300006347843157e-01 9.076572726696596e-01 -2.301412972355714e-01 6.007016564226443e-02 1.715621283297270e-02
1.993952500000000e+10 6.204066112127560e-02 -3.680229514835972e-02 9.081693557176541e-01 -2.304368680837406e-01 9.075052612077019e-01 -2.305781272736790e-01 6.111915691185821e-02 1.495300818417177e-02
1.998139375000000e+10 5.937901186888631e-02 -3.597816348517472e-02 9.080225966965102e-01 -2.308731696116953e-01 9.073529414526449e-01 -2.310150175726730e-01 6.072604505556783e-02 1.410813822277780e-02
2.002326250000000e+10 5.819296617694901e-02 -3.621858370900161e-02 9.078756009669691e-01 -2.313095334751569e-01 9.072003116668109e-01 -2.314519614645270e-01 6.131945851347920e-02 1.361433132564072e-02
2.006513125000000e+10 5.277208339155363e-02 -3.874243216609422e-02 9.077283653923838e-01 -2.317459536673452e-01 9.070473701919878e-01 -2.318889521569497e-01 5.927825446095419e-02 1.290373073289527e-02
2.010700000000000e+10 5.252560591403362e-02 -3.822826482364326e-02 9.075808871889200e-01 -2.321824241643424e-01 9.068941157550016e-01 -2.323259828319167e-01 5.776937156850963e-02 1.257136541090915e-02
2.014886875000000e+10 5.506351055245249e-02 -3.915941241280410e-02 9.074331640614701e-01 -2.326189390716208e-01 9.067405474581197e-01 -2.327630469425823e-01 5.611580711271023e-02 1.126052656554680e-02
2.019073750000000e+10 5.367681368093542e-02 -3.872678343187437e-02 9.072851941901159e-01 -2.330554925390190e-01 9.065866648370671e-01 -2.332001380282783e-01 5.473425289287076e-02 1.127395500166395e-02
2.023260625000000e+10 5.526924470223938e-02 -4.016567437179543e-02 9.071369760830261e-01 -2.334920787767048e-01 9.064324678223478e-01 -2.336372496449270e-01 5.315304728609049e-02 1.072928592035189e-02
2.027447500000000e+10 5.540851873292911e-02 -4.078989475167699e-02 9.069885087489880e-01 -2.339286921448830e-01 9.062779568747393e-01 -2.340743754952196e-01 5.147847371667043e-02 1.125463734869480e-02
2.031634375000000e+10 5.769994943499636e-02 -4.050150207708303e-02 9.068397915959698e-01 -2.343653271701711e-01 9.061231329208054e-01 -2.345115094677127e-01 5.284289454401929e-02 1.179595603453227e-02
2.035821250000000e+10 5.453426974782269e-02 -4.104077612543847e-02 9.066908242551197e-01 -2.348019785405479e-01 9.059679972292736e-01 -2.349486456432046e-01 5.237956930398962e-02 1.213166867790525e-02
2.040008125000000e+10 5.623410613234958e-02 -4.261132262451228e-02 9.065416064673338e-01 -2.352386410518995e-01 9.058125512591737e-01 -2.353857781733545e-01 5.249245664560599e-02 1.249111031947054e-02
2.044195000000000e+10 5.747876984531707e-02 -4.525100780656340e-02 9.063921380482706e-01 -2.356753094598149e-01 9.056567967101490e-01 -2.358229011962080e-01 5.112242173186378e-02 1.167316807284989e-02
2.048381875000000e+10 6.028505191118751e-02 -4.073899218815621e-02 9.062424189831706e-01 -2.361119784969267e-01 9.055007355012309e-01 -2.362600087565148e-01 5.143548631635340e-02 1.286050737297540e-02
2.052568750000000e+10 5.812968506344381e-02 -3.897685839978675e-02 9.060924494523341e-01 -2.365486429308042e-01 9.053443698260576e-01 -2.366970949839652e-01 5.238537944313770e-02 1.401118378087751e-02
2.056755625000000e+10 5.706417686959898e-02 -3.567029630750428e-02 9.059422296891205e-01 -2.369852975851805e-01 9.051877019074220e-01 -2.371341541687272e-01 5.273034297619568e-02 1.517002061946325e-02
2.060942500000000e+10 5.283608326994890e-02 -3.467948221012970e-02 9.057917599157717e-01 -2.374219373475928e-01 9.050307340303356e-01 -2.375711806841959e-01 5.472964633836747e-02 1.561197685473733e-02
2.065129375000000e+10 5.123784249323195e-02 -3.796369798857322e-02 9.056410403022415e-01 -2.378585571399730e-01 9.048734684985268e-01 -2.380081689835347e-01 5.483717202094003e-02 1.327155382638176e-02
2.069316250000000e+10 5.289709376891087e-02 -3.726191091649847e-02 9.054900708273347e-01 -2.382951518269584e-01 9.047159075557634e-01 -2.384451135209649e-01 5.504914381417028e-02 1.301851945791564e-02
2.073503125000000e+10 5.037860277568145e-02 -3.866441248388978e-02 9.053388514357822e-01 -2.387317162038554e-01 9.045580534498822e-01 -2.388820087478895e-01 5.470688262838022e-02 1.305870729658811e-02
2.077690000000000e+10 5.185880692308170e-02 -3.941240285816562e-02 9.051873822206027e-01 -2.391682450481871e-01 9.043999086244116e-01 -2.393188491343849e-01 5.324848329707806e-02 1.291403296669442e-02
2.081876875000000e+10 5.170296884364847e-02 -4.066240937468541e-02 9.050356635743113e-01 -2.396047330712251e-01 9.042414759975119e-01 -2.397556290732486e-01 5.255921774901336e-02 1.167036905204783e-02
2.086063750000000e+10 5.415633825890740e-02 -4.023641998410271e-02 9.048836961738284e-01 -2.400411749092416e-01 9.040827587940019e-01 -2.401923429098266e-01 5.176864779632329e-02 1.146840576246130e-02
2.090250625000000e+10 5.505771429228735e-02 -3.884759109730317e-02 9.047314808412101e-01 -2.404775650310177e-01 9.039237604656524e-01 -2.406289849234641e-01 5.156076936449874e-02 1.221939899472843e-02
2.094437500000000e+10 5.367821698122488e-02 -3.698139777852071e-02 9.045790186083280e-01 -2.409138978270451e-01 9.037644846748211e-01 -2.410655493646712e-01 5.066997223431382e-02 1.155279981529019e-02
2.098624375000000e+10 5.465669379817548e-02 -3.763881482083264e-02 9.044263108813460e-01 -2.413501676796966e-01 9.036049354899104e-01 -2.415020304695077e-01 5.099051473365408e-02 1.388339795414942e-02
2.102811250000000e+10 5.501175091577782e-02 -3.517628763099491e-02 9.042733595623469e-01 -2.417863690446764e-01 9.034451176279882e-01 -2.419384224627043e-01 5.078566889165404e-02 1.491070784411780e-02
2.106998125000000e+10 5.492787800252009e-02 -3.472244407570989e-02 9.041201670314880e-01 -2.422224964013656e-01 9.032850362818579e-01 -2.423747195577034e-01 5.108325646682861e-02 1.483184664314201e-02
2.111185000000000e+10 5.391136598758765e-02 -3.660028293012202e-02 9.039667361805598e-01 -2.426585442586537e-01 9.031246971854988e-01 -2.428109160287898e-01 5.115762099134269e-02 1.377344736457153e-02
2.115371875000000e+10 5.568690329929894e-02 -3.759860218993790e-02 9.038130703922634e-01 -2.430945071465153e-01 9.029641065241637e-01 -2.432470061396493e-01 5.039842620229851e-02 1.413807731945233e-02
2.119558750000000e+10 5.680108525655283e-02 -3.819095615794716e-02 9.036591735436250e-01 -2.435303796279941e-01 9.028032709206829e-01 -2.436829841635975e-01 5.014183705644774e-02 1.468285544231650e-02
2.123745625000000e+10 5.892601138868076e-02 -3.754727599715438e-02 9.035050500279357e-01 -2.439661562603783e-01 9.026421974638195e-01 -2.441188443697498e-01 5.104789649359730e-02 1.429172913624913e-02
2.127932500000000e+10 5.872754604671369e-02 -3.780306889936796e-02 9.033507047913983e-01 -2.444018315947394e-01 9.024808937459262e-01 -2.445545810037493e-01 5.497080120645907e-02 1.277571011411769e-02
2.132119375000000e+10 5.767848255118162e-02 -3.844954150762028e-02 9.031961430553969e-01 -2.448374000766382e-01 9.023193677268818e-01 -2.449901880980115e-01 5.510792953786459e-02 1.100128572046175e-02
2.136306250000000e+10 5.701244842746270e-02 -4.166204108678610e-02 9.030413702261010e-01 -2.452728561867602e-01 9.021576275664571e-01 -2.454256593942708e-01 5.470342480152050e-02 1.010745589589507e-02
2.140493125000000e+10 5.910533052001096e-02 -4.103777904297936e-02 9.028863918094613e-01 -2.457081945905839e-01 9.019956814598201e-01 -2.458609887810795e-01 5.399148758167726e-02 9.897564650124221e-03
2.144680000000000e+10 5.720297377096157e-02 -3.951082396173238e-02 9.027312133642950e-01 -2.461434102454892e-01 9.018335375897506e-01 -2.462961704399067e-01 5.399019651107009e-02 9.739453459332803e-03
2.148866875000000e+10 5.653623670116759e-02 -4.036255415863247e-02 9.025758404486620e-01 -2.465784984534248e-01 9.016712041011302e-01 -2.467311989449479e-01 5.331362248191218e-02 1.030861662682626e-02
2.153053750000000e+10 5.501047002230366e-02 -3.880327668759785e-02 9.024202785823529e-01 -2.470134549111657e-01 9.015086890512201e-01 -2.471660692506447e-01 5.315899058397004e-02 1.101511703781977e-02
2.157240625000000e+10 5.331737098314484e-02 -4.250756913733755e-02 9.022645332830737e-01 -2.474482756157574e-01 9.013460005209848e-01 -2.476007765586813e-01 5.251578453728362e-02 1.142022341471969e-02
2.161427500000000e+10 5.394437748553031e-02 -4.277849679149145e-02 9.021086100034740e-01 -2.478829567891365e-01 9.011831464971118e-01 -2.480353163173299e-01 5.170005321060907e-02 1.161843472832629e-02
2.165614375000000e+10 5.138385697726684e-02 -4.601852649526020e-02 9.019525140922567e-01 -2.483174948482722e-01 9.010201347941498e-01 -2.484696841661949e-01 5.085501514052090e-02 1.095273905327117e-02
2.169801250000000e+10 5.368750687341835e-02 -4.822938552933421e-02 9.017962508180104e-01 -2.487518863266375e-01 9.008569731434185e-01 -2.489038758447828e-01 4.937631908206892e-02 1.137273212811880e-02
2.173988125000000e+10 5.493662002776347e-02 -4.705206852487524e-02 9.016398255412102e-01 -2.491861278980895e-01 9.006936693885308e-01 -2.493378872225863e-01 4.832168319170867e-02 1.283085032453100e-02
2.178175000000000e+10 5.724251677889995e-02 -4.535222536659523e-02 9.014832438775244e-01 -2.496202164135754e-01 9.005302316389683e-01 -2.497717143337015e-01 4.730222498776410e-02 1.582273943490936e-02
2.182361875000000e+10 5.810442444816219e-02 -4.062596341114726e-02 9.013265116402924e-01 -2.500541487778327e-01 9.003666682047539e-01 -2.502053533387469e-01 4.733837536276753e-02 1.708151162805873e-02
2.186548750000000e+10 5.596819728386529e-02 -3.789400363383381e-02 9.011696346917930e-01 -2.504879216916869e-01 9.002029873501793e-01 -2.506388002507927e-01 4.768355047822777e-02 1.787074007805168e-02
2.190735625000000e+10 5.393139040864204e-02 -3.650013598848591e-02 9.010126189074769e-01 -2.509215315844464e-01 9.000391973810764e-01 -2.510720508075752e-01 4.881704055621416e-02 1.620242387457841e-02
2.194922500000000e+10 5.127695845938047e-02 -3.846297438892198e-02 9.008554702177056e-01 -2.513549747727981e-01 8.998753066949261e-01 -2.515051006027162e-01 4.966294904755028e-02 1.505521650681305e-02
2.199109375000000e+10 5.071576880070891e-02 -3.987193929974592e-02 9.006981945772460e-01 -2.517882476651000e-01 8.997113239301445e-01 -2.519379453065920e-01 5.025665378190800e-02 1.453823993492468e-02
2.203296250000000e+10 4.957905860328431e-02 -3.996254148280416e-02 9.005407977216370e-01 -2.522213466762295e-01 8.995472576253157e-01 -2.523705805323868e-01 5.096692751638735e-02 1.456491578618111e-02
2.207483125000000e+10 4.801786602333947e-02 -4.255145735342437e-02 9.003832851732472e-01 -2.526542682277331e-01 8.993831160976150e-01 -2.528030020994526e-01 5.080565795036624e-02 1.520941890261539e-02
2.211670000000000e+10 5.036066884689698e-02 -4.134735154094816e-02 9.002256622085434e-01 -2.530870088354330e-01 8.992189075254892e-01 -2.532352059498379e-01 5.109785448457163e-02 1.610406045200905e-02
2.215856875000000e+10 4.723040087074173e-02 -4.095324710020809e-02 9.000679340809017e-01 -2.535195649981727e-01 8.990546401613017e-01 -2.536671880124839e-01 5.134235391769123e-02 1.493226458466481e-02
2.220043750000000e+10 4.924011382506446e-02 -4.337737068785290e-02 8.999101061708742e-01 -2.539519331483275e-01 8.988903224862895e-01 -2.540989441568517e-01 5.044045993023252e-02 1.356849452821508e-02
2.224230625000000e+10 5.016729474689147e-02 -4.089679850779920e-02 8.997521840486222e-01 -2.543841097248972e-01 8.987259632341232e-01 -2.545304702819728e-01 5.017493029417631e-02 1.207745503967257e-02
2.228417500000000e+10 4.935900858125870e-02 -4.344159612981538e-02 8.995941734491621e-01 -2.548160911596675e-01 8.985615713398750e-01 -2.549617622866984e-01 4.894189269546348e-02 1.188626381120556e-02
2.232604375000000e+10 5.193304850958623e-02 -4.287970140032055e-02 8.994360800748609e-01 -2.552478738748953e-01 8.983971557447673e-01 -2.553928160528446e-01 4.829526873021341e-02 1.177360000401058e-02
2.236791250000000e+10 4.994606697597291e-02 -4.468636334955912e-02 8.992779096133195e-01 -2.556794543063434e-01 8.982327254238734e-01 -2.558236274561572e-01 4.660106206766861e-02 1.172551469326306e-02
2.240978125000000e+10 5.364733133704113e-02 -4.630757442823380e-02 8.991196677674265e-01 -2.561108288784291e-01 8.980682894290605e-01 -2.562541923912982e-01 4.543535577139358e-02 1.303144084293371e-02
2.245165000000000e+10 5.385341128309933e-02 -4.278383906008953e-02 8.989613604581435e-01 -2.565419940867052e-01 8.979038570721251e-01 -2.566845068329061e-01 4.398446573829533e-02 1.251998270334115e-02
2.249351875000000e+10 5.327911600486004e-02 -4.227581072769637e-02 8.988029939865898e-01 -2.569729465074312e-01 8.977394380825050e-01 -2.571145668349693e-01 4.368719300253809e-02 1.504238916553849e-02
2.253538750000000e+10 5.335055782654484e-02 -3.635862416510010e-02 8.986445747684998e-01 -2.574036828275374e-01 8.975750423749614e-01 -2.575443682784251e-01 4.467492939285823e-02 1.540861838674305e-02
2.257725625000000e+10 4.910762022794753e-02 -3.452071093656485e-02 8.984861093474286e-01 -2.578341996011566e-01 8.974106796789404e-01 -2.579739074573454e-01 4.485251084463995e-02 1.472562465990828e-02
2.261912500000000e+10 5.027899176878305e-02 -2.982015546812813e-02 8.983276043050674e-01 -2.582644936381687e-01 8.972463595882576e-01 -2.584031808881060e-01 4.703502426367615e-02 1.604139054328992e-02
2.266099375000000e+10 5.033947775560649e-02 -2.502514633434130e-02 8.981690654755488e-01 -2.586945621391786e-01 8.970820922293007e-01 -2.588321848259142e-01 4.678417904482710e-02 2.317442522518753e-02
2.270286250000000e+10 5.392397893358821e-02 4.952847250416761e-03 8.980104984632870e-01 -2.591244027276083e-01 8.969178881946183e-01 -2.592609165221288e-01 4.765801034799692e-02 2.467255855577132e-02
2.274473125000000e+10 5.771542025742176e-02 3.321339858408887e-02 8.978519104271439e-01 -2.595540130633683e-01 8.967537574416865e-01 -2.596893726520210e-01 4.776606446605288e-02 1.909031804880880e-02
2.278660000000000e+10 5.755097757043517e-02 4.341982180539546e-02 8.976933084764657e-01 -2.599833889650567e-01 8.965897096441285e-01 -2.601175513986717e-01 4.739581545041029e-02 1.597080963675730e-02
2.282846875000000e+10 5.752736838484179e-02 4.038361175990703e-02 8.975347011431273e-01 -2.604125267262308e-01 8.964257532738172e-01 -2.605454502789661e-01 4.843131348930237e-02 1.426667261578857e-02
2.287033750000000e+10 5.760017380200589e-02 3.821126180604920e-02 8.973760967129020e-01 -2.608414224094566e-01 8.962618962915020e-01 -2.609730664378590e-01 4.799252208621577e-02 1.580586656148257e-02
2.291220625000000e+10 6.290985296359222e-02 3.635924524590476e-02 8.972175033644600e-01 -2.612700717677529e-01 8.960981464177946e-01 -2.614003966574631e-01 4.857488842504507e-02 1.641795588324034e-02
2.295407500000000e+10 6.499431446401706e-02 3.964045468590986e-02 8.970589290443018e-01 -2.616984701855040e-01 8.959345110267113e-01 -2.618274373043500e-01 4.839945123757391e-02 1.718634881809658e-02
2.299594375000000e+10 6.514773441934694e-02 4.117208069196555e-02 8.969003816514343e-01 -2.621266126615838e-01 8.957709973571861e-01 -2.622541843164966e-01 5.055737883058833e-02 1.751884637237210e-02
2.303781250000000e+10 6.287566921721284e-02 4.171633003083808e-02 8.967418691096685e-01 -2.625544938285260e-01 8.956076126107606e-01 -2.626806332343763e-01 5.179886647248042e-02 1.550468134297700e-02
2.307968125000000e+10 6.086844551054732e-02 3.848237859925175e-02 8.965833992863719e-01 -2.629821080820702e-01 8.954443638603524e-01 -2.631067792742789e-01 5.285082098980359e-02 1.393101456430763e-02
2.312155000000000e+10 6.323625956622034e-02 3.519978393763508e-02 8.964249800398757e-01 -2.634094496268716e-01 8.952812581217878e-01 -2.635326173950986e-01 5.341583568150336e-02 1.134805304580581e-02
2.316341875000000e+10 6.370045773539394e-02 3.414558027630929e-02 8.962666191373472e-01 -2.638365125773027e-01 8.951183023060134e-01 -2.639581424182141e-01 5.258396478519276e-02 1.118149910929504e-02
2.320528750000000e+10 6.680599210173480e-02 3.054589930470526e-02 8.961083245090143e-01 -2.642632910891243e-01 8.949555034657201e-01 -2.643833491774177e-01 5.321755751223027e-02 1.065757583019987e-02
2.324715625000000e+10 6.812856381657723e-02 3.208578483523316e-02 8.959501044140404e-01 -2.646897794091018e-01 8.947928689507817e-01 -2.648082325652208e-01 5.260124898005759e-02 1.073518678864242e-02
2.328902500000000e+10 6.514559819302870e-02 3.074445248767623e-02 8.957919673592069e-01 -2.651159718417375e-01 8.946304063233309e-01 -2.652327875306966e-01 5.350499155944365e-02 1.058630818040096e-02
2.333089375000000e+10 6.696911705873530e-02 2.851591287018351e-02 8.956339219590533e-01 -2.655418627715265e-01 8.944681232461356e-01 -2.656570090839442e-01 5.282721421283101e-02 1.018086714375918e-02
2.337276250000000e+10 6.636227041931293e-02 3.179501932051419e-02 8.954759767181026e-01 -2.659674466547967e-01 8.943060272475196e-01 -2.660808922669514e-01 5.266115189651905e-02 1.194127183030234e-02
2.341463125000000e+10 6.553414804086904e-02 3.076946852821311e-02 8.953181397888583e-01 -2.663927179223390e-01 8.941441254992434e-01 -2.665044320718437e-01 5.315377407329919e-02 1.114809126745935e-02
2.345650000000000e+10 6.593667663353084e-02 3.354497028264552e-02 8.951604187775207e-01 -2.668176709171695e-01 8.939824246591231e-01 -2.669276233663976e-01 5.310932958309576e-02 1.205469804323600e-02
2.349836875000000e+10 6.232680035936087e-02 3.171696795994301e-02 8.950028209706297e-01 -2.672422998885717e-01 8.938209311232934e-01 -2.673504608868105e-01 5.440511595316060e-02 1.090639978791140e-02
2.354023750000000e+10 6.224878079710994e-02 2.932338152220852e-02 8.948453533458108e-01 -2.676665990289610e-01 8.936596510428515e-01 -2.677729392761816e-01 5.386978592847391e-02 9.300501176002824e-03
2.358210625000000e+10 6.139720395473210e-02 2.637056044391816e-02 8.946880225603804e-01 -2.680905625284351e-01 8.934985903338625e-01 -2.681950531434776e-01 5.460529150351567e-02 7.804480400756923e-03
2.362397500000000e+10 6.156918981226082e-02 2.589698207849235e-02 8.945308350438523e-01 -2.685141846117616e-01 8.933377547584531e-01 -2.686167971168604e-01 5.413086872831170e-02 5.827668008290169e-03
2.366584375000000e+10 6.245609077813349e-02 2.411025837181141e-02 8.943737969703351e-01 -2.689374597013185e-01 8.931771498724147e-01 -2.690381660082674e-01 5.343454743425383e-02 6.031545303025659e-03
2.370771250000000e+10 6.436791873810142e-02 2.598110024040456e-02 8.942169143338844e-01 -2.693603824521913e-01 8.930167811027652e-01 -2.694591548595981e-01 5.343895691353005e-02 5.112176930195374e-03
2.374958125000000e+10 6.443793440166684e-02 2.521490514877001e-02 8.940601929739547e-01 -2.697829478290942e-01 8.928566537484890e-01 -2.698797590193684e-01 5.271832171770977e-02 5.569199426514293e-03
2.379145000000000e+10 6.543988476676685e-02 2.903925474939563e-02 8.939036385385124e-01 -2.702051511307013e-01 8.926967729507573e-01 -2.702999741720560e-01 5.321967071556764e-02 5.477618518313992e-03
2.383331875000000e+10 6.471485741133054e-02 2.800827379088090e-02 8.937472564429921e-01 -2.706269879765729e-01 8.925371436371595e-01 -2.707197962842389e-01 5.295362215211159e-02 5.138373745847434e-03
2.387518750000000e+10 6.400851802389183e-02 3.045016907612727e-02 8.935910520149076e-01 -2.710484543000679e-01 8.923777706638191e-01 -2.711392216070994e-01 5.384902755097709e-02 4.578886355745103e-03
2.391705625000000e+10 6.407855652421524e-02 2.722320833427537e-02 8.934350306136418e-01 -2.714695464111484e-01 8.922186589283316e-01 -2.715582467292144e-01 5.395500167457840e-02 2.348435728854118e-03
2.395892500000000e+10 6.228874829724509e-02 2.672569829715199e-02 8.932791978732953e-01 -2.718902610697675e-01 8.920598136066349e-01 -2.719768686488265e-01 5.395720833327455e-02 2.055846533335421e-03
2.400079375000000e+10 5.925127906094987e-02 2.225700902519200e-02 8.931235597662117e-01 -2.723105956093536e-01 8.919012402024576e-01 -2.723950849241533e-01 5.394485816418930e-02 7.234270310477165e-04
2.404266250000000e+10 6.050456195017693e-02 1.796383999316870e-02 8.929681223677092e-01 -2.727305479786115e-01 8.917429443082090e-01 -2.728128936856653e-01 5.167380280248016e-02 4.499550695553963e-04
2.408453125000000e+10 6.082343251865784e-02 2.053894619349222e-02 8.928128915188238e-01 -2.731501166782478e-01 8.915849312433011e-01 -2.732302936040905e-01 5.095152546160474e-02 8.847122885207073e-04
2.412640000000000e+10 5.933992376939109e-02 1.698376853190757e-02 8.926578726096610e-01 -2.735693009408592e-01 8.914272058645980e-01 -2.736472840684084e-01 4.901352463666999e-02 8.125692445920859e-04
2.416826875000000e+10 6.200529642575634e-02 2.056435454115797e-02 8.925030704909528e-01 -2.739881006657643e-01 8.912697724665748e-01 -2.740638651433437e-01 4.851213846544677e-02 2.252988744019153e-03
2.421013750000000e+10 5.951354526727655e-02 2.303016495181586e-02 8.923484893040553e-01 -2.744065162597182e-01 8.911126346200429e-01 -2.744800374135930e-01 4.809909239367093e-02 3.227611351618630e-03
2.425200625000000e+10 6.094450708661599e-02 2.460292053656096e-02 8.921941326103420e-01 -2.748245485872595e-01 8.909557953056736e-01 -2.748958019479451e-01 4.798862223335332e-02 5.164103147625923e-03
2.429387500000000e+10 6.128583713623198e-02 2.952676765596444e-02 8.920400034530159e-01 -2.752421989036907e-01 8.907992569911013e-01 -2.753111602175263e-01 4.882011450107065e-02 6.430731446921740e-03
2.433574375000000e+10 5.789239381313975e-02 2.938753704425380e-02 8.918861044208211e-01 -2.756594687047648e-01 8.906430217005455e-01 -2.757261139448575e-01 4.945064306260477e-02 6.149571829723226e-03
2.437761250000000e+10 5.765505721797516e-02 3.048627517714927e-02 8.917324378363543e-01 -2.760763596694458e-01 8.904870912289025e-01 -2.761406650267896e-01 5.024096234607608e-02 6.019244103419932e-03
2.441948125000000e+10 5.591793282991032e-02 3.046858178150341e-02 8.915790058085391e-01 -2.764928737304949e-01 8.903314671969096e-01 -2.765548156154097e-01 5.028718851574482e-02 4.674449477377324e-03
2.446135000000000e+10 5.399208144344240e-02 2.922145383318150e-02 8.914258103168182e-01 -2.769090131365907e-01 8.901761511409499e-01 -2.769685681865692e-01 5.008272099112676e-02 4.249771817725512e-03
2.450321875000000e+10 5.612027628512906e-02 2.901989322902009e-02 8.912728532936445e-01 -2.773247805779305e-01 8.900211446004672e-01 -2.773819256778675e-01 4.941126955911590e-02 5.056649877600547e-03
2.454508750000000e+10 5.579414919253853e-02 3.072822169589443e-02 8.911201364210471e-01 -2.777401792195451e-01 8.898664489214451e-01 -2.777948915338792e-01 4.865806093829324e-02 6.529706174535107e-03
2.458695625000000e+10 5.765695899303012e-02 2.769152994980998e-02 8.909676612158767e-01 -2.781552125048454e-01 8.897120653474614e-01 -2.782074695106243e-01 4.780028346015323e-02 6.063689889202356e-03
2.462882500000000e+10 6.011053334416914e-02 2.897718990926948e-02 8.908154288898260e-01 -2.785698839556709e-01 8.895579948941802e-01 -2.786196634583807e-01 4.693334837747826e-02 7.812292263500785e-03
2.467069375000000e+10 6.136835514020368e-02 2.960330107821773e-02 8.906634404627972e-01 -2.789841971695777e-01 8.894042384589653e-01 -2.790314773345711e-01 4.669536947526258e-02 9.193189472948175e-03
2.471256250000000e+10 6.030215915437794e-02 2.981351188773094e-02 8.905116966416657e-01 -2.793981556798036e-01 8.892507966870640e-01 -2.794429150675110e-01 4.731363813411847e-02 9.465390892189922e-03
2.475443125000000e+10 6.037028476571785e-02 2.738341011663780e-02 8.903601977406155e-01 -2.798117628168177e-01 8.890976698970029e-01 -2.798539804080879e-01 4.747848595307720e-02 9.352000058039562e-03
2.479630000000000e+10 5.949762306976319e-02 2.852637630398806e-02 8.902089436224201e-01 -2.802250217781936e-01 8.889448580534344e-01 -2.802646770063163e-01 4.852316085387068e-02 9.587450354164423e-03
2.483816875000000e+10 5.722620653211612e-02 2.673255825275848e-02 8.900579334966914e-01 -2.806379356722286e-01 8.887923606091471e-01 -2.806750084330779e-01 4.888489531461773e-02 9.615650227996184e-03
2.488003750000000e+10 5.949876415748021e-02 2.672841964814801e-02 8.899071658335962e-01 -2.810505074409094e-01 8.886401763465549e-01 -2.810849781147280e-01 4.944839378446064e-02 9.226931169500050e-03
2.492190625000000e+10 5.737891666254239e-02 2.881502998753431e-02 8.897566382997925e-01 -2.814627397959051e-01 8.884883033590074e-01 -2.814945892962284e-01 5.001322431547242e-02 8.783862532937080e-03
2.496377500000000e+10 6.121701172847374e-02 2.450939130742358e-02 8.896063478778665e-01 -2.818746353053466e-01 8.883367391556903e-01 -2.819038451325829e-01 5.015813742277812e-02 8.738087041849054e-03
2.500564375000000e+10 6.343648338532287e-02 2.832078358531009e-02 8.894562908208934e-01 -2.822861963004580e-01 8.881854806607284e-01 -2.823127485872105e-01 5.082615511348787e-02 8.193847346085572e-03
2.504751250000000e+10 6.250960168716010e-02 2.619879910832276e-02 8.893064626943755e-01 -2.826974248636892e-01 8.880345241395630e-01 -2.827213025359795e-01 5.082930950479472e-02 6.629685987910397e-03
2.508938125000000e+10 6.682067855629717e-02 2.821591096987131e-02 8.891568585417483e-01 -2.831083228284018e-01 8.878838654125385e-01 -2.831295096645027e-01 5.127526977529014e-02 6.283699777519896e-03
2.513125000000000e+10 6.607866944620311e-02 3.019033577396235e-02 8.890074731748965e-01 -2.835188918584858e-01 8.877335000875881e-01 -2.835373724874289e-01 5.160541932797897e-02 5.303972626167094e-03
2.517311875000000e+10 6.755168972983241e-02 3.017227063055371e-02 8.888583012668926e-01 -2.839291334711055e-01 8.875834237012096e-01 -2.839448934364218e-01 5.150911099985041e-02 4.804403616172066e-03
2.521498750000000e+10 6.795314119290619e-02 3.161177181855575e-02 8.887093376502937e-01 -2.843390492314828e-01 8.874336319686691e-01 -2.843520750352928e-01 5.151668749645247e-02 3.608321085251638e-03
2.525685625000000e+10 6.790929305606519e-02 3.426587495152586e-02 8.885605773857594e-01 -2.847486408022818e-01 8.872841207766522e-01 -2.847589199624674e-01 5.154399704231892e-02 5.454149825207144e-03
2.529872500000000e+10 6.599908879443719e-02 3.376500985414908e-02 8.884120158615647e-01 -2.851579099566777e-01 8.871348862872087e-01 -2.851654311931787e-01 5.195748933685756e-02 5.242311308501020e-03
2.534059375000000e+10 6.837378098219365e-02 3.209428733259197e-02 8.882636487450455e-01 -2.855668585192208e-01 8.869859248837713e-01 -2.855716117720141e-01 5.112395143256253e-02 4.670334241844194e-03
2.538246250000000e+10 6.524430853730613e-02 3.180122793678909e-02 8.881154721405753e-01 -2.859754884099749e-01 8.868372333209508e-01 -2.859774648779700e-01 5.114481245500871e-02 4.272013065103103e-03
2.542433125000000e+10 6.614125409476428e-02 2.699076118368750e-02 8.879674825043523e-01 -2.863838016450040e-01 8.866888086581958e-01 -2.863829938232912e-01 4.999667098766129e-02 3.905605851966390e-03
2.546620000000000e+10 6.791951863713527e-02 2.682307588041585e-02 8.878196766594721e-01 -2.867918003992847e-01 8.865406482635748e-01 -2.867882021305520e-01 4.887766104724840e-02 5.612037585593446e-03
2.550806875000000e+10 6.836348533765996e-02 2.682374641346830e-02 8.876720515231824e-01 -2.871994868370754e-01 8.863927495300270e-01 -2.871930933739822e-01 4.921784654983263e-02 3.476621944446178e-03
2.554993750000000e+10 6.914632983530430e-02 2.278378260415234e-02 8.875246038458742e-01 -2.876068628225915e-01 8.862451096611191e-01 -2.875976708608163e-01 4.767972908701755e-02 4.302910329624510e-03
2.559180625000000e+10 7.615918832350034e-02 2.620072108560746e-02 8.873773304024740e-01 -2.880139302031011e-01 8.860977257894410e-01 -2.880019377582369e-01 4.747040680779664e-02 5.053091803760586e-03
2.563367500000000e+10 7.484189171240149e-02 2.751823385878417e-02 8.872302277814049e-01 -2.884206907219552e-01 8.859505947462070e-01 -2.884058971543775e-01 4.709295244696667e-02 4.886978307290100e-03
2.567554375000000e+10 7.349726442027485e-02 3.018297812888893e-02 8.870832924634648e-01 -2.888271460162971e-01 8.858037130704289e-01 -2.888095519893549e-01 4.798388204775542e-02 6.248774253920219e-03
2.571741250000000e+10 7.204830963063652e-02 3.355811738279602e-02 8.869365207008654e-01 -2.892332977406875e-01 8.856570769725360e-01 -2.892129052473117e-01 4.887111133207653e-02 6.869649598358596e-03
2.575928125000000e+10 6.636281027781556e-02 3.122422337319310e-02 8.867899086532248e-01 -2.896391475111448e-01 8.855106824993401e-01 -2.896159599722372e-01 4.973909847127778e-02 6.833595606478870e-03
2.580115000000000e+10 6.962290545641450e-02 2.951797914307872e-02 8.866434523321345e-01 -2.900446968987221e-01 8.853645254906014e-01 -2.900187192010955e-01 5.063380549327760e-02 5.648704836411603e-03
2.584301875000000e+10 6.429822638527215e-02 2.836657131116583e-02 8.864971476382677e-01 -2.904499474754506e-01 8.852186016009884e-01 -2.904211859607088e-01 5.059934924932089e-02 3.909677924609251e-03
2.588488750000000e+10 6.772792577036560e-02 2.250031131587317e-02 8.863509904193253e-01 -2.908549008243975e-01 8.850729063670555e-01 -2.908233633071129e-01 5.054855436880542e-02 2.305765030111165e-03
2.592675625000000e+10 6.734644621869337e-02 2.225007935968517e-02 8.862049766048365e-01 -2.912595586910971e-01 8.849274353525600e-01 -2.912252544585423e-01 4.982473297074782e-02 1.333903463116232e-03
2.596862500000000e+10 6.990603625804831e-02 1.708631286855277e-02 8.860591023539789e-01 -2.916639230010896e-01 8.847821843037095e-01 -2.916268628434623e-01 4.906097909946764e-02 2.516906520284272e-03
2.601049375000000e+10 7.622933483957431e-02 1.614775592201359e-02 8.859133640858974e-01 -2.920679960439072e-01 8.846371492921445e-01 -2.920281922329208e-01 4.837543299525056e-02 4.058297449152635e-03
2.605236250000000e+10 7.888605196400626e-02 1.907992018760859e-02 8.857677584325614e-01 -2.924717803513436e-01 8.844923265556033e-01 -2.924292466754934e-01 4.861391430535615e-02 5.469358669960806e-03
2.609423125000000e+10 7.690286355624151e-02 2.122357955647562e-02 8.856222819788874e-01 -2.928752785345911e-01 8.843477122477164e-01 -2.928300303570137e-01 5.050320035908594e-02 5.861053153906974e-03
2.613610000000000e+10 7.451054408224854e-02 2.087179300270249e-02 8.854769310508059e-01 -2.932784934240250e-01 8.842033022240560e-01 -2.932305476753387e-01 5.092108650758882e-02 5.840320993938825e-03
2.617796875000000e+10 7.237584834013586e-02 2.050251199133609e-02 8.853317015754648e-01 -2.936814281091004e-01 8.840590919262747e-01 -2.936308033055450e-01 5.210003585428898e-02 6.177998171218153e-03
2.621983750000000e+10 7.359315408212518e-02 1.750964965338258e-02 8.851865890285279e-01 -2.940840859252232e-01 8.839150763447704e-01 -2.940308021808631e-01 5.167009642603378e-02 5.078586633281983e-03
2.626170625000000e+10 7.064403791530548e-02 1.982555260036170e-02 8.850415884219848e-01 -2.944864704390322e-01 8.837712500210159e-01 -2.944305494894277e-01 5.204225230410284e-02 5.677808279277815e-03
2.630357500000000e+10 6.697414740526027e-02 2.000022174139844e-02 8.848966942973575e-01 -2.948885854545741e-01 8.836276070833338e-01 -2.948300506770494e-01 5.225767845266076e-02 6.049435939730231e-03
2.634544375000000e+10 6.713118045815471e-02 1.994968465505579e-02 8.847519006009065e-01 -2.952904351227270e-01 8.834841410904118e-01 -2.952293115902548e-01 5.113532453369501e-02 6.827345446704371e-03
2.638731250000000e+10 6.740971610229395e-02 1.934177156465222e-02 8.846072005934861e-01 -2.956920238884501e-01 8.833408449802341e-01 -2.956283384184320e-01 5.148742396635237e-02 5.890779247720684e-03
2.642918125000000e+10 6.700475692256126e-02 2.167611074493711e-02 8.844625868603322e-01 -2.960933564231006e-01 8.831977111370194e-01 -2.960271375789195e-01 5.066079901878295e-02 5.679697741138126e-03
2.647105000000000e+10 6.413200644526845e-02 2.419383900763391e-02 8.843180513514860e-01 -2.964944376436132e-01 8.830547313643829e-01 -2.964257158196885e-01 5.180252991368324e-02 5.504260451019144e-03
2.651291875000000e+10 6.451268217745544e-02 2.195340031260961e-02 8.841735856082937e-01 -2.968952728424946e-01 8.829118971396546e-01 -2.968240802850221e-01 5.104962351601276e-02 2.903929933862181e-03
2.655478750000000e+10 6.081743249986579e-02 2.271553477319678e-02 8.840291809268006e-01 -2.972958677664082e-01 8.827691997574484e-01 -2.972222385688124e-01 5.129299993326106e-02 3.750080208821392e-03
2.659665625000000e+10 6.289510212172897e-02 2.119868145504396e-02 8.838848283686273e-01 -2.976962287634859e-01 8.826266302770511e-01 -2.976201989838239e-01 5.095656715869824e-02 2.922604326513500e-03
2.663852500000000e+10 6.247269335345872e-02 2.358344798069863e-02 8.837405185521510e-01 -2.980963628615722e-01 8.824841793428344e-01 -2.980179705383822e-01 4.967426359661168e-02 4.284737787404574e-03
2.668039375000000e+10 6.565958934740267e-02 2.191478277624197e-02 8.835962416554797e-01 -2.984962777089388e-01 8.823418371794693e-01 -2.984155628863582e-01 4.931843353223837e-02 4.623497785444474e-03
2.672226250000000e+10 6.969847959482983e-02 2.581747971498256e-02 8.834519873072096e-01 -2.988959814747011e-01 8.821995934930755e-01 -2.988129862217400e-01 4.826079149239829e-02 6.044902877413207e-03
2.676413125000000e+10 6.853147950095070e-02 3.290528923576310e-02 8.833077444640897e-01 -2.992954826498938e-01 8.820574373425952e-01 -2.992102510726775e-01 4.897936712139542e-02 8.699334787582303e-03
2.680600000000000e+10 6.926080652926955e-02 3.450087514056126e-02 8.831635014859786e-01 -2.996947899745152e-01 8.819153572276764e-01 -2.996073681333880e-01 4.926840713372627e-02 8.712597634759576e-03
2.684786875000000e+10 6.538722274541033e-02 3.811158139496976e-02 8.830192463468188e-01 -3.000939124056097e-01 8.817733413031098e-01 -3.000043482559537e-01 4.953509402115335e-02 1.059328072073856e-02
2.688973750000000e+10 6.896849138456816e-02 3.207089401184322e-02 8.828749668558969e-01 -3.004928590395644e-01 8.816313775635857e-01 -3.004012025297932e-01 4.899007862366195e-02 1.000402937140679e-02
2.693160625000000e+10 7.495630678794575e-02 3.387063370386671e-02 8.827306507555942e-01 -3.008916390700242e-01 8.814894539734549e-01 -3.007979421141281e-01 4.684641323098529e-02 1.198756333459589e-02
2.697347500000000e+10 7.857211997875228e-02 3.730602329605854e-02 8.825862858370326e-01 -3.012902616573555e-01 8.813475586127746e-01 -3.011945780755252e-01 4.887984992260691e-02 1.250064172481768e-02
2.701534375000000e+10 7.500558101993579e-02 4.051082273381430e-02 8.824418599412462e-01 -3.016887358583955e-01 8.812056795662256e-01 -3.015911212830910e-01 4.863251418658601e-02 1.144113000272537e-02
2.705721250000000e+10 7.217502666204040e-02 4.083694506682132e-02 8.822973609736794e-01 -3.020870705412407e-01 8.810638049745447e-01 -3.019875823964939e-01 4.994647335899507e-02 1.101581932591539e-02
2.709908125000000e+10 6.966118674040815e-02 3.564224250267194e-02 8.821527769984783e-01 -3.024852745043888e-01 8.809219232030473e-01 -3.023839719433172e-01 4.924584129860568e-02 7.588811134907766e-03
2.714095000000000e+10 7.126627040341750e-02 3.343642057611129e-02 8.820080965874521e-01 -3.028833566649674e-01 8.807800231936007e-01 -3.027803004894681e-01 4.763728377474903e-02 8.049033452985105e-03
2.718281875000000e+10 7.382368806963242e-02 3.319942584214827e-02 8.818633088892077e-01 -3.032813262837725e-01 8.806380944814001e-01 -3.031765788637680e-01 4.844920221332556e-02 9.200166478788484e-03
2.722468750000000e+10 7.319629143872265e-02 3.572992261582415e-02 8.817184034807336e-01 -3.036791929863615e-01 8.804961270571848e-01 -3.035728182299532e-01 4.698613677410972e-02 1.220517627199353e-02
2.726655625000000e+10 7.441419819856390e-02 3.699700615590933e-02 8.815733701803303e-01 -3.040769666276992e-01 8.803541111720187e-01 -3.039690299485352e-01 4.845459176457785e-02 1.305776741123740e-02
2.730842500000000e+10 7.384589823906289e-02 3.881193082721340e-02 8.814281988672755e-01 -3.044746571226504e-01 8.802120371400398e-01 -3.043652253984966e-01 4.737465233648703e-02 1.434335663165166e-02
2.735029375000000e+10 7.437142204780284e-02 4.085232366962765e-02 8.812828795275667e-01 -3.048722742943856e-01 8.800698953818161e-01 -3.047614157961689e-01 4.753597043319873e-02 1.560866306894000e-02
2.739216250000000e+10 7.100198859824940e-02 3.714410594034716e-02 8.811374021493358e-01 -3.052698277647378e-01 8.799276763379864e-01 -3.051576120953111e-01 4.737160063633564e-02 1.307674660471812e-02
2.743403125000000e+10 7.324121542355093e-02 3.515321123640801e-02 8.809917567990760e-01 -3.056673269020249e-01 8.797853704900243e-01 -3.055538248685722e-01 4.584700979009744e-02 1.376279986559234e-02
2.747590000000000e+10 7.272098590253293e-02 3.553192699025842e-02 8.808459337593029e-01 -3.060647809033049e-01 8.796429685358148e-01 -3.059500644245423e-01 4.649720644195908e-02 1.327179141615331e-02
2.751776875000000e+10 7.360706432947071e-02 3.821796253640413e-02 8.806999234037591e-01 -3.064621988748412e-01 8.795004612206122e-01 -3.063463408877261e-01 4.556361586079953e-02 1.463855300126329e-02
2.755963750000000e+10 7.310701585596441e-02 3.782230256791919e-02 8.805537162397316e-01 -3.068595898279434e-01 8.793578393570625e-01 -3.067426641983421e-01 4.729222368060377e-02 1.489726100414155e-02
2.760150625000000e+10 7.123504254018001e-02 4.026133102889411e-02 8.804073030956570e-01 -3.072569627536420e-01 8.792150940495587e-01 -3.071390441886374e-01 4.650147043413185e-02 1.605518966189093e-02
2.764337500000000e+10 7.279666172914134e-02 3.819736581629084e-02 8.802606749861317e-01 -3.076543266759997e-01 8.790722165458261e-01 -3.075354906488678e-01 4.700229262561820e-02 1.770182901982129e-02
2.768524375000000e+10 7.615521319375457e-02 4.119007851599869e-02 8.801138229385378e-01 -3.080516905683284e-01 8.789291980938858e-01 -3.079320132584419e-01 4.688591115642322e-02 1.916082039953505e-02
2.772711250000000e+10 7.898581290508230e-02 4.254522177866023e-02 8.799667380495391e-01 -3.084490632521973e-01 8.787860300034271e-01 -3.083286214592285e-01 4.761254253520231e-02 2.141942265148371e-02
2.776898125000000e+10 8.313531702144843e-02 4.373028120074172e-02 8.798194113659580e-01 -3.088464531209897e-01 8.786427035600278e-01 -3.087253241873236e-01 4.896895364783112e-02 2.089176294154575e-02
2.781085000000000e+10 8.078802867548691e-02 4.468488792963150e-02 8.796718338555491e-01 -3.092438678460362e-01 8.784992099244783e-01 -3.091221296112370e-01 4.958334996543063e-02 2.018973721657841e-02
2.785271875000000e+10 7.947255213330931e-02 4.166858685824718e-02 8.795239964975942e-01 -3.096413142758181e-01 8.783555402748645e-01 -3.095190450319328e-01 5.117746687870233e-02 1.906057057667898e-02
2.789458750000000e+10 8.352256758104398e-02 4.023279372759403e-02 8.793758902999873e-01 -3.100387985517325e-01 8.782116858375681e-01 -3.099160769891284e-01 5.040715051982484e-02 1.874183884540312e-02
2.793645625000000e+10 8.380111089817711e-02 3.977063136265212e-02 8.792275064834022e-01 -3.104363260701024e-01 8.780676380617441e-01 -3.103132312065044e-01 5.082040718902365e-02 1.836085755000964e-02
2.797832500000000e+10 8.362888790963219e-02 3.672614354279000e-02 8.790788365418177e-01 -3.108339015266658e-01 8.779233886964064e-01 -3.107105126294979e-01 4.993060173500825e-02 1.717999956092367e-02
2.802019375000000e+10 8.746614717531197e-02 3.706862473183122e-02 8.789298722023442e-01 -3.112315290535974e-01 8.777789297477294e-01 -3.111079255435421e-01 4.912365302667823e-02 1.822161884007328e-02
2.806206250000000e+10 8.532784182859444e-02 3.807338773088149e-02 8.787806056589501e-01 -3.116292123571642e-01 8.776342536915812e-01 -3.115054737479376e-01 5.048067323750459e-02 1.745155392217950e-02
2.810393125000000e+10 8.639566924766337e-02 3.723263268113700e-02 8.786310294402224e-01 -3.120269547457975e-01 8.774893533776151e-01 -3.119031605565480e-01 5.005844913560912e-02 1.751483814306320e-02
2.814580000000000e+10 8.156420314000254e-02 3.912341964787960e-02 8.784811363688692e-01 -3.124247591356117e-01 8.773442219567086e-01 -3.123009888262676e-01 5.131767230196477e-02 1.516008068149422e-02
2.818766875000000e+10 7.807360773938730e-02 3.411511643139972e-02 8.783309193851735e-01 -3.128226280889827e-01 8.771988527458692e-01 -3.126989609970705e-01 5.015232783810246e-02 1.402765531909115e-02
2.822953750000000e+10 8.185062450914049e-02 3.072026920329315e-02 8.781803717927145e-01 -3.132205639432347e-01 8.770532394172234e-01 -3.130970792656264e-01 4.984539284791820e-02 1.309867717120544e-02
2.827140625000000e+10 8.127398416558580e-02 3.344453661726181e-02 8.780294872964235e-01 -3.136185689139606e-01 8.769073760549649e-01 -3.134953456717650e-01 4.876880662536314e-02 1.306060358707127e-02
2.831327500000000e+10 7.910371076755075e-02 3.145712842795780e-02 8.778782599347933e-01 -3.140166451444807e-01 8.767612571035330e-01 -3.138937621433953e-01 4.890386175054168e-02 1.406980934083384e-02
2.835514375000000e+10 8.163489160569236e-02 3.109451300350942e-02 8.777266840344671e-01 -3.144147948048518e-01 8.766148773057257e-01 -3.142923306030223e-01 4.814296617235101e-02 1.478191712345886e-02
2.839701250000000e+10 8.124684575596079e-02 3.068910427016665e-02 8.775747541451241e-01 -3.148130200455136e-01 8.764682316584187e-01 -3.146910529305458e-01 4.754930979228388e-02 1.574355906098415e-02
2.843888125000000e+10 8.581509850522015e-02 2.806306535529379e-02 8.774224649080666e-01 -3.152113228839065e-01 8.763213152851604e-01 -3.150899308448710e-01 4.731605000834837e-02 1.488253108598102e-02
2.848075000000000e+10 8.793586788225519e-02 3.049851216828132e-02 8.772698111411317e-01 -3.156097050901320e-01 8.761741234771384e-01 -3.154889657922498e-01 4.673674317152381e-02 1.493952501631439e-02
2.852261875000000e+10 8.061501285947073e-02 3.404368527378923e-02 8.771167879085019e-01 -3.160081682793890e-01 8.760266517955360e-01 -3.158881590201103e-01 4.824066779149848e-02 1.441013951691342e-02
2.856448750000000e+10 8.024383499069808e-02 2.869633726428247e-02 8.769633905012826e-01 -3.164067141715685e-01 8.758788960885224e-01 -3.162875118332251e-01 4.716131535514490e-02 1.487322056358017e-02
2.860635625000000e+10 8.207078500513641e-02 3.417686208411410e-02 8.768096143354337e-01 -3.168053448280972e-01 8.757308523653557e-01 -3.166870258347776e-01 4.803998201403661e-02 1.627147468669614e-02
2.864822500000000e+10 7.773525963253296e-02 3.572403530933127e-02 8.766554548461458e-01 -3.172040626719724e-01 8.755825166895076e-01 -3.170867029505460e-01 4.810725823880549e-02 1.655903220395471e-02
2.869009375000000e+10 7.695097298790858e-02 3.604754419681552e-02 8.765009071557486e-01 -3.176028703311265e-01 8.754338848272091e-01 -3.174865453106007e-01 4.837055616211359e-02 1.727391685486435e-02
2.873196250000000e+10 7.671023253834107e-02 3.704316475528498e-02 8.763459660486016e-01 -3.180017704862835e-01 8.752849522206743e-01 -3.178865550837293e-01 4.868885385609188e-02 1.654493279436544e-02
2.877383125000000e+10 7.102489949043593e-02 3.580120246582553e-02 8.761906260475749e-01 -3.184007658358911e-01 8.751357140793108e-01 -3.182867344382521e-01 4.927136530123400e-02 1.631804956204441e-02
2.881570000000000e+10 7.421969394740288e-02 3.050253096597109e-02 8.760348815472135e-01 -3.187998591041661e-01 8.749861654704472e-01 -3.186870855743499e-01 4.878178891685997e-02 1.572405187704878e-02
2.885756875000000e+10 7.553975378271187e-02 3.475299621422700e-02 8.758787268639278e-01 -3.191990530758705e-01 8.748363013490952e-01 -3.190876107210082e-01 4.885112708391196e-02 1.715761357300841e-02
2.889943750000000e+10 7.331970064437163e-02 3.208188609734632e-02 8.757221562146243e-01 -3.195983505581969e-01 8.746861165450696e-01 -3.194883121138265e-01 4.907747383693669e-02 1.633775991656332e-02
2.894130625000000e+10 7.849772674637952e-02 3.221579051312307e-02 8.755651636160244e-01 -3.199977543286567e-01 8.745356056675985e-01 -3.198891918945325e-01 4.817484381148226e-02 1.717608747249310e-02
2.898317500000000e+10 7.913478235539824e-02 3.658739497687949e-02 8.754077429428969e-01 -3.203972671797967e-01 8.743847631514748e-01 -3.202902522062812e-01 4.917405572237969e-02 1.702812982538648e-02
2.902504375000000e+10 7.840666162458333e-02 3.679636153298133e-02 8.752498881076645e-01 -3.207968918467057e-01 8.742335834076336e-01 -3.206914951511209e-01 4.956944322989358e-02 1.741956893835255e-02
2.906691250000000e+10 7.841469119166354e-02 4.117569174552408e-02 8.750915929736790e-01 -3.211966310874502e-01 8.740820607315456e-01 -3.210929228866063e-01 4.999963933889832e-02 1.772746472083513e-02
2.910878125000000e+10 7.471153668062028e-02 3.977468640410062e-02 8.749328513840749e-01 -3.215964876217868e-01 8.739301893177990e-01 -3.214945375736925e-01 5.047503444238377e-02 1.617454086780124e-02
2.915065000000000e+10 7.585725486840546e-02 3.636735402168314e-02 8.747736570898248e-01 -3.219964641361729e-01 8.737779632021130e-01 -3.218963413617673e-01 4.901244484899746e-02 1.614837237379292e-02
2.919251875000000e+10 7.820582395250179e-02 4.160507679941054e-02 8.746140037305400e-01 -3.223965632857343e-01 8.736253762462487e-01 -3.222983363545492e-01 5.025186842381699e-02 1.642658599131239e-02
2.923438750000000e+10 7.444451406093607e-02 4.069947786025283e-02 8.744538848056832e-01 -3.227967876623713e-01 8.734724221343317e-01 -3.227005245787885e-01 4.978669821267016e-02 1.697374274622031e-02
2.927625625000000e+10 7.975175132969735e-02 3.989795786782577e-02 8.742932938291159e-01 -3.231971397780758e-01 8.733190944765588e-01 -3.231029079756065e-01 5.081624050015084e-02 1.565048685020544e-02
2.931812500000000e+10 7.716648201524923e-02 4.460236262988482e-02 8.741322244113984e-01 -3.235976220455170e-01 8.731653869315018e-01 -3.235054883818094e-01 5.108150050482804e-02 1.488966846568002e-02
2.935999375000000e+10 7.351581243900696e-02 4.050724330381567e-02 8.739706703493711e-01 -3.239982367635909e-01 8.730112932989047e-01 -3.239082675411069e-01 5.132094908047190e-02 1.274144596579691e-02
2.940186250000000e+10 7.670483984990584e-02 3.762841662091034e-02 8.738086257861299e-01 -3.243989862373160e-01 8.728568076997791e-01 -3.243112472040414e-01 5.058488003694910e-02 1.139024377735066e-02
2.944373125000000e+10 7.596388916108199e-02 3.955594264841903e-02 8.736460852652831e-01 -3.247998729627850e-01 8.727019246278067e-01 -3.247144293183196e-01 4.933118131218023e-02 1.267068096209933e-02
2.948560000000000e+10 7.803669355285726e-02 3.893346256332507e-02 8.734830435383463e-01 -3.252008995335529e-01 8.725466387311931e-01 -3.251178159675704e-01 4.898901293778050e-02 1.206460707155173e-02
2.952746875000000e+10 7.701494619765470e-02 4.233584528847162e-02 8.733194954205217e-01 -3.256020686668953e-01 8.723909446860479e-01 -3.255214094069186e-01 4.726921451312582e-02 1.293197600992747e-02
2.956933750000000e+10 7.892328959936289e-02 3.925248581809677e-02 8.731554357812906e-01 -3.260033831099549e-01 8.722348371887098e-01 -3.259252119513865e-01 4.815077300106041e-02 1.281107397936425e-02
2.961120625000000e+10 8.318576611474927e-02 3.770329981063188e-02 8.729908597141721e-01 -3.264048455005236e-01 8.720783111259321e-01 -3.263292258223450e-01 4.560183841206588e-02 1.205216643692978e-02
2.965307500000000e+10 8.464947163317467e-02 4.055626852913725e-02 8.728257627137482e-01 -3.268064582520584e-01 8.719213617334794e-01 -3.267334530701589e-01 4.652236879084727e-02 1.398259278491896e-02
2.969494375000000e+10 8.464278896735378e-02 4.179724789610400e-02 8.726601406880946e-01 -3.272082236936524e-01 8.717639846177642e-01 -3.271378957025664e-01 4.638378489009284e-02 1.367118145021689e-02
2.973681250000000e+10 8.536585474788166e-02 4.149994966671485e-02 8.724939897763385e-01 -3.276101440911368e-01 8.716061755917930e-01 -3.275425557219385e-01 4.627495424466885e-02 1.464384550821545e-02
2.977868125000000e+10 8.527370316280536e-02 4.204516301782237e-02 8.723273064752141e-01 -3.280122216659807e-01 8.714479307994202e-01 -3.279474351196846e-01 4.782757567032563e-02 1.370461603714524e-02
2.982055000000000e+10 8.348426147567813e-02 4.075144702403127e-02 8.721600875092127e-01 -3.284144586664787e-01 8.712892465950112e-01 -3.283525359611768e-01 4.675176623913371e-02 1.433513746070797e-02
2.986241875000000e+10 8.744128134231506e-02 4.015741633446780e-02 8.719923296159792e-01 -3.288168572460212e-01 8.711301193096882e-01 -3.287578602806746e-01 4.827549220499188e-02 1.333379368320012e-02
2.990428750000000e+10 8.481860523001207e-02 3.884792792037804e-02 8.718240297762822e-01 -3.292194194460470e-01 8.709705454809979e-01 -3.291634100229932e-01 4.712037531748522e-02 1.126037212029359e-02
2.994615625000000e+10 8.204388435788094e-02 3.957058720798529e-02 8.716551851572594e-01 -3.296221471282586e-01 8.708105217960339e-01 -3.295691869293312e-01 4.790393488906157e-02 1.125917738259962e-02
2.998802500000000e+10 7.843876484809843e-02 3.844031250529340e-02 8.714857929994292e-01 -3.300250421403971e-01 8.706500449761889e-01 -3.299751927506462e-01 4.747940840227378e-02 1.034586736669547e-02
3.002989375000000e+10 7.961438688054581e-02 3.737953348296692e-02 8.713158506711597e-01 -3.304281063295228e-01 8.704891117926193e-01 -3.303814292905342e-01 4.624047974929546e-02 1.251277822370418e-02
3.007176250000000e+10 8.002949209394425e-02 3.842849019524600e-02 8.711453558401977e-01 -3.308313415778209e-01 8.703277191973421e-01 -3.307878983889562e-01 4.599153448341966e-02 1.236466878796806e-02
3.011363125000000e+10 8.208337325533539e-02 3.349698530435299e-02 8.709743063789207e-01 -3.312347498077836e-01 8.701658642535176e-01 -3.311946019188413e-01 4.415101475462538e-02 1.301983625771732e-02
3.015550000000000e+10 8.487403165066722e-02 3.791055423149979e-02 8.708027002442104e-01 -3.316383329232227e-01 8.700035440388736e-01 -3.316015417640283e-01 4.501728005615539e-02 1.212902668897695e-02
3.019736875000000e+10 8.012803945975024e-02 3.812234113684203e-02 8.706305354165810e-01 -3.320420927291601e-01 8.698407555256469e-01 -3.320087197383880e-01 4.375721050108907e-02 1.242304059608658e-02
3.023923750000000e+10 8.256784091923028e-02 4.092647323730299e-02 8.704578098905975e-01 -3.324460310883471e-01 8.696774955615444e-01 -3.324161377275068e-01 4.448195778755192e-02 1.323844508603942e-02
3.028110625000000e+10 8.024217916024055e-02 3.819201741088794e-02 8.702845217240480e-01 -3.328501498817987e-01 8.695137608988889e-01 -3.328237976054045e-01 4.404841709270502e-02 1.120124127273144e-02
3.032297500000000e+10 8.413243543682780e-02 3.254360185449094e-02 8.701106693216413e-01 -3.332544508604636e-01 8.693495485247016e-01 -3.332317010733590e-01 4.282703144731710e-02 1.206274759309582e-02
3.036484375000000e+10 8.591226022056812e-02 3.543582338298830e-02 8.699362516145697e-01 -3.336589358430125e-01 8.691848558497964e-01 -3.336398498686759e-01 4.242598524167228e-02 1.142488113561215e-02
3.040671250000000e+10 8.292690202666003e-02 3.248903852521048e-02 8.697612678963714e-01 -3.340636065990666e-01 8.690196804694034e-01 -3.340482456148107e-01 4.079227885718701e-02 1.206275473781406e-02
3.044858125000000e+10 8.555310667015774e-02 3.691547627308517e-02 8.695857177161036e-01 -3.344684648697758e-01 8.688540201210583e-01 -3.344568898745535e-01 4.137293809120791e-02 1.275492337149769e-02
3.049045000000000e+10 8.125015588288614e-02 3.716996669550810e-02 8.694096007333818e-01 -3.348735123924481e-01 8.686878725949708e-01 -3.348657842151452e-01 3.978989896997176e-02 1.365800355793499e-02
3.053231875000000e+10 8.392493177645594e-02 3.517346943825613e-02 8.692329166704921e-01 -3.352787508418363e-01 8.685212356777874e-01 -3.352749301704535e-01 3.943361380546601e-02 1.444972358025603e-02
3.057418750000000e+10 8.760869950966295e-02 3.648939269804961e-02 8.690556652965665e-01 -3.356841818811976e-01 8.683541071644665e-01 -3.356843292581110e-01 3.895111343670150e-02 1.562603787978075e-02
3.061605625000000e+10 8.316654067543174e-02 4.028975668518180e-02 8.688778464624748e-01 -3.360898071081058e-01 8.681864848926124e-01 -3.360939829387298e-01 3.886960703269362e-02 1.671955415517207e-02
3.065792500000000e+10 8.611036576635293e-02 3.647976245873384e-02 8.686994597789548e-01 -3.364956279914788e-01 8.680183664642384e-01 -3.365038925072502e-01 4.033947226918819e-02 1.672456151703038e-02
3.069979375000000e+10 8.464794603650282e-02 3.992474158069675e-02 8.685205046527653e-01 -3.369016458051001e-01 8.678497492509345e-01 -3.369140590301464e-01 3.890860901204644e-02 1.820037755949310e-02
3.074166250000000e+10 8.849613581291979e-02 3.670848918445455e-02 8.683409803792516e-01 -3.373078615224673e-01 8.676806304828998e-01 -3.373244832407430e-01 4.064244296712461e-02 1.769937050597601e-02
3.078353125000000e+10 8.704313111220503e-02 4.090274088508120e-02 8.681608860165865e-01 -3.377142758925186e-01 8.675110071562623e-01 -3.377351655986756e-01 3.975104249900226e-02 1.901452759010679e-02
3.082540000000000e+10 8.816890340631403e-02 3.688926317572015e-02 8.679802204405483e-01 -3.381208894036952e-01 8.673408760582388e-01 -3.381461062243756e-01 4.150390644345962e-02 1.886523192107800e-02
3.086726875000000e+10 8.987111147834943e-02 3.787491880556903e-02 8.677989822509776e-01 -3.385277021901164e-01 8.671702337140218e-01 -3.385573048143043e-01 4.079395458528435e-02 1.863694561413779e-02
3.090913750000000e+10 9.078419259475538e-02 3.907234004968513e-02 8.676171699149682e-01 -3.389347140040388e-01 8.669990765379365e-01 -3.389687606421131e-01 4.245428151064268e-02 2.007389525115713e-02
3.095100625000000e+10 9.502810840614111e-02 4.060215897622085e-02 8.674347817758810e-01 -3.393419243500233e-01 8.668274008119530e-01 -3.393804726782073e-01 4.448481292779270e-02 2.074214532718047e-02
3.099287500000000e+10 9.122791700285357e-02 4.417561228276899e-02 8.672518160161786e-01 -3.397493323773481e-01 8.666552026708821e-01 -3.397924394939725e-01 4.523210291607255e-02 1.984318081922767e-02
3.103474375000000e+10 8.986691139602448e-02 4.008370381631910e-02 8.670682707029449e-01 -3.401569367772542e-01 8.664824781397958e-01 -3.402046591459243e-01 4.705911842070437e-02 1.823937546085725e-02
3.107661250000000e+10 8.781703983122816e-02 4.203891327558716e-02 8.668841439416556e-01 -3.405647359673901e-01 8.663092232767681e-01 -3.406171293519198e-01 4.645106127362816e-02 1.818602068858658e-02
3.111848125000000e+10 8.947737315302803e-02 4.085204804880872e-02 8.666994339042581e-01 -3.409727281584142e-01 8.661354342254535e-01 -3.410298476100739e-01 4.798111481629476e-02 1.859693247764204e-02
3.116035000000000e+10 8.956744710850602e-02 3.910257634018435e-02 8.665141387022390e-01 -3.413809112930459e-01 8.659611070846853e-01 -3.414428111234675e-01 4.764168326809851e-02 1.640100272628689e-02
3.120221875000000e+10 9.043329421283808e-02 3.693839345624577e-02 8.663282565777104e-01 -3.417892829086504e-01 8.657862380919897e-01 -3.418560166395935e-01 4.652556839613824e-02 1.544068824469070e-02
3.124408750000000e+10 9.024696433101036e-02 3.788803717305145e-02 8.661417859263729e-01 -3.421978403256447e-01 8.656108236627836e-01 -3.422694606619050e-01 4.634372021121100e-02 1.479405673952230e-02
3.128595625000000e+10 9.178541980349884e-02 4.050507051716209e-02 8.659547252842522e-01 -3.426065807891031e-01 8.654348603748335e-01 -3.426831395604852e-01 4.606631941659019e-02 1.560970252415113e-02
3.132782500000000e+10 9.118809892159969e-02 3.946847618089840e-02 8.657670733277949e-01 -3.430155013566607e-01 8.652583449409135e-01 -3.430970494864542e-01 4.651581027729144e-02 1.516182029309183e-02
3.136969375000000e+10 8.968611028634513e-02 4.246098036521029e-02 8.655788287360752e-01 -3.434245988180571e-01 8.650812740763696e-01 -3.435111862696629e-01 4.642767152783455e-02 1.467982308195598e-02
3.141156250000000e+10 8.840438847637573e-02 3.652129922477366e-02 8.653899903915450e-01 -3.438338697615616e-01 8.649036446538582e-01 -3.439255454961043e-01 4.555072567737408e-02 1.503225414920746e-02
3.145343125000000e+10 9.313539988799642e-02 3.940358728728802e-02 8.652005573792355e-01 -3.442433106697088e-01 8.647254537083564e-01 -3.443401225588179e-01 4.504511617332615e-02 1.529868863997633e-02
3.149530000000000e+10 9.573645436801367e-02 3.561533288713673e-02 8.650105290892589e-01 -3.446529178421644e-01 8.645466985689549e-01 -3.447549126050876e-01 4.558792810311361e-02 1.534456506108408e-02
3.153716875000000e+10 9.918241591958632e-02 3.788518282253230e-02 8.648199053422527e-01 -3.450626873105625e-01 8.643673769729698e-01 -3.451699104322552e-01 4.499001175461066e-02 1.450025172271102e-02
3.157903750000000e+10 9.532196357909899e-02 3.918820777101623e-02 8.646286864199704e-01 -3.454726148414062e-01 8.641874870621719e-01 -3.455851105063624e-01 4.544005840500365e-02 1.353233455900032e-02
3.162090625000000e+10 9.515485216365220e-02 3.463856073536222e-02 8.644368730549423e-01 -3.458826961108469e-01 8.640070273878587e-01 -3.460005071357573e-01 4.580333554767608e-02 1.261689984199736e-02
3.166277500000000e+10 9.641974844909680e-02 3.848529381185335e-02 8.642444663951091e-01 -3.462929268236422e-01 8.638259968680013e-01 -3.464160946037709e-01 4.498423661374931e-02 1.327990005002324e-02
3.170464375000000e+10 9.513284501543266e-02 3.883581079351677e-02 8.640514679965714e-01 -3.467033028449290e-01 8.636443947562830e-01 -3.468318672761151e-01 4.536193167565398e-02 1.384032929826790e-02
3.174651250000000e+10 9.407473506325292e-02 4.330728653106310e-02 8.638578797882577e-01 -3.471138201771086e-01 8.634622206103389e-01 -3.472478195575530e-01 4.678121572504784e-02 1.332927533296794e-02
3.178838125000000e+10 8.910392722594804e-02 3.682733445260756e-02 8.636637040658740e-01 -3.475244749698802e-01 8.632794742824416e-01 -3.476639459118104e-01 4.563762145769826e-02 1.122019874222471e-02
3.183025000000000e+10 8.751475626087667e-02 3.797148546968294e-02 8.634689433640624e-01 -3.479352635415337e-01 8.630961557704558e-01 -3.480802408562748e-01 4.515415985054250e-02 1.015755477795702e-02
3.187211875000000e+10 8.459780092679699e-02 3.647247125075340e-02 8.632736002857452e-01 -3.483461825497614e-01 8.629122650445513e-01 -3.484966991650344e-01 4.475233467462592e-02 1.053140832144232e-02
3.191398750000000e+10 8.603333207792502e-02 3.547632862853486e-02 8.630776773262147e-01 -3.487572289352522e-01 8.627278018840107e-01 -3.489133158129567e-01 4.333808699041208e-02 1.074032334288373e-02
3.195585625000000e+10 8.915630736465061e-02 3.445615236069337e-02 8.628811771036757e-01 -3.491683998677588e-01 8.625427661417601e-01 -3.493300858853703e-01 4.311235412759541e-02 1.037120677568698e-02
3.199772500000000e+10 8.528865297016369e-02 3.536718228650206e-02 8.626841025270291e-01 -3.495796927194150e-01 8.623571578803576e-01 -3.497470046123139e-01 4.202420078974096e-02 1.039286102654158e-02
3.203959375000000e+10 8.839562113439581e-02 3.215826516381804e-02 8.624864568692235e-01 -3.499911052057292e-01 8.621709774506178e-01 -3.501640675063117e-01 4.122032887743860e-02 1.073755653829326e-02
3.208146250000000e+10 8.594233214126334e-02 3.294138846204380e-02 8.622882436333026e-01 -3.504026354389365e-01 8.619842253778569e-01 -3.505812704499198e-01 4.055652217755926e-02 1.014879408960923e-02
3.212333125000000e+10 8.615911020056161e-02 3.029376245201945e-02 8.620894664746407e-01 -3.508142817646334e-01 8.617969022915679e-01 -3.509986095726215e-01 3.869786027302708e-02 1.158754155415911e-02
3.216520000000000e+10 8.736340435019532e-02 2.984948165109767e-02 8.618901290645117e-01 -3.512260427616924e-01 8.616090088158737e-01 -3.514160812647926e-01 3.920161805258809e-02 1.344637952854501e-02
3.220706875000000e+10 9.216486688248050e-02 3.102940351422756e-02 8.616902350372628e-01 -3.516379172008892e-01 8.614205455524954e-01 -3.518336821169430e-01 3.783248132186005e-02 1.576954892476172e-02
3.224893750000000e+10 9.274195562419854e-02 3.302330996228379e-02 8.614897878463933e-01 -3.520499038427494e-01 8.612315129383286e-01 -3.522514086979889e-01 3.783039607304094e-02 1.758290271117848e-02
3.229080625000000e+10 9.474400394813472e-02 3.380069430343269e-02 8.612887908174580e-01 -3.524620012537184e-01 8.610419113197216e-01 -3.526692573694102e-01 3.804423785871248e-02 1.703120536383313e-02
3.233267500000000e+10 9.283749990348496e-02 3.262045622961817e-02 8.610872473077256e-01 -3.528742078157135e-01 8.608517411529722e-01 -3.530872242659762e-01 3.895988955850720e-02 1.802889521659451e-02
3.237454375000000e+10 9.542993666269357e-02 3.275212854684714e-02 8.608851607431692e-01 -3.532865218247927e-01 8.606610030462178e-01 -3.535053054190651e-01 3.947033796102265e-02 1.776469106237602e-02
3.241641250000000e+10 9.609794151393740e-02 3.496126289182730e-02 8.606825344799817e-01 -3.536989416420009e-01 8.604696976467867e-01 -3.539234969149710e-01 4.095867260519533e-02 1.897031098171273e-02
3.245828125000000e+10 9.239367276195343e-02 4.268571092413790e-02 8.604793716278833e-01 -3.541114656325905e-01 8.602778254085991e-01 -3.543417949018698e-01 4.325814700745820e-02 1.934879362986531e-02
3.250015000000000e+10 8.718136773877333e-02 4.113374727539482e-02 8.602756749699951e-01 -3.545240922506226e-01 8.600853864924157e-01 -3.547601956487880e-01 4.472016033011376e-02 1.932034609842340e-02
3.254201875000000e+10 8.858573281369198e-02 4.262709727675394e-02 8.600714467655709e-01 -3.549368199701348e-01 8.598923805696472e-01 -3.551786955025250e-01 4.682739793637104e-02 1.856432722043950e-02
3.258388750000000e+10 8.465839746469277e-02 4.143642850633369e-02 8.598666889400776e-01 -3.553496473328943e-01 8.596988070092034e-01 -3.555972908904302e-01 4.710439172012880e-02 1.756920792774012e-02
3.262575625000000e+10 8.600507552791993e-02 3.946507356026648e-02 8.596614031306896e-01 -3.557625728306709e-01 8.595046649356957e-01 -3.560159782422243e-01 4.809718457948617e-02 1.596222761324461e-02
3.266762500000000e+10 8.351524124641793e-02 3.930900000503448e-02 8.594555906878469e-01 -3.561755948163748e-01 8.593099532780365e-01 -3.564347538949595e-01 4.823035895867590e-02 1.430562952879467e-02
3.270949375000000e+10 8.307515510885978e-02 3.331069493286782e-02 8.592492529552174e-01 -3.565887115968046e-01 8.591146710293648e-01 -3.568536141929158e-01 4.698016344184245e-02 1.232025718007942e-02
3.275136250000000e+10 8.354828056951162e-02 2.680703917318503e-02 8.590423913263789e-01 -3.570019214310480e-01 8.589188172999794e-01 -3.572725554989588e-01 4.649999305910253e-02 1.017720399805145e-02
3.279323125000000e+10 9.438049222867649e-02 1.929168659352859e-02 8.588350075009598e-01 -3.574152225660290e-01 8.587223915793785e-01 -3.576915742575024e-01 4.135537277331933e-02 1.075342162528008e-02
3.283510000000000e+10 9.711815628619201e-02 2.809493120219611e-02 8.586271035433588e-01 -3.578286133545870e-01 8.585253937779801e-01 -3.581106671298793e-01 4.229637014730809e-02 1.270677078480174e-02
3.287696875000000e+10 1.001604234606251e-01 2.832834967577481e-02 8.584186816542354e-01 -3.582420921309799e-01 8.583278239835027e-01 -3.585298308628054e-01 4.160581060564731e-02 1.493840126823744e-02
3.291883750000000e+10 1.010223329715757e-01 3.905914059051879e-02 8.582097441034509e-01 -3.586556571601013e-01 8.581296823861699e-01 -3.589490622141500e-01 4.399341319468825e-02 1.765021704378951e-02
3.296070625000000e+10 9.311810652224922e-02 4.265085151033272e-02 8.580002931165562e-01 -3.590693066012869e-01 8.579309691690256e-01 -3.593683579497159e-01 4.584306343575478e-02 1.723404764795345e-02
3.300257500000000e+10 9.004967383021348e-02 3.967037127819374e-02 8.577903304924793e-01 -3.594830383869583e-01 8.577316841142504e-01 -3.597877147076701e-01 4.654270940260800e-02 1.596934062297363e-02
3.304444375000000e+10 8.797933810800954e-02 4.154302556118532e-02 8.575798574816518e-01 -3.598968501728539e-01 8.575318264966085e-01 -3.602071289421948e-01 4.642140553116222e-02 1.468519881095065e-02
3.308631250000000e+10 8.463589068410783e-02 3.458116321472703e-02 8.573688747766309e-01 -3.603107393715498e-01 8.573313950910696e-01 -3.606265969208041e-01 4.455565631707214e-02 1.285905193068755e-02
3.312818125000000e+10 9.127210009881519e-02 3.427404391167969e-02 8.571573825448618e-01 -3.607247030823776e-01 8.571303882035122e-01 -3.610461146762583e-01 4.379937396847672e-02 1.186184280394863e-02
3.317005000000000e+10 8.927409629302456e-02 3.786755657450227e-02 8.569453805390729e-01 -3.611387378579777e-01 8.569288037041086e-01 -3.614656777346305e-01 4.323913842574363e-02 1.214174625606338e-02
3.321191875000000e+10 8.607745513524064e-02 3.541036921791042e-02 8.567328683516596e-01 -3.615528396249825e-01 8.567266393748797e-01 -3.618852810183438e-01 4.196022228822240e-02 1.199744478211467e-02
3.325378750000000e+10 8.956273136430955e-02 3.381312554935378e-02 8.565198455078544e-01 -3.619670037006209e-01 8.565238929906015e-01 -3.623049188831510e-01 4.183346025625641e-02 1.227619667895075e-02
3.329565625000000e+10 9.223239691214295e-02 3.191845275858201e-02 8.563063118203829e-01 -3.623812249290846e-01 8.563205626527363e-01 -3.627245852158021e-01 3.936316025971780e-02 1.136722176167586e-02
3.333752500000000e+10 8.964975740641733e-02 3.228799255630366e-02 8.560922676215936e-01 -3.627954976795142e-01 8.561166469927241e-01 -3.631442734142677e-01 3.933815898054519e-02 1.080315606046077e-02
3.337939375000000e+10 9.131339153333230e-02 3.336631365250415e-02 8.558777136374009e-01 -3.632098161116438e-01 8.559121450403661e-01 -3.635639766684609e-01 3.845006467180304e-02 1.201822182479872e-02
3.342126250000000e+10 8.936096166986816e-02 3.589022771664672e-02 8.556626507561556e-01 -3.636241743277890e-01 8.557070560324459e-01 -3.639836881488733e-01 3.756743033013465e-02 1.365455152031215e-02
3.346313125000000e+10 9.454057538330443e-02 3.187676185508780e-02 8.554470799580782e-01 -3.640385662647185e-01 8.555013793162541e-01 -3.644034009048016e-01 3.671645449331908e-02 1.281028059670126e-02
3.350500000000000e+10 9.321233800186270e-02 3.489552410052262e-02 8.552310024240618e-01 -3.644529856801933e-01 8.552951145019239e-01 -3.648231078846957e-01 3.648753062683034e-02 1.396299778761407e-02
3.354686875000000e+10 9.685287045956512e-02 3.757438317658336e-02 8.550144195429316e-01 -3.648674261703802e-01 8.550882614406932e-01 -3.652428019319096e-01 3.760020664613798e-02 1.474447283169633e-02
3.358873750000000e+10 8.920147881376916e-02 3.801045971522621e-02 8.547973329254096e-01 -3.652818811535735e-01 8.548808202700879e-01 -3.656624757706721e-01 3.814531664616144e-02 1.264884518661349e-02
3.363060625000000e+10 8.996066553560868e-02 4.053346188549573e-02 8.545797444087758e-01 -3.656963439162644e-01 8.546727914077507e-01 -3.660821220544196e-01 4.095845083366639e-02 1.457802887415519e-02
3.367247500000000e+10 8.332158165306075e-02 4.181691355359985e-02 8.543616559947657e-01 -3.661108078331363e-01 8.544641754565474e-01 -3.665017335958606e-01 4.090852954437512e-02 1.441839729180378e-02
3.371434375000000e+10 8.548383991942525e-02 3.705459792701388e-02 8.541430698853854e-01 -3.665252663947801e-01 8.542549732559658e-01 -3.669213033489703e-01 4.041500794348778e-02 1.601741955016260e-02
3.375621250000000e+10 9.336277897303287e-02 3.602147860229215e-02 8.539239884905793e-01 -3.669397132202444e-01 8.540451859068360e-01 -3.673408244407614e-01 4.046053106928071e-02 1.539792130946890e-02
3.379808125000000e+10 9.374609895075846e-02 4.296910883490765e-02 8.537044144426147e-01 -3.673541419736115e-01 8.538348147807007e-01 -3.677602901118106e-01 3.979599134852879e-02 1.723672516055534e-02
3.383995000000000e+10 9.413079664240051e-02 3.786811234734688e-02 8.534843505901326e-01 -3.677685461354271e-01 8.536238614991903e-01 -3.681796935258201e-01 4.114322995713152e-02 1.609101400902258e-02
3.388181875000000e+10 9.763108791792867e-02 4.141778183151312e-02 8.532637999384990e-01 -3.681829188461704e-01 8.534123278961614e-01 -3.685990276192085e-01 4.096677014231653e-02 1.593171184577687e-02
3.392368750000000e+10 9.483217005954740e-02 4.065101832939989e-02 8.530427658714044e-01 -3.685972528862165e-01 8.532002162658127e-01 -3.690182850343411e-01 4.241376998071881e-02 1.533084662475701e-02
3.396555625000000e+10 9.493265691985725e-02 3.328451642817947e-02 8.528212521907683e-01 -3.690115406242351e-01 8.529875293709756e-01 -3.694374580307172e-01 4.161844010437615e-02 1.191063654563415e-02
3.400742500000000e+10 1.016543842197741e-01 3.528609545985623e-02 8.525992631477907e-01 -3.694257741257791e-01 8.527742704910899e-01 -3.698565386022543e-01 4.091327127353400e-02 1.179463877630924e-02
3.404929375000000e+10 9.385918209622114e-02 3.606955631483637e-02 8.523768035845488e-01 -3.698399453615362e-01 8.525604435601947e-01 -3.702755186617964e-01 4.293717337828162e-02 9.839911657793753e-03
3.409116250000000e+10 9.642402570012028e-02 3.351255214483601e-02 8.521538789937858e-01 -3.702540463226221e-01 8.523460531526286e-01 -3.706943901741571e-01 4.143401223796495e-02 1.100323509126453e-02
3.413303125000000e+10 9.477762256957960e-02 2.951052138667919e-02 8.519304956031511e-01 -3.706680692777542e-01 8.521311046270498e-01 -3.711131454291666e-01 4.193950996753787e-02 8.105952532282384e-03
3.417490000000000e+10 9.925470914418569e-02 2.335270103950452e-02 8.517066602201845e-01 -3.710820066388947e-01 8.519156039790505e-01 -3.715317768927790e-01 3.933835476060011e-02 6.804119654026532e-03
3.421676875000000e+10 1.011347701106204e-01 2.578161172538697e-02 8.514823803845781e-01 -3.714958510437951e-01 8.516995579556746e-01 -3.719502773214955e-01 3.936611200596761e-02 8.371492757658977e-03
3.425863750000000e+10 9.887579346747866e-02 2.746821468669775e-02 8.512576643382943e-01 -3.719095954493918e-01 8.514829740000287e-01 -3.723686398468611e-01 3.800653633680970e-02 8.048845137111345e-03
3.430050625000000e+10 1.006843448591758e-01 2.615279999674837e-02 8.510325208152217e-01 -3.723232330530518e-01 8.512658600887844e-01 -3.727868579055623e-01 3.749548672839497e-02 9.821126173714549e-03
3.434237500000000e+10 9.743102032570992e-02 2.937709328757299e-02 8.508069591299556e-01 -3.727367574036098e-01 8.510482248193504e-01 -3.732049253283418e-01 3.891015614567635e-02 8.701966245452296e-03
3.438424375000000e+10 9.862847767417386e-02 2.260741907890133e-02 8.505809892891105e-01 -3.731501624190502e-01 8.508300774717087e-01 -3.736228363451191e-01 3.638020356270101e-02 9.743328084235633e-03
3.442611250000000e+10 9.635525722804233e-02 2.837014245964524e-02 8.503546219329525e-01 -3.735634425036646e-01 8.506114279457987e-01 -3.740405857291772e-01 3.822352345207164e-02 9.159384927754137e-03
3.446798125000000e+10 9.316018700094252e-02 2.601581791166203e-02 8.501278680461335e-01 -3.739765926531963e-01 8.503922864794388e-01 -3.744581688426080e-01 3.697287241738505e-02 9.192382548173957e-03
3.450985000000000e+10 9.201079057222127e-02 2.628547990816413e-02 8.499007388055317e-01 -3.743896084592259e-01 8.501726634585317e-01 -3.748755816742225e-01 3.774302033985694e-02 9.939492092467909e-03
3.455171875000000e+10 8.900692530337079e-02 2.339872951345763e-02 8.496732455902117e-01 -3.748024860914752e-01 8.499525694304916e-01 -3.752928208137126e-01 3.691705830535500e-02 8.048275776377048e-03
3.459358750000000e+10 9.071323944354635e-02 2.568983480971236e-02 8.494453998486398e-01 -3.752152223625635e-01 8.497320149812209e-01 -3.757098835042965e-01 3.689706558313185e-02 1.028696131373723e-02
3.463545625000000e+10 8.485718188454462e-02 2.879291223423189e-02 8.492172129426012e-01 -3.756278147402146e-01 8.495110105589915e-01 -3.761267676509197e-01 3.775205537507707e-02 9.407393326621985e-03
3.467732500000000e+10 8.971634371493069e-02 2.056155987427140e-02 8.489886960891948e-01 -3.760402612074892e-01 8.492895664399883e-01 -3.765434716396089e-01 3.493779494435269e-02 1.015536505125313e-02
3.471919375000000e+10 9.086030980128028e-02 2.549716835881392e-02 8.487598605538940e-01 -3.764525602567237e-01 8.490676929267337e-01 -3.769599943252978e-01 3.606118864448490e-02 1.023979802431768e-02
3.476106250000000e+10 9.186134116068036e-02 2.213089763817160e-02 8.485307178035586e-01 -3.768647107147819e-01 8.488454004766351e-01 -3.773763348415414e-01 3.434383610718034e-02 1.018481224133807e-02
3.480293125000000e+10 9.313250857347798e-02 2.402306279410933e-02 8.483012793374484e-01 -3.772767116334395e-01 8.486226995076208e-01 -3.777924925161524e-01 3.318182925102957e-02 1.115766206343766e-02
3.484480000000000e+10 9.696050765374301e-02 2.442041317997655e-02 8.480715567039987e-01 -3.776885622157254e-01 8.483996004602288e-01 -3.782084668107739e-01 3.228883066143975e-02 1.019995468216700e-02
3.488666875000000e+10 9.081330687571371e-02 2.688699105973823e-02 8.478415616635515e-01 -3.781002618336600e-01 8.481761139798838e-01 -3.786242573022773e-01 3.165542222887399e-02 1.138178613456965e-02
3.492853750000000e+10 9.321548599526827e-02 3.070758714349061e-02 8.476113061673987e-01 -3.785118100932151e-01 8.479522508717919e-01 -3.790398637780705e-01 3.220357318225618e-02 1.147555326274333e-02
3.497040625000000e+10 8.784430215616593e-02 3.393385668722160e-02 8.473808022397027e-01 -3.789232070559511e-01 8.477280219698108e-01 -3.794552864668774e-01 3.205643265326090e-02 1.237365434456685e-02
3.501227500000000e+10 8.546096052979749e-02 3.421586059551777e-02 8.471500619577582e-01 -3.793344532076730e-01 8.475034381512970e-01 -3.798705259872363e-01 3.329365781344673e-02 1.230206974480757e-02
3.505414375000000e+10 8.737019988194579e-02 3.301607369290556e-02 8.469190972326630e-01 -3.797455494996043e-01 8.472785101245662e-01 -3.802855833746548e-01 3.301908974360373e-02 1.175846673669471e-02
3.509601250000000e+10 8.377504263972205e-02 3.464975349267388e-02 8.466879197135773e-01 -3.801564972814395e-01 8.470532483357479e-01 -3.807004600226207e-01 3.287103757959847e-02 1.173409453092975e-02
3.513788125000000e+10 8.651497011307129e-02 2.910408174981645e-02 8.464565408934298e-01 -3.805672982821707e-01 8.468276630813766e-01 -3.811151576664368e-01 3.319421722712627e-02 8.830968362291209e-03
3.517975000000000e+10 8.152947570565036e-02 3.249603188679370e-02 8.462249721168770e-01 -3.809779547450284e-01 8.466017645297710e-01 -3.815296785379565e-01 3.246400295286443e-02 9.420247584718541e-03
3.522161875000000e+10 8.446644088921738e-02 2.902919393965336e-02 8.459932245663735e-01 -3.813884695863315e-01 8.463755627014794e-01 -3.819440255743317e-01 3.239726507439436e-02 9.395727228709346e-03
3.526348750000000e+10 8.582508491728641e-02 2.745180396711963e-02 8.457613091201929e-01 -3.817988464685879e-01 8.461490673382817e-01 -3.823582024367626e-01 3.099105362701293e-02 1.064441683810858e-02
3.530535625000000e+10 9.367369982367957e-02 3.177821256115578e-02 8.455292364473244e-01 -3.822090896058049e-01 8.459222879557829e-01 -3.827722133966344e-01 3.110993390731247e-02 1.162264057468316e-02
3.534722500000000e+10 8.647563554580799e-02 3.052807129632705e-02 8.452970171402273e-01 -3.826192037947567e-01 8.456952339712795e-01 -3.831860633543324e-01 3.119227058651130e-02 1.219790921307728e-02
3.538909375000000e+10 9.352831728409976e-02 2.762999061418785e-02 8.450646615952412e-01 -3.830291943302173e-01 8.454679146127129e-01 -3.835997577269140e-01 3.058716582599206e-02 1.369068810109123e-02
3.543096250000000e+10 9.653587946566591e-02 2.815343077454161e-02 8.448321798867224e-01 -3.834390669727610e-01 8.452403388217535e-01 -3.840133023816351e-01 2.975558887913513e-02 1.401213492976728e-02
3.547283125000000e+10 1.002851538734609e-01 3.111628507121819e-02 8.445995817232085e-01 -3.838488277483193e-01 8.450125152101569e-01 -3.844267034337573e-01 2.873872675198643e-02 1.591513468410302e-02
3.551470000000000e+10 1.023504948641925e-01 3.427732660540136e-02 8.443668765675241e-01 -3.842584826924512e-01 8.447844521626348e-01 -3.848399669742564e-01 2.924335876238867e-02 1.583025823875913e-02
3.555656875000000e+10 9.493289196242249e-02 4.131163750893430e-02 8.441340737038250e-01 -3.846680377041470e-01 8.445561579230798e-01 -3.852530989326577e-01 3.091588496650276e-02 1.718938097694722e-02
3.559843750000000e+10 9.546588168058004e-02 4.054149732107214e-02 8.439011822934137e-01 -3.850774987026299e-01 8.443276406180923e-01 -3.856661051924430e-01 3.206199564939458e-02 1.774314428877488e-02
3.564030625000000e+10 9.107059278402091e-02 3.683740510792522e-02 8.436682111871615e-01 -3.854868715739793e-01 8.440989080854586e-01 -3.860789915822507e-01 3.173819165055829e-02 1.599495777668429e-02
3.568217500000000e+10 9.922662039902835e-02 4.088875562296006e-02 8.434351689893369e-01 -3.858961619535939e-01 8.438699679492236e-01 -3.864917636457230e-01 3.186802847307534e-02 1.713572866904998e-02
3.572404375000000e+10 8.654041042286457e-02 3.975339320423166e-02 8.432020641385080e-01 -3.863053754015587e-01 8.436408276922160e-01 -3.869044268272999e-01 3.315175555206940e-02 1.558777386230234e-02
3.576591250000000e+10 9.396584419889450e-02 3.936183712902554e-02 8.429689048388462e-01 -3.867145171976247e-01 8.434114945743447e-01 -3.873169862500865e-01 3.248607092181963e-02 1.460236181552930e-02
3.580778125000000e+10 7.865841637598081e-02 3.941331319255027e-02 8.427356991392486e-01 -3.871235925144757e-01 8.431819757248846e-01 -3.877294468742828e-01 3.408822269254023e-02 1.259713055668646e-02
3.584965000000000e+10 8.338529874455733e-02 2.906317611846295e-02 8.425024549313190e-01 -3.875326063730989e-01 8.429522781443932e-01 -3.881418134564460e-01 3.160700272101300e-02 1.081875331032915e-02
3.589151875000000e+10 8.683538132434464e-02 2.686671949356610e-02 8.422691800430759e-01 -3.879415638479481e-01 8.427224087845305e-01 -3.885540907809226e-01 2.983127680272897e-02 1.144313443286142e-02
3.593338750000000e+10 8.862132532005813e-02 2.719776190259457e-02 8.420358822844229e-01 -3.883504700431943e-01 8.424923745852093e-01 -3.889662836497186e-01 2.784426880446930e-02 1.158633279992743e-02
3.597525625000000e+10 9.198937721816237e-02 2.643986348518793e-02 8.418025694827582e-01 -3.887593301479821e-01 8.422621824897571e-01 -3.893783969474972e-01 2.670629393026755e-02 1.289665462337455e-02
3.601712500000000e+10 9.037583176054335e-02 2.709625893020825e-02 8.415692492879123e-01 -3.891681493619078e-01 8.420318392384185e-01 -3.897904355685007e-01 2.627468648773077e-02 1.258883269756743e-02
3.605899375000000e+10 9.319437001622533e-02 2.927345858036795e-02 8.413359291419498e-01 -3.895769327438842e-01 8.418013513788596e-01 -3.902024042584906e-01 2.536643105211207e-02 1.516341239350746e-02
3.610086250000000e+10 9.359309589646929e-02 2.916399197819679e-02 8.411026164017571e-01 -3.899856853596622e-01 8.415707253309713e-01 -3.906143078003097e-01 2.475541981312327e-02 1.816505482966197e-02
3.614273125000000e+10 1.035158592956923e-01 3.790931078605238e-02 8.408693181386889e-01 -3.903944120046992e-01 8.413399672292629e-01 -3.910261506793700e-01 2.605841954772933e-02 2.030303223611045e-02
3.618460000000000e+10 9.730401586165048e-02 3.911881145285133e-02 8.406360413138313e-01 -3.908031170980502e-01 8.411090831363301e-01 -3.914379369689985e-01 2.678486428899736e-02 2.161280831018175e-02
3.622646875000000e+10 1.022159972387647e-01 4.085516063920671e-02 8.404027927915140e-01 -3.912118042916782e-01 8.408780790599911e-01 -3.918496699356662e-01 2.916331970362486e-02 2.036417448395847e-02
3.626833750000000e+10 9.895322369135034e-02 3.809559890356663e-02 8.401695794327628e-01 -3.916204763819609e-01 8.406469610844837e-01 -3.922613519360312e-01 2.970752215682167e-02 1.881272061130410e-02
3.631020625000000e+10 9.508336839670312e-02 4.050653806489429e-02 8.399364084455103e-01 -3.920291355347693e-01 8.404157357238341e-01 -3.926729846066845e-01 3.149196724003119e-02 1.786723591328216e-02
3.635207500000000e+10 9.985343191389176e-02 3.431299159169048e-02 8.397032871824376e-01 -3.924377835198945e-01 8.401844096992390e-01 -3.930845691396415e-01 3.175419003173899e-02 1.661205137827944e-02
3.639394375000000e+10 9.169983292302762e-02 4.242736925638837e-02 8.394702233216575e-01 -3.928464218975389e-01 8.399529901565486e-01 -3.934961065027658e-01 3.202414210986321e-02 1.758982746807488e-02
3.643581250000000e+10 9.340348436746686e-02 3.046481880617730e-02 8.392372248788034e-01 -3.932550521316245e-01 8.397214846394914e-01 -3.939075975620664e-01 3.253342139220981e-02 1.575491883929909e-02
3.647768125000000e+10 9.438684526319489e-02 3.427019999231203e-02 8.390042998680767e-01 -3.936636756130899e-01 8.394899007436208e-01 -3.943190431345653e-01 3.080000326796253e-02 1.665742728696511e-02
3.651955000000000e+10 9.708754726961563e-02 3.266696435565568e-02 8.387714562955871e-01 -3.940722935921759e-01 8.392582461315425e-01 -3.947304439359850e-01 3.138142251250046e-02 1.682030147933294e-02
3.656141875000000e+10 9.657954180530430e-02 2.809957941030185e-02 8.385387020106355e-01 -3.944809070500787e-01 8.390265283611728e-01 -3.951418004265423e-01 2.872047143410671e-02 1.711943967831905e-02
3.660328750000000e+10 1.071057520519477e-01 3.265754250192354e-02 8.383060447506759e-01 -3.948895166122516e-01 8.387947549273197e-01 -3.955531127300958e-01 2.873515177120813e-02 1.920357913709902e-02
3.664515625000000e+10 1.025898452599647e-01 3.561396301354273e-02 8.380734920927488e-01 -3.952981223989087e-01 8.385629332355231e-01 -3.959643804917226e-01 2.873678107673482e-02 1.831705809047934e-02
3.668702500000000e+10 1.017025262192696e-01 3.583556675675792e-02 8.378410516960444e-01 -3.957067238064576e-01 8.383310708358206e-01 -3.963756026538751e-01 2.896195470508880e-02 1.930522658901566e-02
3.672889375000000e+10 1.027729928299412e-01 3.482968563273715e-02 8.376087312462004e-01 -3.961153196317900e-01 8.380991753835780e-01 -3.967867775477655e-01 3.101867260943828e-02 1.809446724274970e-02
3.677076250000000e+10 9.963887836909108e-02 3.926057340220897e-02 8.373765384500578e-01 -3.965239081314051e-01 8.378672546375237e-01 -3.971979029477201e-01 2.990140457830922e-02 1.898221564930316e-02
3.681263125000000e+10 9.637791276692675e-02 3.330462406728549e-02 8.371444812549520e-01 -3.969324870691185e-01 8.376353166442881e-01 -3.976089761544146e-01 3.201321746712640e-02 1.671569144815720e-02
3.685450000000000e+10 9.667966178916886e-02 3.334328626779456e-02 8.369125676883958e-01 -3.973410538509984e-01 8.374033696019737e-01 -3.980199941272469e-01 2.915830682443217e-02 1.591488455658127e-02
3.689636875000000e+10 9.289443057554289e-02 3.875533554540832e-02 8.366808058395899e-01 -3.977496057522807e-01 8.371714218282599e-01 -3.984309537172788e-01 3.128056090675931e-02 1.672674143878086e-02
3.693823750000000e+10 8.818667163284905e-02 3.467610774869152e-02 8.364492036689454e-01 -3.981581399394429e-01 8.369394815981611e-01 -3.988418517067182e-01 3.039413535021451e-02 1.617796654810852e-02
3.698010625000000e+10 9.378861986076145e-02 3.222719130457483e-02 8.362177690212723e-01 -3.985666534300480e-01 8.367075571364517e-01 -3.992526847991438e-01 2.847032516413106e-02 1.899213155386464e-02
3.702197500000000e+10 9.651530554650488e-02 3.950821504122939e-02 8.359865095851319e-01 -3.989751431104334e-01 8.364756565769191e-01 -3.996634496076779e-01 3.030055222865051e-02 1.847311308076750e-02
3.706384375000000e+10 9.205512492162034e-02 3.458267451881471e-02 8.357554330762389e-01 -3.993836056414043e-01 8.362437881080226e-01 -4.000741425458222e-01 2.818630475981017e-02 1.832652638982250e-02
3.710571250000000e+10 9.631314013224226e-02 3.740916001621943e-02 8.355245475288393e-01 -3.997920375106178e-01 8.360119603113467e-01 -4.004847598819979e-01 3.090579361435157e-02 1.871003115320087e-02
3.714758125000000e+10 9.124142998176110e-02 3.980721198411259e-02 8.352938612096606e-01 -4.002004353744399e-01 8.357801820476829e-01 -4.008952980583699e-01 2.952891917868617e-02 1.939303572870328e-02
3.718945000000000e+10 9.081538372926996e-02 3.917869932664305e-02 8.350633824853944e-01 -4.006087959140484e-01 8.355484623189643e-01 -4.013057536046822e-01 3.188112896692939e-02 2.035075388550101e-02
3.723131875000000e+10 9.245771158230877e-02 4.024584357164611e-02 8.348331196619364e-01 -4.010171158146676e-01 8.353168101057840e-01 -4.017161230734625e-01 3.212442816349576e-02 1.917847454133360e-02
3.727318750000000e+10 8.647000338261419e-02 4.252772729710554e-02 8.346030809447421e-01 -4.014253917688680e-01 8.350852343561157e-01 -4.021264030482859e-01 3.314235991631304e-02 2.025755211011931e-02
3.731505625000000e+10 8.979068981347170e-02 3.629433671237862e-02 8.343732744852843e-01 -4.018336204378212e-01 8.348537440448397e-01 -4.025365900829824e-01 3.282650045316898e-02 1.822680130643014e-02
3.735692500000000e+10 9.147060434623333e-02 4.169258815949058e-02 8.341437083243862e-01 -4.022417985063509e-01 8.346223480628167e-01 -4.029466807499599e-01 3.113385863694619e-02 1.976731663018532e-02
3.739879375000000e+10 9.003116339980116e-02 3.892282815041114e-02 8.339143905905205e-01 -4.026499226182284e-01 8.343910554257247e-01 -4.033566716131480e-01 3.383652740481938e-02 1.898087927160213e-02
3.744066250000000e+10 9.696650373614510e-02 3.567990141994721e-02 8.336853293900700e-01 -4.030579892455551e-01 8.341598751807222e-01 -4.037665590549682e-01 3.078475890830908e-02 1.929486182405218e-02
3.748253125000000e+10 9.769588508532297e-02 4.441095569731859e-02 8.334565329240535e-01 -4.034659945580115e-01 8.339288164961571e-01 -4.041763391586127e-01 3.288232881213736e-02 1.779749745857181e-02
3.752440000000000e+10 8.735104926280442e-02 4.237251042523208e-02 8.332280094997876e-01 -4.038739344054356e-01 8.336978886799816e-01 -4.045860076824219e-01 3.401695355382271e-02 1.607399916690179e-02
3.756626875000000e+10 8.909979849379759e-02 4.261187450630554e-02 8.329997674024515e-01 -4.042818043677491e-01 8.334671010786134e-01 -4.049955601236355e-01 3.373736792272629e-02 1.716190953472817e-02
3.760813750000000e+10 8.608338052038413e-02 3.879325654632805e-02 8.327718149861831e-01 -4.046895998865345e-01 8.332364631815695e-01 -4.054049918129924e-01 3.386833441202017e-02 1.462731291432815e-02
3.765000625000000e+10 8.598013664702274e-02 3.279310023651057e-02 8.325441607306819e-01 -4.050973162102970e-01 8.330059846842294e-01 -4.058142978902797e-01 3.148577788292701e-02 1.237778010585709e-02
3.769187500000000e+10 9.102036760464564e-02 2.917824300753426e-02 8.323168132744297e-01 -4.055049484746928e-01 8.327756755090148e-01 -4.062234733444990e-01 3.250047296906880e-02 1.298486779017140e-02
3.773374375000000e+10 9.378718219777567e-02 3.328385703486399e-02 8.320897814222048e-01 -4.059124918648198e-01 8.325455458347886e-01 -4.066325132169087e-01 2.985372915257544e-02 1.303959152457441e-02
3.777561250000000e+10 9.368179056092908e-02 3.151260894199265e-02 8.318630740671573e-01 -4.063199416045447e-01 8.323156059946881e-01 -4.070414126242446e-01 3.090096021177967e-02 1.282214690899576e-02
3.781748125000000e+10 9.705590563648034e-02 3.897761837485850e-02 8.316366998999054e-01 -4.067272928724182e-01 8.320858661734196e-01 -4.074501666901875e-01 3.165819324934577e-02 1.308429480885275e-02
3.785935000000000e+10 8.951742755387000e-02 4.024174626695081e-02 8.314106673998533e-01 -4.071345407154667e-01 8.318563363757441e-01 -4.078587704539942e-01 3.137283835453970e-02 1.317517679720560e-02
3.790121875000000e+10 9.022020529190825e-02 3.483707464492737e-02 8.311849849829611e-01 -4.075416800110795e-01 8.316270266210131e-01 -4.082672187611697e-01 3.267377553983065e-02 1.221453806358830e-02
3.794308750000000e+10 9.398343618268767e-02 3.463618100314940e-02 8.309596610026746e-01 -4.079487054258823e-01 8.313979469510334e-01 -4.086755062536626e-01 3.084771517778305e-02 1.199721795446502e-02
3.798495625000000e+10 9.500688399473332e-02 3.573494613383790e-02 8.307347039098287e-01 -4.083556114513623e-01 8.311691076123938e-01 -4.090836274701703e-01 3.255625836958246e-02 1.200369080466039e-02
3.802682500000000e+10 9.331843897440911e-02 3.168434561163283e-02 8.305101223895078e-01 -4.087623924267823e-01 8.309405191733031e-01 -4.094915767948532e-01 3.119821631910338e-02 1.023787632622222e-02
3.806869375000000e+10 9.223802811875804e-02 3.135245143796107e-02 8.302859254673252e-01 -4.091690427333000e-01 8.307121926305608e-01 -4.098993486653347e-01 3.020399173021134e-02 9.817154844164023e-03
3.811056250000000e+10 8.581497487657423e-02 3.016201121213577e-02 8.300621223544918e-01 -4.095755570813965e-01 8.304841392197936e-01 -4.103069378597446e-01 3.097217305807954e-02 9.873759337348454e-03
3.815243125000000e+10 9.589190203658361e-02 2.267353171026360e-02 8.298387220643453e-01 -4.099819304734582e-01 8.302563700931382e-01 -4.107143394583682e-01 2.866077474900731e-02 1.222885735601498e-02
3.819430000000000e+10 1.003056535393095e-01 3.515837179790256e-02 8.296157333689260e-01 -4.103881580240421e-01 8.300288962350446e-01 -4.111215486892640e-01 3.011823779947079e-02 1.301316348287873e-02
3.823616875000000e+10 9.463723850665598e-02 3.359737436135794e-02 8.293931647158969e-01 -4.107942345844667e-01 8.298017283798035e-01 -4.115285605269872e-01 3.138799696370161e-02 1.286889592627854e-02
3.827803750000000e+10 9.712860917693818e-02 3.433491967916627e-02 8.291710242956680e-01 -4.112001545617007e-01 8.295748770960072e-01 -4.119353694788502e-01 3.201776971025553e-02 1.354960576100925e-02
3.831990625000000e+10 9.354928458962132e-02 3.029971197200065e-02 8.289493202280359e-01 -4.116059118299362e-01 8.293483529404788e-01 -4.123419695147948e-01 3.223115812766603e-02 9.962169128828318e-03
3.836177500000000e+10 9.556801439142269e-02 2.919746983640753e-02 8.287280607384057e-01 -4.120114997659108e-01 8.291221666770945e-01 -4.127483541059109e-01 3.238729094992868e-02 9.084867400182965e-03
3.840364375000000e+10 9.332498335261849e-02 2.853426203032923e-02 8.285072542309094e-01 -4.124169114813703e-01 8.288963293252701e-01 -4.131545164452907e-01 3.387175609073257e-02 8.505869812701777e-03
3.844551250000000e+10 9.236139858155075e-02 3.043941074296505e-02 8.282869091957861e-01 -4.128221399259903e-01 8.286708520737637e-01 -4.135604495278147e-01 3.392659830813460e-02 7.866445502191677e-03
3.848738125000000e+10 8.477672185893480e-02 2.972684298306212e-02 8.280670341579758e-01 -4.132271779565574e-01 8.284457462432936e-01 -4.139661462445721e-01 3.421980270351736e-02 7.874790460928092e-03
3.852925000000000e+10 8.576768945019578e-02 2.123538566626408e-02 8.278476375989732e-01 -4.136320182667715e-01 8.282210231884600e-01 -4.143715992690327e-01 3.233985158175429e-02 4.914889172615883e-03
3.857111875000000e+10 8.563394606071995e-02 1.736719531501759e-02 8.276287280592057e-01 -4.140366534296214e-01 8.279966944048884e-01 -4.147768011055894e-01 3.036302310438273e-02 5.823202314096870e-03
3.861298750000000e+10 9.497036030406468e-02 6.728586695163640e-03 8.274103142666198e-01 -4.144410760001888e-01 8.277727716320727e-01 -4.151817442048638e-01 2.903822296263347e-02 3.110981739058793e-03
3.865485625000000e+10 1.013300707178163e-01 1.095205370235278e-02 8.271924051018397e-01 -4.148452784100769e-01 8.275492668223314e-01 -4.155864208545431e-01 2.656361132879635e-02 5.349135111911603e-03
3.869672500000000e+10 1.021356297482696e-01 1.331637219622440e-02 8.269750097590861e-01 -4.152492530258323e-01 8.273261922539817e-01 -4.159908232760752e-01 2.813121409027147e-02 6.440117688804128e-03
3.873859375000000e+10 1.032676036569374e-01 1.938660082195180e-02 8.267581373577447e-01 -4.156529919992601e-01 8.271035601885481e-01 -4.163949435354345e-01 2.862482399483459e-02 6.488643549393141e-03
3.878046250000000e+10 9.864233419523430e-02 1.953652873905155e-02 8.265417970286952e-01 -4.160564873340377e-01 8.268813829116863e-01 -4.167987735318434e-01 3.030818740137164e-02 7.051200268118478e-03
3.882233125000000e+10 9.682539572952779e-02 2.447965344000227e-02 8.263259978271773e-01 -4.164597309971168e-01 8.266596726462258e-01 -4.172023050794592e-01 3.179582325465748e-02 3.772328823281917e-03
3.886420000000000e+10 8.828431338163917e-02 2.145242876575957e-02 8.261107486624215e-01 -4.168627151483738e-01 8.264384414663585e-01 -4.176055301473582e-01 3.145343237515064e-02 4.492568965268318e-03
3.890606875000000e+10 8.602037300056598e-02 2.380634947115656e-02 8.258960581340357e-01 -4.172654322916771e-01 8.262177011300145e-01 -4.180084410469441e-01 3.427518878715589e-02 -1.428693434483968e-04
3.894793750000000e+10 7.540094460952181e-02 1.243427225975728e-02 8.256819345193157e-01 -4.176678752916633e-01 8.259974630809852e-01 -4.184110304415151e-01 3.068857012743884e-02 -1.265288142297960e-03
3.898980625000000e+10 8.149777637222154e-02 9.584838806594095e-03 8.254683857334832e-01 -4.180700376270389e-01 8.257777383902709e-01 -4.188132916507837e-01 2.980181901211695e-02 -3.371358166148449e-04
3.903167500000000e+10 8.885147915025667e-02 3.659381113495862e-04 8.252554191440139e-01 -4.184719133335038e-01 8.255585375501961e-01 -4.192152185878319e-01 2.563027009856512e-02 -5.822560573556907e-04
3.907354375000000e+10 9.715700845202203e-02 1.124320744829494e-02 8.250430415533109e-01 -4.188734965957300e-01 8.253398704336142e-01 -4.196168053662018e-01 2.491338006028766e-02 3.270398182190823e-03
3.911541250000000e+10 9.777551749903411e-02 9.682083720419923e-03 8.248312594698964e-01 -4.192747813626099e-01 8.251217465882758e-01 -4.200180459615590e-01 2.609913881346297e-02 5.774197882922785e-03
3.915728125000000e+10 1.031664589289219e-01 2.153962678493558e-02 8.246200789514992e-01 -4.196757611772016e-01 8.249041750466528e-01 -4.204189340440351e-01 2.385125668623560e-02 8.196893342516396e-03
3.919915000000000e+10 9.646242317231581e-02 1.978194443245167e-02 8.244095059535681e-01 -4.200764290187277e-01 8.246871647424011e-01 -4.208194626979687e-01 2.759982076070482e-02 6.391516589628016e-03
3.924101875000000e+10 9.649557808295239e-02 1.938948962144494e-02 8.241995462972945e-01 -4.204767775039032e-01 8.244707244656656e-01 -4.212196245326281e-01 2.521786623654550e-02 5.833698683190172e-03
3.928288750000000e+10 9.182928847923871e-02 2.187132948387592e-02 8.239902057690299e-01 -4.208767992248266e-01 8.242548629704249e-01 -4.216194120852954e-01 2.868290727441297e-02 7.531667838156370e-03
3.932475625000000e+10 9.552476388431554e-02 2.044533957632782e-02 8.237814898200887e-01 -4.212764868385748e-01 8.240395886600543e-01 -4.220188179237228e-01 2.818126568482159e-02 6.707030225680017e-03
3.936662500000000e+10 9.328933651596247e-02 2.780930157068657e-02 8.235734034217778e-01 -4.216758330371139e-01 8.238249094686376e-01 -4.224178346397156e-01 2.882740514188950e-02 8.216156140202782e-03
3.940849375000000e+10 9.068367297532055e-02 2.323833548249481e-02 8.233659511586446e-01 -4.220748303230444e-01 8.236108329335489e-01 -4.228164546281614e-01 3.175117559951803e-02 4.956486541918651e-03
3.945036250000000e+10 9.256339499536444e-02 2.373483721191989e-02 8.231591373349981e-01 -4.224734711856751e-01 8.233973662722969e-01 -4.232146702894912e-01 3.029769950485371e-02 6.300026474266840e-03
3.949223125000000e+10 8.894695589621943e-02 2.186946505621400e-02 8.229529663429047e-01 -4.228717481343377e-01 8.231845167551685e-01 -4.236124740917213e-01 3.255160384544992e-02 4.109943794322687e-03
3.953410000000000e+10 9.187565803867946e-02 2.034998980776204e-02 8.227474424588732e-01 -4.232696537420962e-01 8.229722915262503e-01 -4.240098585899131e-01 2.936002073046505e-02 4.679669158260845e-03
3.957596875000000e+10 8.579286262564295e-02 2.075691747702088e-02 8.225425699108923e-01 -4.236671808020661e-01 8.227606976452110e-01 -4.244068166038163e-01 3.121513548605270e-02 5.197258392219530e-03
3.961783750000000e+10 9.248577909730123e-02 1.124727928901688e-02 8.223383527296135e-01 -4.240643223012325e-01 8.225497419775259e-01 -4.248033411706484e-01 2.721314512457419e-02 3.625487186204613e-03
3.965970625000000e+10 9.693023521825124e-02 1.752901457668176e-02 8.221347945457546e-01 -4.244610714072980e-01 8.223394309540746e-01 -4.251994255910067e-01 2.767357021264256e-02 4.916341594921795e-03
3.970157500000000e+10 9.858055831616315e-02 1.751850535485951e-02 8.219318988083395e-01 -4.248574212159863e-01 8.221297708039984e-01 -4.255950631175564e-01 2.997248187075794e-02 3.875135155198413e-03
3.974344375000000e+10 9.629975497472275e-02 2.182538600588261e-02 8.217296689905590e-01 -4.252533648495442e-01 8.219207677627151e-01 -4.259902470846116e-01 2.829298623598828e-02 5.800889179546610e-03
3.978531250000000e+10 1.000706117067601e-01 1.781635226389677e-02 8.215281086134902e-01 -4.256488954324342e-01 8.217124280556348e-01 -4.263849709270361e-01 3.132884612487693e-02 6.579988816597117e-03
3.982718125000000e+10 1.027420815766491e-01 2.247094931458101e-02 8.213272210645047e-01 -4.260440061352754e-01 8.215047577247584e-01 -4.267792281898361e-01 2.875393837896709e-02 6.502364260882032e-03
3.986905000000000e+10 1.006928267063982e-01 1.838320734705625e-02 8.211270098808316e-01 -4.264386900196019e-01 8.212977629164022e-01 -4.271730124075988e-01 3.005871894453513e-02 6.095244850186173e-03
3.991091875000000e+10 1.057619367582187e-01 1.769888934579615e-02 8.209274785658517e-01 -4.268329399709352e-01 8.210914497300342e-01 -4.275663169467899e-01 3.004963789120263e-02 2.218735190594213e-03
3.995278750000000e+10 1.009279457002958e-01 2.255146507205346e-02 8.207286307658778e-01 -4.272267488918847e-01 8.208858243730746e-01 -4.279591352221020e-01 3.017247589131014e-02 4.843861454776666e-03
3.999465625000000e+10 9.954458299457032e-02 1.599425801514390e-02 8.205304705800733e-01 -4.276201097400203e-01 8.206808933939213e-01 -4.283514608038390e-01 3.132763910113864e-02 3.641067708623719e-03
4.003652500000000e+10 1.099186101095724e-01 1.958645882113490e-02 8.203330021343836e-01 -4.280130157045873e-01 8.204766633700123e-01 -4.287432875663200e-01 2.842925840501848e-02 6.186395084098344e-03
4.007839375000000e+10 1.027131755264610e-01 2.179181271567223e-02 8.201362298097545e-01 -4.284054601629913e-01 8.202731411101939e-01 -4.291346096707585e-01 3.128570540640995e-02 4.697963519725702e-03
4.012026250000000e+10 1.066788712617610e-01 1.838279006307229e-02 8.199401582260095e-01 -4.287974364860114e-01 8.200703336294700e-01 -4.295254213147510e-01 2.842684599973005e-02 3.563614319709433e-03
4.016213125000000e+10 1.037540447723542e-01 2.415355296927185e-02 8.197447921145479e-01 -4.291889382447391e-01 8.198682479969743e-01 -4.299157169876436e-01 2.900801462879084e-02 3.962471843598603e-03
4.020400000000000e+10 9.609494613021423e-02 2.000371995040234e-02 8.195501365290006e-01 -4.295799593000268e-01 8.196668915301976e-01 -4.303054915345573e-01 2.905722208744664e-02 -1.239560343490986e-03
4.024586875000000e+10 9.862109793665301e-02 1.644907095182298e-02 8.193561966613492e-01 -4.299704941314990e-01 8.194662716404011e-01 -4.306947404164193e-01 2.700016141916334e-02 2.527044694056134e-03
4.028773750000000e+10 9.547353199435230e-02 2.221643074893843e-02 8.191629777971259e-01 -4.303605382578634e-01 8.192663957462882e-01 -4.310834601235714e-01 2.816357049927112e-02 1.940630367018737e-05
4.032960625000000e+10 9.260864334184009e-02 1.544584294411630e-02 8.189704849697980e-01 -4.307500881149439e-01 8.190672709714798e-01 -4.314716480741090e-01 2.684628815442963e-02 6.969163475332201e-04
4.037147500000000e+10 9.632664786475865e-02 1.460496771529591e-02 8.187787229885594e-01 -4.311391409183903e-01 8.188689041450198e-01 -4.318593025309491e-01 2.634633412852193e-02 2.210964411265186e-03
4.041334375000000e+10 9.658259543656522e-02 1.605017818830685e-02 8.185876963893590e-01 -4.315276949053612e-01 8.186713017420222e-01 -4.322464228320387e-01 2.366519790029457e-02 2.352878922572908e-03
4.045521250000000e+10 9.480939931066373e-02 1.458024199784597e-02 8.183974093378424e-01 -4.319157492137853e-01 8.184744697464513e-01 -4.326330092197868e-01 2.446619526826972e-02 4.781948995252559e-03
4.049708125000000e+10 9.792590747336292e-02 2.101010746704712e-02 8.182078653712840e-01 -4.323033038068082e-01 8.182784134409844e-01 -4.330190627657010e-01 2.489153646044670e-02 4.231072965317122e-03
4.053895000000000e+10 9.435095357514718e-02 2.119091288262256e-02 8.180190672365215e-01 -4.326903593093951e-01 8.180831372688067e-01 -4.334045851698939e-01 2.470194318145016e-02 8.833810662665380e-03
4.058081875000000e+10 9.893414953053767e-02 2.558424464287738e-02 8.178310170401043e-01 -4.330769167916231e-01 8.178886449907286e-01 -4.337895785732165e-01 2.713724109039871e-02 7.783249373827262e-03
4.062268750000000e+10 9.364948112469160e-02 2.730341345924052e-02 8.176437161214295e-01 -4.334629776206042e-01 8.176949395114461e-01 -4.341740454185549e-01 2.580362288392280e-02 8.063732030087860e-03
4.066455625000000e+10 8.693018864840454e-02 2.867800556787665e-02 8.174571652378823e-01 -4.338485433895496e-01 8.175020231196195e-01 -4.345579883591320e-01 2.843764016945855e-02 6.039399618284171e-03
4.070642500000000e+10 8.407217164213594e-02 2.198563413769412e-02 8.172713644526842e-01 -4.342336160209434e-01 8.173098973567636e-01 -4.349414103603207e-01 2.682228035060859e-02 5.257749038982214e-03
4.074829375000000e+10 8.280512404652965e-02 1.986527481034750e-02 8.170863131389594e-01 -4.346181978537583e-01 8.171185630527402e-01 -4.353243148151351e-01 2.604893572187757e-02 6.929263987068716e-03
4.079016250000000e+10 8.935536069414916e-02 1.529637498345099e-02 8.169020099307162e-01 -4.350022917319303e-01 8.169280202416882e-01 -4.357067056396093e-01 2.534270300758640e-02 6.626942620933468e-03
4.083203125000000e+10 8.867279391089787e-02 1.692354096125695e-02 8.167184525746287e-01 -4.353859009657376e-01 8.167382680702011e-01 -4.360885871989981e-01 2.400198950196826e-02 8.520434231937610e-03
4.087390000000000e+10 9.682070628072541e-02 1.836114714427382e-02 8.165356379868899e-01 -4.357690292711099e-01 8.165493048221256e-01 -4.364699642474283e-01 2.547825255614724e-02 9.519509967574905e-03
4.091576875000000e+10 9.291161802593949e-02 2.545833923352500e-02 8.163535621509042e-01 -4.361516807743489e-01 8.163611278042143e-01 -4.368508419763927e-01 2.413592004090989e-02 1.000715549276226e-02
4.095763750000000e+10 9.460253478052087e-02 2.225255523853868e-02 8.161722202141543e-01 -4.365338599080913e-01 8.161737334571757e-01 -4.372312258607183e-01 2.619465855735014e-02 1.152241464904934e-02
4.099950625000000e+10 9.479944470582427e-02 2.956828344858601e-02 8.159916062796817e-01 -4.369155713246090e-01 8.159871171878342e-01 -4.376111215821507e-01 2.621226571986553e-02 1.106615961007506e-02
4.104137500000000e+10 9.145629846056572e-02 2.664902141162946e-02 8.158117135325896e-01 -4.372968198580227e-01 8.158012734699001e-01 -4.379905349339122e-01 2.663666289022158e-02 1.194419636507599e-02
4.108324375000000e+10 9.330299084558748e-02 2.875791991056999e-02 8.156325342404226e-01 -4.376776103333032e-01 8.156161958276786e-01 -4.383694716052461e-01 2.880001888089256e-02 1.163431745855632e-02
4.112511250000000e+10 8.966047460113641e-02 2.748480696294002e-02 8.154540597953066e-01 -4.380579475587840e-01 8.154318768728339e-01 -4.387479372478686e-01 2.774954173151556e-02 1.161592845673446e-02
4.116698125000000e+10 9.302392253112757e-02 2.847756190955916e-02 8.152762806962531e-01 -4.384378363032486e-01 8.152483082923166e-01 -4.391259374230870e-01 2.958238505679274e-02 1.166045723914137e-02
4.120885000000000e+10 9.072021349049658e-02 2.991231165605736e-02 8.150991865623890e-01 -4.388172813833522e-01 8.150654809395119e-01 -4.395034776463151e-01 2.902189615369277e-02 9.009920178050228e-03
4.125071875000000e+10 8.412744644459798e-02 3.086587214581285e-02 8.149227662098369e-01 -4.391962876911453e-01 8.148833848920183e-01 -4.398805634383119e-01 2.961956300144763e-02 9.032540245465312e-03
4.129258750000000e+10 8.446515996673734e-02 2.177711901744549e-02 8.147470075502680e-01 -4.395748602486658e-01 8.147020092927821e-01 -4.402572004373151e-01 2.846502552158170e-02 4.560662048767796e-03
4.133445625000000e+10 8.300315315263222e-02 1.767848143068425e-02 8.145718975949700e-01 -4.399530041216048e-01 8.145213423716208e-01 -4.406333943140764e-01 2.643733853020146e-02 4.879990604672522e-03
4.137632500000000e+10 9.144846991583051e-02 1.637622173307481e-02 8.143974225945978e-01 -4.403307246685665e-01 8.143413715817451e-01 -4.410091510255712e-01 2.778530189975455e-02 5.499626985860520e-03
4.141819375000000e+10 8.829728463829499e-02 2.460089633850131e-02 8.142235679474622e-01 -4.407080277458301e-01 8.141620835463211e-01 -4.413844770027940e-01 2.620159246872288e-02 7.437249489480951e-03
4.146006250000000e+10 8.919291896206452e-02 2.320736676469250e-02 8.140503181138055e-01 -4.410849194852665e-01 8.139834639761859e-01 -4.417593789540119e-01 2.856316577695216e-02 1.019278336548081e-02
4.150193125000000e+10 9.170843754935908e-02 2.724302254000289e-02 8.138776564735982e-01 -4.414614062639672e-01 8.138054975123667e-01 -4.421338638046558e-01 2.890878068352754e-02 9.458394512457731e-03
4.154380000000000e+10 9.394236443276222e-02 2.792010841689245e-02 8.137055653518268e-01 -4.418374944528711e-01 8.136281677719006e-01 -4.425079384838633e-01 2.932329579117618e-02 1.202320491493729e-02
4.158566875000000e+10 9.171683658569779e-02 2.883124797298451e-02 8.135340264012323e-01 -4.422131903762781e-01 8.134514577719130e-01 -4.428816099008672e-01 3.111412495144613e-02 8.652870865444889e-03
4.162753750000000e+10 9.153121514532186e-02 2.762003471683833e-02 8.133630206411834e-01 -4.425885002904967e-01 8.132753499548521e-01 -4.432548848625778e-01 2.946871555393247e-02 1.066852380499139e-02
4.166940625000000e+10 8.514569773354093e-02 2.883870389679931e-02 8.131925286169573e-01 -4.429634305577699e-01 8.130998263290276e-01 -4.436277702770433e-01 3.103818851742890e-02 8.545609155622910e-03
4.171127500000000e+10 9.189911647320162e-02 1.777133909227329e-02 8.130225302095514e-01 -4.433379875584744e-01 8.129248682560674e-01 -4.440002730322806e-01 2.738826100775621e-02 1.009057799640972e-02
4.175314375000000e+10 9.704207848792586e-02 2.745062149526893e-02 8.128530046757452e-01 -4.437121777208723e-01 8.127504565080000e-01 -4.443724000585427e-01 2.990830513001570e-02 9.022139631742209e-03
4.179501250000000e+10 9.534530545025517e-02 2.444129430816530e-02 8.126839306394651e-01 -4.440860073090787e-01 8.125765712918152e-01 -4.447441581081530e-01 2.985016690416537e-02 7.688403711880076e-03
4.183688125000000e+10 9.350966673507792e-02 2.794714356641096e-02 8.125152861366387e-01 -4.444594824144273e-01 8.124031922593221e-01 -4.451155538094113e-01 2.948775362996213e-02 9.603659854862924e-03
4.187875000000000e+10 9.563688877241371e-02 2.642591107279879e-02 8.123470488020672e-01 -4.448326090784432e-01 8.122302986461652e-01 -4.454865937285592e-01 3.030407180275032e-02 8.574277020516949e-03
4.192061875000000e+10 9.351505882529010e-02 2.594768361188029e-02 8.121791957343428e-01 -4.452053932343249e-01 8.120578692526025e-01 -4.458572842930534e-01 2.886495426813493e-02 7.318836130723471e-03
4.196248750000000e+10 9.311769835652624e-02 3.069161623358378e-02 8.120117037017672e-01 -4.455778406770020e-01 8.118858825810860e-01 -4.462276317915157e-01 3.005561341827776e-02 7.227367110579205e-03
4.200435625000000e+10 8.385659518025201e-02 2.545892602959118e-02 8.118445490053526e-01 -4.459499571767540e-01 8.117143167036437e-01 -4.465976424944285e-01 2.764090083242816e-02 5.416748841185980e-03
4.204622500000000e+10 8.941899906227643e-02 2.175813882902480e-02 8.116777073994423e-01 -4.463217484164138e-01 8.115431490994007e-01 -4.469673225668010e-01 2.829313628714920e-02 6.625508152375926e-03
4.208809375000000e+10 8.836892653084315e-02 1.955112820301097e-02 8.115111540993074e-01 -4.466932200368803e-01 8.113723567736114e-01 -4.473366781135804e-01 2.497155794324256e-02 6.297346455452681e-03
4.212996250000000e+10 9.597923489811672e-02 2.165549367975902e-02 8.113448639673361e-01 -4.470643778237096e-01 8.112019160102015e-01 -4.477057153044136e-01 2.435211126608282e-02 8.889885397134333e-03
4.217183125000000e+10 9.307220311807275e-02 2.094741274202126e-02 8.111788114503043e-01 -4.474352274564193e-01 8.110318025541837e-01 -4.480744401596967e-01 2.515085250412023e-02 6.367892813689938e-03
4.221370000000000e+10 9.859482117058896e-02 2.080433429955021e-02 8.110129707182159e-01 -4.478057743133563e-01 8.108619918648871e-01 -4.484428584117288e-01 2.377099243147609e-02 8.403555253544697e-03
4.225556875000000e+10 9.553097639597570e-02 2.601641897857205e-02 8.108473158258649e-01 -4.481760237202084e-01 8.106924592172032e-01 -4.488109756908479e-01 2.544678518659532e-02 8.188212645905244e-03
4.229743750000000e+10 9.281807389277626e-02 2.005489553268373e-02 8.106818204760622e-01 -4.485459807070191e-01 8.105231796870204e-01 -4.491787975016650e-01 2.406811584913984e-02 8.551678839259285e-03
4.233930625000000e+10 1.051918906284802e-01 2.359798275689422e-02 8.105164581313622e-01 -4.489156503618414e-01 8.103541280775797e-01 -4.495463294878034e-01 2.371806758035613e-02 1.191768809199670e-02
4.238117500000000e+10 9.606522747571018e-02 2.515557101321618e-02 8.103512020919938e-01 -4.492850377645744e-01 8.101852790522888e-01 -4.499135771406927e-01 2.380850896200374e-02 9.075482314495188e-03
4.242304375000000e+10 1.013455962098611e-01 2.466301340300485e-02 8.101860256835295e-01 -4.496541480167435e-01 8.100166070838976e-01 -4.502805457292037e-01 2.589638901074051e-02 1.047261735849554e-02
4.246491250000000e+10 1.109636774795331e-01 3.300542757457288e-02 8.100209024412099e-01 -4.500229866051849e-01 8.098480866808068e-01 -4.506472404566008e-01 2.934271044829932e-02 1.488675084109174e-02
4.250678125000000e+10 9.967798271066856e-02 2.854052704556581e-02 8.098558057581596e-01 -4.503915598536543e-01 8.096796918446691e-01 -4.510136672574693e-01 3.305034502919904e-02 1.573083412524420e-02
4.254865000000000e+10 9.707677804537074e-02 2.430327724209686e-02 8.096907091154905e-01 -4.507598742370573e-01 8.095113966016815e-01 -4.513798319012435e-01 3.848970176335151e-02 9.100432072372617e-03
4.259051875000000e+10 9.311824085216613e-02 3.379547254969698e-02 8.095255862242720e-01 -4.511279363801165e-01 8.093431748622626e-01 -4.517457406959062e-01 5.342857293378506e-02 1.187354418578583e-02
4.263238750000000e+10 9.621572724265989e-02 3.338117571970448e-02 8.093604110937753e-01 -4.514957535583013e-01 8.091750004462281e-01 -4.521114000172587e-01 5.895195064590473e-02 1.423462515683726e-02
4.267425625000000e+10 9.233999302777197e-02 3.777116022271838e-02 8.091951586282787e-01 -4.518633333147234e-01 8.090068479500840e-01 -4.524768165130322e-01 5.981212368122998e-02 1.228889969641255e-02
4.271612500000000e+10 9.011058494987008e-02 3.053213076259755e-02 8.090298047564122e-01 -4.522306832459436e-01 8.088386930421044e-01 -4.528419968358880e-01 5.850199284771710e-02 1.025367771084790e-02
4.275799375000000e+10 9.454326210170495e-02 2.794370531426001e-02 8.088643264580989e-01 -4.525978111525656e-01 8.086705123917419e-01 -4.532069479287071e-01 5.746084524764773e-02 1.107768583230594e-02
4.279986250000000e+10 9.073842547570311e-02 3.610191696253974e-02 8.086987015695305e-01 -4.529647252227055e-01 8.085022835353082e-01 -4.535716771604590e-01 5.693386271398607e-02 1.286453197648490e-02
4.284173125000000e+10 8.935692517629984e-02 2.808752615759633e-02 8.085329086145648e-01 -4.533314339483899e-01 8.083339846725196e-01 -4.539361923496223e-01 5.791036469166692e-02 1.279144944933927e-02
4.288360000000000e+10 9.060436845831298e-02 2.878451210375374e-02 8.083669266413219e-01 -4.536979459748711e-01 8.081655944978243e-01 -4.543005015909432e-01 5.663885928474723e-02 1.202516773565416e-02
4.292546875000000e+10 9.467714415330442e-02 2.757970398493709e-02 8.082007354006399e-01 -4.540642701129415e-01 8.079970923898135e-01 -4.546646132785090e-01 5.551390032229216e-02 1.465967708867536e-02
4.296733750000000e+10 8.853157965686986e-02 3.266999508678672e-02 8.080343152815048e-01 -4.544304154269010e-01 8.078284583578785e-01 -4.550285362124852e-01 5.685208740607633e-02 1.358521359019180e-02
4.300920625000000e+10 9.263755646939861e-02 2.380114077697343e-02 8.078676472957783e-01 -4.547963911050701e-01 8.076596729764616e-01 -4.553922794306171e-01 5.474433296103396e-02 1.402062800252536e-02
4.305107500000000e+10 9.485410671652858e-02 3.099926933298268e-02 8.077007130514672e-01 -4.551622065574875e-01 8.074907173183832e-01 -4.557558523299823e-01 5.363694484046125e-02 1.635115995528984e-02
4.309294375000000e+10 9.012266626207940e-02 2.936013856581934e-02 8.075334949019510e-01 -4.555278715235856e-01 8.073215731462818e-01 -4.561192647060524e-01 5.335796164799432e-02 1.587745221615572e-02
4.313481250000000e+10 9.555167274764323e-02 2.539769942448800e-02 8.073659756298698e-01 -4.558933958988753e-01 8.071522225398144e-01 -4.564825266763802e-01 5.308815187842685e-02 1.816649004378510e-02
4.317668125000000e+10 9.598697681881371e-02 3.225303476357758e-02 8.071981384392840e-01 -4.562587898023379e-01 8.069826479232224e-01 -4.568456486976438e-01 5.369248557188954e-02 1.792996408463811e-02
4.321855000000000e+10 9.720818696509800e-02 3.169154566300001e-02 8.070299669610912e-01 -4.566240633899957e-01 8.068128320540965e-01 -4.572086413444840e-01 5.374571651725392e-02 1.846964712355122e-02
4.326041875000000e+10 9.484850520502590e-02 3.325117769349566e-02 8.068614452548277e-01 -4.569892267798963e-01 8.066427579951322e-01 -4.575715153038925e-01 5.379121320535882e-02 2.071298935350393e-02
4.330228750000000e+10 1.014466620173875e-01 3.614725613503209e-02 8.066925579272873e-01 -4.573542901430016e-01 8.064724092463530e-01 -4.579342813613279e-01 5.319296064981861e-02 2.169817180538449e-02
4.334415625000000e+10 9.408081778782813e-02 3.629128099848930e-02 8.065232899728710e-01 -4.577192637102008e-01 8.063017695981750e-01 -4.582969503930400e-01 5.423884784366528e-02 2.306314633945315e-02
4.338602500000000e+10 1.033613645929778e-01 4.391747572389507e-02 8.063536266833808e-01 -4.580841574353099e-01 8.061308230245211e-01 -4.586595330881203e-01 5.591358892559197e-02 2.378030006233811e-02
4.342789375000000e+10 8.759510521787971e-02 3.917087583524918e-02 8.061835537161207e-01 -4.584489812416956e-01 8.059595537793577e-01 -4.590220402420638e-01 5.625649820520967e-02 2.337186357094558e-02
4.346976250000000e+10 1.042481070096538e-01 4.047146726618502e-02 8.060130569827343e-01 -4.588137446950694e-01 8.057879462782772e-01 -4.593844824108592e-01 5.769137713349044e-02 2.354138238446539e-02
4.351163125000000e+10 9.277821906304209e-02 4.397605780768481e-02 8.058421226775256e-01 -4.591784573289690e-01 8.056159851423307e-01 -4.597468701939477e-01 5.701761746240439e-02 2.306478013013526e-02
4.355350000000000e+10 9.539328162037451e-02 4.095771312670946e-02 8.056707374451121e-01 -4.595431281241438e-01 8.054436554107040e-01 -4.601092137422028e-01 5.979252405085332e-02 2.436003649247186e-02
4.359536875000000e+10 9.660249833119845e-02 3.403826796591217e-02 8.054988882818470e-01 -4.599077658058627e-01 8.052709424091765e-01 -4.604715230710759e-01 5.723937427121184e-02 2.163242114453892e-02
4.363723750000000e+10 1.040458193146845e-01 4.285049195095849e-02 8.053265625082896e-01 -4.602723787567338e-01 8.050978317260077e-01 -4.608338079648667e-01 5.942115297230826e-02 2.498608294287012e-02
4.367910625000000e+10 9.794240574066247e-02 4.504860272751662e-02 8.051537478880213e-01 -4.606369751283796e-01 8.049243093690758e-01 -4.611960780065543e-01 6.002589585368787e-02 2.415033803753159e-02
4.372097500000000e+10 9.805817040969678e-02 4.238839633398060e-02 8.049804325142991e-01 -4.610015625706215e-01 8.047503616876543e-01 -4.615583424425001e-01 5.798777263427311e-02 2.463378792735730e-02
4.376284375000000e+10 9.319229360224494e-02 4.534751269169837e-02 8.048066048920998e-01 -4.613661484000869e-01 8.045759753991368e-01 -4.619206102976017e-01 6.249678963970415e-02 2.155867392910417e-02
4.380471250000000e+10 9.548093606728372e-02 3.084668554641190e-02 8.046322538288280e-01 -4.617307396874106e-01 8.044011375322798e-01 -4.622828903426421e-01 6.013039613399102e-02 2.048477233368599e-02
4.384658125000000e+10 1.033689250468861e-01 3.783810814473925e-02 8.044573684378442e-01 -4.620953432205652e-01 8.042258352975568e-01 -4.626451911612434e-01 6.241188336966767e-02 2.241874175530694e-02
4.388845000000000e+10 1.029305586805946e-01 3.359472451881911e-02 8.042819384342036e-01 -4.624599656353529e-01 8.040500564373237e-01 -4.630075212830368e-01 5.909624872768588e-02 2.193781934691602e-02
4.393031875000000e+10 1.063155776690326e-01 3.990379779982525e-02 8.041059540007744e-01 -4.628246132557781e-01 8.038737890187195e-01 -4.633698890368589e-01 6.047274552247213e-02 2.507824093920071e-02
4.397218750000000e+10 1.079656059738627e-01 3.909081890234404e-02 8.039294057731191e-01 -4.631892921509288e-01 8.036970215256510e-01 -4.637323025916821e-01 5.988972516434730e-02 2.318446654826532e-02
4.401405625000000e+10 1.030361012672841e-01 4.137043243461147e-02 8.037522847447823e-01 -4.635540079918116e-01 8.035197427884098e-01 -4.640947697742664e-01 5.827294158654270e-02 2.464541368976994e-02
4.405592500000000e+10 1.091734429350922e-01 4.112589318896397e-02 8.035745823483955e-01 -4.639187660629224e-01 8.033419420731915e-01 -4.644572980855071e-01 6.050681713433791e-02 2.489746323388859e-02
4.409779375000000e+10 1.026241612121033e-01 4.319812904099701e-02 8.033962903007335e-01 -4.642835714342846e-01 8.031636089477573e-01 -4.648198948146822e-01 6.016887086150658e-02 2.354960379913612e-02
4.413966250000000e+10 1.055246956165444e-01 4.389862182757250e-02 8.032174007080745e-01 -4.646484287629917e-01 8.029847333898252e-01 -4.651825668218910e-01 6.314252557571774e-02 2.515461671440396e-02
4.418153125000000e+10 1.018784604598229e-01 4.193285371172294e-02 8.030379060288936e-01 -4.650133424777928e-01 8.028053056924600e-01 -4.655453207527108e-01 6.124650463215542e-02 2.379915495560912e-02
4.422340000000000e+10 1.010367980270411e-01 4.423160438422160e-02 8.028577989171340e-01 -4.653783166143357e-01 8.026253163457895e-01 -4.659081628959876e-01 6.257482511457903e-02 2.449864630200205e-02
4.426526875000000e+10 1.028030034076280e-01 3.487193421367910e-02 8.026770723579588e-01 -4.657433548298818e-01 8.024447562232537e-01 -4.662710991403832e-01 6.144432011782600e-02 2.349588450613499e-02
4.430713750000000e+10 1.064840196195350e-01 4.712919716975488e-02 8.024957195627429e-01 -4.661084604504849e-01 8.022636164599375e-01 -4.666341350135276e-01 6.013674925196000e-02 2.532354951384109e-02
4.434900625000000e+10 1.022516238021932e-01 4.047723209789727e-02 8.023137341852130e-01 -4.664736365151462e-01 8.020818887473486e-01 -4.669972757224740e-01 6.226100598911111e-02 2.401132884570630e-02
4.439087500000000e+10 1.025348025856031e-01 4.685156819292199e-02 8.021311102493729e-01 -4.668388856821906e-01 8.018995651633826e-01 -4.673605260267522e-01 5.876208628197895e-02 2.433517725983175e-02
4.443274375000000e+10 9.910242756229694e-02 4.050432671842137e-02 8.019478421871055e-01 -4.672042105369311e-01 8.017166381869676e-01 -4.677238905188758e-01 6.236998663453347e-02 2.726422747626772e-02
4.447461250000000e+10 1.044196332580390e-01 4.354286271962861e-02 8.017639244679590e-01 -4.675696133533948e-01 8.015331003907550e-01 -4.680873733915981e-01 6.105815618005578e-02 2.636675830416283e-02
4.451648125000000e+10 1.045978285276643e-01 4.707877322951885e-02 8.015793517058414e-01 -4.679350960342755e-01 8.013489445126001e-01 -4.684509783460646e-01 6.473183352037468e-02 2.838855892083823e-02
4.455835000000000e+10 9.922779585489472e-02 4.532861247866894e-02 8.013941187697033e-01 -4.683006598723538e-01 8.011641635915694e-01 -4.688147083443944e-01 6.564043430028720e-02 2.460361222253107e-02
4.460021875000000e+10 1.039051105791483e-01 4.500922878923944e-02 8.012082209138838e-01 -4.686663055918740e-01 8.009787510109491e-01 -4.691785656763245e-01 6.257306064450412e-02 2.633305756289358e-02
4.464208750000000e+10 9.587568164007244e-02 4.824738624664125e-02 8.010216536970211e-01 -4.690320335773492e-01 8.007927004461461e-01 -4.695425521827451e-01 6.601782195021007e-02 2.437588639116127e-02
4.468395625000000e+10 9.607024248038462e-02 4.153425881800234e-02 8.008344130016029e-01 -4.693978439252473e-01 8.006060058446025e-01 -4.699066693557276e-01 6.167010134819222e-02 2.431042351482814e-02
4.472582500000000e+10 9.791806210393678e-02 4.336613203318566e-02 8.006464947507265e-01 -4.697637364224797e-01 8.004186611374579e-01 -4.702709182463078e-01 6.440124574505494e-02 2.620472609413452e-02
4.476769375000000e+10 9.392652246455732e-02 4.548454661681887e-02 8.004578949219905e-01 -4.701297107419485e-01 8.002306603010632e-01 -4.706352996658769e-01 6.315450985166306e-02 2.400952313631406e-02
4.480956250000000e+10 1.020227268495548e-01 3.965076410580418e-02 8.002686092887809e-01 -4.704957662080077e-01 8.000419972646062e-01 -4.709998139861593e-01 6.492999020341340e-02 2.816112284481561e-02
4.485143125000000e+10 1.005743398353466e-01 4.997353188760966e-02 8.000786337010418e-01 -4.708619018698260e-01 7.998526661001624e-01 -4.713644612260454e-01 6.471232403056532e-02 2.398897350029671e-02
4.489330000000000e+10 9.950540573328832e-02 4.028137761596826e-02 7.998879643499972e-01 -4.712281162940357e-01 7.996626613064117e-01 -4.717292408129120e-01 6.434755878387081e-02 2.678410387646140e-02
4.493516875000000e+10 1.015518609510575e-01 4.933890926742436e-02 7.996965978553785e-01 -4.715944077646914e-01 7.994719778261563e-01 -4.720941518188057e-01 6.552291491956062e-02 2.812503529658079e-02
4.497703750000000e+10 1.007117753670091e-01 4.714989430604321e-02 7.995045309567500e-01 -4.719607745532088e-01 7.992806107639795e-01 -4.724591932282616e-01 6.470992138173666e-02 2.774292755808098e-02
4.501890625000000e+10 9.906015522100887e-02 5.384198584357953e-02 7.993117602119330e-01 -4.723272145084780e-01 7.990885550461050e-01 -4.728243635074166e-01 6.887177369872885e-02 2.714362665849075e-02
4.506077500000000e+10 9.014861604879561e-02 4.596905210038584e-02 7.991182823096035e-01 -4.726937249330297e-01 7.988958057743770e-01 -4.731896604695985e-01 6.835815199047419e-02 2.202630142775301e-02
4.510264375000000e+10 9.370435194479103e-02 4.325880852664277e-02 7.989240939588809e-01 -4.730603023311947e-01 7.987023581471056e-01 -4.735550810419568e-01 6.711923763277422e-02 2.292085313428219e-02
4.514451250000000e+10 8.903054024875126e-02 3.788457795439277e-02 7.987291922102516e-01 -4.734269428894767e-01 7.985082077447717e-01 -4.739206215722664e-01 6.590052510187704e-02 2.053015849481731e-02
4.518638125000000e+10 1.000458117543885e-01 3.079646574110716e-02 7.985335743032275e-01 -4.737936425192797e-01 7.983133503795531e-01 -4.742862779606915e-01 6.279280562699673e-02 2.305363434866902e-02
4.522825000000000e+10 1.034246648475067e-01 4.026134949638785e-02 7.983372376882374e-01 -4.741603970232456e-01 7.981177820959986e-01 -4.746520458592090e-01 6.462203021743605e-02 2.189111448407834e-02
4.527011875000000e+10 1.031545086936917e-01 3.670830303663355e-02 7.981401801439552e-01 -4.745272019991952e-01 7.979214993181531e-01 -4.750179206055626e-01 6.288970567668134e-02 2.372793166826591e-02
4.531198750000000e+10 1.064178906615527e-01 4.303668201907652e-02 7.979423998531892e-01 -4.748940529494378e-01 7.977244989084241e-01 -4.753838972425078e-01 6.611203197889437e-02 2.641341223594217e-02
4.535385625000000e+10 1.046512376737426e-01 4.606006282790835e-02 7.977438952346232e-01 -4.752609452559227e-01 7.975267780542292e-01 -4.757499705798999e-01 6.714987299020087e-02 2.666883961303363e-02
4.539572500000000e+10 1.052951196072304e-01 4.924158099789464e-02 7.975446648865517e-01 -4.756278738811185e-01 7.973283341821401e-01 -4.761161348993507e-01 6.731230864074493e-02 2.772520522043244e-02
4.543759375000000e+10 1.005444836210292e-01 5.463486549506108e-02 7.973447077946078e-01 -4.759948334114772e-01 7.971291651276809e-01 -4.764823840478846e-01 6.858683325276549e-02 2.593361822388345e-02
4.547946250000000e+10 9.646112051745616e-02 5.041009328308712e-02 7.971440232540710e-01 -4.763618180511023e-01 7.969292690674941e-01 -4.768487114153346e-01 6.861861187761380e-02 2.510058448702063e-02
4.552133125000000e+10 9.627709239997073e-02 5.295806818519182e-02 7.969426108246787e-01 -4.767288216172705e-01 7.967286444833594e-01 -4.772151099275386e-01 7.283590137390451e-02 2.273495392257328e-02
4.556320000000000e+10 9.202503381832440e-02 4.649505011175133e-02 7.967404702785217e-01 -4.770958376123582e-01 7.965272901209713e-01 -4.775815721193799e-01 7.053932105862015e-02 2.074892488402297e-02
4.560506875000000e+10 9.448030396208949e-02 4.255153151375287e-02 7.965376017315678e-01 -4.774628593336632e-01 7.963252051522536e-01 -4.779480902104862e-01 7.096153397522587e-02 1.998027220979216e-02
4.564693750000000e+10 9.441154435519902e-02 4.281280927024635e-02 7.963340056748408e-01 -4.778298801515625e-01 7.961223891592397e-01 -4.783146563409664e-01 6.961203337157569e-02 1.884582320481660e-02
4.568880625000000e+10 1.005815233648351e-01 3.683099927086045e-02 7.961296828687716e-01 -4.781968935606392e-01 7.959188420520373e-01 -4.786812626453164e-01 6.957055978441193e-02 1.906950896060025e-02
4.573067500000000e+10 9.869646982044286e-02 4.648067545963468e-02 7.959246344429455e-01 -4.785638932785122e-01 7.957145641660169e-01 -4.790479013834217e-01 7.103526265659664e-02 1.897085264149030e-02
4.577254375000000e+10 9.319666534099053e-02 3.763885415250422e-02 7.957188618094477e-01 -4.789308732956697e-01 7.955095562265324e-01 -4.794145649786727e-01 6.839057236846624e-02 1.851206387241798e-02
4.581441250000000e+10 9.838841516361577e-02 4.280813532290869e-02 7.955123665019954e-01 -4.792978277206752e-01 7.953038190679219e-01 -4.797812459112275e-01 6.916741878266604e-02 1.824396879370889e-02
4.585628125000000e+10 9.491060502061975e-02 3.492281307210835e-02 7.953051501647120e-01 -4.796647510697954e-01 7.950973536502550e-01 -4.801479370519464e-01 6.656686666161100e-02 1.772123580207553e-02
4.589815000000000e+10 1.031697037768109e-01 3.390045828340891e-02 7.950972145037204e-01 -4.800316381806629e-01 7.948901610268860e-01 -4.805146315033972e-01 6.836986213006485e-02 1.868415579116136e-02
4.594001875000000e+10 1.063117697122928e-01 3.936228196170462e-02 7.948885613590652e-01 -4.803984842582931e-01 7.946822423931430e-01 -4.808813226444533e-01 6.675573282488809e-02 1.816667535487800e-02
4.598188750000000e+10 1.019308465037054e-01 3.941842903288884e-02 7.946791926684218e-01 -4.807652846622063e-01 7.944735990831302e-01 -4.812480039422289e-01 6.995373419622232e-02 1.953124781429191e-02
4.602375625000000e+10 1.099117492877560e-01 4.181297125756236e-02 7.944691105405126e-01 -4.811320348331031e-01 7.942642327759910e-01 -4.816146689748610e-01 7.046876163610395e-02 1.969515061772222e-02
4.606562500000000e+10 9.946517327162369e-02 4.375913849548863e-02 7.942583172933086e-01 -4.814987302781100e-01 7.940541453864890e-01 -4.819813113320257e-01 7.068445192324409e-02 1.812212979328720e-02
4.610749375000000e+10 1.047530664332963e-01 3.779716164048652e-02 7.940468155258017e-01 -4.818653665023137e-01 7.938433391582772e-01 -4.823479244956941e-01 7.026441144710394e-02 1.793193217217812e-02
4.614936250000000e+10 1.016644075154348e-01 3.778911681962761e-02 7.938346080035114e-01 -4.822319391393315e-01 7.936318165803440e-01 -4.827145020136940e-01 6.957546910899225e-02 1.734445467963331e-02
4.619123125000000e+10 1.072381930778375e-01 3.620589593782723e-02 7.936216976699257e-01 -4.825984438540514e-01 7.934195803709256e-01 -4.830810374160618e-01 6.900837357782509e-02 1.592155087265468e-02
4.623310000000000e+10 1.063137125323054e-01 3.784824162893420e-02 7.934080876876523e-01 -4.829648763240882e-01 7.932066335190885e-01 -4.834475241656643e-01 6.914569678588077e-02 1.624016315085844e-02
4.627496875000000e+10 1.040635737719416e-01 3.694445452113732e-02 7.931937815901806e-01 -4.833312321668656e-01 7.929929794415144e-01 -4.838139556012885e-01 6.850063638914969e-02 1.594910763814711e-02
4.631683750000000e+10 1.089777067289846e-01 3.629364726353918e-02 7.929787832927295e-01 -4.836975069851766e-01 7.927786219541230e-01 -4.841803250902906e-01 6.874437453490120e-02 1.628029963014039e-02
4.635870625000000e+10 1.028631653089691e-01 3.943013077192175e-02 7.927630970871181e-01 -4.840636963665161e-01 7.925635653169206e-01 -4.845466259984418e-01 6.878314934436321e-02 1.450988634702826e-02
4.640057500000000e+10 1.042951155140719e-01 3.448058243127751e-02 7.925467277079720e-01 -4.844297958020233e-01 7.923478143002041e-01 -4.849128516333741e-01 6.825757941025512e-02 1.428182476748410e-02
4.644244375000000e+10 1.014281152625012e-01 3.849791764297608e-02 7.923296802166276e-01 -4.847958008529804e-01 7.921313740468118e-01 -4.852789953902822e-01 6.874222891989160e-02 1.299594099631166e-02
4.648431250000000e+10 9.630604299002135e-02 3.312951942572206e-02 7.921119600578362e-01 -4.851617071946722e-01 7.919142501169880e-01 -4.856450508015376e-01 6.667819553568596e-02 1.239394038874716e-02
4.652618125000000e+10 1.031406434315020e-01 2.900905597383428e-02 7.918935728958507e-01 -4.855275107559688e-01 7.916964482829495e-01 -4.860110117440691e-01 6.709893505107667e-02 1.290504560023142e-02
4.656805000000000e+10 1.005371641270117e-01 3.705700753879211e-02 7.916745244617407e-01 -4.858932078919595e-01 7.914779744408938e-01 -4.863768725601277e-01 6.661206032022837e-02 1.270093425108615e-02
4.660991875000000e+10 1.016742935040758e-01 2.633607300038193e-02 7.914548206513230e-01 -4.862587952040597e-01 7.912588346823366e-01 -4.867426279209874e-01 6.573491183840816e-02 1.337853210182064e-02
4.665178750000000e+10 1.051187868773182e-01 3.723878663706050e-02 7.912344674794636e-01 -4.866242694758920e-01 7.910390352439880e-01 -4.871082728030259e-01 6.582613414660578e-02 1.339861217103732e-02
4.669365625000000e+10 9.930049681301263e-02 3.093536207596144e-02 7.910134712373402e-01 -4.869896277973606e-01 7.908185826072471e-01 -4.874738025608858e-01 6.559499091223359e-02 1.463932936357576e-02
4.673552500000000e+10 1.058893032698546e-01 2.858106796896444e-02 7.907918383735887e-01 -4.873548675166665e-01 7.905974834281732e-01 -4.878392128633732e-01 6.584832152003506e-02 1.467933319969529e-02
4.677739375000000e+10 1.075584895884971e-01 3.550729411823427e-02 7.905695755291509e-01 -4.877199863491629e-01 7.903757445267804e-01 -4.882044998412899e-01 6.503375782103576e-02 1.431931698573813e-02
4.681926250000000e+10 9.755641460656181e-02 2.886810472688323e-02 7.903466895538866e-01 -4.880849822022888e-01 7.901533729022896e-01 -4.885696599517446e-01 6.460582963972177e-02 1.399198313452377e-02
4.686113125000000e+10 1.063418181649899e-01 3.211836433725625e-02 7.901231872836360e-01 -4.884498532827833e-01 7.899303755414628e-01 -4.889346900353809e-01 6.383090263326920e-02 1.354485655870544e-02
4.690300000000000e+10 9.612775395586279e-02 2.936114443208391e-02 7.898990754061109e-01 -4.888145983874126e-01 7.897067593158160e-01 -4.892995876426259e-01 6.404799359021962e-02 1.502289791727270e-02
4.694486875000000e+10 1.092854018172634e-01 2.526470594683956e-02 7.896743602188491e-01 -4.891792165814213e-01 7.894825307103132e-01 -4.896643506687531e-01 6.267125962839258e-02 1.394349662915979e-02
4.698673750000000e+10 1.059820840391022e-01 3.185537858736602e-02 7.894490479330769e-01 -4.895437072281665e-01 7.892576961124359e-01 -4.900289773656650e-01 6.287609245582367e-02 1.714396138871458e-02
4.702860625000000e+10 1.066799699572055e-01 3.219284667056688e-02 7.892231447557783e-01 -4.899080697895840e-01 7.890322618807883e-01 -4.903934661846111e-01 6.347691736297267e-02 1.842730570757107e-02
4.707047500000000e+10 1.089326468626858e-01 3.361458006291588e-02 7.889966566671419e-01 -4.902723038244339e-01 7.888062341075415e-01 -4.907578157697828e-01 6.490140789899441e-02 1.807800507400044e-02
4.711234375000000e+10 1.072612094934196e-01 3.730288657689059e-02 7.887695893964755e-01 -4.906364087009648e-01 7.885796185996570e-01 -4.911220246471391e-01 6.576027987215827e-02 1.800388001757322e-02
4.715421250000000e+10 1.079668988145429e-01 3.728221969735649e-02 7.885419486314668e-01 -4.910003836064164e-01 7.883524210949761e-01 -4.914860911970949e-01 6.550369918158898e-02 1.665883790741627e-02
4.719608125000000e+10 1.036241819046991e-01 3.737711528412296e-02 7.883137400031910e-01 -4.913642275710945e-01 7.881246472488312e-01 -4.918500137521776e-01 6.681326247545960e-02 1.850447204110858e-02
4.723795000000000e+10 1.084343813453825e-01 3.590225953601187e-02 7.880849691456977e-01 -4.917279396825056e-01 7.878963026727164e-01 -4.922137907643989e-01 6.838177513125969e-02 1.722004928027816e-02
4.727981875000000e+10 1.057783788059207e-01 3.914530957742673e-02 7.878556414878159e-01 -4.920915189154415e-01 7.876673927008151e-01 -4.925774206204760e-01 6.676334027435991e-02 1.731315521495920e-02
4.732168750000000e+10 1.059385176043564e-01 3.736212583239006e-02 7.876257625551040e-01 -4.924549639791941e-01 7.874379226802336e-01 -4.929409014997064e-01 6.691088610398960e-02 1.721319135372813e-02
4.736355625000000e+10 1.052258509150971e-01 4.173675304995240e-02 7.873953379733039e-01 -4.928182735139449e-01 7.872078979841209e-01 -4.933042315183911e-01 6.775357879479808e-02 1.687300599964172e-02
4.740542500000000e+10 9.903989570789769e-02 3.766308449965301e-02 7.871643735492272e-01 -4.931814460495753e-01 7.869773240740356e-01 -4.936674086593219e-01 6.894375466021781e-02 1.555518462189939e-02
4.744729375000000e+10 1.027617020337700e-01 3.585959925038752e-02 7.869328751609086e-01 -4.935444799328213e-01 7.867462064075749e-01 -4.940304306600395e-01 6.836984436576860e-02 1.217247099207267e-02
4.748916250000000e+10 9.549861795191499e-02 3.175193862519343e-02 7.867008488148758e-01 -4.939073734852446e-01 7.865145505258059e-01 -4.943932952346475e-01 6.665397182148704e-02 1.432781185915607e-02
4.753103125000000e+10 1.088291810568371e-01 3.115568270040349e-02 7.864683007648772e-01 -4.942701252769977e-01 7.862823621023478e-01 -4.947560004060828e-01 6.545956927368100e-02 1.419026477711882e-02
4.757290000000000e+10 1.003864585633173e-01 3.546123903482729e-02 7.862352371132609e-01 -4.946327342926055e-01 7.860496466919176e-01 -4.951185445807941e-01 6.436123660996415e-02 1.455964256965738e-02
4.761476875000000e+10 1.059444516986574e-01 2.915070206637367e-02 7.860016641253749e-01 -4.949951996100249e-01 7.858164099823193e-01 -4.954809262294833e-01 6.516242144216647e-02 1.517641371485757e-02
4.765663750000000e+10 1.077955104856362e-01 3.378035562539057e-02 7.857675880244219e-01 -4.953575204970955e-01 7.855826575120000e-01 -4.958431440773345e-01 6.383778007367502e-02 1.532174962559271e-02
4.769850625000000e+10 1.091060285304147e-01 3.597277057425716e-02 7.855330152483204e-01 -4.957196962598162e-01 7.853483949845754e-01 -4.962051969154430e-01 6.494427512149825e-02 1.523132526429487e-02
4.774037500000000e+10 1.048710860426528e-01 3.654196184947719e-02 7.852979524210226e-01 -4.960817261373526e-01 7.851136282850337e-01 -4.965670834807484e-01 6.462570281395376e-02 1.544674854376495e-02
4.778224375000000e+10 1.063461016058875e-01 3.810287670003831e-02 7.850624064691402e-01 -4.964436093820172e-01 7.848783635824058e-01 -4.969288024371851e-01 6.482835905609596e-02 1.673708465581543e-02
4.782411250000000e+10 1.032477541212306e-01 3.403118864261540e-02 7.848263845233662e-01 -4.968053452714286e-01 7.846426072437853e-01 -4.972903524337450e-01 6.528403473441174e-02 1.452478632638558e-02
4.786598125000000e+10 1.097261324923551e-01 3.026972224234321e-02 7.845898940760913e-01 -4.971669329579615e-01 7.844063660155393e-01 -4.976517320024583e-01 6.263675139763096e-02 1.602646238281530e-02
4.790785000000000e+10 1.108268442502980e-01 3.520243323726307e-02 7.843529429731916e-01 -4.975283717917095e-01 7.841696470610182e-01 -4.980129399038454e-01 6.294352291763253e-02 1.668801276409318e-02
4.794971875000000e+10 1.132562910801159e-01 3.575733599202259e-02 7.841155394438799e-01 -4.978896612667414e-01 7.839324579224562e-01 -4.983739751426931e-01 6.214108056053497e-02 1.667807063942463e-02
4.799158750000000e+10 1.114361680673638e-01 3.549692616504290e-02 7.838776921677335e-01 -4.982508008773000e-01 7.836948066132969e-01 -4.987348367968324e-01 6.294762326055600e-02 1.770967607381331e-02
4.803345625000000e+10 1.189802523955397e-01 4.062858846643218e-02 7.836394103089863e-01 -4.986117902370480e-01 7.834567016184343e-01 -4.990955241786312e-01 6.292671379923451e-02 1.863181720827807e-02
4.807532500000000e+10 1.076312829496396e-01 4.545270787199174e-02 7.834007034681886e-01 -4.989726291206100e-01 7.832181519197863e-01 -4.994560368598884e-01 6.358432387895400e-02 1.752006997918345e-02
4.811719375000000e+10 1.084005531402849e-01 4.054276647205895e-02 7.831615816412314e-01 -4.993333173794839e-01 7.829791669087254e-01 -4.998163745881163e-01 6.472559010504818e-02 1.771737289691572e-02
4.815906250000000e+10 1.038402307860902e-01 4.373264409759828e-02 7.829220548618313e-01 -4.996938550415423e-01 7.827397560968810e-01 -5.001765373569900e-01 6.403772965877695e-02 1.696575883947304e-02
4.820093125000000e+10 1.040758527243506e-01 3.463409573579621e-02 7.826821333123066e-01 -5.000542423155875e-01 7.824999291919971e-01 -5.005365254267082e-01 6.388145232555870e-02 1.743574937412460e-02
4.824280000000000e+10 1.131073292748630e-01 3.574698264868592e-02 7.824418272526533e-01 -5.004144796423523e-01 7.822596960029984e-01 -5.008963394129615e-01 6.281054508668453e-02 1.648870561322625e-02
4.828466875000000e+10 1.078274068959201e-01 4.070901488708081e-02 7.822011472508523e-01 -5.007745679297674e-01 7.820190666871308e-01 -5.012559804848080e-01 6.122452933944521e-02 1.740792028562965e-02
4.832653750000000e+10 1.095028904747603e-01 3.992427692677267e-02 7.819601042098809e-01 -5.011345084673371e-01 7.817780517549811e-01 -5.016154502805465e-01 6.287204468932427e-02 1.808737236337759e-02
4.836840625000000e+10 1.047218247159909e-01 3.903667294120856e-02 7.817187091201980e-01 -5.014943030256566e-01 7.815366617926286e-01 -5.019747510108810e-01 6.136265772742634e-02 1.586363900990780e-02
4.841027500000000e+10 1.034707962866428e-01 3.507872202415419e-02 7.814769731876382e-01 -5.018539536828194e-01 7.812949076227919e-01 -5.023338852604805e-01 6.071572168408447e-02 1.740664160014346e-02
4.845214375000000e+10 1.060372893043798e-01 3.143605440763099e-02 7.812349076439282e-01 -5.022134631227555e-01 7.810528001321830e-01 -5.026928562508777e-01 5.898079975426742e-02 1.730015083285105e-02
4.849401250000000e+10 1.091776635390156e-01 3.890240875940403e-02 7.809925235707413e-01 -5.025728346875608e-01 7.808103500354990e-01 -5.030516678942136e-01 5.981142113247392e-02 1.996613694140054e-02
4.853588125000000e+10 1.072405053884007e-01 3.107637201952409e-02 7.807498320613888e-01 -5.029320721962629e-01 7.805675681638982e-01 -5.034103246423881e-01 5.867027024180363e-02 1.985720177609318e-02
4.857775000000000e+10 1.154398116386815e-01 3.697976443622283e-02 7.805068442660658e-01 -5.032911798146124e-01 7.803244654623595e-01 -5.037688312908234e-01 5.949338803863903e-02 2.172432420185946e-02
4.861961875000000e+10 1.104790371248936e-01 3.801180192526567e-02 7.802635714376994e-01 -5.036501622642245e-01 7.800810530343084e-01 -5.041271931626473e-01 6.024064221509195e-02 2.138262735251129e-02
4.866148750000000e+10 1.098824465347535e-01 4.246725213333829e-02 7.800200249231547e-01 -5.040090245779985e-01 7.798373421092104e-01 -5.044854158392582e-01 6.013209625018323e-02 2.304233981755647e-02
4.870335625000000e+10 1.036134264020655e-01 4.006078333982062e-02 7.797762159763233e-01 -5.043677722108962e-01 7.795933438630070e-01 -5.048435053011612e-01 6.248855001719284e-02 2.234043282593438e-02
4.874522500000000e+10 1.065249139584887e-01 3.882384487560498e-02 7.795321555911999e-01 -5.047264110143123e-01 7.793490692235635e-01 -5.052014679023438e-01 6.133736507837224e-02 2.249374014856995e-02
4.878709375000000e+10 1.071294499404499e-01 3.932211712047790e-02 7.792878544264672e-01 -5.050849474267505e-01 7.791045287684210e-01 -5.055593105348469e-01 6.165480524380620e-02 2.358540608898049e-02
4.882896250000000e+10 1.046685303104142e-01 4.167189579932129e-02 7.790433228481183e-01 -5.054433884045686e-01 7.788597328060940e-01 -5.059170405266353e-01 6.121556987007309e-02 2.395801085808232e-02
4.887083125000000e+10 1.053144306507761e-01 4.129956984149451e-02 7.787985707874018e-01 -5.058017413781452e-01 7.786146912276154e-01 -5.062746656032286e-01 5.988169898996280e-02 2.511102752662781e-02
4.891270000000000e+10 1.044220085548684e-01 4.008386024781364e-02 7.785536077005656e-01 -5.061600141388560e-01 7.783694135118359e-01 -5.066321937225070e-01 6.081380000140505e-02 2.605014664931304e-02
4.895456875000000e+10 1.080263654497132e-01 3.773760402628450e-02 7.783084426318447e-01 -5.065182148160168e-01 7.781239087606379e-01 -5.069896330697743e-01 5.970184963643995e-02 2.617006416421274e-02
4.899643750000000e+10 1.144609196941535e-01 3.964518497739352e-02 7.780630842254421e-01 -5.068763517475036e-01 7.778781857248699e-01 -5.073469920108540e-01 6.193861961576307e-02 2.833851027188377e-02
4.903830625000000e+10 1.123386909524823e-01 5.140595752304721e-02 7.778175407619103e-01 -5.072344334131327e-01 7.776322528487819e-01 -5.077042790431394e-01 6.083625294404061e-02 2.803495170766944e-02
4.908017500000000e+10 1.055283811457126e-01 4.511473759362064e-02 7.775718202829823e-01 -5.075924682238467e-01 7.773861184136023e-01 -5.080615025684641e-01 6.315822299811692e-02 2.878569084419362e-02
4.912204375000000e+10 1.104064476800037e-01 4.834797422695233e-02 7.773259304393980e-01 -5.079504643019916e-01 7.771397904163148e-01 -5.084186706893948e-01 6.362403561639152e-02 2.742211960228036e-02
4.916391250000000e+10 1.071324275710242e-01 4.967117375906318e-02 7.770798784321469e-01 -5.083084296134839e-01 7.768932764799446e-01 -5.087757913070164e-01 6.475141651035601e-02 2.907301080892082e-02
4.920578125000000e+10 1.034662960203619e-01 5.223099173879900e-02 7.768336711264220e-01 -5.086663718476139e-01 7.766465839750104e-01 -5.091328720691367e-01 6.626456592536477e-02 2.712973587267605e-02
4.924765000000000e+10 1.003569177796721e-01 4.970546703433031e-02 7.765873148672021e-01 -5.090242983155419e-01 7.763997198916832e-01 -5.094899202487039e-01 6.492562789898504e-02 2.582885969209121e-02
4.928951875000000e+10 9.638019972859016e-02 4.442856742485603e-02 7.763408155684920e-01 -5.093822159268010e-01 7.761526909264159e-01 -5.098469426342683e-01 6.570432081209676e-02 2.594794335547464e-02
4.933138750000000e+10 1.046972175725381e-01 3.994648500774924e-02 7.760941787487852e-01 -5.097401314132159e-01 7.759055035107688e-01 -5.102039457878345e-01 6.398343724710924e-02 2.610699646137556e-02
4.937325625000000e+10 1.000727871688576e-01 4.812582700621348e-02 7.758474093221185e-01 -5.100980514562717e-01 7.756581635211355e-01 -5.105609362553946e-01 6.449410042310270e-02 2.778786845229855e-02
4.941512500000000e+10 1.033755487049368e-01 4.012773803931932e-02 7.756005117493195e-01 -5.104559825980379e-01 7.754106764824115e-01 -5.109179204710552e-01 6.418046053975532e-02 2.687401273033940e-02
4.945699375000000e+10 1.040320210774977e-01 4.260361353127359e-02 7.753534899786108e-01 -5.108139311751514e-01 7.751630475559509e-01 -5.112749046588483e-01 6.511685228875036e-02 2.823915758137571e-02
4.949886250000000e+10 1.107038441867571e-01 4.465267707343054e-02 7.751063475281192e-01 -5.111719033524263e-01 7.749152815566239e-01 -5.116318948670679e-01 6.538581022045353e-02 2.889463879984783e-02
4.954073125000000e+10 1.033254808821492e-01 4.949716377004455e-02 7.748590874907765e-01 -5.115299049693804e-01 7.746673829805008e-01 -5.119888968205895e-01 6.580461845134877e-02 2.964795731296465e-02
4.958260000000000e+10 1.068958533931206e-01 4.915931050636847e-02 7.746117127713420e-01 -5.118879414269460e-01 7.744193562463464e-01 -5.123459158059253e-01 6.845129217632238e-02 2.868692758561299e-02
4.962446875000000e+10 9.966035594198794e-02 4.534665242984512e-02 7.743642259468143e-01 -5.122460176827814e-01 7.741712055336462e-01 -5.127029566365419e-01 6.727956411238330e-02 2.646889269830237e-02
4.966633750000000e+10 1.058188918862960e-01 4.368861848047718e-02 7.741166294574411e-01 -5.126041383352237e-01 7.739229349986035e-01 -5.130600237672018e-01 6.699784047359093e-02 2.738184012751838e-02
4.970820625000000e+10 9.965839359034843e-02 4.499275628688255e-02 7.738689254208984e-01 -5.129623079806916e-01 7.736745485579045e-01 -5.134171215904607e-01 6.648861714591971e-02 2.701965816439104e-02
4.975007500000000e+10 1.035167585502553e-01 4.496811236781782e-02 7.736211153293333e-01 -5.133205312697694e-01 7.734260498072392e-01 -5.137742545646061e-01 6.851234860219613e-02 2.720100291781059e-02
4.979194375000000e+10 9.922289760410899e-02 4.759942651173799e-02 7.733731999699009e-01 -5.136788127648502e-01 7.731774417677206e-01 -5.141314270805772e-01 6.895647650290326e-02 2.749033542627581e-02
4.983381250000000e+10 9.715483322211406e-02 4.337493741469153e-02 7.731251793620695e-01 -5.140371568056348e-01 7.729287268155511e-01 -5.144886433003313e-01 6.764047531863493e-02 2.685842816975736e-02
4.987568125000000e+10 1.030552617310916e-01 4.344833844412133e-02 7.728770528204674e-01 -5.143955675785736e-01 7.726799066292680e-01 -5.148459071899804e-01 6.918568836336363e-02 2.895693033023448e-02
4.991755000000000e+10 9.933996981595317e-02 4.863120729559092e-02 7.726288189133972e-01 -5.147540489672079e-01 7.724309821770698e-01 -5.152032224503907e-01 7.078803211369961e-02 2.788695939654241e-02
4.995941875000000e+10 1.002483986443470e-01 4.473038131962794e-02 7.723804755740069e-01 -5.151126043675498e-01 7.721819538264816e-01 -5.155605923140762e-01 7.101864340627555e-02 2.820375880318674e-02
5.000128750000000e+10 1.019522547162592e-01 4.543155935753555e-02 7.721320201348435e-01 -5.154712365112645e-01 7.719328213874713e-01 -5.159180193618269e-01 7.218093590708140e-02 2.570342822028022e-02
5.004315625000000e+10 1.017711883363898e-01 5.018860096325219e-02 7.718834494869049e-01 -5.158299475881716e-01 7.716835843157408e-01 -5.162755055585216e-01 7.330595907127699e-02 2.640191187294553e-02
5.008502500000000e+10 9.545546267721015e-02 4.566375811058378e-02 7.716347602645069e-01 -5.161887392505994e-01 7.714342418686418e-01 -5.166330522726736e-01 7.352324436518227e-02 2.531793079104604e-02
5.012689375000000e+10 1.005979688420141e-01 4.394954344090477e-02 7.713859489639260e-01 -5.165476126835026e-01 7.711847931889050e-01 -5.169906603723264e-01 7.305296385271871e-02 2.335818665938559e-02
5.016876250000000e+10 9.543941243886560e-02 4.092780236460884e-02 7.711370120456071e-01 -5.169065687844190e-01 7.709352374039758e-01 -5.173483303328960e-01 7.187177209743133e-02 2.277166804141286e-02
5.021063125000000e+10 1.010804011438472e-01 3.620739246732295e-02 7.708879460741236e-01 -5.172656083543550e-01 7.706855737314788e-01 -5.177060624886696e-01 7.134069869946755e-02 2.292144535172518e-02
5.025250000000000e+10 1.022898232120436e-01 3.631038781772274e-02 7.706387475585577e-01 -5.176247323665731e-01 7.704358013598491e-01 -5.180638573243298e-01 7.030436286695414e-02 2.364419567307155e-02
5.029436875000000e+10 1.056389225162404e-01 3.763220001938863e-02 7.703894128940155e-01 -5.179839420389831e-01 7.701859193062131e-01 -5.184217155660481e-01 7.034125747247705e-02 2.318428027549169e-02
5.033623750000000e+10 1.020730502210004e-01 3.722678743150570e-02 7.701399381990665e-01 -5.183432387579300e-01 7.699359262824944e-01 -5.187796381193258e-01 7.129486470523752e-02 2.406387407718064e-02
5.037810625000000e+10 1.091352924969294e-01 3.745379322765498e-02 7.698903193144303e-01 -5.187026238766759e-01 7.696858206902945e-01 -5.191376258619409e-01 7.135034450216200e-02 2.283279759015912e-02
5.041997500000000e+10 1.043899000144731e-01 4.340458158497544e-02 7.696405517993875e-01 -5.190620986183372e-01 7.694356006223512e-01 -5.194956795377075e-01 7.110198303094881e-02 2.311402746394306e-02
5.046184375000000e+10 1.034642447436045e-01 4.011371251563250e-02 7.693906310957125e-01 -5.194216641249513e-01 7.691852640367931e-01 -5.198537997623403e-01 7.258929802042031e-02 2.238219622751214e-02
5.050371250000000e+10 1.053762468631231e-01 3.781075410719838e-02 7.691405524995460e-01 -5.197813213536555e-01 7.689348087157409e-01 -5.202119869847610e-01 7.158289628809142e-02 2.207264141198472e-02
5.054558125000000e+10 1.040988698783266e-01 3.937722561543993e-02 7.688903113488620e-01 -5.201410710593791e-01 7.686842324710040e-01 -5.205702414445177e-01 7.284541091391351e-02 2.029334219684284e-02
5.058745000000000e+10 1.051777835496464e-01 3.970455995339362e-02 7.686399030340457e-01 -5.205009138940426e-01 7.684335331600413e-01 -5.209285632553866e-01 7.302629318465803e-02 2.108215432245394e-02
5.062931875000000e+10 9.836243335509008e-02 4.629262391126161e-02 7.683893227345684e-01 -5.208608504507350e-01 7.681827083860121e-01 -5.212869524884124e-01 7.285833903822976e-02 2.046097427874424e-02
5.067118750000000e+10 9.724596848443560e-02 3.788540330864271e-02 7.681385654397455e-01 -5.212208811412361e-01 7.679317555109817e-01 -5.216454091021022e-01 7.353680304025040e-02 1.899770788712158e-02
5.071305625000000e+10 9.878022703897109e-02 3.662928895485514e-02 7.678876259617559e-01 -5.215810061916091e-01 7.676806716425596e-01 -5.220039328767569e-01 7.073579973132256e-02 1.879885992803887e-02
5.075492500000000e+10 1.050541080276413e-01 3.449906051377880e-02 7.676364992602411e-01 -5.219412257574503e-01 7.674294538900244e-01 -5.223625236058757e-01 7.078501093879676e-02 1.986714070305737e-02
5.079679375000000e+10 1.016099733912021e-01 3.808639502038615e-02 7.673851803171151e-01 -5.223015400805013e-01 7.671780992952109e-01 -5.227211812179960e-01 6.897989639558748e-02 2.005963783747300e-02
5.083866250000000e+10 1.056909368837265e-01 3.132133304908497e-02 7.671336642437968e-01 -5.226619493705787e-01 7.669266049053601e-01 -5.230799056584375e-01 7.021524099345135e-02 1.737700220306450e-02
5.088053125000000e+10 1.069032722737451e-01 3.855366072657013e-02 7.668819462835085e-01 -5.230224538094672e-01 7.666749677975897e-01 -5.234386968395515e-01 6.941547104927843e-02 1.957251506161977e-02
5.092240000000000e+10 1.026861459000820e-01 3.268722817521948e-02 7.666300218896288e-01 -5.233830535739632e-01 7.664231851881704e-01 -5.237975546679350e-01 6.843976368625990e-02 1.837077401560755e-02
5.096426875000000e+10 1.121024591861953e-01 2.903188953509143e-02 7.663778867128963e-01 -5.237437488734507e-01 7.661712543811998e-01 -5.241564790873050e-01 6.768331938766342e-02 2.036622031905955e-02
5.100613750000000e+10 1.073550384639779e-01 3.746420929860117e-02 7.661255366139217e-01 -5.241045401635572e-01 7.659191727793285e-01 -5.245154703418478e-01 6.970659088882224e-02 1.906914313153209e-02
5.104800625000000e+10 1.089930100885961e-01 2.445620844780473e-02 7.658729675470456e-01 -5.244654278775253e-01 7.656669377109817e-01 -5.248745287009721e-01 6.786436306367638e-02 1.949538988041149e-02
5.108987500000000e+10 1.197185093570589e-01 3.239705549408935e-02 7.656201755491081e-01 -5.248264124866648e-01 7.654145464296561e-01 -5.252336545076366e-01 6.957924286697524e-02 2.085805632132055e-02
5.113174375000000e+10 1.136819694339767e-01 3.828718182203997e-02 7.653671568706947e-01 -5.251874945514109e-01 7.651619962117922e-01 -5.255928482696137e-01 6.813995977045083e-02 2.220059314770037e-02
5.117361250000000e+10 1.155978454473290e-01 2.935646355243864e-02 7.651139078914707e-01 -5.255486745157015e-01 7.649092842952775e-01 -5.259521105271342e-01 6.880569305701960e-02 1.987929659695132e-02
5.121548125000000e+10 1.191914686944473e-01 3.914465876369468e-02 7.648604249937400e-01 -5.259099528925528e-01 7.646564077814436e-01 -5.263114420050093e-01 6.956591930231261e-02 2.159246077151231e-02
5.125735000000000e+10 1.156018541491117e-01 3.305101131607462e-02 7.646067047804217e-01 -5.262713302265799e-01 7.644033637542433e-01 -5.266708435986573e-01 7.057014942302448e-02 2.125482025453940e-02
5.129921875000000e+10 1.178689191610403e-01 4.328417887041956e-02 7.643527438296440e-01 -5.266328068451878e-01 7.641501490881418e-01 -5.270303161216111e-01 7.207636170312813e-02 2.157742400569831e-02
5.134108750000000e+10 1.099220353917321e-01 3.796503727812694e-02 7.640985388692775e-01 -5.269943830659191e-01 7.638967605965996e-01 -5.273898604723808e-01 7.189317490613878e-02 2.203063683601759e-02
5.138295625000000e+10 1.096348146066401e-01 3.838131021725161e-02 7.638440864931521e-01 -5.273560589622036e-01 7.636431948128209e-01 -5.277494773192580e-01 7.206586812667372e-02 1.872885038388265e-02
5.142482500000000e+10 1.127965040906163e-01 2.838543458031934e-02 7.635893833817927e-01 -5.277178344861124e-01 7.633894482193954e-01 -5.281091672265543e-01 7.140812823100924e-02 1.922581397758815e-02
5.146669375000000e+10 1.140649608089330e-01 3.184255613710840e-02 7.633344263419892e-01 -5.280797095953893e-01 7.631355172853063e-01 -5.284689308199936e-01 7.263671615512372e-02 2.017311428105112e-02
5.150856250000000e+10 1.175194634533472e-01 3.100689122143919e-02 7.630792124708531e-01 -5.284416842707046e-01 7.628813985873811e-01 -5.288287687855455e-01 7.095325952495954e-02 1.960404775359268e-02
5.155043125000000e+10 1.145886057646419e-01 3.340092724179566e-02 7.628237390097170e-01 -5.288037583730354e-01 7.626270886664247e-01 -5.291886817388877e-01 7.179717021174395e-02 2.010240287926996e-02
5.159230000000000e+10 1.166421975312217e-01 3.520551503886282e-02 7.625680034523233e-01 -5.291659316806940e-01 7.623725841641849e-01 -5.295486703365538e-01 7.041737874857999e-02 1.958984350795562e-02
5.163416875000000e+10 1.084370550518459e-01 2.922745437208899e-02 7.623120035668781e-01 -5.295282040749012e-01 7.621178818425175e-01 -5.299087354006111e-01 6.981419628585063e-02 2.077955476562051e-02
5.167603750000000e+10 1.206231234839604e-01 2.738394242764447e-02 7.620557373399375e-01 -5.298905755872539e-01 7.618629784911172e-01 -5.302688779977885e-01 7.016838198944159e-02 2.144025597392786e-02
5.171790625000000e+10 1.201548722149550e-01 3.648761670780120e-02 7.617992028582279e-01 -5.302530466179719e-01 7.616078708271216e-01 -5.306290997514983e-01 6.975514367566338e-02 2.371689752378519e-02
5.175977500000000e+10 1.146827081394233e-01 3.092852093791642e-02 7.615423985980131e-01 -5.306156176227268e-01 7.613525557542907e-01 -5.309894025270582e-01 7.192878020697761e-02 2.499163362667151e-02
5.180164375000000e+10 1.303074261673101e-01 3.601239640991830e-02 7.612853230182992e-01 -5.309782889422726e-01 7.610970299597108e-01 -5.313497882378466e-01 7.107902846883273e-02 2.539156431242996e-02
5.184351250000000e+10 1.131499916054534e-01 4.362209105180740e-02 7.610279747827227e-01 -5.313410607661758e-01 7.608412902191233e-01 -5.317102588292810e-01 7.340426756678795e-02 2.548299197496316e-02
5.188538125000000e+10 1.215778995341376e-01 3.471610945836859e-02 7.607703528306486e-01 -5.317039327839568e-01 7.605853335046369e-01 -5.320708159078644e-01 7.399908025243948e-02 2.256469144435288e-02
5.192725000000000e+10 1.179424608679159e-01 3.762724025798214e-02 7.605124561223102e-01 -5.320669044272698e-01 7.603291567068232e-01 -5.324314611040858e-01 7.333909622771441e-02 2.406368512029700e-02
5.196911875000000e+10 1.122313725962267e-01 3.845142770105722e-02 7.602542841677394e-01 -5.324299750496976e-01 7.600727571616477e-01 -5.327921961856240e-01 7.259691789152130e-02 2.244373551590526e-02
5.201098750000000e+10 1.163226544313459e-01 2.646597624143323e-02 7.599958365607383e-01 -5.327931440317852e-01 7.598161321623038e-01 -5.331530232330065e-01 6.965725891918359e-02 2.508382508718200e-02
5.205285625000000e+10 1.210457884455358e-01 3.662283761090874e-02 7.597371128027145e-01 -5.331564109000374e-01 7.595592788149990e-01 -5.335139447725442e-01 7.147912366671234e-02 2.491448515287758e-02
5.209472500000000e+10 1.243501160090493e-01 2.919447346599042e-02 7.594781124936395e-01 -5.335197752748984e-01 7.593021942987158e-01 -5.338749636541649e-01 6.899808496819740e-02 2.483618987817213e-02
5.213659375000000e+10 1.166918759987158e-01 3.674653113432155e-02 7.592188353562344e-01 -5.338832366123321e-01 7.590448758646545e-01 -5.342360827120803e-01 7.198804487223859e-02 2.638882971115953e-02
5.217846250000000e+10 1.291357571845601e-01 2.317216903658456e-02 7.589592813446150e-01 -5.342467943267957e-01 7.587873209118633e-01 -5.345973048953082e-01 7.111584458925616e-02 2.520327977206508e-02
5.222033125000000e+10 1.300081509124085e-01 3.525887656305416e-02 7.586994503257288e-01 -5.346104474892855e-01 7.585295267008586e-01 -5.349586329202289e-01 7.238175880477649e-02 2.898764451951188e-02
5.226220000000000e+10 1.342681182863787e-01 4.043322540981532e-02 7.584393427218689e-01 -5.349741948726813e-01 7.582714910442513e-01 -5.353200693643992e-01 7.354782734084669e-02 2.856966917871444e-02
5.230406875000000e+10 1.250642750701503e-01 4.226101904935595e-02 7.581789590734512e-01 -5.353380347811331e-01 7.580132118978290e-01 -5.356816164530348e-01 7.466679250888683e-02 3.042164578649729e-02
5.234593750000000e+10 1.318056251356237e-01 4.510534589799200e-02 7.579183002215207e-01 -5.357019647958565e-01 7.577546874956308e-01 -5.360432757492214e-01 7.584553489971674e-02 2.908144632952779e-02
5.238780625000000e+10 1.202140247170016e-01 4.690969311080641e-02 7.576573671973436e-01 -5.360659819993739e-01 7.574959162380314e-01 -5.364050483761584e-01 7.454101705102353e-02 3.069607037496437e-02
5.242967500000000e+10 1.255533855409924e-01 4.380270410275412e-02 7.573961613993218e-01 -5.364300828185331e-01 7.572368968169797e-01 -5.367669348583347e-01 7.707944001628259e-02 2.910164660098694e-02
5.247154375000000e+10 1.244848584318667e-01 4.878561003893781e-02 7.571346841126051e-01 -5.367942633024223e-01 7.569776278022942e-01 -5.371289353901763e-01 7.468404384908034e-02 2.976314643493092e-02
5.251341250000000e+10 1.201434844757059e-01 4.509269763654081e-02 7.568729369541863e-01 -5.371585191195364e-01 7.567181080593369e-01 -5.374910497744728e-01 7.721149357756824e-02 3.050791330108725e-02
5.255528125000000e+10 1.233708264855049e-01 5.172509727863459e-02 7.566109214822736e-01 -5.375228457150379e-01 7.564583363281150e-01 -5.378532775427064e-01 7.632143781754477e-02 2.795955961473074e-02
5.259715000000000e+10 1.187145766321815e-01 4.314932901466955e-02 7.563486391342242e-01 -5.378872381881988e-01 7.561983111575638e-01 -5.382156178609102e-01 7.799396462606439e-02 2.840264824518264e-02
5.263901875000000e+10 1.223349332655562e-01 5.381377691628852e-02 7.560860913420755e-01 -5.382516911378021e-01 7.559380310459093e-01 -5.385780693096177e-01 7.884984785415111e-02 2.901033934323081e-02
5.268088750000000e+10 1.195330916029976e-01 4.185786767121300e-02 7.558232795615121e-01 -5.386161989626538e-01 7.556774944512046e-01 -5.389406301902163e-01 7.835101818494367e-02 2.790696494814337e-02
5.272275625000000e+10 1.188843657962112e-01 5.746092505780330e-02 7.555602052607500e-01 -5.389807554282413e-01 7.554166998291861e-01 -5.393032980857920e-01 8.002775181421060e-02 2.782472078210283e-02
5.276462500000000e+10 1.162650024183881e-01 4.044293763872268e-02 7.552968700855822e-01 -5.393453541174988e-01 7.551556457468688e-01 -5.396660703091334e-01 7.932201120393889e-02 2.701311546395983e-02
5.280649375000000e+10 1.257783015869338e-01 5.634509694280024e-02 7.550332755713565e-01 -5.397099879229902e-01 7.548943306264732e-01 -5.400289433363531e-01 8.161759487018122e-02 3.008543846787081e-02
5.284836250000000e+10 1.163592617840769e-01 4.839178399094732e-02 7.547694235631880e-01 -5.400746495898958e-01 7.546327532205439e-01 -5.403919133591785e-01 7.985963810251623e-02 2.667726479795543e-02
5.289023125000000e+10 1.271093436180905e-01 5.056183210336458e-02 7.545053163937830e-01 -5.404393311300490e-01 7.543709127540189e-01 -5.407549757309144e-01 8.070299523581029e-02 2.806292483313799e-02
5.293210000000000e+10 1.226480570238846e-01 5.923941364615998e-02 7.542409568100304e-01 -5.408040243373585e-01 7.541088088550829e-01 -5.411181254492690e-01 8.084974863555480e-02 2.605566430483808e-02
5.297396875000000e+10 1.161764793789196e-01 5.029511761947542e-02 7.539763484366615e-01 -5.411687207042163e-01 7.538464419990412e-01 -5.414813571309044e-01 8.015436901942682e-02 2.549173729212471e-02
5.301583750000000e+10 1.248704901723147e-01 5.334793649063532e-02 7.537114954467822e-01 -5.415334113743848e-01 7.535838132327742e-01 -5.418446649071631e-01 8.072676076625863e-02 2.435657679700800e-02
5.305770625000000e+10 1.153718882372771e-01 5.622715234929707e-02 7.534464025175509e-01 -5.418980876275149e-01 7.533209241084095e-01 -5.422080429026587e-01 8.040206173394383e-02 2.291386976124157e-02
5.309957500000000e+10 1.125459993593178e-01 4.844433050629728e-02 7.531810747704631e-01 -5.422627407778492e-01 7.530577767291011e-01 -5.425714851259540e-01 8.000823880707596e-02 2.082352377201332e-02
5.314144375000000e+10 1.176971688507303e-01 4.632818599643654e-02 7.529155173990870e-01 -5.426273623096600e-01 7.527943733794327e-01 -5.429349856722916e-01 7.935482107650414e-02 2.064535636509061e-02
5.318331250000000e+10 1.178597692969711e-01 4.890108143485391e-02 7.526497356021024e-01 -5.429919441606360e-01 7.525307164607070e-01 -5.432985390353988e-01 7.987220665066026e-02 2.322366333044374e-02
5.322518125000000e+10 1.168889845440907e-01 5.071681931271787e-02 7.523837345825232e-01 -5.433564787053580e-01 7.522668084331260e-01 -5.436621400530330e-01 7.939295245511015e-02 2.121963715393683e-02
5.326705000000000e+10 1.208287851887360e-01 5.207868775536803e-02 7.521175193819117e-01 -5.437209584861719e-01 7.520026517079280e-01 -5.440257836413009e-01 7.920771325267437e-02 2.335621937685993e-02
5.330891875000000e+10 1.136510817844329e-01 5.875285065777924e-02 7.518510949031562e-01 -5.440853762027913e-01 7.517382487067261e-01 -5.443894647812162e-01 8.083348178594794e-02 2.057641047448042e-02
5.335078750000000e+10 1.111721589280518e-01 5.120392145430093e-02 7.515844659656077e-01 -5.444497244124826e-01 7.514736019043358e-01 -5.447531782250704e-01 7.916724941908786e-02 1.941977983377870e-02
5.339265625000000e+10 1.078569786272223e-01 4.962902079968819e-02 7.513176373789094e-01 -5.448139954024618e-01 7.512087139036444e-01 -5.451169183479451e-01 7.897902971137613e-02 1.849402985179136e-02
5.343452500000000e+10 1.111195091882921e-01 4.799775053391177e-02 7.510506138557428e-01 -5.451781816135191e-01 7.509435873388089e-01 -5.454806795602217e-01 7.744735489933191e-02 1.796525265735768e-02
5.347639375000000e+10 1.095520283219866e-01 4.189471074114180e-02 7.507833999889939e-01 -5.455422756573083e-01 7.506782249078597e-01 -5.458444562961412e-01 7.724066597778961e-02 2.002506696992187e-02
5.351826250000000e+10 1.202578170003339e-01 5.138891581259963e-02 7.505160003444211e-01 -5.459062704365667e-01 7.504126294764664e-01 -5.462082431307572e-01 7.707274352353485e-02 2.003440753632117e-02
5.356013125000000e+10 1.101626130845598e-01 4.654920298956373e-02 7.502484193345517e-01 -5.462701592546014e-01 7.501468039642030e-01 -5.465720348993993e-01 7.692138501356650e-02 2.017322059238886e-02
5.360200000000000e+10 1.240185006383978e-01 5.626265080579067e-02 7.499806614877288e-01 -5.466339355319024e-01 7.498807515513363e-01 -5.469358263745002e-01 7.829210675273748e-02 1.970085338334149e-02
5.364386875000000e+10 1.035248025923357e-01 6.178569722695838e-02 7.497127311885434e-01 -5.469975929138167e-01 7.496144753944877e-01 -5.472996123553046e-01 7.508430255736082e-02 1.978691346569370e-02
5.368573750000000e+10 1.043882920099928e-01 4.753266936751136e-02 7.494446331829739e-01 -5.473611250470745e-01 7.493479790906196e-01 -5.476633874032609e-01 7.666560944049268e-02 1.680479178090849e-02
5.372760625000000e+10 1.058976947125893e-01 5.093064917432928e-02 7.491763721242501e-01 -5.477245256000169e-01 7.490812662958141e-01 -5.480271459266443e-01 7.537456832177010e-02 1.619766692025075e-02
5.376947500000000e+10 1.013600017865233e-01 4.822080170285074e-02 7.489079525631865e-01 -5.480877885742955e-01 7.488143406963638e-01 -5.483908825347434e-01 7.454683509739092e-02 1.581631197760922e-02
5.381134375000000e+10 1.012208399428204e-01 4.484110298762484e-02 7.486393788572440e-01 -5.484509083500303e-01 7.485472059414278e-01 -5.487545920152428e-01 7.350902607841571e-02 1.279805444355274e-02
5.385321250000000e+10 1.051175237056071e-01 4.164363187426045e-02 7.483706550293932e-01 -5.488138797157323e-01 7.482798654851830e-01 -5.491182693783713e-01 7.172732228233607e-02 1.557478198203139e-02
5.389508125000000e+10 1.020159216193684e-01 4.585842091841644e-02 7.481017847608036e-01 -5.491766979821284e-01 7.480123225670213e-01 -5.494819099850446e-01 7.284165107323277e-02 1.459989057706233e-02
5.393695000000000e+10 1.037938902388982e-01 3.834041484233961e-02 7.478327713283441e-01 -5.495393587847904e-01 7.477445801481304e-01 -5.498455093336617e-01 7.251106392770025e-02 1.605480228536668e-02
5.397881875000000e+10 1.100016848208736e-01 4.015245547133433e-02 7.475636177813033e-01 -5.499018580435456e-01 7.474766410327806e-01 -5.502090630271986e-01 7.194613433074182e-02 1.623798652380891e-02
5.402068750000000e+10 1.120054660503961e-01 4.642652687422967e-02 7.472943269305607e-01 -5.502641921106688e-01 7.472085078545514e-01 -5.505725669513621e-01 7.146423448865190e-02 1.776380987626483e-02
5.406255625000000e+10 1.012121103879544e-01 4.277395002575179e-02 7.470249014936643e-01 -5.506263577562722e-01 7.469401832439688e-01 -5.509360172527787e-01 7.314466520837158e-02 1.719833384312344e-02
5.410442500000000e+10 1.113028420770682e-01 4.164290962166151e-02 7.467553440109225e-01 -5.509883520563529e-01 7.466716697094856e-01 -5.512994102309968e-01 6.974488207317310e-02 1.590286319307908e-02
5.414629375000000e+10 1.014875204088788e-01 4.309564158562260e-02 7.464856568313216e-01 -5.513501725504908e-01 7.464029695704039e-01 -5.516627424276004e-01 7.076026210744214e-02 1.715834202268325e-02
5.418816250000000e+10 1.101731686758685e-01 3.910939113318539e-02 7.462158421934673e-01 -5.517118173090098e-01 7.461340850635123e-01 -5.520260107572916e-01 7.073482059074573e-02 1.680744332951723e-02
5.423003125000000e+10 1.081871423127030e-01 4.399235525882932e-02 7.459459020133049e-01 -5.520732849086200e-01 7.458650181508928e-01 -5.523892125327211e-01 7.252167671652555e-02 1.818405200083650e-02
5.427190000000000e+10 1.057078092912133e-01 4.227999821737103e-02 7.456758380462579e-01 -5.524345743374643e-01 7.455957706588270e-01 -5.527523453017157e-01 7.113676213266412e-02 1.568201669892289e-02
5.431376875000000e+10 1.099528080412848e-01 4.557227502489441e-02 7.454056518865821e-01 -5.527956850665205e-01 7.453263443107859e-01 -5.531154068730102e-01 7.277350391491230e-02 1.709815513324689e-02
5.435563750000000e+10 9.634638033793258e-02 4.577226674484663e-02 7.451353450073956e-01 -5.531566169760825e-01 7.450567407573391e-01 -5.534783953400523e-01 7.381022954250382e-02 1.515221365627455e-02
5.439750625000000e+10 1.024232886193919e-01 3.689460321434161e-02 7.448649189011497e-01 -5.535173704518234e-01 7.447869617264338e-01 -5.538413092177171e-01 6.960498502305383e-02 1.399530928144481e-02
5.443937500000000e+10 9.568329387897274e-02 3.726513398862168e-02 7.445943748507159e-01 -5.538779465014015e-01 7.445170087492516e-01 -5.542041475100280e-01 7.099953639058970e-02 1.438940615523913e-02
5.448124375000000e+10 1.042954603842173e-01 2.249653837420442e-02 7.443237141026300e-01 -5.542383468737579e-01 7.442468833000646e-01 -5.545669098890369e-01 6.781524931611504e-02 1.462555344417485e-02
5.452311250000000e+10 1.129295338094252e-01 2.892624081280913e-02 7.440529377920011e-01 -5.545985741204585e-01 7.439765867636932e-01 -5.549295968358903e-01 6.899726996463805e-02 1.718490417472729e-02
5.456498125000000e+10 1.098007240029985e-01 3.651614433219065e-02 7.437820467636397e-01 -5.549586315257591e-01 7.437061202732926e-01 -5.552922096564870e-01 6.759358523298421e-02 1.700124082135472e-02
5.460685000000000e+10 1.098635440739070e-01 3.267836851139785e-02 7.435110414500021e-01 -5.553185230093671e-01 7.434354846097019e-01 -5.556547502964169e-01 6.858740535016526e-02 2.057739756256174e-02
5.464871875000000e+10 1.020944026873967e-01 3.295399601044237e-02 7.432399218298686e-01 -5.556782529602207e-01 7.431646801577845e-01 -5.560172212836372e-01 6.778649407277149e-02 1.917035069401580e-02
5.469058750000000e+10 1.208786471725182e-01 1.943859390318829e-02 7.429686873874283e-01 -5.560378261721152e-01 7.428937069382604e-01 -5.563796256970652e-01 6.957916592263746e-02 2.117917781371751e-02
5.473245625000000e+10 1.161196062844411e-01 4.306753333622883e-02 7.426973369037291e-01 -5.563972476043411e-01 7.426225643708477e-01 -5.567419669995111e-01 7.022706696563040e-02 1.995288734531315e-02
5.477432500000000e+10 1.181067209890597e-01 2.805649251951326e-02 7.424258689535921e-01 -5.567565221027300e-01 7.423512516848716e-01 -5.571042487171284e-01 7.040164918360343e-02 2.005344432729152e-02
5.481619375000000e+10 1.192008056405132e-01 4.323030632836219e-02 7.421542814642473e-01 -5.571156544523145e-01 7.420797675528081e-01 -5.574664744218559e-01 7.127171654806017e-02 2.301598693098625e-02
5.485806250000000e+10 1.145455260265095e-01 4.220127596919231e-02 7.418825721581107e-01 -5.574746493830918e-01 7.418081105124934e-01 -5.578286477764383e-01 7.223871659267969e-02 1.941919685485176e-02
5.489993125000000e+10 1.091162623387650e-01 3.532809208057574e-02 7.416107383256989e-01 -5.578335112792349e-01 7.415362787213179e-01 -5.581907722645882e-01 7.278853177432618e-02 2.228571442938241e-02
5.494180000000000e+10 1.172092252487400e-01 4.172252369437192e-02 7.413387769104725e-01 -5.581922442400303e-01 7.412642700365443e-01 -5.585528511830911e-01 7.421958961894035e-02 1.881970822892862e-02
5.498366875000000e+10 1.078796696918214e-01 3.225664728229980e-02 7.410666846459489e-01 -5.585508521950369e-01 7.409920821580822e-01 -5.589148876594991e-01 7.042835262692140e-02 2.074535635551954e-02
5.502553750000000e+10 1.193131607097031e-01 3.636638685829416e-02 7.407944580884975e-01 -5.589093387960922e-01 7.407197125911325e-01 -5.592768845411847e-01 7.297805292402298e-02 1.928475453229596e-02
5.506740625000000e+10 1.166392447931668e-01 3.550761010094642e-02 7.405220938163900e-01 -5.592677077636607e-01 7.404471588437199e-01 -5.596388447868764e-01 7.024563135397420e-02 1.979147735404994e-02
5.510927500000000e+10 1.131458549751260e-01 4.143004226862125e-02 7.402495883469724e-01 -5.596259627477966e-01 7.401744182807339e-01 -5.600007713142766e-01 7.341539833495363e-02 2.114555979346332e-02
5.515114375000000e+10 1.164717497482385e-01 3.717302823430625e-02 7.399769381517209e-01 -5.599841075174331e-01 7.399014881188413e-01 -5.603626671925819e-01 7.190646843104515e-02 1.984738856663412e-02
5.519301250000000e+10 1.039319871837743e-01 3.416767291077895e-02 7.397041393355190e-01 -5.603421458166805e-01 7.396283652089934e-01 -5.607245356085697e-01 7.130157465082404e-02 2.071965510482897e-02
5.523488125000000e+10 1.220376259205156e-01 2.629226753611130e-02 7.394311879298534e-01 -5.607000812415501e-01 7.393550462156627e-01 -5.610863796882518e-01 7.095766443295018e-02 2.003167671981186e-02
5.527675000000000e+10 1.143917330267976e-01 2.689799438698357e-02 7.391580798693962e-01 -5.610579176569801e-01 7.390815276026349e-01 -5.614482028852689e-01 6.844320596604037e-02 2.257884621759115e-02
5.531861875000000e+10 1.325867794791345e-01 2.874086408909027e-02 7.388848112950389e-01 -5.614156587225793e-01 7.388078059614575e-01 -5.618100084984945e-01 7.040524272826507e-02 2.323112597949974e-02
5.536048750000000e+10 1.199618792247638e-01 3.037461711848098e-02 7.386113784886859e-01 -5.617733081231386e-01 7.385338779324551e-01 -5.621717999392608e-01 6.841624005013598e-02 2.497671789264627e-02
5.540235625000000e+10 1.325448394728605e-01 3.363486254536026e-02 7.383377780530028e-01 -5.621308691503683e-01 7.382597403280377e-01 -5.625335802874994e-01 7.092065457449691e-02 2.612399118658100e-02
5.544422500000000e+10 1.271336658005663e-01 3.732666697795151e-02 7.380640065367043e-01 -5.624883449143377e-01 7.379853898253912e-01 -5.628953524955614e-01 7.190538510351932e-02 2.356358895840616e-02
5.548609375000000e+10 1.289464241850042e-01 4.067815602494328e-02 7.377900607202363e-01 -5.628457380229593e-01 7.377108231816186e-01 -5.632571190236021e-01 7.283389954013214e-02 2.706983277050946e-02
5.552796250000000e+10 1.273333936127184e-01 4.118455876455443e-02 7.375159377403304e-01 -5.632030508755890e-01 7.374360373558991e-01 -5.636188821556067e-01 7.456776681398512e-02 2.374088372354278e-02
5.556983125000000e+10 1.228791808505928e-01 4.854837420900597e-02 7.372416350068648e-01 -5.635602856221616e-01 7.371610293016448e-01 -5.639806439941458e-01 7.486820256272891e-02 2.553583716753836e-02
5.561170000000000e+10 1.125050137267581e-01 4.107126116460053e-02 7.369671502008235e-01 -5.639174443862044e-01 7.368857960368467e-01 -5.643424066829478e-01 7.669774446925408e-02 2.375289199598636e-02
5.565356875000000e+10 1.226188269830921e-01 3.449530541229456e-02 7.366924808438977e-01 -5.642745292927783e-01 7.366103342899097e-01 -5.647041723791006e-01 7.453750562580935e-02 2.398307749156130e-02
5.569543750000000e+10 1.166540770635053e-01 4.189307466193390e-02 7.364176244174726e-01 -5.646315426549694e-01 7.363346406411905e-01 -5.650659434121191e-01 7.455422700000110e-02 2.367191304547581e-02
5.573730625000000e+10 1.119857773051163e-01 2.236411319907398e-02 7.361425786824247e-01 -5.649884869910393e-01 7.360587118068606e-01 -5.654277223976443e-01 7.249493816982788e-02 2.278788756502468e-02
5.577917500000000e+10 1.315799706237613e-01 2.879915278425252e-02 7.358673410674798e-01 -5.653453651674549e-01 7.357825440696997e-01 -5.657895123297971e-01 7.207204215527994e-02 2.764717970618576e-02
5.582104375000000e+10 1.243234200679688e-01 3.487861420834065e-02 7.355919089044713e-01 -5.657021805950707e-01 7.355061334097194e-01 -5.661513168614266e-01 7.412322603826191e-02 2.706462452609020e-02
5.586291250000000e+10 1.320730586185832e-01 2.765416456885494e-02 7.353162797500274e-01 -5.660589366478656e-01 7.352294758006480e-01 -5.665131396899830e-01 7.364409007876740e-02 3.078166556094433e-02
5.590478125000000e+10 1.399816578422745e-01 3.903696025662658e-02 7.350404511603383e-01 -5.664156365231824e-01 7.349525669850446e-01 -5.668749845057369e-01 7.559832002025811e-02 3.089481137135962e-02
5.594665000000000e+10 1.352198227566782e-01 4.047069846219693e-02 7.347644208555508e-01 -5.667722832444417e-01 7.346754027553868e-01 -5.672368549269268e-01 7.439903307838205e-02 3.153403050708309e-02
5.598851875000000e+10 1.411883036003582e-01 4.355730296091426e-02 7.344881868145263e-01 -5.671288792666722e-01 7.343979790803195e-01 -5.675987541804951e-01 7.864053205667440e-02 3.202747953086574e-02
5.603038750000000e+10 1.363263555640305e-01 5.431397518870917e-02 7.342117471226172e-01 -5.674854266233582e-01 7.341202919423544e-01 -5.679606851728808e-01 7.829722368507817e-02 2.917773435657698e-02
5.607225625000000e+10 1.262439673918770e-01 5.116309458805591e-02 7.339351001625282e-01 -5.678419265168753e-01 7.338423374781978e-01 -5.683226501332386e-01 7.970994257685121e-02 2.952589238148096e-02
5.611412500000000e+10 1.294544125898694e-01 4.499585000600650e-02 7.336582444593109e-01 -5.681983794241687e-01 7.335641119041508e-01 -5.686846506873184e-01 8.187716564639667e-02 2.814834751980906e-02
5.615599375000000e+10 1.286070976107480e-01 4.935672144669571e-02 7.333811784856965e-01 -5.685547854130757e-01 7.332856113448203e-01 -5.690466881318222e-01 7.891726126413275e-02 2.960059040358533e-02
5.619786250000000e+10 1.318540046994496e-01 4.113122341048357e-02 7.331039009566149e-01 -5.689111441961550e-01 7.330068321426867e-01 -5.694087635163027e-01 8.118427690972324e-02 2.903116362461408e-02
5.623973125000000e+10 1.382738113029049e-01 5.307354565487125e-02 7.328264107126764e-01 -5.692674551159156e-01 7.327277707367215e-01 -5.697708776741099e-01 7.809266910773764e-02 2.864022864802864e-02
5.628160000000000e+10 1.294467201133273e-01 4.740519920725884e-02 7.325487072530266e-01 -5.696237173078942e-01 7.324484241039064e-01 -5.701330313654769e-01 8.145432054509343e-02 2.772216814418140e-02
5.632346875000000e+10 1.310000217807443e-01 5.054634286476804e-02 7.322707904492050e-01 -5.699799295947132e-01 7.321687895070602e-01 -5.704952252315663e-01 7.893854127806824e-02 2.612803725592366e-02
5.636533750000000e+10 1.293119856619007e-01 4.846002852801149e-02 7.319926604108336e-01 -5.703360906593623e-01 7.318888643775583e-01 -5.708574597954568e-01 8.105755408291052e-02 3.055599477069472e-02
5.640720625000000e+10 1.265352956388424e-01 5.479705249087064e-02 7.317143173127129e-01 -5.706921989233034e-01 7.316086461843619e-01 -5.712197353932588e-01 8.216005872200591e-02 2.815563212791190e-02
5.644907500000000e+10 1.290642489784690e-01 4.912170746253237e-02 7.314357612228967e-01 -5.710482522189505e-01 7.313281322488338e-01 -5.715820518756626e-01 8.018172586640454e-02 2.839310378076258e-02
5.649094375000000e+10 1.221243645912298e-01 5.373459641741914e-02 7.311569922430320e-01 -5.714042475732177e-01 7.310473198786804e-01 -5.719444083539645e-01 8.253724757709895e-02 2.535236000936442e-02
5.653281250000000e+10 1.196614098357705e-01 4.223024678605217e-02 7.308780108376450e-01 -5.717601816089670e-01 7.307662067229335e-01 -5.723068036027654e-01 8.053814010997690e-02 2.454877679874553e-02
5.657468125000000e+10 1.281379119392669e-01 4.537404597367714e-02 7.305988174480131e-01 -5.721160506152113e-01 7.304847904432699e-01 -5.726692361700547e-01 8.066681333624388e-02 2.833711851320402e-02
5.661655000000000e+10 1.199240674776646e-01 4.646211168977604e-02 7.303194124611619e-01 -5.724718510140339e-01 7.302030685475462e-01 -5.730317048085583e-01 7.832486643278268e-02 2.475164619270241e-02
5.665841875000000e+10 1.312581743140852e-01 3.254082328328272e-02 7.300397963802727e-01 -5.728275791113255e-01 7.299210386073641e-01 -5.733942082172535e-01 7.832336024763235e-02 2.857278556954984e-02
5.670028750000000e+10 1.317757733613876e-01 4.987702430809684e-02 7.297599696327183e-01 -5.731832314466603e-01 7.296386980814790e-01 -5.737567452200192e-01 7.981578645673826e-02 2.644521432320104e-02
5.674215625000000e+10 1.297745707542569e-01 3.640567029869693e-02 7.294799327896511e-01 -5.735388047673238e-01 7.293560444994396e-01 -5.741193148189480e-01 7.728771771240997e-02 2.912555785653940e-02
5.678402500000000e+10 1.348705740573970e-01 4.836154047682387e-02 7.291996863691776e-01 -5.738942956537580e-01 7.290730753731821e-01 -5.744819157942520e-01 7.980919106067860e-02 3.008489067402547e-02
5.682589375000000e+10 1.339822327788877e-01 4.655647571351097e-02 7.289192308341687e-01 -5.742497006754963e-01 7.287897881123542e-01 -5.748445468887325e-01 7.740441990229038e-02 2.955794586767004e-02
5.686776250000000e+10 1.340779256547981e-01 5.265660287622958e-02 7.286385666893842e-01 -5.746050160314609e-01 7.285061801604507e-01 -5.752072063341469e-01 8.287000923306348e-02 3.213438047888110e-02
5.690963125000000e+10 1.322185151689827e-01 5.747062534007576e-02 7.283576945358257e-01 -5.749602374649655e-01 7.282222490165728e-01 -5.755698918586528e-01 8.460647575534863e-02 2.939125585244748e-02
5.695150000000000e+10 1.269221859731309e-01 5.397839725552104e-02 7.280766151164368e-01 -5.753153598977027e-01 7.279379923311753e-01 -5.759326003420590e-01 8.381188761601788e-02 3.106237462900636e-02
5.699336875000000e+10 1.267408466149184e-01 5.520328413762224e-02 7.277953293758018e-01 -5.756703774845184e-01 7.276534079266768e-01 -5.762953277756575e-01 8.390902821230245e-02 2.675866553208533e-02
5.703523750000000e+10 1.250621729451777e-01 5.147639815852704e-02 7.275138385159622e-01 -5.760252837624378e-01 7.273684939487819e-01 -5.766580694292736e-01 8.214398485276762e-02 2.809857676971067e-02
5.707710625000000e+10 1.207780708142677e-01 4.801136872598286e-02 7.272321442308032e-01 -5.763800719004216e-01 7.270832489977381e-01 -5.770208201013834e-01 8.484961375411237e-02 2.753626903607124e-02
5.711897500000000e+10 1.327122111416648e-01 4.452755646056740e-02 7.269502485700937e-01 -5.767347348568487e-01 7.267976720933146e-01 -5.773835743315160e-01 8.208238030606942e-02 2.755402359454008e-02
5.716084375000000e+10 1.247192094953606e-01 5.587719404383883e-02 7.266681536397968e-01 -5.770892654117987e-01 7.265117622223651e-01 -5.777463264415424e-01 8.425357669141192e-02 2.706072709885433e-02
5.720271250000000e+10 1.263461329797121e-01 4.763992520148847e-02 7.263858618302044e-01 -5.774436561006000e-01 7.262255187025505e-01 -5.781090704673543e-01 8.489761897633917e-02 2.593257141683621e-02
5.724458125000000e+10 1.244725369497884e-01 5.336233538374081e-02 7.261033757497340e-01 -5.777978991605862e-01 7.259389411646407e-01 -5.784718000196781e-01 8.590238466501386e-02 2.545700893108829e-02
5.728645000000000e+10 1.220462496641550e-01 5.342252987582581e-02 7.258206982749044e-01 -5.781519867547774e-01 7.256520296253580e-01 -5.788345085297379e-01 8.495898153474631e-02 2.300919543929406e-02
5.732831875000000e+10 1.165870616343155e-01 4.897566220170860e-02 7.255378323951374e-01 -5.785059109655010e-01 7.253647843283123e-01 -5.791971892544893e-01 8.496953500380790e-02 2.677751709231976e-02
5.737018750000000e+10 1.236334455260274e-01 4.762563082800279e-02 7.252547811290631e-01 -5.788596639565277e-01 7.250772055927744e-01 -5.795598354729934e-01 8.654712363522613e-02 2.599951019697373e-02
5.741205625000000e+10 1.214216697378831e-01 5.230331389077795e-02 7.249715472582157e-01 -5.792132378560563e-01 7.247892936017509e-01 -5.799224403269000e-01 8.356211285196591e-02 2.509263060024953e-02
5.745392500000000e+10 1.205324555702618e-01 4.976232665942926e-02 7.246881334910860e-01 -5.795666248545954e-01 7.245010486018970e-01 -5.802849969721725e-01 8.497808598017710e-02 2.571715864554489e-02
5.749579375000000e+10 1.182273650603252e-01 5.353140740263305e-02 7.244045422906178e-01 -5.799198168998929e-01 7.242124707602728e-01 -5.806474983088854e-01 8.396355855683353e-02 2.324069512108386e-02
5.753766250000000e+10 1.164288009801493e-01 4.981393424658711e-02 7.241207761784733e-01 -5.802728058035029e-01 7.239235604320371e-01 -5.810099370684566e-01 8.344763874214559e-02 2.314679666969282e-02
5.757953125000000e+10 1.103451387671029e-01 5.007772388349810e-02 7.238368376791841e-01 -5.806255832677187e-01 7.236343181502752e-01 -5.813723058172116e-01 8.353773794927966e-02 2.251670972954517e-02
5.762140000000000e+10 1.163721839462612e-01 3.823990816460922e-02 7.235527293059997e-01 -5.809781410311325e-01 7.233447445472447e-01 -5.817345971030002e-01 8.259036562635384e-02 2.388928070255694e-02
5.766326875000000e+10 1.192155354841413e-01 4.690809327421498e-02 7.232684532853946e-01 -5.813304707523897e-01 7.230548401391500e-01 -5.820968033046440e-01 8.448252178588699e-02 2.348474647062224e-02
5.770513750000000e+10 1.156243662243185e-01 4.171334789714982e-02 7.229840117020888e-01 -5.816825640217824e-01 7.227646054641990e-01 -5.824589167307129e-01 8.180217923230489e-02 2.336520415363639e-02
5.774700625000000e+10 1.238173334699132e-01 4.558655942604614e-02 7.226994065073941e-01 -5.820344123113155e-01 7.224740410494632e-01 -5.828209295149555e-01 8.401484610816051e-02 2.506310446382600e-02
5.778887500000000e+10 1.170768761498829e-01 4.582681831906440e-02 7.224146395425223e-01 -5.823860070693440e-01 7.221831473961156e-01 -5.831828336073707e-01 8.246541573838923e-02 2.412929557706630e-02
5.783074375000000e+10 1.279872163933252e-01 4.352479633880338e-02 7.221297129003664e-01 -5.827373395548812e-01 7.218919253381927e-01 -5.835446206245805e-01 8.524708696526992e-02 2.386419395771497e-02
5.787261250000000e+10 1.136468535800578e-01 5.765196334018782e-02 7.218446287649816e-01 -5.830884010424197e-01 7.216003759323094e-01 -5.839062820530657e-01 8.347894071366552e-02 2.295261699955507e-02
5.791448125000000e+10 1.127272067811404e-01 3.423463975410771e-02 7.215593896742561e-01 -5.834391828152860e-01 7.213085006984349e-01 -5.842678092807853e-01 8.420980335816843e-02 2.291260454745146e-02
5.795635000000000e+10 1.212854625331048e-01 4.265794241286590e-02 7.212739981769621e-01 -5.837896759691142e-01 7.210163013515912e-01 -5.846291934690856e-01 8.296331155039294e-02 2.207709299609259e-02
5.799821875000000e+10 1.229485615126714e-01 4.021695046593721e-02 7.209884569561340e-01 -5.841398718126735e-01 7.207237799295727e-01 -5.849904258833321e-01 8.465797282182749e-02 2.279619940233383e-02
5.804008750000000e+10 1.172018467583823e-01 4.389850161700300e-02 7.207027688119639e-01 -5.844897620117004e-01 7.204309387261710e-01 -5.853514979931088e-01 8.336937122969909e-02 2.237319323064322e-02
5.808195625000000e+10 1.251534307283054e-01 4.133606806932976e-02 7.204169365335056e-01 -5.848393386198377e-01 7.201377801093932e-01 -5.857124015327801e-01 8.326318850824384e-02 2.555240812181372e-02
5.812382500000000e+10 1.171694444225779e-01 4.909580824194149e-02 7.201309626803173e-01 -5.851885939513020e-01 7.198443063531496e-01 -5.860731284016536e-01 8.436871528514757e-02 2.186079414799519e-02
5.816569375000000e+10 1.158466126755171e-01 4.567206240744899e-02 7.198448497292212e-01 -5.855375203635151e-01 7.195505197129554e-01 -5.864336704292079e-01 8.687110464500930e-02 2.173022171448097e-02
5.820756250000000e+10 1.123380065670101e-01 4.100679145684567e-02 7.195586000171076e-01 -5.858861102625472e-01 7.192564223731681e-01 -5.867940193698298e-01 8.671073671544335e-02 2.141868012723655e-02
5.824943125000000e+10 1.127690660690606e-01 4.108894567714494e-02 7.192722157443689e-01 -5.862343560800423e-01 7.189620164539885e-01 -5.871541668436048e-01 8.429860873612195e-02 1.892219297221347e-02
5.829130000000000e+10 1.151691586704265e-01 2.777451715887893e-02 7.189856989685975e-01 -5.865822503781865e-01 7.186673040809833e-01 -5.875141044520960e-01 8.440625859708942e-02 2.006135876780585e-02
5.833316875000000e+10 1.246555798843474e-01 4.578128195187840e-02 7.186990515754302e-01 -5.869297860958672e-01 7.183722872728660e-01 -5.878738240248309e-01 8.418302450651903e-02 1.914247335262611e-02
5.837503750000000e+10 1.113639335177113e-01 3.981844111793436e-02 7.184122753530400e-01 -5.872769567733847e-01 7.180769678756989e-01 -5.882333178233506e-01 8.478386580292185e-02 2.026626612659198e-02
5.841690625000000e+10 1.183757704221243e-01 3.959153958471463e-02 7.181253720959220e-01 -5.876237561191819e-01 7.177813477552296e-01 -5.885925781710848e-01 8.538954800605440e-02 1.844280635299664e-02
5.845877500000000e+10 1.146190730060527e-01 3.905913801239961e-02 7.178383435837024e-01 -5.879701783211380e-01 7.174854288048682e-01 -5.889515977125699e-01 8.356637553288725e-02 2.035732677970551e-02
5.850064375000000e+10 1.208079323773620e-01 2.893604829102598e-02 7.175511915833837e-01 -5.883162179696506e-01 7.171892129438761e-01 -5.893103693921525e-01 8.339763442651389e-02 2.005917635599394e-02
5.854251250000000e+10 1.283258499781953e-01 4.285465848102677e-02 7.172639179427371e-01 -5.886618700126932e-01 7.168927021947037e-01 -5.896688863849255e-01 8.306224863523995e-02 1.895591370588547e-02
5.858438125000000e+10 1.155979317523853e-01 3.704320818884274e-02 7.169765247855520e-01 -5.890071298986735e-01 7.165958988293082e-01 -5.900271422536566e-01 8.318158063597392e-02 2.051066237524803e-02
5.862625000000000e+10 1.174777590944302e-01 3.456926583951547e-02 7.166890144654935e-01 -5.893519934717696e-01 7.162988053696633e-01 -5.903851309029575e-01 8.595676057273249e-02 1.655527912354180e-02
5.866811875000000e+10 1.247925039485972e-01 2.977205526758630e-02 7.164013893025007e-01 -5.896964571844086e-01 7.160014242199773e-01 -5.907428467831320e-01 8.280143065800881e-02 2.126912754805954e-02
5.870998750000000e+10 1.198317258359307e-01 3.940791368322419e-02 7.161136514096571e-01 -5.900405180006123e-01 7.157037576031734e-01 -5.911002847985739e-01 8.365384413677381e-02 1.696594918942513e-02
5.875185625000000e+10 1.339807052784427e-01 3.496214411784099e-02 7.158258027495099e-01 -5.903841733105870e-01 7.154058077034892e-01 -5.914574402991468e-01 8.339667236991535e-02 2.009248883030232e-02
5.879372500000000e+10 1.125067303260199e-01 5.047611392903285e-02 7.155378451405414e-01 -5.907274209539438e-01 7.151075767056886e-01 -5.918143091036490e-01 8.555877346027951e-02 1.728066768962259e-02
5.883559375000000e+10 1.207918977566876e-01 2.996563201732992e-02 7.152497806143548e-01 -5.910702592922711e-01 7.148090670352075e-01 -5.921708874922809e-01 8.303460144372116e-02 1.701759860034293e-02
5.887746250000000e+10 1.185210185476043e-01 3.614407183577504e-02 7.149616109202248e-01 -5.914126872809830e-01 7.145102809163767e-01 -5.925271723460299e-01 8.331489912733575e-02 1.810093335748414e-02
5.891933125000000e+10 1.191186284253815e-01 3.623828823439731e-02 7.146733376821965e-01 -5.917547045384500e-01 7.142112204310745e-01 -5.928831612290182e-01 8.168451141434552e-02 1.724818402647309e-02
5.896120000000000e+10 1.194359878961333e-01 2.175122121210186e-02 7.143849622173616e-01 -5.920963113611205e-01 7.139118873779435e-01 -5.932388524331981e-01 7.915971585870328e-02 2.213340401436648e-02
5.900306875000000e+10 1.328936748564755e-01 3.434934092492686e-02 7.140964854185931e-01 -5.924375086079842e-01 7.136122831159519e-01 -5.935942447415933e-01 8.238001022512120e-02 1.834845414658380e-02
5.904493750000000e+10 1.257928028843527e-01 3.416706989900202e-02 7.138079079475069e-01 -5.927782976090910e-01 7.133124087607682e-01 -5.939493374410075e-01 7.906104467146287e-02 2.195030381527767e-02
5.908680625000000e+10 1.213083305627547e-01 3.489266214973907e-02 7.135192303065164e-01 -5.931186798244009e-01 7.130122652580980e-01 -5.943041299369484e-01 8.316240323315384e-02 2.011741404041276e-02
5.912867500000000e+10 1.321276620526316e-01 4.280166779917602e-02 7.132304525240276e-01 -5.934586570307699e-01 7.127118530766325e-01 -5.946586219762282e-01 7.854474375647975e-02 1.794423087647962e-02
5.917054375000000e+10 9.944841647208941e-02 3.525954453934208e-02 7.129415741514703e-01 -5.937982312297057e-01 7.124111721558674e-01 -5.950128135975153e-01 8.302789844665399e-02 1.937357528295782e-02
5.921241250000000e+10 1.345542827659722e-01 2.313055970525904e-02 7.126525941903253e-01 -5.941374043379202e-01 7.121102219074816e-01 -5.953667047778527e-01 8.176825050071973e-02 1.758319322938906e-02
5.925428125000000e+10 1.187237213703490e-01 4.406831172890154e-02 7.123635107722429e-01 -5.944761786344276e-01 7.118090008829360e-01 -5.957202958971882e-01 8.376254042951133e-02 2.316879972130546e-02
5.929615000000000e+10 1.151381339189820e-01 3.378604305020004e-02 7.120743218951153e-01 -5.948145562379972e-01 7.115075073974828e-01 -5.960735871846394e-01 8.199457829767937e-02 1.845198699070054e-02
5.933801875000000e+10 1.257281652967065e-01 2.242194853269343e-02 7.117850252340520e-01 -5.951525390438114e-01 7.112057393931678e-01 -5.964265786394081e-01 7.953445212611296e-02 1.986868907801431e-02
5.937988750000000e+10 1.253196491216385e-01 3.633593231242910e-02 7.114956183452318e-01 -5.954901289569381e-01 7.109036947169880e-01 -5.967792702573307e-01 8.302073902274903e-02 1.976630219051368e-02
5.942175625000000e+10 1.379373267426407e-01 2.425945664725518e-02 7.112060990885852e-01 -5.958273281733423e-01 7.106013714358621e-01 -5.971316623491212e-01 8.033975575810937e-02 2.249964706488652e-02
5.946362500000000e+10 1.288782509404404e-01 4.177900341115071e-02 7.109164655345306e-01 -5.961641389649950e-01 7.102987676839149e-01 -5.974837552956763e-01 8.393675452343585e-02 2.295008452462327e-02
5.950549375000000e+10 1.330455740390963e-01 3.398928197588229e-02 7.106267162508872e-01 -5.965005636301313e-01 7.099958819779260e-01 -5.978355494973642e-01 8.136245105116316e-02 1.810106160899934e-02
5.954736250000000e+10 1.268868321603533e-01 2.747700762180016e-02 7.103368497993078e-01 -5.968366046189804e-01 7.096927126918514e-01 -5.981870454277879e-01 8.216681666734682e-02 2.497666357689880e-02
5.958923125000000e+10 1.441223034405421e-01 3.887650015753256e-02 7.100468650609493e-01 -5.971722646933819e-01 7.093892584174624e-01 -5.985382438831987e-01 8.111666420979963e-02 2.074787538530609e-02
5.963110000000000e+10 1.312757191776136e-01 3.352792543310984e-02 7.097567609946895e-01 -5.975075469581447e-01 7.090855177531159e-01 -5.988891460165897e-01 8.150614588237648e-02 2.280194465261955e-02
5.967296875000000e+10 1.393322165565501e-01 4.259450027488467e-02 7.094665368876502e-01 -5.978424544442147e-01 7.087814896095435e-01 -5.992397528512052e-01 8.548626923432258e-02 2.107650207136277e-02
5.971483750000000e+10 1.339109786234150e-01 3.500060218175736e-02 7.091761922723130e-01 -5.981769905915434e-01 7.084771729851750e-01 -5.995900658145296e-01 8.136419665540587e-02 2.304923156097142e-02
5.975670625000000e+10 1.332756214019659e-01 4.678233613911238e-02 7.088857268059369e-01 -5.985111587576060e-01 7.081725668181061e-01 -5.999400863906610e-01 8.343149794971494e-02 2.331371960499118e-02
5.979857500000000e+10 1.327351508049423e-01 4.136606025041914e-02 7.085951402098624e-01 -5.988449625141461e-01 7.078676700335842e-01 -6.002898161934710e-01 8.299471885341755e-02 2.006584190185932e-02
5.984044375000000e+10 1.283599734553182e-01 3.919862281699030e-02 7.083044322123668e-01 -5.991784052979536e-01 7.075624814376933e-01 -6.006392567329716e-01 8.340822249209481e-02 2.467734773911782e-02
5.988231250000000e+10 1.365944078216538e-01 4.739630799590216e-02 7.080136027017812e-01 -5.995114906850694e-01 7.072569999303225e-01 -6.009884095453518e-01 8.484555423001959e-02 1.969257692656460e-02
5.992418125000000e+10 1.227242165392773e-01 3.360875787372369e-02 7.077226516192124e-01 -5.998442224202758e-01 7.069512244297208e-01 -6.013372762312558e-01 8.202201470402698e-02 2.259101340420684e-02
5.996605000000000e+10 1.393039207675584e-01 4.213938653582829e-02 7.074315791018173e-01 -6.001766041071768e-01 7.066451540204576e-01 -6.016858582736387e-01 8.397792687220459e-02 2.281593235647288e-02
6.000791875000000e+10 1.294463286127116e-01 3.476973025794884e-02 7.071403851215802e-01 -6.005086397204422e-01 7.063387875816554e-01 -6.020341576085066e-01 8.109429311525942e-02 2.292952045903856e-02
6.004978750000000e+10 1.353486061053325e-01 4.494065345253567e-02 7.068490694393680e-01 -6.008403329460748e-01 7.060321237907908e-01 -6.023821759651319e-01 8.490080763542728e-02 2.341257447967950e-02
6.009165625000000e+10 1.288203268316097e-01 3.866107417746360e-02 7.065576315682019e-01 -6.011716875715130e-01 7.057251610757352e-01 -6.027299152534440e-01 8.382157677338485e-02 2.326889590418885e-02
6.013352500000000e+10 1.313133660245813e-01 4.235482577032212e-02 7.062660705870255e-01 -6.015027070011026e-01 7.054178975025183e-01 -6.030773769993897e-01 8.555776020167323e-02 2.506950202808526e-02
6.017539375000000e+10 1.311619672254381e-01 4.649177084090710e-02 7.059743851824367e-01 -6.018333944090217e-01 7.051103308963355e-01 -6.034245625500360e-01 8.525943813032461e-02 2.352444764832785e-02
6.021726250000000e+10 1.250376762115355e-01 3.639651212663623e-02 7.056825737943359e-01 -6.021637525205743e-01 7.048024588917448e-01 -6.037714728109252e-01 8.586308050231212e-02 2.605091810280300e-02
6.025913125000000e+10 1.390566082424075e-01 4.060016070396611e-02 7.053906345639943e-01 -6.024937836013109e-01 7.044942789480358e-01 -6.041181082850712e-01 8.838319903992635e-02 2.597278374134309e-02
6.030100000000000e+10 1.326974084887280e-01 4.752916547660852e-02 7.050985652824875e-01 -6.028234896250786e-01 7.041857883474065e-01 -6.044644692206242e-01 8.565048642537412e-02 2.654276317945172e-02
6.034286875000000e+10 1.277159157730131e-01 4.568235771663386e-02 7.048063636814341e-01 -6.031528719398146e-01 7.038769844752645e-01 -6.048105552243151e-01 8.680829979247977e-02 2.697169723075482e-02
6.038473750000000e+10 1.348570491695125e-01 3.455548179775233e-02 7.045140274189490e-01 -6.034819312461378e-01 7.035678648726686e-01 -6.051563652667297e-01 8.455477159364699e-02 2.385757281071560e-02
6.042660625000000e+10 1.350381343113484e-01 4.588799823990060e-02 7.042215541434215e-01 -6.038106677885430e-01 7.032584271687943e-01 -6.055018978427683e-01 8.493722381735604e-02 2.680880232387158e-02
6.046847500000000e+10 1.335160715549056e-01 4.607475413699107e-02 7.039289417347947e-01 -6.041390816026070e-01 7.029486693332344e-01 -6.058471512757986e-01 8.638413229940559e-02 2.619132905477855e-02
6.051034375000000e+10 1.290709346374725e-01 4.518803405853928e-02 7.036361881422019e-01 -6.044671721827509e-01 7.026385895403596e-01 -6.061921233436501e-01 8.290228620788928e-02 2.835752578883452e-02
6.055221250000000e+10 1.360532987912884e-01 4.004559869066221e-02 7.033432914309644e-01 -6.047949385411791e-01 7.023281862095191e-01 -6.065368113090104e-01 8.474398541523746e-02 2.661203113119215e-02
6.059408125000000e+10 1.420188208970939e-01 4.465775276075935e-02 7.030502496983151e-01 -6.051223793591534e-01 7.020174579695746e-01 -6.068812120439395e-01 8.780382748266691e-02 2.850316095082403e-02
6.063595000000000e+10 1.331981700441807e-01 5.315997210167250e-02 7.027570613076517e-01 -6.054494931124339e-01 7.017064038579832e-01 -6.072253221721292e-01 8.841113695279752e-02 2.825926469740477e-02
6.067781875000000e+10 1.436618099853455e-01 4.571964646545349e-02 7.024637249837932e-01 -6.057762777514794e-01 7.013950234647023e-01 -6.075691376589298e-01 8.759221146451900e-02 2.602910202233867e-02
6.071968750000000e+10 1.264292792629632e-01 6.297706610894134e-02 7.021702395759473e-01 -6.061027306433995e-01 7.010833166637013e-01 -6.079126538025816e-01 8.764766244846950e-02 2.486422768623016e-02
6.076155625000000e+10 1.322050082889430e-01 4.165447816446844e-02 7.018766041640567e-01 -6.064288488122239e-01 7.007712838337441e-01 -6.082558654933961e-01 9.025072246116060e-02 2.373142208073995e-02
6.080342500000000e+10 1.301643963481176e-01 6.083617328783772e-02 7.015828174498011e-01 -6.067546286001048e-01 7.004589252580302e-01 -6.085987668080867e-01 8.868701048733732e-02 2.411410924092088e-02
6.084529375000000e+10 1.244785341130427e-01 5.321762857612065e-02 7.012888782424291e-01 -6.070800662475913e-01 7.001462415799323e-01 -6.089413516443068e-01 9.203826160300060e-02 2.419432923694056e-02
6.088716250000000e+10 1.222963294733456e-01 5.432622874736717e-02 7.009947850742648e-01 -6.074051574640819e-01 6.998332332512132e-01 -6.092836131729561e-01 9.108976385322115e-02 2.326192085962692e-02
6.092903125000000e+10 1.194005597861208e-01 5.041277491513826e-02 7.007005362717963e-01 -6.077298976228710e-01 6.995199006781108e-01 -6.096255440583748e-01 9.091169283004508e-02 2.137331862852710e-02
6.097090000000000e+10 1.277883985398889e-01 4.526605576004536e-02 7.004061298207858e-01 -6.080542817712289e-01 6.992062440534007e-01 -6.099671365098616e-01 9.101813522834401e-02 2.161030524990382e-02
6.101276875000000e+10 1.239519832145199e-01 6.108152798462090e-02 7.001115633811805e-01 -6.083783050553235e-01 6.988922634022794e-01 -6.103083826338788e-01 9.052027617896974e-02 2.494082178151560e-02
6.105463750000000e+10 1.168285773874938e-01 4.478606282594703e-02 6.998168345496955e-01 -6.087019628719029e-01 6.985779587868506e-01 -6.106492745994524e-01 8.874444913965042e-02 2.137520655302239e-02
6.109650625000000e+10 1.252269112392735e-01 5.355685079314119e-02 6.995219406103337e-01 -6.090252504150194e-01 6.982633301188753e-01 -6.109898041402703e-01 8.879395851604430e-02 2.127590690974122e-02
6.113837500000000e+10 1.189424801962213e-01 4.956838212463231e-02 6.992268784427180e-01 -6.093481631697807e-01 6.979483771151509e-01 -6.113299629530408e-01 8.932279305007773e-02 2.284397410183290e-02
6.118024375000000e+10 1.181389171214811e-01 4.440329140997930e-02 6.989316447893772e-01 -6.096706966459101e-01 6.976330996360507e-01 -6.116697424634971e-01 8.790260424658068e-02 2.326018862542952e-02
6.122211250000000e+10 1.325121388351580e-01 4.895867912423989e-02 6.986362360302238e-01 -6.099928465651342e-01 6.973174974592403e-01 -6.120091340391076e-01 8.947325961510018e-02 2.377060349009873e-02
6.126398125000000e+10 1.194462235524548e-01 5.500829867264316e-02 6.983406481676409e-01 -6.103146087941989e-01 6.970015703133612e-01 -6.123481288964810e-01 8.849126956351433e-02 2.317730609466546e-02
6.130585000000000e+10 1.290091576426826e-01 4.679981607698518e-02 6.980448773278013e-01 -6.106359792089016e-01 6.966853181845882e-01 -6.126867179446168e-01 8.929861373382028e-02 2.309824908974099e-02
6.134771875000000e+10 1.246857997838905e-01 5.457200598892021e-02 6.977489195009021e-01 -6.109569536782395e-01 6.963687412463884e-01 -6.130248917764566e-01 8.823716024776508e-02 2.468923532513208e-02
6.138958750000000e+10 1.247177613295223e-01 4.996923038921400e-02 6.974527707555483e-01 -6.112775283536950e-01 6.960518399823930e-01 -6.133626409405841e-01 8.849644816044620e-02 2.286550250281978e-02
6.143145625000000e+10 1.270592513369532e-01 5.023941030886114e-02 6.971564270671424e-01 -6.115976994808991e-01 6.957346150363822e-01 -6.136999557485190e-01 8.829383145116879e-02 2.189421777892503e-02
6.147332500000000e+10 1.253503739332459e-01 4.716089285449428e-02 6.968598845619357e-01 -6.119174634074380e-01 6.954170674478133e-01 -6.140368263173251e-01 8.780111090443785e-02 2.103966603875059e-02
6.151519375000000e+10 1.301553196355322e-01 4.757786059102237e-02 6.965631396656728e-01 -6.122368167014750e-01 6.950991988088765e-01 -6.143732426442911e-01 8.653865012782526e-02 1.832529378417399e-02
6.155706250000000e+10 1.266003754564623e-01 4.767335095979005e-02 6.962661887949162e-01 -6.125557562938987e-01 6.947810110386732e-01 -6.147091948520380e-01 8.734009414070337e-02 2.175490445237600e-02
6.159893125000000e+10 1.274571950101696e-01 4.917678539417933e-02 6.959690283117187e-01 -6.128742796325946e-01 6.944625062941079e-01 -6.150446733143045e-01 8.570325010326391e-02 2.167911024489180e-02
6.164080000000000e+10 1.299537347853764e-01 4.159454067693656e-02 6.956716543932121e-01 -6.131923844102120e-01 6.941436869731256e-01 -6.153796685227472e-01 8.382635073148963e-02 2.352317708415508e-02
6.168266875000000e+10 1.303067894051559e-01 4.787200264116283e-02 6.953740631532788e-01 -6.135100686429796e-01 6.938245557875685e-01 -6.157141710278082e-01 8.652604059941955e-02 2.137726772494736e-02
6.172453750000000e+10 1.300650635172012e-01 4.477173298515077e-02 6.950762505583099e-01 -6.138273306728383e-01 6.935051156525451e-01 -6.160481714799146e-01 8.555620755800343e-02 2.183768835788357e-02
6.176640625000000e+10 1.323390322763482e-01 4.271388626320183e-02 6.947782123454304e-01 -6.141441689585843e-01 6.931853696093276e-01 -6.163816604555653e-01 8.919120183910703e-02 2.266944265214810e-02
6.180827500000000e+10 1.429777477378350e-01 6.132610616646114e-02 6.944799438617149e-01 -6.144605823520554e-01 6.928653206885766e-01 -6.167146286177411e-01 8.895879024180268e-02 2.269771064314515e-02
6.185014375000000e+10 1.180418906015457e-01 5.029143447897837e-02 6.941814401681455e-01 -6.147765699531111e-01 6.925449719863918e-01 -6.170470666061143e-01 9.016487977308409e-02 2.413251715640216e-02
6.189201250000000e+10 1.405202449350359e-01 5.390151405393749e-02 6.938826964676718e-01 -6.150921309285878e-01 6.922243271155899e-01 -6.173789648305809e-01 8.819222597535860e-02 2.281303586518769e-02
6.193388125000000e+10 1.161416099743626e-01 5.389487627137327e-02 6.935837075876297e-01 -6.154072646104758e-01 6.919033897744880e-01 -6.177103136296314e-01 8.867605124471543e-02 2.172402292768407e-02
6.197575000000000e+10 1.271501450231625e-01 5.335564131956536e-02 6.932844682576461e-01 -6.157219702550204e-01 6.915821639522285e-01 -6.180411029357662e-01 8.887441545767351e-02 1.968880649054354e-02
6.201761875000000e+10 1.146680003903423e-01 4.206633030497060e-02 6.929849728180608e-01 -6.160362471332689e-01 6.912606535997925e-01 -6.183713223640283e-01 8.559774926843841e-02 1.653173167341446e-02
6.205948750000000e+10 1.272653143342262e-01 3.721086045063395e-02 6.926852155689476e-01 -6.163500946270523e-01 6.909388630288228e-01 -6.187009612897577e-01 8.803874426787633e-02 2.074402127155167e-02
6.210135625000000e+10 1.306772179613062e-01 4.181298092941134e-02 6.923851904389215e-01 -6.166635126746197e-01 6.906167965954791e-01 -6.190300092617365e-01 8.221363433887691e-02 1.828945411980288e-02
6.214322500000000e+10 1.237708661228518e-01 4.020214148471109e-02 6.920848910966786e-01 -6.169765016090359e-01 6.902944588160574e-01 -6.193584558467256e-01 8.438972263005254e-02 2.304578502313936e-02
6.218509375000000e+10 1.372485235794910e-01 4.110401965779518e-02 6.917843110286059e-01 -6.172890622836306e-01 6.899718545141790e-01 -6.196862908054178e-01 8.553369373087073e-02 1.828773821767862e-02
6.222696250000000e+10 1.237600519265294e-01 5.207426797143694e-02 6.914834432457977e-01 -6.176011958025724e-01 6.896489885007621e-01 -6.200135036858581e-01 8.533622725199490e-02 2.155485642538447e-02
6.226883125000000e+10 1.215469336423355e-01 4.422557401844426e-02 6.911822805434860e-01 -6.179129035081808e-01 6.893258658599621e-01 -6.203400838384691e-01 8.681604342132229e-02 1.938029102542679e-02
6.231070000000000e+10 1.257890385277228e-01 4.519229838873504e-02 6.908808153501386e-01 -6.182241867428256e-01 6.890024917102392e-01 -6.206660202623744e-01 8.683440636274391e-02 1.954531437705705e-02
6.235256875000000e+10 1.189083661807596e-01 4.426698597706147e-02 6.905790397680608e-01 -6.185350469815479e-01 6.886788712467430e-01 -6.209913016536345e-01 8.583236042316610e-02 2.101489234857491e-02
6.239443750000000e+10 1.198399429119333e-01 3.848177815989143e-02 6.902769458246084e-01 -6.188454858785843e-01 6.883550099979224e-01 -6.213159164841021e-01 8.329162782331433e-02 1.687785573532077e-02
6.243630625000000e+10 1.169096766549341e-01 3.294494827987206e-02 6.899745254487282e-01 -6.191555053705297e-01 6.880309137225243e-01 -6.216398531501494e-01 8.406917548199300e-02 2.074210755431049e-02
6.247817500000000e+10 1.330539945379131e-01 3.203544858469317e-02 6.896717703240861e-01 -6.194651079115624e-01 6.877065883059854e-01 -6.219631001609202e-01 8.459694203355635e-02 1.779798985783359e-02
6.252004375000000e+10 1.310471329445917e-01 3.918146252656934e-02 6.893686717729056e-01 -6.197742964351456e-01 6.873820396497646e-01 -6.222856462193685e-01 8.343589348407920e-02 2.312594013080553e-02
6.256191250000000e+10 1.310211379919358e-01 4.558109775495409e-02 6.890652210013344e-01 -6.200830745355586e-01 6.870572739562087e-01 -6.226074803546223e-01 8.596775751298205e-02 2.251710466273428e-02
6.260378125000000e+10 1.267386565959480e-01 3.999612050957991e-02 6.887614089490659e-01 -6.203914462145687e-01 6.867322976201404e-01 -6.229285917080063e-01 8.393122296480501e-02 2.201542367811307e-02
6.264565000000000e+10 1.263338660994804e-01 4.593003816343483e-02 6.884572263686288e-01 -6.206994156989202e-01 6.864071172482185e-01 -6.232489693277450e-01 8.561962028573732e-02 2.334822328800041e-02
6.268751875000000e+10 1.239532560487794e-01 3.880020668253787e-02 6.881526635976137e-01 -6.210069876055563e-01 6.860817394967569e-01 -6.235686023647994e-01 8.481366368269457e-02 2.157628078545641e-02
6.272938750000000e+10 1.318873694507091e-01 4.313717922378666e-02 6.878477104814802e-01 -6.213141666411625e-01 6.857561709945483e-01 -6.238874797539161e-01 8.572709980784451e-02 2.308078423650616e-02
6.277125625000000e+10 1.257586064402519e-01 4.594136760166213e-02 6.875423564356336e-01 -6.216209577183165e-01 6.854304183429738e-01 -6.242055903357279e-01 8.835461329431682e-02 1.977877859404753e-02
6.281312500000000e+10 1.232669818773495e-01 5.283985950409057e-02 6.872365904707948e-01 -6.219273657825795e-01 6.851044881177031e-01 -6.245229227141734e-01 8.621387713654791e-02 2.070421884176824e-02
6.285499375000000e+10 1.090248084713361e-01 4.024398050249562e-02 6.869304011293466e-01 -6.222333957624963e-01 6.847783868405174e-01 -6.248394653164163e-01 8.715789664865191e-02 1.831358099234064e-02
6.289686250000000e+10 1.245532022069596e-01 4.179567403993758e-02 6.866237764972759e-01 -6.225390526112627e-01 6.844521209692764e-01 -6.251552063779162e-01 8.542405544698858e-02 1.833380866472437e-02
6.293873125000000e+10 1.055262423819566e-01 4.157834983451737e-02 6.863167039557778e-01 -6.228443416180699e-01 6.841256967008333e-01 -6.254701342725150e-01 8.662096339913716e-02 2.086062504925737e-02
6.298060000000000e+10 1.185997438053107e-01 2.669337392203993e-02 6.860091703530889e-01 -6.231492681936401e-01 6.837991200575624e-01 -6.257842373385831e-01 8.440604598224734e-02 1.726337482742740e-02
6.302246875000000e+10 1.217141304371029e-01 3.246756331368258e-02 6.857011618855102e-01 -6.234538380761310e-01 6.834723968094086e-01 -6.260975039620001e-01 8.530334856851030e-02 2.291919854438634e-02
6.306433750000000e+10 1.227480565177244e-01 3.076416804014922e-02 6.853926641420343e-01 -6.237580574384677e-01 6.831455325623571e-01 -6.264099227348991e-01 8.530540033071049e-02 2.293165255345283e-02
6.310620625000000e+10 1.326215607928487e-01 2.904532235776550e-02 6.850836621823742e-01 -6.240619325416249e-01 6.828185327926565e-01 -6.267214821509414e-01 8.343660552746451e-02 2.353821890592424e-02
6.314807500000000e+10 1.282022257551806e-01 3.738186871118229e-02 6.847741405165683e-01 -6.243654697417802e-01 6.824914028062937e-01 -6.270321706047299e-01 8.641146813094401e-02 2.583236889662208e-02
6.318994375000000e+10 1.331624420304347e-01 3.314041716703425e-02 6.844640834766976e-01 -6.246686754639083e-01 6.821641480879431e-01 -6.273419763845608e-01 8.350478993630768e-02 2.537714098425656e-02
6.323181250000000e+10 1.342273446027368e-01 3.866502487500404e-02 6.841534750245944e-01 -6.249715560286997e-01 6.818367742244342e-01 -6.276508874230646e-01 8.699816828474212e-02 2.893661584267909e-02
6.327368125000000e+10 1.325427439787320e-01 4.530602790617117e-02 6.838422989871515e-01 -6.252741175285402e-01 6.815092870877952e-01 -6.279588911889066e-01 8.742802126641752e-02 2.681614233334721e-02
6.331555000000000e+10 1.285768188884317e-01 3.643086056119255e-02 6.835305391519755e-01 -6.255763658041306e-01 6.811816928892273e-01 -6.282659747078120e-01 8.564428522183334e-02 2.832385190046834e-02
6.335741875000000e+10 1.341935233807543e-01 3.845074000005898e-02 6.832181794117439e-01 -6.258783062259144e-01 6.808539983385650e-01 -6.285721242986843e-01 8.819104733797961e-02 2.587312784331164e-02
6.339928750000000e+10 1.352311367814131e-01 3.776717891107981e-02 6.829052039764220e-01 -6.261799441474781e-01 6.805262108099266e-01 -6.288773259531067e-01 8.695245910808276e-02 2.564255422849435e-02
6.344115625000000e+10 1.376542285139209e-01 3.633282431651961e-02 6.825915973178681e-01 -6.264812848950253e-01 6.801983383090549e-01 -6.291815654715620e-01 9.192010562664760e-02 2.827692069795831e-02
6.348302500000000e+10 1.409020172297440e-01 4.897252135792629e-02 6.822773442200362e-01 -6.267823339527359e-01 6.798703895151570e-01 -6.294848285717407e-01 9.137572430972454e-02 2.519730780193958e-02
6.352489375000000e+10 1.262920912030609e-01 3.493636794086604e-02 6.819624296510450e-01 -6.270830968618819e-01 6.795423736030498e-01 -6.297871009188856e-01 9.181216424115476e-02 2.897291530378764e-02
6.356676250000000e+10 1.476422496042517e-01 4.355155724747108e-02 6.816468385373526e-01 -6.273835790465317e-01 6.792143000923163e-01 -6.300883678794517e-01 9.444965198383509e-02 2.386742409186404e-02
6.360863125000000e+10 1.315295787453412e-01 4.832321898987001e-02 6.813305555527530e-01 -6.276837861605449e-01 6.788861785977361e-01 -6.303886148801959e-01 9.296057652259428e-02 2.859415365223388e-02
6.365050000000000e+10 1.301043973351168e-01 5.156190775855258e-02 6.810135653084457e-01 -6.279837238576305e-01 6.785580190411025e-01 -6.306878271283164e-01 9.467644453682375e-02 2.370294778375849e-02
6.369236875000000e+10 1.239295151571992e-01 4.178036652261916e-02 6.806958519403713e-01 -6.282833978580884e-01 6.782298312141504e-01 -6.309859896287979e-01 9.173832434983940e-02 2.135033163208539e-02
6.373423750000000e+10 1.290683819099919e-01 4.236752761543103e-02 6.803773991900361e-01 -6.285828138087250e-01 6.779016247929078e-01 -6.312830870755983e-01 9.388783969224833e-02 2.541686789966642e-02
6.377610625000000e+10 1.233878280571376e-01 4.174854957709608e-02 6.800581906121573e-01 -6.288819777330193e-01 6.775734095860297e-01 -6.315791043484822e-01 9.019086205513760e-02 2.023694275925705e-02
6.381797500000000e+10 1.284891201331927e-01 3.015026649033356e-02 6.797382096283504e-01 -6.291808958825860e-01 6.772451955897094e-01 -6.318740263351084e-01 9.108477630648999e-02 2.513166691943843e-02
6.385984375000000e+10 1.340108744953674e-01 4.209481992382841e-02 6.794174394636801e-01 -6.294795749290031e-01 6.769169928673029e-01 -6.321678381531037e-01 9.104484109460070e-02 2.391554677324527e-02
6.390171250000000e+10 1.340796859113347e-01 3.301915192581495e-02 6.790958633971942e-01 -6.297780221726974e-01 6.765888117952252e-01 -6.324605253488448e-01 8.880562027042575e-02 2.658776436094415e-02
6.394358125000000e+10 1.362388502914226e-01 4.046384786151802e-02 6.787734647684870e-01 -6.300762452133472e-01 6.762606630503960e-01 -6.327520736646602e-01 9.223083395737831e-02 2.478500084918232e-02
6.398545000000000e+10 1.432383897201773e-01 3.754329121241559e-02 6.784502271645046e-01 -6.303742521569796e-01 6.759325578043797e-01 -6.330424691299151e-01 8.953577962941624e-02 2.770746285428215e-02
6.402731875000000e+10 1.373894528877828e-01 4.854779369481665e-02 6.781261344421912e-01 -6.306720515445612e-01 6.756045077114773e-01 -6.333316980402870e-01 9.297546773916106e-02 2.691869548684401e-02
6.406918750000000e+10 1.427211540739918e-01 4.521415378817924e-02 6.778011708147348e-01 -6.309696522788769e-01 6.752765250428370e-01 -6.336197468283266e-01 9.219270755315130e-02 2.586545268313145e-02
6.411105625000000e+10 1.369372159495525e-01 4.754565102014745e-02 6.774753208743198e-01 -6.312670635820099e-01 6.749486225348130e-01 -6.339066021068628e-01 9.244986308667244e-02 2.867107280591244e-02
6.415292500000000e+10 1.379246328171622e-01 4.780013011285295e-02 6.771485696769531e-01 -6.315642950632668e-01 6.746208136346594e-01 -6.341922506879377e-01 9.292231028082643e-02 2.339585327429880e-02
6.419479375000000e+10 1.356718222376056e-01 3.776122766248526e-02 6.768209025116632e-01 -6.318613568452954e-01 6.742931123041810e-01 -6.344766797257424e-01 9.133225949606480e-02 2.612270610909029e-02
6.423666250000000e+10 1.430524924202043e-01 5.052101714976223e-02 6.764923047716700e-01 -6.321582595735534e-01 6.739655328132196e-01 -6.347598767080516e-01 9.213663414414122e-02 2.618899850298140e-02
6.427853125000000e+10 1.326305943635348e-01 4.795922022748340e-02 6.761627617849881e-01 -6.324550147745600e-01 6.736380896124644e-01 -6.350418298299895e-01 9.074558244799047e-02 2.531560619144299e-02
6.432040000000000e+10 1.300555517934437e-01 4.346258544354008e-02 6.758322587674692e-01 -6.327516343765134e-01 6.733107972459048e-01 -6.353225275449288e-01 9.272242143542896e-02 2.718189757824505e-02
6.436226875000000e+10 1.401544528588924e-01 4.529325952634324e-02 6.755007806468881e-01 -6.330481308952973e-01 6.729836701959517e-01 -6.356019587540065e-01 9.128848177246063e-02 2.324290675290431e-02
6.440413750000000e+10 1.247640698834713e-01 4.104675771152344e-02 6.751683119407216e-01 -6.333445173805031e-01 6.726567228040223e-01 -6.358801126919728e-01 9.178000162529630e-02 2.436884121789162e-02
6.444600625000000e+10 1.467062914716223e-01 3.529064018810393e-02 6.748348370220369e-01 -6.336408074384081e-01 6.723299695064502e-01 -6.361569789456165e-01 9.258144045045998e-02 2.487965283943281e-02
6.448787500000000e+10 1.350198961210203e-01 4.866063573344761e-02 6.745003398288084e-01 -6.339370155050890e-01 6.720034245710444e-01 -6.364325477604761e-01 9.162560120607795e-02 2.423751147436710e-02
6.452974375000000e+10 1.392484189334152e-01 4.057332599177794e-02 6.741648041969984e-01 -6.342331566556607e-01 6.716771024389683e-01 -6.367068098305685e-01 9.287309324654357e-02 2.485304951507592e-02
6.457161250000000e+10 1.437738485680332e-01 5.181887577481211e-02 6.738282134514967e-01 -6.345292466413874e-01 6.713510173480237e-01 -6.369797563534823e-01 9.281695639985144e-02 2.502383848479977e-02
6.461348125000000e+10 1.265285088917164e-01 4.751569016696291e-02 6.734905506458785e-01 -6.348253019790162e-01 6.710251836445787e-01 -6.372513790182071e-01 9.239478161137644e-02 2.447534811501926e-02
6.465535000000000e+10 1.381883782804181e-01 4.276310601092100e-02 6.731517986055595e-01 -6.351213396486649e-01 6.706996157030692e-01 -6.375216697793179e-01 9.390884227437157e-02 2.383531067690667e-02
6.469721875000000e+10 1.235505723469985e-01 3.806952956120409e-02 6.728119395366142e-01 -6.354173772623466e-01 6.703743275025409e-01 -6.377906210849652e-01 8.990009272567108e-02 2.626077879751166e-02
6.473908750000000e+10 1.428633449350371e-01 3.372349774315634e-02 6.724709552194944e-01 -6.357134330434818e-01 6.700493328660780e-01 -6.380582258694389e-01 9.096849492225875e-02 2.488317242142892e-02
6.478095625000000e+10 1.287498110240019e-01 3.203582320284432e-02 6.721288265269895e-01 -6.360095260120640e-01 6.697246449111952e-01 -6.383244776691318e-01 9.057139943831953e-02 2.451495304534690e-02
6.482282500000000e+10 1.600057251508825e-01 3.540542780419675e-02 6.717855339051706e-01 -6.363056756411992e-01 6.694002766075611e-01 -6.385893703434050e-01 9.108757059009540e-02 2.947335220923309e-02
6.486469375000000e+10 1.340829570666641e-01 4.364808955860016e-02 6.714410572597962e-01 -6.366019021217183e-01 6.690762406660298e-01 -6.388528983720900e-01 9.042056690639379e-02 2.618069920735602e-02
6.490656250000000e+10 1.550284588373247e-01 3.816722866498352e-02 6.710953767772858e-01 -6.368982259028084e-01 6.687525503631953e-01 -6.391150562688613e-01 9.225862254728980e-02 2.853396978922329e-02
6.494843125000000e+10 1.414626087543092e-01 4.787475181355014e-02 6.707484721524918e-01 -6.371946680503244e-01 6.684292188322539e-01 -6.393758390310137e-01 9.362116674428529e-02 2.728128873052557e-02
6.499030000000000e+10 1.453444269080509e-01 5.566330385534228e-02 6.704003229831008e-01 -6.374912501667952e-01 6.681062593887122e-01 -6.396352419472934e-01 9.317986048951531e-02 2.768336132268261e-02
6.503216875000000e+10 1.285054037848589e-01 4.575961400406609e-02 6.700509083106175e-01 -6.377879943398321e-01 6.677836850564823e-01 -6.398932605696251e-01 9.465733360055491e-02 2.632778585040945e-02
6.507403750000000e+10 1.394202150340854e-01 5.352888515597658e-02 6.697002065931836e-01 -6.380849227333002e-01 6.674615086529977e-01 -6.401498902062058e-01 9.646977177674282e-02 2.628728619017403e-02
6.511590625000000e+10 1.256378717462306e-01 4.039401186916695e-02 6.693481955554659e-01 -6.383820579206609e-01 6.671397426127220e-01 -6.404051263264889e-01 9.616566335678751e-02 2.718915258221124e-02
6.515777500000000e+10 1.445050307610900e-01 4.469450634363616e-02 6.689948522675019e-01 -6.386794223634559e-01 6.668183990682818e-01 -6.406589640047576e-01 9.887767345280563e-02 2.587457860383108e-02
6.519964375000000e+10 1.360806722594959e-01 5.200856572255567e-02 6.686401531756496e-01 -6.389770388099225e-01 6.664974898652126e-01 -6.409113983151867e-01 9.884499489492923e-02 2.787521981853182e-02
6.524151250000000e+10 1.313759405175460e-01 5.007047062029470e-02 6.682840745332632e-01 -6.392749299876088e-01 6.661770269773273e-01 -6.411624240550795e-01 9.860108658657846e-02 2.822603500731299e-02
6.528338125000000e+10 1.363038366465809e-01 4.462698201130754e-02 6.679265923845535e-01 -6.395731185513035e-01 6.658570225287251e-01 -6.414120357183324e-01 9.797601528774746e-02 2.564960389054721e-02
6.532525000000000e+10 1.370678629981084e-01 4.535396610720492e-02 6.675676824949901e-01 -6.398716272401974e-01 6.655374887210358e-01 -6.416602276076696e-01 9.863541158831525e-02 2.755191966753212e-02
6.536711875000000e+10 1.363155555917306e-01 4.582431956000069e-02 6.672073205876400e-01 -6.401704790405811e-01 6.652184380818437e-01 -6.419069939799619e-01 9.918609349942531e-02 2.319424436724538e-02
6.540898750000000e+10 1.470545111118885e-01 4.089738068844558e-02 6.668454823258542e-01 -6.404696970517693e-01 6.648998834120694e-01 -6.421523289577029e-01 9.901026619644981e-02 2.705668028166696e-02
6.545085625000000e+10 1.334059044696680e-01 5.691769047063307e-02 6.664821434121923e-01 -6.407693047379658e-01 6.645818379605400e-01 -6.423962267107134e-01 1.020463695223836e-01 2.429508054787363e-02
6.549272500000000e+10 1.439935386002104e-01 3.538192052070912e-02 6.661172797506566e-01 -6.410693258909748e-01 6.642643154995705e-01 -6.426386815419505e-01 1.005147040161639e-01 2.432153993623740e-02
6.553459375000000e+10 1.432829007718546e-01 5.603562191972684e-02 6.657508669752911e-01 -6.413697845115305e-01 6.639473298981402e-01 -6.428796876883425e-01 1.024185730933049e-01 2.472223355317173e-02
6.557646250000000e+10 1.400141962675480e-01 4.871978051808166e-02 6.653828808158396e-01 -6.416707051816998e-01 6.636308954736714e-01 -6.431192397846964e-01 1.007271163429960e-01 2.044678275305215e-02
6.561833125000000e+10 1.341574065331053e-01 4.931841413867166e-02 6.650132969128412e-01 -6.419721126142724e-01 6.633150267948609e-01 -6.433573324774783e-01 1.022528484555710e-01 2.387635225660630e-02
6.566020000000000e+10 1.381021261549818e-01 5.315461815351887e-02 6.646420907119128e-01 -6.422740318064970e-01 6.629997386283923e-01 -6.435939605373785e-01 1.025490020303036e-01 1.945949109018348e-02
6.570206875000000e+10 1.266115335570743e-01 4.388567246931187e-02 6.642692374258142e-01 -6.425764880447333e-01 6.626850458517984e-01 -6.438291189462964e-01 9.842128074130840e-02 2.018885913096273e-02
6.574393750000000e+10 1.335799361282516e-01 4.037111441688868e-02 6.638947121029765e-01 -6.428795069201813e-01 6.623709634880711e-01 -6.440628027945785e-01 1.019843068315773e-01 2.104176449515730e-02
6.578580625000000e+10 1.353132654958846e-01 3.471989253170741e-02 6.635184894436285e-01 -6.431831146647971e-01 6.620575066023616e-01 -6.442950077085573e-01 9.574692251542270e-02 2.008948306937862e-02
6.582767500000000e+10 1.390019904139256e-01 3.429972013338021e-02 6.631405438490424e-01 -6.434873380211908e-01 6.617446902640175e-01 -6.445257298426397e-01 1.000767708107416e-01 2.449862915643278e-02
6.586954375000000e+10 1.527634699308976e-01 4.067638051982942e-02 6.627608494201566e-01 -6.437922044046627e-01 6.614325295600738e-01 -6.447549660136247e-01 9.842477345108937e-02 2.083230436183609e-02
6.591141250000000e+10 1.426685138177995e-01 4.970030116986163e-02 6.623793800364238e-01 -6.440977418322399e-01 6.611210395446805e-01 -6.449827136269226e-01 9.725181000289933e-02 2.624560803688623e-02
6.595328125000000e+10 1.435903529741009e-01 4.777680522957389e-02 6.619961096319282e-01 -6.444039787403343e-01 6.608102356701280e-01 -6.452089704321227e-01 1.006099193454244e-01 1.957914638283987e-02
6.599515000000000e+10 1.457199946522905e-01 4.594661813685661e-02 6.616110121051116e-01 -6.447109438960437e-01 6.605001336570593e-01 -6.454337343442850e-01 9.892009360411499e-02 2.403443565490939e-02
6.603701875000000e+10 1.417998691511815e-01 5.870106274940001e-02 6.612240612812169e-01 -6.450186663720158e-01 6.601907495625531e-01 -6.456570034106217e-01 1.044196764253924e-01 2.310921672510429e-02
6.607888750000000e+10 1.412219767629792e-01 4.708661415792312e-02 6.608352311619471e-01 -6.453271754967977e-01 6.598820999147377e-01 -6.458787759230616e-01 1.026764751464811e-01 2.070056944881301e-02
6.612075625000000e+10 1.462886136535009e-01 5.891035411206041e-02 6.604444958758081e-01 -6.456365003702098e-01 6.595742015817867e-01 -6.460990499258301e-01 1.053919530382151e-01 2.565067228854244e-02
6.616262500000000e+10 1.342453078537462e-01 6.226332777608989e-02 6.600518299354717e-01 -6.459466702962466e-01 6.592670721042262e-01 -6.463178235792164e-01 1.045064953206701e-01 1.847452673328376e-02
6.620449375000000e+10 1.296667806352149e-01 4.471655219553890e-02 6.596572083780978e-01 -6.462577143128488e-01 6.589607298559700e-01 -6.465350946961954e-01 1.020283481299237e-01 2.348239283480215e-02
6.624636250000000e+10 1.415308712122343e-01 5.275311662789666e-02 6.592606067006033e-01 -6.465696613128554e-01 6.586551939122760e-01 -6.467508609567845e-01 1.052454955006166e-01 1.764290561499017e-02
6.628823125000000e+10 1.297255662696569e-01 4.103056048650074e-02 6.588620008483101e-01 -6.468825406759392e-01 6.583504839640508e-01 -6.469651205920650e-01 9.808820720607125e-02 1.931552797350694e-02
6.633010000000000e+10 1.439326521168531e-01 4.633557723938850e-02 6.584613674291168e-01 -6.471963820270933e-01 6.580466204894908e-01 -6.471778721156052e-01 1.063521460859967e-01 1.783674116795986e-02
6.637196875000000e+10 1.376486425456441e-01 4.726399072845331e-02 6.580586833313580e-01 -6.475112157300434e-01 6.577436244078894e-01 -6.473891149708932e-01 9.921720598175886e-02 1.763333235472634e-02
6.641383750000000e+10 1.398503102662903e-01 4.876488839500174e-02 6.576539260644384e-01 -6.478270726640468e-01 6.574415173865379e-01 -6.475988491249680e-01 1.053657607908213e-01 1.963529483040621e-02
6.645570625000000e+10 1.403372815078083e-01 5.173962317445611e-02 6.572470736696314e-01 -6.481439844123728e-01 6.571403216995851e-01 -6.478070753952527e-01 1.026235095218777e-01 1.410393056158310e-02
6.649757500000000e+10 1.275032842057072e-01 5.190609233585705e-02 6.568381048341075e-01 -6.484619831831251e-01 6.568400603717089e-01 -6.480137952873724e-01 1.018846667921851e-01 1.908876598858200e-02
6.653944375000000e+10 1.330924170687099e-01 3.895122625595075e-02 6.564269988361764e-01 -6.487811019253971e-01 6.565407571082325e-01 -6.482190111718544e-01 1.040961698516263e-01 1.547944737035627e-02
6.658131250000000e+10 1.363631734851801e-01 5.113905604743756e-02 6.560137351197518e-01 -6.491013743640338e-01 6.562424358627806e-01 -6.484227263619653e-01 9.710756059076989e-02 1.708074882083506e-02
6.662318125000000e+10 1.252577259586799e-01 3.558639030715007e-02 6.555982934163916e-01 -6.494228354052567e-01 6.559451209055349e-01 -6.486249454834881e-01 1.043895330184826e-01 1.481003837919115e-02
6.666505000000000e+10 1.484749791034544e-01 4.424669696839009e-02 6.551806537459266e-01 -6.497455208021511e-01 6.556488368065885e-01 -6.488256741509894e-01 9.818550144052360e-02 1.488643787638587e-02
6.670691875000000e+10 1.303273714942995e-01 5.118086647620333e-02 6.547607962276184e-01 -6.500694674626839e-01 6.553536082669321e-01 -6.490249192841152e-01 1.035715752197702e-01 1.686748626912588e-02
6.674878750000000e+10 1.297474768663768e-01 4.936745976527603e-02 6.543387015817334e-01 -6.503947132174750e-01 6.550594605677565e-01 -6.492226889385997e-01 1.028162419414044e-01 1.237592562813059e-02
6.679065625000000e+10 1.342202402090084e-01 3.745702591267050e-02 6.539143508972334e-01 -6.507212964453897e-01 6.547664193012087e-01 -6.494189920092440e-01 1.020681172813540e-01 1.845906990833444e-02
6.683252500000000e+10 1.342316275390368e-01 5.497488830564180e-02 6.534877258627152e-01 -6.510492563617288e-01 6.544745105045168e-01 -6.496138384807907e-01 9.906001238903062e-02 1.347684686894396e-02
6.687439375000000e+10 1.296478168091944e-01 3.953022650026853e-02 6.530588088968927e-01 -6.513786333701373e-01 6.541837607213564e-01 -6.498072396949480e-01 9.724140090202343e-02 1.510998644752518e-02
6.691626250000000e+10 1.299404316697975e-01 4.724157513709176e-02 6.526275830482476e-01 -6.517094687784155e-01 6.538941970528528e-01 -6.499992082459576e-01 1.001337615965943e-01 1.405869794945433e-02
6.695813125000000e+10 1.313448818328430e-01 4.042907382900345e-02 6.521940319643276e-01 -6.520418052074627e-01 6.536058470159101e-01 -6.501897583608645e-01 9.495246614473760e-02 1.257546557212619e-02
6.700000000000000e+10 1.317386266856579e-01 4.140217676430930e-02 6.517581397083052e-01 -6.523756862950014e-01 6.533187384022082e-01 -6.503789057854342e-01 9.986413513053044e-02 1.450488716773338e-02
