! Generated by Phase I extraction
# Hz S RI R 50
1.100000000000000e+11 2.162508673903885e-01 -6.854444701379320e-02 1.455466809818376e-01 -9.158499047312453e-01 5.559897503263859e-01 -7.504053248286814e-01 2.335293349293112e-01 -9.256281377939982e-02
1.100408163265300e+11 2.168309024668212e-01 -6.170014156276563e-02 1.461298345543342e-01 -9.154573984163316e-01 5.553353576787479e-01 -7.510936036224772e-01 2.257311813170621e-01 -8.396951476973770e-02
1.100816326530600e+11 2.172978937629868e-01 -6.666556784597487e-02 1.467347913110048e-01 -9.150513632213477e-01 5.546803031777254e-01 -7.517882462844184e-01 2.250367301526176e-01 -7.383725417423401e-02
1.101224489795900e+11 2.193696433815289e-01 -6.709537533833539e-02 1.473592138949806e-01 -9.146320893025867e-01 5.540249617491011e-01 -7.524889914687065e-01 2.249532972326483e-01 -6.795570929089163e-02
1.101632653061200e+11 2.166011803193670e-01 -6.874672100012597e-02 1.480007451070589e-01 -9.141998710165656e-01 5.533697638904777e-01 -7.531955427459636e-01 2.229446454731357e-01 -6.705335281528622e-02
1.102040816326500e+11 2.156245778830329e-01 -6.801132532466835e-02 1.486570338221768e-01 -9.137550065843504e-01 5.527151782745007e-01 -7.539075856433647e-01 2.230972432487232e-01 -6.929683510173153e-02
1.102448979591800e+11 2.151120246868305e-01 -6.687705848070123e-02 1.489899816171588e-01 -9.135279265588325e-01 5.523882673818674e-01 -7.542655669771640e-01 2.224145148444613e-01 -6.915224928071191e-02
1.102857142857100e+11 2.150021048181656e-01 -6.635834794322164e-02 1.496640813901304e-01 -9.130646525859033e-01 5.517355238298953e-01 -7.549852540857179e-01 2.214694803224821e-01 -6.950937445892948e-02
1.103265306122400e+11 2.147154907056462e-01 -6.579184911021370e-02 1.503473413249532e-01 -9.125894597908799e-01 5.510846434541935e-01 -7.557096555436715e-01 2.198046154076557e-01 -6.947218053558013e-02
1.103673469387800e+11 2.160608873478790e-01 -6.469920215467369e-02 1.510376772838014e-01 -9.121026306101327e-01 5.504361355060980e-01 -7.564384810019231e-01 2.164327860782483e-01 -6.516044723875301e-02
1.104081632653100e+11 2.161924383902044e-01 -6.550959427242889e-02 1.517330652539267e-01 -9.116044493403932e-01 5.497905077500443e-01 -7.571714537887508e-01 2.175309720769796e-01 -6.511072421733430e-02
1.104489795918400e+11 2.163268991733616e-01 -6.487409255143513e-02 1.524315381095672e-01 -9.110952007511117e-01 5.491482722695697e-01 -7.579083020088516e-01 2.153503990838558e-01 -6.340227860541320e-02
1.104897959183700e+11 2.164390051843427e-01 -6.459292724992792e-02 1.531311792577890e-01 -9.105751743091944e-01 5.485099509553319e-01 -7.586487578148545e-01 2.149510872086065e-01 -6.202225921639257e-02
1.105306122449000e+11 2.156007418538024e-01 -6.457083632142839e-02 1.534808498675609e-01 -9.103112107888203e-01 5.481924250879773e-01 -7.590202547473146e-01 2.154066508425613e-01 -6.415510453244991e-02
1.105714285714300e+11 2.160651900511844e-01 -6.275876788640918e-02 1.541787974125525e-01 -9.097755508660317e-01 5.475609787711653e-01 -7.597656264025929e-01 2.134229637874539e-01 -6.129623372269255e-02
1.106122448979600e+11 2.172807150324957e-01 -6.429054517764822e-02 1.548735428133829e-01 -9.092297825981738e-01 5.469347823879298e-01 -7.605139700826149e-01 2.192417778008012e-01 -6.142987370046558e-02
1.106530612244900e+11 2.147106855560137e-01 -6.365238929614690e-02 1.555635243804832e-01 -9.086741418023616e-01 5.463143643303937e-01 -7.612650564860096e-01 2.158653146259336e-01 -6.690240022621494e-02
1.106938775510200e+11 2.151935071403267e-01 -6.220151005272961e-02 1.562472495773720e-01 -9.081088582211407e-01 5.457002512776681e-01 -7.620186764796413e-01 2.143405927776737e-01 -6.507751126750499e-02
1.107346938775500e+11 2.150355809472161e-01 -6.196016618107713e-02 1.569233010374594e-01 -9.075341548833793e-01 5.450929459811098e-01 -7.627746443960626e-01 2.148618173409742e-01 -6.605491097917371e-02
1.107755102040800e+11 2.159334605151027e-01 -6.159674468227124e-02 1.572580236275935e-01 -9.072433404617718e-01 5.447919959329888e-01 -7.631534538102422e-01 2.161180605358383e-01 -6.405522213735051e-02
1.108163265306100e+11 2.155487371939004e-01 -6.243479428783501e-02 1.579200982790595e-01 -9.066549108207761e-01 5.441957816704099e-01 -7.639126252467108e-01 2.176923956130818e-01 -6.784323186994594e-02
1.108571428571400e+11 2.152822879411319e-01 -6.197111400694574e-02 1.585714469247395e-01 -9.060575600404730e-01 5.436074950685218e-01 -7.646737530005704e-01 2.158278654976040e-01 -6.958807286792322e-02
1.108979591836700e+11 2.159207557912293e-01 -6.159021230205407e-02 1.592110415418998e-01 -9.054514699367461e-01 5.430275243629568e-01 -7.654367136811536e-01 2.161566601768035e-01 -6.918713180130918e-02
1.109387755102000e+11 2.162324506650039e-01 -6.163456420014502e-02 1.598379178791426e-01 -9.048368251054559e-01 5.424562203127771e-01 -7.662014027503475e-01 2.166761967013218e-01 -6.790448460496543e-02
1.109795918367300e+11 2.166219871757653e-01 -6.173614498495078e-02 1.604511736561670e-01 -9.042138150694610e-01 5.418938896280799e-01 -7.669677359185885e-01 2.174586703946832e-01 -6.736842931504453e-02
1.110204081632700e+11 2.169932128460605e-01 -6.137960520419391e-02 1.610499712010527e-01 -9.035826356427922e-01 5.413407917492956e-01 -7.677356491142119e-01 2.168017519255192e-01 -6.619456284124230e-02
1.110612244898000e+11 2.176639398429707e-01 -6.066029543233381e-02 1.613437025843483e-01 -9.032640468840030e-01 5.410677738815295e-01 -7.681201835080781e-01 2.163989089020729e-01 -6.311337069760434e-02
1.111020408163300e+11 2.181754704032500e-01 -6.053272211959852e-02 1.619194311535793e-01 -9.026209893252566e-01 5.405289075947293e-01 -7.688903975639902e-01 2.168505416922860e-01 -6.100725342483945e-02
1.111428571428600e+11 2.185593617453873e-01 -6.093071656077499e-02 1.624791009580824e-01 -9.019702316116520e-01 5.399997094867222e-01 -7.696621453675269e-01 2.184121253774146e-01 -6.083120962538594e-02
1.111836734693900e+11 2.185118718667106e-01 -6.036102060560313e-02 1.630222533429387e-01 -9.013119506462235e-01 5.394802889264659e-01 -7.704354384005484e-01 2.193268051521157e-01 -6.162818192241872e-02
1.112244897959200e+11 2.192004421621915e-01 -6.008892367580767e-02 1.635484643515951e-01 -9.006463350610153e-01 5.389707424817530e-01 -7.712102834839796e-01 2.200279172268503e-01 -6.206251810593575e-02
1.112653061224500e+11 2.193519262772579e-01 -6.037740731761681e-02 1.640573292668538e-01 -8.999735915124288e-01 5.384711669047244e-01 -7.719866705463392e-01 2.200420138610462e-01 -6.225023192668835e-02
1.113061224489800e+11 2.195841364008141e-01 -6.043657155780095e-02 1.645484488650004e-01 -8.992939504306446e-01 5.379816658503244e-01 -7.727645657219743e-01 2.202149307347775e-01 -6.225130651106144e-02
1.113469387755100e+11 2.194612452851200e-01 -6.049513646327346e-02 1.647872279909664e-01 -8.989516225225385e-01 5.377407267090979e-01 -7.731540623597239e-01 2.200403592242288e-01 -6.272781004116694e-02
1.113877551020400e+11 2.193775751388198e-01 -6.023750866141658e-02 1.652510495496287e-01 -8.982621072607307e-01 5.372665202107093e-01 -7.739341269888023e-01 2.202751743498155e-01 -6.342724760972028e-02
1.114285714285700e+11 2.194631041163815e-01 -5.987677549914152e-02 1.656964320591194e-01 -8.975663170866333e-01 5.368025726251653e-01 -7.747155977010654e-01 2.206591223545379e-01 -6.427724311331937e-02
1.114693877551000e+11 2.190710390479268e-01 -5.976564584159013e-02 1.661232597018527e-01 -8.968645199896037e-01 5.363488851968333e-01 -7.754984500668064e-01 2.208601160156552e-01 -6.509599218718112e-02
1.115102040816300e+11 2.190924246503465e-01 -5.959386188754586e-02 1.665314800661613e-01 -8.961570054862623e-01 5.359054064878958e-01 -7.762826721599779e-01 2.208915864140640e-01 -6.598748382067798e-02
1.115510204081600e+11 2.191828513366150e-01 -5.943971495214170e-02 1.669210961903337e-01 -8.954440853163909e-01 5.354720335822430e-01 -7.770682635546386e-01 2.202780557084640e-01 -6.646075648371025e-02
1.115918367346900e+11 2.197518753065183e-01 -5.925768788484503e-02 1.671089329713792e-01 -8.950857029680350e-01 5.352590957128427e-01 -7.774615718971429e-01 2.192136102682685e-01 -6.597738555544941e-02
1.116326530612200e+11 2.201501910823881e-01 -5.930393071599088e-02 1.674707510716552e-01 -8.943652980048886e-01 5.348406036467155e-01 -7.782492228954957e-01 2.188154943839891e-01 -6.545524708913307e-02
1.116734693877600e+11 2.205066145721536e-01 -5.915938144322169e-02 1.678142936565152e-01 -8.936403036316304e-01 5.344317775375381e-01 -7.790382651518283e-01 2.187933696271322e-01 -6.486202517728368e-02
1.117142857142900e+11 2.207448044769429e-01 -5.919646868704617e-02 1.681397495288394e-01 -8.929110591513439e-01 5.340324224993402e-01 -7.798286675628865e-01 2.192935707053336e-01 -6.447548384856752e-02
1.117551020408200e+11 2.208244671860077e-01 -5.938883322360431e-02 1.684472595410256e-01 -8.921779278096620e-01 5.336423668086773e-01 -7.806203443205825e-01 2.200923691608322e-01 -6.461666184147317e-02
1.117959183673500e+11 2.211491406914999e-01 -5.896027285205890e-02 1.687369281275675e-01 -8.914413025622382e-01 5.332614509297122e-01 -7.814131587031740e-01 2.202788631632860e-01 -6.488900393128619e-02
1.118367346938800e+11 2.219091608876276e-01 -5.827330790201918e-02 1.690088489904378e-01 -8.907016083804236e-01 5.328895058980480e-01 -7.822069383646021e-01 2.199801239367193e-01 -6.429501790904592e-02
1.118775510204100e+11 2.228372545659086e-01 -5.873580467737766e-02 1.691381864949830e-01 -8.903307521654819e-01 5.327068353880249e-01 -7.826041318589263e-01 2.202082915429081e-01 -6.306288367026684e-02
1.119183673469400e+11 2.232828978560394e-01 -5.893296000228944e-02 1.693837742010400e-01 -8.895872958279065e-01 5.323479318662954e-01 -7.833990229311080e-01 2.207559149995390e-01 -6.277387107036896e-02
1.119591836734700e+11 2.236619819593540e-01 -5.933346293745213e-02 1.696122573828864e-01 -8.888418673541459e-01 5.319973267495404e-01 -7.841944707869970e-01 2.215926907779534e-01 -6.287948500162838e-02
1.120000000000000e+11 2.226889205234314e-01 -6.017821350097403e-02 1.698240891304631e-01 -8.880949157837695e-01 5.316546285969249e-01 -7.849903383050104e-01 2.203270785485212e-01 -6.206869434583001e-02
1.120408163265300e+11 2.227638616841389e-01 -6.045750918091461e-02 1.700197594365959e-01 -8.873469194863465e-01 5.313194030819517e-01 -7.857864820396783e-01 2.190308985867065e-01 -6.098607554665752e-02
1.120816326530600e+11 2.230473724090260e-01 -6.105397768330503e-02 1.701997645315760e-01 -8.865983884830925e-01 5.309911938117085e-01 -7.865827341011176e-01 2.190085128163859e-01 -5.966920684244584e-02
1.121224489795900e+11 2.226962463908211e-01 -6.137298466014390e-02 1.703645836092755e-01 -8.858498641321999e-01 5.306695414889497e-01 -7.873788852064625e-01 2.195023887481986e-01 -6.017923173913666e-02
1.121632653061200e+11 2.222119581222227e-01 -6.200980964092743e-02 1.704414379320604e-01 -8.854757833094107e-01 5.305110330407261e-01 -7.877768439158988e-01 2.190944078250036e-01 -5.978927068341149e-02
1.122040816326500e+11 2.219619125097990e-01 -6.232497393359814e-02 1.705843831949642e-01 -8.847283351370930e-01 5.301983506525015e-01 -7.885723678088765e-01 2.186538083454797e-01 -5.922921397068458e-02
1.122448979591800e+11 2.213916440742672e-01 -6.268833800663121e-02 1.707135405691723e-01 -8.839822968988068e-01 5.298910171209109e-01 -7.893671569203072e-01 2.182808157046598e-01 -5.912604437487893e-02
1.122857142857100e+11 2.211510066989305e-01 -6.302157052374073e-02 1.708295807093877e-01 -8.832382509069608e-01 5.295885036991504e-01 -7.901609354808850e-01 2.183309474810195e-01 -5.923033226203284e-02
1.123265306122400e+11 2.205369937195568e-01 -6.335535689702146e-02 1.709332015725979e-01 -8.824968099755511e-01 5.292902440470862e-01 -7.909534208977218e-01 2.182670264495330e-01 -5.898783689772918e-02
1.123673469387800e+11 2.202006154464268e-01 -6.388277754939878e-02 1.710251590214057e-01 -8.817586157061207e-01 5.289956105323673e-01 -7.917443311361378e-01 2.186185714746447e-01 -5.894767676083065e-02
1.124081632653100e+11 2.199609537608548e-01 -6.387418891216722e-02 1.711062776955923e-01 -8.810243464104547e-01 5.287039070664272e-01 -7.925333845262373e-01 2.181558850464393e-01 -5.798019329226860e-02
1.124489795918400e+11 2.199261264895815e-01 -6.349227510570403e-02 1.711430400487374e-01 -8.806589081827999e-01 5.285589211897367e-01 -7.929271272344635e-01 2.179438159289374e-01 -5.727937003233525e-02
1.124897959183700e+11 2.204371179310259e-01 -6.339166650968449e-02 1.712095934492986e-01 -8.799318691510074e-01 5.282701757362358e-01 -7.937128904905596e-01 2.180021243339652e-01 -5.667901081521132e-02
1.125306122449000e+11 2.207666410784342e-01 -6.408058657274539e-02 1.712677943029400e-01 -8.792105338985459e-01 5.279823481251220e-01 -7.944961712589905e-01 2.180235927992953e-01 -5.594985712481996e-02
1.125714285714300e+11 2.209111040330496e-01 -6.427730859637193e-02 1.713187647473410e-01 -8.784956416647391e-01 5.276945638239670e-01 -7.952767262854039e-01 2.176437013620006e-01 -5.537432415853100e-02
1.126122448979600e+11 2.212757738366751e-01 -6.402092050623867e-02 1.713636074702294e-01 -8.777879644335874e-01 5.274059517373464e-01 -7.960542851331904e-01 2.177044015836012e-01 -5.425912254752971e-02
1.126530612244900e+11 2.213162161304695e-01 -6.389686068839073e-02 1.714034037917283e-01 -8.770883036480752e-01 5.271156563992188e-01 -7.968285512375597e-01 2.184369097936369e-01 -5.431418508432758e-02
1.126938775510200e+11 2.211986438846036e-01 -6.397344923461215e-02 1.714217425429763e-01 -8.767417376548586e-01 5.269696127567809e-01 -7.972143517175196e-01 2.188622099450159e-01 -5.537968622527262e-02
1.127346938775500e+11 2.213229471413951e-01 -6.356650340928915e-02 1.714560446252465e-01 -8.760556346865197e-01 5.266751911617166e-01 -7.979831149940709e-01 2.183821423680001e-01 -5.588528642355428e-02
1.127755102040800e+11 2.214518095497494e-01 -6.325706212736146e-02 1.714882896465041e-01 -8.753795527072361e-01 5.263768997713947e-01 -7.987479050289751e-01 2.181289548195982e-01 -5.603075309845870e-02
1.128163265306100e+11 2.218203889146541e-01 -6.305456641211889e-02 1.715198440765529e-01 -8.747142992342040e-01 5.260737878940385e-01 -7.995085140803181e-01 2.178324736408145e-01 -5.583282254657915e-02
1.128571428571400e+11 2.220989447883286e-01 -6.305835666054917e-02 1.715521251209607e-01 -8.740607044661187e-01 5.257648510737901e-01 -8.002647723434125e-01 2.167083786385179e-01 -5.587987967561073e-02
1.128979591836700e+11 2.224468424818576e-01 -6.275159259574971e-02 1.715865729645966e-01 -8.734196164362154e-01 5.254490469764894e-01 -8.010165433007700e-01 2.148301799693777e-01 -5.604201324620378e-02
1.129387755102000e+11 2.224770674864378e-01 -6.218458715549684e-02 1.716246054686438e-01 -8.727918947742938e-01 5.251253327161575e-01 -8.017637039982572e-01 2.137353172650429e-01 -5.589573642456636e-02
1.129795918367300e+11 2.224037372883182e-01 -6.164555799894595e-02 1.716453839151431e-01 -8.724833188472341e-01 5.249601961417805e-01 -8.021355109912093e-01 2.132404303250383e-01 -5.591733874810709e-02
1.130204081632700e+11 2.227751400947658e-01 -6.127694592097689e-02 1.716913239144816e-01 -8.718772460831865e-01 5.246227588855231e-01 -8.028755014670830e-01 2.125363550811608e-01 -5.604943224163382e-02
1.130612244898000e+11 2.234113162252284e-01 -6.090604279821603e-02 1.717442678570157e-01 -8.712865703335628e-01 5.242750062702750e-01 -8.036105608027845e-01 2.118112020295244e-01 -5.628072102881543e-02
1.131020408163300e+11 2.237341240329764e-01 -6.086476540168303e-02 1.718054788642234e-01 -8.707120423685447e-01 5.239161073513469e-01 -8.043405066398980e-01 2.117459022606142e-01 -5.751870661742961e-02
1.131428571428600e+11 2.239745989566522e-01 -6.056343859513772e-02 1.718761313774953e-01 -8.701544059393390e-01 5.235452892761999e-01 -8.050651128652365e-01 2.127950707227822e-01 -5.899634107342736e-02
1.131836734693900e+11 2.244632837355343e-01 -6.052712652160716e-02 1.719573845918989e-01 -8.696143921662173e-01 5.231617711660135e-01 -8.057841516870018e-01 2.139278625542089e-01 -6.093905255576138e-02
1.132244897959200e+11 2.254683457535725e-01 -6.072174742372013e-02 1.720504471653288e-01 -8.690927095971713e-01 5.227646951899186e-01 -8.064974338114231e-01 2.142951920962025e-01 -6.091404090965145e-02
1.132653061224500e+11 2.260294185415016e-01 -6.212347453832732e-02 1.721018008879513e-01 -8.688389578938615e-01 5.225607742531723e-01 -8.068518702478903e-01 2.146948792163787e-01 -6.025307769391833e-02
1.133061224489800e+11 2.258528451513300e-01 -6.373734519902742e-02 1.722150331744302e-01 -8.683459976834539e-01 5.221415058853452e-01 -8.075562850473726e-01 2.153693014631469e-01 -5.894689731347267e-02
1.133469387755100e+11 2.245514220014420e-01 -6.555067946333504e-02 1.723435640576773e-01 -8.678728238560746e-01 5.217060665891716e-01 -8.082547336981010e-01 2.154010805127562e-01 -5.815959150488249e-02
1.133877551020400e+11 2.232397218425606e-01 -6.698763108351388e-02 1.724888514556414e-01 -8.674198877906817e-01 5.212533294993059e-01 -8.089471774805728e-01 2.149610542689345e-01 -5.783915864089950e-02
1.134285714285700e+11 2.219811764336884e-01 -6.725531124894331e-02 1.726521950579447e-01 -8.669876116580618e-01 5.207822524788681e-01 -8.096335167755182e-01 2.149970872932527e-01 -5.743802699485193e-02
1.134693877551000e+11 2.214080964360382e-01 -6.720396109094533e-02 1.728346545640662e-01 -8.665763898371045e-01 5.202919582098933e-01 -8.103135526898417e-01 2.155614007542510e-01 -5.718948893691966e-02
1.135102040816300e+11 2.216526315680707e-01 -6.758706287860547e-02 1.729333088624982e-01 -8.663787922555333e-01 5.200393836411643e-01 -8.106511147178300e-01 2.160091269391718e-01 -5.821120692115526e-02
1.135510204081600e+11 2.217191757851207e-01 -6.789473180512984e-02 1.731459651277394e-01 -8.659997999322948e-01 5.195190003100683e-01 -8.113211540391683e-01 2.157253923662884e-01 -5.849442818129982e-02
1.135918367346900e+11 2.216958656064709e-01 -6.755229479418612e-02 1.733797803470957e-01 -8.656425742719612e-01 5.189778420442078e-01 -8.119842284306599e-01 2.147205236604930e-01 -5.715168885354804e-02
1.136326530612200e+11 2.218235710427151e-01 -6.717049997392739e-02 1.736355144156127e-01 -8.653073103826894e-01 5.184153943771428e-01 -8.126401151444053e-01 2.136838406177268e-01 -5.556047246794752e-02
1.136734693877600e+11 2.225325039722174e-01 -6.737194209919913e-02 1.739139546585983e-01 -8.649941926086208e-01 5.178310971575795e-01 -8.132886460785206e-01 2.130469773877872e-01 -5.523656682823811e-02
1.137142857142900e+11 2.224437989876328e-01 -6.716229530049442e-02 1.742159690902216e-01 -8.647033919255529e-01 5.172242876755211e-01 -8.139297256848406e-01 2.106067826700469e-01 -5.500551095471568e-02
1.137551020408200e+11 2.244679996605113e-01 -6.693988989868384e-02 1.745424911630330e-01 -8.644350706531703e-01 5.165942035561736e-01 -8.145633139263823e-01 2.132044405867302e-01 -5.335913267047065e-02
1.137959183673500e+11 2.248766742196367e-01 -6.774445832842504e-02 1.747152302270215e-01 -8.643093918078194e-01 5.162701801776567e-01 -8.148772894840648e-01 2.147854382381480e-01 -5.468120400489018e-02
1.138367346938800e+11 2.239479356358899e-01 -6.951696378484916e-02 1.750803044688896e-01 -8.640750599093553e-01 5.156036375532376e-01 -8.154996033591714e-01 2.170845720121919e-01 -5.625844698277722e-02
1.138775510204100e+11 2.229704181795607e-01 -7.087452205743967e-02 1.754723981124196e-01 -8.638634629092405e-01 5.149117338268390e-01 -8.161143966263734e-01 2.178757389629345e-01 -5.379958468400062e-02
1.139183673469400e+11 2.220242983566908e-01 -7.106948170707436e-02 1.758924108047180e-01 -8.636746605446521e-01 5.141937297124767e-01 -8.167215818240847e-01 2.138724183744467e-01 -5.270084826766818e-02
1.139591836734700e+11 2.208150477085088e-01 -7.110726312305370e-02 1.763410181207707e-01 -8.635087167695014e-01 5.134490462510859e-01 -8.173209694472310e-01 2.083829154672799e-01 -5.509540380420286e-02
1.140000000000000e+11 2.203102037546728e-01 -7.162739001771577e-02 1.768186768556687e-01 -8.633656826623224e-01 5.126772664846387e-01 -8.179122840581939e-01 2.070589604889404e-01 -5.761773348998799e-02
1.140408163265300e+11 2.191664079048344e-01 -7.258510609101702e-02 1.773256744913753e-01 -8.632455862300995e-01 5.118780879581762e-01 -8.184951976254681e-01 2.067971967922572e-01 -5.989695258745332e-02
1.140816326530600e+11 2.175679839760904e-01 -7.260850357434126e-02 1.775902347406526e-01 -8.631941439215607e-01 5.114681436249680e-01 -8.187833971227861e-01 2.070155922161682e-01 -6.186092948410150e-02
1.141224489795900e+11 2.164544712949120e-01 -7.216409473640904e-02 1.781416361694296e-01 -8.631084228163828e-01 5.106273823117844e-01 -8.193531003907039e-01 2.080801448262674e-01 -6.284886432190515e-02
1.141632653061200e+11 2.152851717155617e-01 -7.224404610279804e-02 1.787230316612672e-01 -8.630454546148760e-01 5.097585477840613e-01 -8.199136864595605e-01 2.093989590694071e-01 -6.307979584372571e-02
1.142040816326500e+11 2.150946194157414e-01 -7.183373836439100e-02 1.793347513383327e-01 -8.630050939378568e-01 5.088613054804402e-01 -8.204649510284147e-01 2.094219978719853e-01 -6.225337739978878e-02
1.142448979591800e+11 2.148049195955715e-01 -7.084698405782748e-02 1.799771058196097e-01 -8.629872132015175e-01 5.079352794340550e-01 -8.210067166570444e-01 2.088451739339409e-01 -6.129147889279908e-02
1.142857142857100e+11 2.150583549397365e-01 -7.065660991609667e-02 1.806503337750243e-01 -8.629917156551747e-01 5.069800891897098e-01 -8.215388108404589e-01 2.089700987025958e-01 -6.138490238561390e-02
1.143265306122400e+11 2.155306944381503e-01 -7.067436536932650e-02 1.809985592290767e-01 -8.630023428126988e-01 5.064914513705110e-01 -8.218011686718130e-01 2.079853208185061e-01 -6.177405655149158e-02
1.143673469387800e+11 2.156900362018040e-01 -7.056545695645683e-02 1.817182892857608e-01 -8.630402967034735e-01 5.054919061359618e-01 -8.223183924856309e-01 2.067805746637504e-01 -6.203194670489050e-02
1.144081632653100e+11 2.158958451291938e-01 -7.089640537675820e-02 1.824690900090072e-01 -8.631004263021489e-01 5.044624822387026e-01 -8.228254814843168e-01 2.056899625576997e-01 -6.274433620023355e-02
1.144489795918400e+11 2.161020251632461e-01 -7.174414394445328e-02 1.832507772788102e-01 -8.631826668405602e-01 5.034030770800056e-01 -8.233221970806514e-01 2.053933117620363e-01 -6.461485472245758e-02
1.144897959183700e+11 2.156933430710132e-01 -7.286086173723950e-02 1.840629292336278e-01 -8.632869954564004e-01 5.023137237765679e-01 -8.238082447339100e-01 2.045087668276082e-01 -6.804909393087227e-02
1.145306122449000e+11 2.150973684396215e-01 -7.313740472772981e-02 1.849049221322751e-01 -8.634134319774605e-01 5.011945628914031e-01 -8.242833086764422e-01 2.044095227079316e-01 -7.063399054512669e-02
1.145714285714300e+11 2.137886528130853e-01 -7.263844886984515e-02 1.857759831871334e-01 -8.635620379968177e-01 5.000458005934462e-01 -8.247470965875822e-01 2.049049621971940e-01 -7.124175976380105e-02
1.146122448979600e+11 2.132144706482197e-01 -7.220229926982542e-02 1.862221400578626e-01 -8.636446857977400e-01 4.994603919954306e-01 -8.249746851281484e-01 2.067194907038873e-01 -7.123400086758268e-02
1.146530612244900e+11 2.121834174129403e-01 -7.198961096057463e-02 1.871351653650100e-01 -8.638267030542861e-01 4.982676806117157e-01 -8.254211765519249e-01 2.046276381489528e-01 -7.029372747182361e-02
1.146938775510200e+11 2.119604607452994e-01 -7.172741188708913e-02 1.880750856267893e-01 -8.640310051736003e-01 4.970460151379325e-01 -8.258560999288026e-01 2.032281712267354e-01 -6.934034923085772e-02
1.147346938775500e+11 2.110418120667136e-01 -7.167838684399215e-02 1.890408925689258e-01 -8.642575817856255e-01 4.957957205196167e-01 -8.262795384168482e-01 2.034969783012675e-01 -7.015112845591490e-02
1.147755102040800e+11 2.112478626367505e-01 -7.124017809158871e-02 1.900313597372593e-01 -8.645064114944327e-01 4.945172141388374e-01 -8.266916309609676e-01 2.050820616120176e-01 -7.128240223170224e-02
1.148163265306100e+11 2.116843974675321e-01 -7.143348113448643e-02 1.910449762219918e-01 -8.647774606859709e-01 4.932110618085735e-01 -8.270925391323384e-01 2.073709857446094e-01 -7.225503127056450e-02
1.148571428571400e+11 2.121967915630409e-01 -7.163339471152905e-02 1.920799078176869e-01 -8.650706858678240e-01 4.918780172501381e-01 -8.274824249028923e-01 2.090720238955645e-01 -7.217173813371110e-02
1.148979591836700e+11 2.129930732366258e-01 -7.199633780581320e-02 1.926047024353528e-01 -8.652256012247456e-01 4.912016995613606e-01 -8.276732831613669e-01 2.093513698804294e-01 -6.948865837427784e-02
1.149387755102000e+11 2.134772792452274e-01 -7.224371845322795e-02 1.936675291901070e-01 -8.655519615889252e-01 4.898301484129881e-01 -8.280469779728490e-01 2.085642599398865e-01 -6.691359059089491e-02
1.149795918367300e+11 2.141543154147248e-01 -7.261265345125593e-02 1.947460152741802e-01 -8.659001955886410e-01 4.884343803789732e-01 -8.284102451887022e-01 2.081526234317490e-01 -6.502624531553498e-02
1.150204081632700e+11 2.143695162824794e-01 -7.354084465906953e-02 1.958375546007822e-01 -8.662701145252548e-01 4.870157007652767e-01 -8.287634181507639e-01 2.066889142130540e-01 -6.429487164167363e-02
1.150612244898000e+11 2.144172620433186e-01 -7.442146870646708e-02 1.963873419110083e-01 -8.664631508429026e-01 4.862982026170746e-01 -8.289363273986808e-01 2.053029439426025e-01 -6.375177171043046e-02
1.151020408163300e+11 2.144193071010103e-01 -7.550417612402507e-02 1.969393202542705e-01 -8.666615371725157e-01 4.855755088513846e-01 -8.291068469352618e-01 2.044458389594545e-01 -6.407927183341712e-02
1.151428571428600e+11 2.138701317698562e-01 -7.642505071884485e-02 1.974931314000080e-01 -8.668652291492851e-01 4.848478114663525e-01 -8.292750319305625e-01 2.034696520107209e-01 -6.452083431394123e-02
1.151836734693900e+11 2.139230702154497e-01 -7.754758683179465e-02 1.980484221314281e-01 -8.670741683685839e-01 4.841153092314507e-01 -8.294409425147365e-01 2.029680758725018e-01 -6.532958810992404e-02
1.152244897959200e+11 2.134342428905207e-01 -7.883288079856945e-02 1.986048436070316e-01 -8.672882828536786e-01 4.833782068754511e-01 -8.296046424052216e-01 2.030915253283933e-01 -6.592202140676372e-02
1.152653061224500e+11 2.125777036981930e-01 -8.023217437216623e-02 1.991620505851266e-01 -8.675074878925427e-01 4.826367142638325e-01 -8.297661975432297e-01 2.030173197176981e-01 -6.662801570518630e-02
1.153061224489800e+11 2.118027713442078e-01 -8.014716974024054e-02 1.997197008063922e-01 -8.677316870812763e-01 4.818910456550434e-01 -8.299256747832388e-01 2.032575813292788e-01 -6.658805137505541e-02
1.153469387755100e+11 2.110922947082714e-01 -8.033965458291167e-02 2.002774545378637e-01 -8.679607731433369e-01 4.811414192241859e-01 -8.300831408737523e-01 2.031490992654008e-01 -6.686164101085110e-02
1.153877551020400e+11 2.106142734604498e-01 -8.041463917743448e-02 2.008349743945448e-01 -8.681946288565078e-01 4.803880566271204e-01 -8.302386616684945e-01 2.031955815541041e-01 -6.731734378147547e-02
1.154285714285700e+11 2.103528337521396e-01 -8.058897103997574e-02 2.013919250425722e-01 -8.684331282949467e-01 4.796311824476601e-01 -8.303923014766494e-01 2.028327784319722e-01 -6.816628347203788e-02
1.154693877551000e+11 2.106560612870846e-01 -8.016318288874957e-02 2.019479730608768e-01 -8.686761382004593e-01 4.788710236976376e-01 -8.305441224722512e-01 2.024425330695306e-01 -6.920682883246887e-02
1.155102040816300e+11 2.113043412317052e-01 -8.021039442779199e-02 2.025027866286846e-01 -8.689235194649194e-01 4.781078093515152e-01 -8.306941841783292e-01 2.020715987526483e-01 -7.036338535436033e-02
1.155510204081600e+11 2.120158024749796e-01 -8.025005453110820e-02 2.030560353322082e-01 -8.691751288729634e-01 4.773417699406882e-01 -8.308425428091099e-01 2.015820089082510e-01 -7.165406743813049e-02
1.155918367346900e+11 2.128503598625683e-01 -8.060137311871357e-02 2.036073895952700e-01 -8.694308207749938e-01 4.765731374638075e-01 -8.309892508305186e-01 2.014433769455914e-01 -7.335339708587957e-02
1.156326530612200e+11 2.136720263452500e-01 -8.078144942030765e-02 2.041565202462888e-01 -8.696904484245072e-01 4.758021449801293e-01 -8.311343567633834e-01 2.020414186751593e-01 -7.519797646666285e-02
1.156734693877600e+11 2.144932317198408e-01 -8.117823688563137e-02 2.047030980785818e-01 -8.699538655004359e-01 4.750290262501815e-01 -8.312779050792701e-01 2.027195396049127e-01 -7.726360418920752e-02
1.157142857142900e+11 2.151370723590283e-01 -8.101344081333037e-02 2.052467936021502e-01 -8.702209273511782e-01 4.742540155177610e-01 -8.314199361401328e-01 2.034146367580945e-01 -7.818031418672271e-02
1.157551020408200e+11 2.159188507453840e-01 -8.093914621688034e-02 2.057872768686489e-01 -8.704914919534619e-01 4.734773473607284e-01 -8.315604863146980e-01 2.046025720054168e-01 -7.898337731591469e-02
1.157959183673500e+11 2.168531305086941e-01 -8.127737565007952e-02 2.063242173963404e-01 -8.707654206248162e-01 4.726992564353169e-01 -8.316995880237140e-01 2.055380489060072e-01 -7.970377558883247e-02
1.158367346938800e+11 2.175519745001313e-01 -8.166042651102408e-02 2.068572843147990e-01 -8.710425785449896e-01 4.719199772516710e-01 -8.318372699586130e-01 2.062231175241521e-01 -8.044516978224471e-02
1.158775510204100e+11 2.181225659857659e-01 -8.180837753239803e-02 2.073861466009026e-01 -8.713228352327652e-01 4.711397439223671e-01 -8.319735573198153e-01 2.064486064753164e-01 -8.047851771165794e-02
1.159183673469400e+11 2.183651362210281e-01 -8.223227677744477e-02 2.079104731247694e-01 -8.716060650028364e-01 4.703587898193669e-01 -8.321084721061330e-01 2.067282785339440e-01 -7.998317233027945e-02
1.159591836734700e+11 2.185669425495250e-01 -8.239600135029858e-02 2.084299326936310e-01 -8.718921471842317e-01 4.695773472038702e-01 -8.322420333317796e-01 2.067390972731351e-01 -7.932931838263510e-02
1.160000000000000e+11 2.188766947591783e-01 -8.316562003549000e-02 2.089441941365042e-01 -8.721809662448876e-01 4.687956470103429e-01 -8.323742571877809e-01 2.061881118848027e-01 -7.887901612804600e-02
1.160408163265300e+11 2.188787211225122e-01 -8.317164023513279e-02 2.094529265291137e-01 -8.724724117958552e-01 4.680139186130310e-01 -8.325051572782268e-01 2.054798324929603e-01 -7.791491814404242e-02
1.160816326530600e+11 2.185596825666414e-01 -8.324277733443143e-02 2.099557993354147e-01 -8.727663786560367e-01 4.672323895722285e-01 -8.326347447904903e-01 2.048158337034616e-01 -7.666234259350370e-02
1.161224489795900e+11 2.184247314589057e-01 -8.337500136505373e-02 2.104524826657099e-01 -8.730627666628371e-01 4.664512853712755e-01 -8.327630285866261e-01 2.038109922822982e-01 -7.584498216381161e-02
1.161632653061200e+11 2.187096290853041e-01 -8.343491940913547e-02 2.109426475679979e-01 -8.733614804464903e-01 4.656708292246169e-01 -8.328900152550879e-01 2.030639764338267e-01 -7.576087012080986e-02
1.162040816326500e+11 2.189014540287333e-01 -8.319705370187166e-02 2.114259662298285e-01 -8.736624292708477e-01 4.648912419432486e-01 -8.330157091910940e-01 2.026121467148814e-01 -7.577106870955333e-02
1.162448979591800e+11 2.192714563724195e-01 -8.278264067073321e-02 2.119021125137502e-01 -8.739655268363911e-01 4.641127418267815e-01 -8.331401128196960e-01 2.023271296086729e-01 -7.562297507382465e-02
1.162857142857100e+11 2.197180292369586e-01 -8.299094555272876e-02 2.123707625357100e-01 -8.742706910809230e-01 4.633355445072712e-01 -8.332632266925727e-01 2.019879841970220e-01 -7.612299350252766e-02
1.163265306122400e+11 2.203474462924342e-01 -8.328862944395928e-02 2.128315952276326e-01 -8.745778439238929e-01 4.625598627534394e-01 -8.333850495801165e-01 2.019167143687661e-01 -7.728012849765702e-02
1.163673469387800e+11 2.201977344315548e-01 -8.325549906821303e-02 2.132842928903648e-01 -8.748869110822701e-01 4.617859062878216e-01 -8.335055786508107e-01 2.017423901803208e-01 -7.845361746391058e-02
1.164081632653100e+11 2.214906971702463e-01 -8.350085372344723e-02 2.137285417489361e-01 -8.751978218153351e-01 4.610138815987698e-01 -8.336248097569012e-01 2.027639455235945e-01 -7.866490902632672e-02
1.164489795918400e+11 2.214563276145220e-01 -8.387946257623960e-02 2.141640323914436e-01 -8.755105085802519e-01 4.602439917604486e-01 -8.337427377290759e-01 2.033128964386575e-01 -7.957884498587291e-02
1.164897959183700e+11 2.215034991813791e-01 -8.446015016818886e-02 2.145904605895647e-01 -8.758249066246553e-01 4.594764363419573e-01 -8.338593566435042e-01 2.034563710069138e-01 -8.082386169771744e-02
1.165306122449000e+11 2.215078236454356e-01 -8.441526886357978e-02 2.150075280026722e-01 -8.761409537593340e-01 4.587114110060307e-01 -8.339746601538777e-01 2.054756450023065e-01 -8.096308522566738e-02
1.165714285714300e+11 2.208224465901873e-01 -8.432399504594995e-02 2.154149428637478e-01 -8.764585899753434e-01 4.579491071427724e-01 -8.340886419421647e-01 2.077070260089808e-01 -8.054497168065490e-02
1.166122448979600e+11 2.201632858891529e-01 -8.415301083375118e-02 2.158124207505149e-01 -8.767777568674273e-01 4.571897118709771e-01 -8.342012958083157e-01 2.085194474070875e-01 -8.023746365486427e-02
1.166530612244900e+11 2.202966091582772e-01 -8.399569805406772e-02 2.161996852019809e-01 -8.770983971221323e-01 4.564334081232101e-01 -8.343126155307519e-01 2.085216031243546e-01 -8.135098134271100e-02
1.166938775510200e+11 2.201937168301597e-01 -8.448038245907789e-02 2.165764677210334e-01 -8.774204544135613e-01 4.556803748889713e-01 -8.344225945842764e-01 2.086728971133613e-01 -8.295769746221132e-02
1.167346938775500e+11 2.203288941682821e-01 -8.472142612245939e-02 2.169425072613392e-01 -8.777438737149539e-01 4.549307875148962e-01 -8.345312260150533e-01 2.093034343074973e-01 -8.422747898412210e-02
1.167755102040800e+11 2.205892434026140e-01 -8.451213101152398e-02 2.172975498026260e-01 -8.780686017211482e-01 4.541848178384741e-01 -8.346385024246186e-01 2.097745831295664e-01 -8.425916360076324e-02
1.168163265306100e+11 2.205890386691512e-01 -8.511257916055391e-02 2.176413481794977e-01 -8.783945871056230e-01 4.534426343562860e-01 -8.347444159991713e-01 2.098095260327448e-01 -8.443141031614083e-02
1.168571428571400e+11 2.204485807690433e-01 -8.479899439591417e-02 2.179736620177347e-01 -8.787217804547234e-01 4.527044023313531e-01 -8.348489585573329e-01 2.101866655653564e-01 -8.364294105660798e-02
1.168979591836700e+11 2.205111450750589e-01 -8.429168998633003e-02 2.182942574631873e-01 -8.790501342358066e-01 4.519702837901608e-01 -8.349521217021502e-01 2.107931532876154e-01 -8.243664120645690e-02
1.169387755102000e+11 2.204123307046121e-01 -8.431615775281889e-02 2.186029072324356e-01 -8.793796025013844e-01 4.512404375870758e-01 -8.350538967535266e-01 2.111650396315515e-01 -8.160941737784161e-02
1.169795918367300e+11 2.204088687613467e-01 -8.408448876296194e-02 2.188993907763998e-01 -8.797101405972502e-01 4.505150194413245e-01 -8.351542746992219e-01 2.119166448043842e-01 -8.102172945245396e-02
1.170204081632700e+11 2.203933511660879e-01 -8.371204827261397e-02 2.191834943378762e-01 -8.800417049844292e-01 4.497941818142029e-01 -8.352532462707513e-01 2.128058524868660e-01 -8.028882584859967e-02
1.170612244898000e+11 2.212105651003868e-01 -8.487102833026365e-02 2.194550109534538e-01 -8.803742530964230e-01 4.490780739108809e-01 -8.353508019636479e-01 2.132906529875065e-01 -8.034432465677044e-02
1.171020408163300e+11 2.201586992382516e-01 -8.474248865818315e-02 2.197137406449084e-01 -8.807077430429451e-01 4.483668418055836e-01 -8.354469320917201e-01 2.128125717868051e-01 -7.964435747007081e-02
1.171428571428600e+11 2.193958800686622e-01 -8.424666478637906e-02 2.199594905468825e-01 -8.810421336995022e-01 4.476606283340841e-01 -8.355416270771182e-01 2.126265739316203e-01 -7.890312065186378e-02
1.171836734693900e+11 2.193637086836912e-01 -8.383924218280825e-02 2.201920748442630e-01 -8.813773846011780e-01 4.469595728925314e-01 -8.356348773632584e-01 2.125620286999396e-01 -7.871830188535635e-02
1.172244897959200e+11 2.187437547480594e-01 -8.391641981127361e-02 2.204113147587643e-01 -8.817134555545187e-01 4.462638113705975e-01 -8.357266735225515e-01 2.115609094574458e-01 -7.851493510927919e-02
1.172653061224500e+11 2.188110229075331e-01 -8.319130171985817e-02 2.206170388154608e-01 -8.820503065040258e-01 4.455734760718444e-01 -8.358170062914111e-01 2.114830526367950e-01 -7.800088714249449e-02
1.173061224489800e+11 2.187234562577183e-01 -8.264147514138769e-02 2.208090826670390e-01 -8.823878975307076e-01 4.448886955312591e-01 -8.359058665780564e-01 2.108632845481524e-01 -7.752011662072640e-02
1.173469387755100e+11 2.189370700760792e-01 -8.275158829346793e-02 2.209872891996343e-01 -8.827261887243109e-01 4.442095945021968e-01 -8.359932455535869e-01 2.101746001264476e-01 -7.787891069692812e-02
1.173877551020400e+11 2.190544203693418e-01 -8.237950220295279e-02 2.211515085808277e-01 -8.830651401806934e-01 4.435362939324682e-01 -8.360791345412052e-01 2.093302062027318e-01 -7.755023908787176e-02
1.174285714285700e+11 2.189816665518075e-01 -8.191631818670846e-02 2.213015981158333e-01 -8.834047120427984e-01 4.428689110976990e-01 -8.361635253438701e-01 2.085652080435930e-01 -7.680869750383093e-02
1.174693877551000e+11 2.194483830794730e-01 -8.163260063821225e-02 2.214374222619845e-01 -8.837448643605932e-01 4.422075593521378e-01 -8.362464103922999e-01 2.079916758756731e-01 -7.661904013271843e-02
1.175102040816300e+11 2.188989256407822e-01 -8.199737669210683e-02 2.215588525911782e-01 -8.840855569606271e-01 4.415523479068729e-01 -8.363277826691624e-01 2.072008688382505e-01 -7.632442333479487e-02
1.175510204081600e+11 2.199222826423016e-01 -8.183158684692236e-02 2.216657678206435e-01 -8.844267491987569e-01 4.409033817864903e-01 -8.364076359406282e-01 2.071232443084794e-01 -7.704392249522751e-02
1.175918367346900e+11 2.210721329838324e-01 -8.186674021203896e-02 2.217580536211876e-01 -8.847683998661111e-01 4.402607615996262e-01 -8.364859645508294e-01 2.077393558898787e-01 -7.661913884434722e-02
1.176326530612200e+11 2.215394066440288e-01 -8.186994172924718e-02 2.218356030129282e-01 -8.851104669155563e-01 4.396245834227301e-01 -8.365627639287300e-01 2.076758845510560e-01 -7.594912456504659e-02
1.176734693877600e+11 2.215507013808231e-01 -8.207437875159970e-02 2.218983169326314e-01 -8.854529072877205e-01 4.389949386279453e-01 -8.366380308708609e-01 2.080956095604184e-01 -7.541831204216738e-02
1.177142857142900e+11 2.209968014962491e-01 -8.328297994769272e-02 2.219461049009633e-01 -8.857956764422514e-01 4.383719133496269e-01 -8.367117638625147e-01 2.080597528888758e-01 -7.610830853074291e-02
1.177551020408200e+11 2.210038393898379e-01 -8.162340100562765e-02 2.219788858115411e-01 -8.861387280387131e-01 4.377555879147326e-01 -8.367839631892798e-01 2.088663493141396e-01 -7.598226387548634e-02
1.177959183673500e+11 2.217527656001670e-01 -8.101180693959473e-02 2.219965881796859e-01 -8.864820139769513e-01 4.371460363510665e-01 -8.368546312291337e-01 2.090979188076939e-01 -7.681254877095105e-02
1.178367346938800e+11 2.223471393443683e-01 -8.168699209573409e-02 2.219991505555835e-01 -8.868254838422249e-01 4.365433263241337e-01 -8.369237724999808e-01 2.088627210278565e-01 -7.959630117844192e-02
1.178775510204100e+11 2.223241401353752e-01 -8.229766636998623e-02 2.219865214946328e-01 -8.871690853058393e-01 4.359475192867489e-01 -8.369913933334070e-01 2.083399796525136e-01 -8.048410695167624e-02
1.179183673469400e+11 2.226268483988820e-01 -8.357945232331945e-02 2.219586590267324e-01 -8.875127648768176e-01 4.353586706119218e-01 -8.370575019685734e-01 2.087931901872965e-01 -8.221860490032804e-02
1.179591836734700e+11 2.223067438099468e-01 -8.363971556097384e-02 2.219155298567768e-01 -8.878564681023365e-01 4.347768300199781e-01 -8.371221084355642e-01 2.088831795822329e-01 -8.252797399511616e-02
1.180000000000000e+11 2.223863881355198e-01 -8.390126904419795e-02 2.218571090454281e-01 -8.882001400297465e-01 4.342020417102794e-01 -8.371852247401531e-01 2.088672266489087e-01 -8.269635122202018e-02
1.180408163265300e+11 2.240104442323414e-01 -8.258885220812677e-02 2.217833795517237e-01 -8.885437255437949e-01 4.336343446229108e-01 -8.372468644945343e-01 2.114150220629593e-01 -8.414110413527694e-02
1.180816326530600e+11 2.242990100567153e-01 -8.249441804516010e-02 2.216943318089430e-01 -8.888871696509905e-01 4.330737727049496e-01 -8.373070428172674e-01 2.117533559969855e-01 -8.364263906051408e-02
1.181224489795900e+11 2.244673601180772e-01 -8.314192254580371e-02 2.215899637481588e-01 -8.892304176998869e-01 4.325203552363621e-01 -8.373657764591426e-01 2.118836398569517e-01 -8.435841280127598e-02
1.181632653061200e+11 2.241241628213110e-01 -8.259888128522357e-02 2.214702807914941e-01 -8.895734152992230e-01 4.319741171022472e-01 -8.374230836229513e-01 2.114545526256311e-01 -8.354886911438633e-02
1.182040816326500e+11 2.244198728320682e-01 -8.225058284313967e-02 2.213352955664166e-01 -8.899161087463739e-01 4.314350789052894e-01 -8.374789839905739e-01 2.117473008302775e-01 -8.242972904575727e-02
1.182448979591800e+11 2.245099704563683e-01 -8.244805038017536e-02 2.211850275190160e-01 -8.902584450668271e-01 4.309032570191236e-01 -8.375334981896916e-01 2.122591444604950e-01 -8.235223890127816e-02
1.182857142857100e+11 2.247097158223716e-01 -8.249729737066328e-02 2.210195027359114e-01 -8.906003719696136e-01 4.303786638462750e-01 -8.375866475384718e-01 2.129519861775611e-01 -8.207144255567164e-02
1.183265306122400e+11 2.248184489561489e-01 -8.249031196122199e-02 2.208387539991877e-01 -8.909418376996801e-01 4.298613078608929e-01 -8.376384541624109e-01 2.135876790562935e-01 -8.176978068585895e-02
1.183673469387800e+11 2.245513695377106e-01 -8.248843228423966e-02 2.206428208180182e-01 -8.912827909263259e-01 4.293511939344377e-01 -8.376889409641224e-01 2.136071713779157e-01 -8.127088636189087e-02
1.184081632653100e+11 2.240377905501272e-01 -8.260150507096339e-02 2.204317495150150e-01 -8.916231804826654e-01 4.288483234634687e-01 -8.377381316045169e-01 2.137166957571707e-01 -8.112499609803833e-02
1.184489795918400e+11 2.241043171012246e-01 -8.258553932211668e-02 2.202055933701366e-01 -8.919629551118982e-01 4.283526942854242e-01 -8.377860505122531e-01 2.142718783926528e-01 -8.083922334553810e-02
1.184897959183700e+11 2.240456256652311e-01 -8.178771212793758e-02 2.199644126821216e-01 -8.923020631416025e-01 4.278643005818068e-01 -8.378327230583847e-01 2.149734676317699e-01 -7.955266438772665e-02
1.185306122449000e+11 2.239888956352769e-01 -8.107200952061001e-02 2.197082751427163e-01 -8.926404522776036e-01 4.273831329060928e-01 -8.378781757545185e-01 2.155957645674430e-01 -7.836556550719545e-02
1.185714285714300e+11 2.245609352866219e-01 -8.036961867017589e-02 2.194372564988381e-01 -8.929780691657097e-01 4.269091780841347e-01 -8.379224362058179e-01 2.157724453866293e-01 -7.839099300369362e-02
1.186122448979600e+11 2.249994744292691e-01 -8.015783918607484e-02 2.191514412585568e-01 -8.933148589778330e-01 4.264424190468868e-01 -8.379655332265105e-01 2.150710762944205e-01 -7.938322531037037e-02
1.186530612244900e+11 2.249754761334017e-01 -8.006845305373703e-02 2.188509232182594e-01 -8.936507651661688e-01 4.259828344845006e-01 -8.380074971803184e-01 2.138047861678525e-01 -8.019986700733675e-02
1.186938775510200e+11 2.252267065456281e-01 -8.072290088944481e-02 2.185358056008341e-01 -8.939857294225914e-01 4.255303984182381e-01 -8.380483603937636e-01 2.131185633931171e-01 -8.113885469164892e-02
1.187346938775500e+11 2.249212844598014e-01 -8.105866020492060e-02 2.182062009242670e-01 -8.943196917670924e-01 4.250850798611720e-01 -8.380881572397189e-01 2.125608080060647e-01 -8.133898251744374e-02
1.187755102040800e+11 2.260865729383878e-01 -8.082315589334328e-02 2.178622306440363e-01 -8.946525907968487e-01 4.246468427863268e-01 -8.381269242251156e-01 2.135819595139762e-01 -8.138455156962567e-02
1.188163265306100e+11 2.253584071896601e-01 -8.200353616481144e-02 2.175040247080765e-01 -8.949843638088025e-01 4.242156460952006e-01 -8.381646998721038e-01 2.124597657195897e-01 -8.215525495102036e-02
1.188571428571400e+11 2.256560235329984e-01 -8.124488372250210e-02 2.171317217363265e-01 -8.953149471104042e-01 4.237914437854232e-01 -8.382015244741163e-01 2.124904283064011e-01 -8.128372387640892e-02
1.188979591836700e+11 2.257353556556149e-01 -8.167151577569337e-02 2.167454680943808e-01 -8.956442763179655e-01 4.233741849835176e-01 -8.382374401591872e-01 2.125941702872140e-01 -8.189268849628845e-02
1.189387755102000e+11 2.260743783974450e-01 -8.171712746995689e-02 2.163454178053218e-01 -8.959722862907514e-01 4.229638140883847e-01 -8.382724905714691e-01 2.127868085893589e-01 -8.168318485612470e-02
1.189795918367300e+11 2.259372176025210e-01 -8.162124117221413e-02 2.159317324142524e-01 -8.962989112498463e-01 4.225602708034434e-01 -8.383067209212529e-01 2.126969523781451e-01 -8.162890559125556e-02
1.190204081632700e+11 2.262166358160740e-01 -8.137116889687755e-02 2.155045809173036e-01 -8.966240849570282e-01 4.221634902127323e-01 -8.383401778369260e-01 2.126749586755248e-01 -8.151002945261455e-02
1.190612244898000e+11 2.265697317877534e-01 -8.143913070143800e-02 2.150641396017460e-01 -8.969477407749709e-01 4.217734028554668e-01 -8.383729092654484e-01 2.124666689686047e-01 -8.205232274028215e-02
1.191020408163300e+11 2.265956965212371e-01 -8.169600413044131e-02 2.146105920867796e-01 -8.972698115524819e-01 4.213899348335468e-01 -8.384049644378203e-01 2.118447332682104e-01 -8.235656993207656e-02
1.191428571428600e+11 2.267929275405175e-01 -8.245237799367303e-02 2.141441292112038e-01 -8.975902297991847e-01 4.210130077939619e-01 -8.384363938443555e-01 2.117354496523895e-01 -8.241750001913138e-02
1.191836734693900e+11 2.265691520065927e-01 -8.269987918866886e-02 2.136649488732670e-01 -8.979089277650438e-01 4.206425389666178e-01 -8.384672492206700e-01 2.116204554274418e-01 -8.282915435689739e-02
1.192244897959200e+11 2.263614191308419e-01 -8.263086826356693e-02 2.131732560088265e-01 -8.982258376106560e-01 4.202784411500687e-01 -8.384975835114323e-01 2.117468891989571e-01 -8.335212036272882e-02
1.192653061224500e+11 2.265718299713098e-01 -8.271166504671434e-02 2.126692624790019e-01 -8.985408914463309e-01 4.199206227686803e-01 -8.385274508200183e-01 2.118231912420599e-01 -8.401665412047780e-02
1.193061224489800e+11 2.261441303621349e-01 -8.319205258314562e-02 2.121531871935412e-01 -8.988540213440848e-01 4.195689880098362e-01 -8.385569063797578e-01 2.107812183091780e-01 -8.406278001446239e-02
1.193469387755100e+11 2.263328110516690e-01 -8.330838569256639e-02 2.116252560398883e-01 -8.991651595390311e-01 4.192234368887063e-01 -8.385860064713749e-01 2.110939351775850e-01 -8.434261237234371e-02
1.193877551020400e+11 2.257990593452307e-01 -8.400830567645373e-02 2.110857015042346e-01 -8.994742384912175e-01 4.188838651711635e-01 -8.386148082441134e-01 2.109202963171625e-01 -8.551603762709671e-02
1.194285714285700e+11 2.255985338100727e-01 -8.424361646513451e-02 2.105347626241816e-01 -8.997811909477779e-01 4.185501645530030e-01 -8.386433696418589e-01 2.108527602291286e-01 -8.632558733301655e-02
1.194693877551000e+11 2.262537874062773e-01 -8.383903841517401e-02 2.099726848768649e-01 -9.000859500301598e-01 4.182222226270244e-01 -8.386717494528888e-01 2.113869585801217e-01 -8.630327975886722e-02
1.195102040816300e+11 2.268041702122077e-01 -8.362943798673683e-02 2.093997201534013e-01 -9.003884493179892e-01 4.178999228132466e-01 -8.387000073283110e-01 2.122071543806658e-01 -8.658267492951090e-02
1.195510204081600e+11 2.271697638360746e-01 -8.474477839785099e-02 2.088161267936895e-01 -9.006886229675827e-01 4.175831446900956e-01 -8.387282036773599e-01 2.130823191876934e-01 -8.769622662665005e-02
1.195918367346900e+11 2.273864821128170e-01 -8.541562427972259e-02 2.082221696463037e-01 -9.009864057008874e-01 4.172717642428756e-01 -8.387563994978511e-01 2.138096507177936e-01 -8.910133084975821e-02
1.196326530612200e+11 2.277749387635028e-01 -8.593558577044329e-02 2.076181200125429e-01 -9.012817331854410e-01 4.169656538299891e-01 -8.387846565526822e-01 2.147909616562574e-01 -8.960862332283007e-02
1.196734693877600e+11 2.280584344793387e-01 -8.596114185427174e-02 2.070042553137979e-01 -9.015745424431634e-01 4.166646823232066e-01 -8.388130372680086e-01 2.157185334816791e-01 -9.003269329401967e-02
1.197142857142900e+11 2.280932394416469e-01 -8.653764126777384e-02 2.063808587197708e-01 -9.018647721326414e-01 4.163687154261049e-01 -8.388416044703860e-01 2.162438711109588e-01 -9.097625377518133e-02
1.197551020408200e+11 2.282684569605143e-01 -8.683072602397578e-02 2.057482192306513e-01 -9.021523626216035e-01 4.160776158516566e-01 -8.388704214764003e-01 2.172735534842858e-01 -9.146915132240546e-02
1.197959183673500e+11 2.284775186769351e-01 -8.689407573288313e-02 2.051066314980083e-01 -9.024372562488656e-01 4.157912434281180e-01 -8.388995519858100e-01 2.179456702556825e-01 -9.197454645844888e-02
1.198367346938800e+11 2.282356163159927e-01 -8.739920712050442e-02 2.044563955289937e-01 -9.027193975686055e-01 4.155094555606105e-01 -8.389290598700455e-01 2.183522674792809e-01 -9.320559703632929e-02
1.198775510204100e+11 2.278696270496433e-01 -8.759170572532458e-02 2.037978163482234e-01 -9.029987334449403e-01 4.152321075932334e-01 -8.389590091014237e-01 2.182843114984870e-01 -9.381790915354897e-02
1.199183673469400e+11 2.279610908293992e-01 -8.787076067408910e-02 2.031312035466106e-01 -9.032752134163494e-01 4.149590529687432e-01 -8.389894637061257e-01 2.185162985390099e-01 -9.427589262621743e-02
1.199591836734700e+11 2.275331391274376e-01 -8.835742338422609e-02 2.024568706471523e-01 -9.035487898091235e-01 4.146901436165641e-01 -8.390204876689775e-01 2.181356145082601e-01 -9.530907794099153e-02
1.200000000000000e+11 2.274233328708759e-01 -8.808822571735302e-02 2.017751345617858e-01 -9.038194179373271e-01 4.144252303115019e-01 -8.390521449059971e-01 2.180949676619664e-01 -9.420635833029239e-02
1.200408163265300e+11 2.262484907218298e-01 -8.812049557810685e-02 2.010863147566843e-01 -9.040870563145563e-01 4.141641629005164e-01 -8.390844993169863e-01 2.165732739196702e-01 -9.463763441348634e-02
1.200816326530600e+11 2.252421330823851e-01 -8.766395497647105e-02 2.003907329938004e-01 -9.043516663534626e-01 4.139067906007506e-01 -8.391176146292086e-01 2.151434841179569e-01 -9.358875732146529e-02
1.201224489795900e+11 2.247285153659255e-01 -8.718721027842417e-02 1.996887126389424e-01 -9.046132122355000e-01 4.136529619494240e-01 -8.391515544342409e-01 2.137974757810972e-01 -9.264419468186229e-02
1.201632653061200e+11 2.249195441898539e-01 -8.634863040726859e-02 1.989805780372128e-01 -9.048716604211626e-01 4.134025249866670e-01 -8.391863819370463e-01 2.127272770977901e-01 -9.112023020611330e-02
1.202040816326500e+11 2.243266557386678e-01 -8.614805468319461e-02 1.982666538125726e-01 -9.051269792563547e-01 4.131553275025932e-01 -8.392221597532297e-01 2.113478306431948e-01 -9.026393273218450e-02
1.202448979591800e+11 2.240055722761083e-01 -8.589423914400207e-02 1.975472646351066e-01 -9.053791385188338e-01 4.129112172432925e-01 -8.392589496023575e-01 2.101833360083575e-01 -8.944680724760612e-02
1.202857142857100e+11 2.241022887598325e-01 -8.584058265632136e-02 1.968227350085595e-01 -9.056281090757313e-01 4.126700416628489e-01 -8.392968121457671e-01 2.097593995091322e-01 -8.806437970369656e-02
1.203265306122400e+11 2.248949142864675e-01 -8.598507875218983e-02 1.960933891051988e-01 -9.058738627003491e-01 4.124316477851565e-01 -8.393358065711665e-01 2.101523567824045e-01 -8.684023385238325e-02
1.203673469387800e+11 2.253419339667269e-01 -8.720631359918139e-02 1.953595505905088e-01 -9.061163721848171e-01 4.121958826176072e-01 -8.393759900087100e-01 2.101986420508992e-01 -8.650191806617016e-02
1.204081632653100e+11 2.243930168567237e-01 -8.771733831732960e-02 1.946215423916101e-01 -9.063556117501516e-01 4.119625937292268e-01 -8.394174170232198e-01 2.101505166806783e-01 -8.683781480136653e-02
1.204489795918400e+11 2.236885525049527e-01 -8.747785506473417e-02 1.938796859049330e-01 -9.065915575095551e-01 4.117316296715448e-01 -8.394601393353741e-01 2.098606754544882e-01 -8.783319515901597e-02
1.204897959183700e+11 2.230344053175096e-01 -8.693874094832221e-02 1.931343008055936e-01 -9.068241872127323e-01 4.115028402535081e-01 -8.395042054451719e-01 2.089816043810198e-01 -8.815289405082402e-02
1.205306122449000e+11 2.233521092785681e-01 -8.684187458382489e-02 1.923857047368905e-01 -9.070534805767801e-01 4.112760769851863e-01 -8.395496600350379e-01 2.089491551159269e-01 -8.844832737175405e-02
1.205714285714300e+11 2.231337797514830e-01 -8.790519180872755e-02 1.916342124952740e-01 -9.072794195477344e-01 4.110511940593479e-01 -8.395965433649408e-01 2.080086871316135e-01 -8.975920352068631e-02
1.206122448979600e+11 2.223293512995449e-01 -8.825145298349267e-02 1.908801356405944e-01 -9.075019885372096e-01 4.108280489250359e-01 -8.396448915760912e-01 2.067079552569155e-01 -9.064408905482876e-02
1.206530612244900e+11 2.217891814429948e-01 -8.779425859060319e-02 1.901237815740627e-01 -9.077211748838302e-01 4.106065021254662e-01 -8.396947368688225e-01 2.054527385286455e-01 -9.130574952443618e-02
1.206938775510200e+11 2.216989109948820e-01 -8.731545828077168e-02 1.893654526103924e-01 -9.079369690589706e-01 4.103864172457777e-01 -8.397461072777739e-01 2.056940501618813e-01 -9.152000752818525e-02
1.207346938775500e+11 2.221200138247876e-01 -8.763182591368580e-02 1.886054450547448e-01 -9.081493645618930e-01 4.101676610255894e-01 -8.397990263691486e-01 2.075702087690098e-01 -9.251613508709805e-02
1.207755102040800e+11 2.217917203445947e-01 -8.799231895539955e-02 1.878440487723906e-01 -9.083583580485761e-01 4.099501037105435e-01 -8.398535129504344e-01 2.085339368521678e-01 -9.510366004388779e-02
1.208163265306100e+11 2.224365939700290e-01 -8.864730304968395e-02 1.870815467197047e-01 -9.085639498469943e-01 4.097336196383042e-01 -8.399095808909658e-01 2.099694383585364e-01 -9.671754402718447e-02
1.208571428571400e+11 2.223520648097344e-01 -8.857137190830507e-02 1.863182145437923e-01 -9.087661444308209e-01 4.095180873777539e-01 -8.399672393610602e-01 2.110392300972374e-01 -9.856443597618003e-02
1.208979591836700e+11 2.212357746585644e-01 -8.816078826619757e-02 1.855543201419112e-01 -9.089649509759251e-01 4.093033900307716e-01 -8.400264927141363e-01 2.097484581921477e-01 -1.018502288038760e-01
1.209387755102000e+11 2.214269889562724e-01 -8.737794370460200e-02 1.847901229976507e-01 -9.091603837042374e-01 4.090894155170463e-01 -8.400873404464635e-01 2.092574141978178e-01 -1.031650947521127e-01
1.209795918367300e+11 2.216499871367084e-01 -8.713015282913661e-02 1.840258727269822e-01 -9.093524619906412e-01 4.088760566400615e-01 -8.401497774487016e-01 2.085945570364385e-01 -1.053467175377441e-01
1.210204081632700e+11 2.217433322322687e-01 -8.737632713547501e-02 1.832618084516220e-01 -9.095412099050624e-01 4.086632113339250e-01 -8.402137942387418e-01 2.075671075623725e-01 -1.073090685276794e-01
1.210612244898000e+11 2.221933262024253e-01 -8.795060213002255e-02 1.824981582032447e-01 -9.097266561574144e-01 4.084507826670783e-01 -8.402793771079967e-01 2.078852673883561e-01 -1.071608681237351e-01
1.211020408163300e+11 2.222738127035450e-01 -8.888582564176087e-02 1.817351383325258e-01 -9.099088339021963e-01 4.082386788512093e-01 -8.403465085243947e-01 2.078610603225970e-01 -1.077348143445877e-01
1.211428571428600e+11 2.224108056755753e-01 -8.971237549213294e-02 1.809729533824046e-01 -9.100877804141537e-01 4.080268134258289e-01 -8.404151673751098e-01 2.097281662221930e-01 -1.070981972362806e-01
1.211836734693900e+11 2.217185009964723e-01 -9.049192399894689e-02 1.802117961695349e-01 -9.102635370138460e-01 4.078151050983554e-01 -8.404853293478575e-01 2.102064280218857e-01 -1.096360920046929e-01
1.212244897959200e+11 2.206435051146665e-01 -9.031914316285106e-02 1.794518482756048e-01 -9.104361491345078e-01 4.076034777829501e-01 -8.405569671597388e-01 2.079381698013953e-01 -1.099990056734576e-01
1.212653061224500e+11 2.193199787969666e-01 -9.106329491026680e-02 1.786932794631373e-01 -9.106056666514857e-01 4.073918606675838e-01 -8.406300507564162e-01 2.064354859465981e-01 -1.111409610970045e-01
1.213061224489800e+11 2.184613438097637e-01 -9.069460095223369e-02 1.779362473257283e-01 -9.107721432813281e-01 4.071801881103308e-01 -8.407045474760992e-01 2.060680807043219e-01 -1.102146695833391e-01
1.213469387755100e+11 2.175405783970445e-01 -9.009493417502550e-02 1.771808970251084e-01 -9.109356359404732e-01 4.069683993270055e-01 -8.407804226049438e-01 2.053612715511762e-01 -1.097536632307346e-01
1.213877551020400e+11 2.170374492376892e-01 -8.900295856343121e-02 1.764273615635480e-01 -9.110962044943970e-01 4.067564381779148e-01 -8.408576396635596e-01 2.051865456523232e-01 -1.084874879557381e-01
1.214285714285700e+11 2.169437107971069e-01 -8.799367296845982e-02 1.756757618222002e-01 -9.112539113680966e-01 4.065442529173294e-01 -8.409361604908818e-01 2.055519323588012e-01 -1.079699884983726e-01
1.214693877551000e+11 2.180176963254681e-01 -8.605231051263287e-02 1.749262067261476e-01 -9.114088210382216e-01 4.063317961092202e-01 -8.410159453744663e-01 2.037513824685173e-01 -1.059934741383671e-01
1.215102040816300e+11 2.200327460984936e-01 -8.723672723987806e-02 1.741787934710518e-01 -9.115609996561281e-01 4.061190245490246e-01 -8.410969534351843e-01 2.074160536643386e-01 -1.053342590502528e-01
1.215510204081600e+11 2.175608327345114e-01 -8.861255575762211e-02 1.734336077128173e-01 -9.117105136319709e-01 4.059058990596260e-01 -8.411791425667772e-01 2.101230672376171e-01 -1.108549128528391e-01
1.215918367346900e+11 2.174521486409283e-01 -8.570713336327976e-02 1.726907247815223e-01 -9.118574296769045e-01 4.056923847107152e-01 -8.412624698921931e-01 2.059325703406590e-01 -1.105832027966546e-01
1.216326530612200e+11 2.201027986522461e-01 -8.448883868608197e-02 1.719502099586525e-01 -9.120018155334941e-01 4.054784500688208e-01 -8.413468937875513e-01 2.056581040382134e-01 -1.070300125057717e-01
1.216734693877600e+11 2.217067972553003e-01 -8.473042578681103e-02 1.712121182368630e-01 -9.121437399210740e-01 4.052640659821212e-01 -8.414323726172317e-01 2.066291349843560e-01 -1.059487481800928e-01
1.217142857142900e+11 2.226230801209601e-01 -8.495143142245645e-02 1.704764948121998e-01 -9.122832718453107e-01 4.050492060099056e-01 -8.415188640269893e-01 2.073253926645651e-01 -1.060556268948530e-01
1.217551020408200e+11 2.231087496278007e-01 -8.533636940844797e-02 1.697433758378022e-01 -9.124204802891734e-01 4.048338466829347e-01 -8.416063251616618e-01 2.075044709118016e-01 -1.065819569794145e-01
1.217959183673500e+11 2.236854914354900e-01 -8.563221108302713e-02 1.690127888920890e-01 -9.125554340484827e-01 4.046179675752597e-01 -8.416947128979932e-01 2.077001654304161e-01 -1.065505332740583e-01
1.218367346938800e+11 2.243766289835955e-01 -8.594372203654925e-02 1.682847533485329e-01 -9.126882016384700e-01 4.044015511812215e-01 -8.417839841468736e-01 2.080814234036096e-01 -1.059557064856105e-01
1.218775510204100e+11 2.238136198917070e-01 -8.690869281962540e-02 1.675592807375011e-01 -9.128188511451377e-01 4.041845828928589e-01 -8.418740958903035e-01 2.088588718543732e-01 -1.074563204728852e-01
1.219183673469400e+11 2.233448207868124e-01 -8.750993029315048e-02 1.668363752186933e-01 -9.129474501984132e-01 4.039670510501120e-01 -8.419650051400455e-01 2.090178737412431e-01 -1.087136080287298e-01
1.219591836734700e+11 2.229842586976623e-01 -8.767740614849072e-02 1.661160334008390e-01 -9.130740665691455e-01 4.037489468318973e-01 -8.420566692323080e-01 2.090091310308521e-01 -1.086775215772008e-01
1.220000000000000e+11 2.224553927654215e-01 -8.762575932170910e-02 1.653982439438912e-01 -9.131987684281491e-01 4.035302641804844e-01 -8.421490459002361e-01 2.096310532346304e-01 -1.079158964670254e-01
1.220408163265300e+11 2.218301928382088e-01 -8.728909001932574e-02 1.646829876650370e-01 -9.133216243536318e-01 4.033109995360786e-01 -8.422420932576438e-01 2.096601422726688e-01 -1.066960768330666e-01
1.220816326530600e+11 2.216969038020757e-01 -8.674611386903605e-02 1.639702376305558e-01 -9.134427033668659e-01 4.030911519034888e-01 -8.423357697263876e-01 2.103209571581172e-01 -1.051278646312845e-01
1.221224489795900e+11 2.221779163616214e-01 -8.561842338200006e-02 1.632599594172456e-01 -9.135620746902146e-01 4.028707226650250e-01 -8.424300341437996e-01 2.103196147661237e-01 -1.031969118559552e-01
1.221632653061200e+11 2.231170785256788e-01 -8.429504782916165e-02 1.625521116745983e-01 -9.136798074827860e-01 4.026497155118345e-01 -8.425248458285576e-01 2.094510286972026e-01 -1.005857902363068e-01
1.222040816326500e+11 2.240027754008464e-01 -8.364111404052299e-02 1.618466467447337e-01 -9.137959702342915e-01 4.024281364437149e-01 -8.426201645392443e-01 2.095568600715025e-01 -9.868153347481926e-02
1.222448979591800e+11 2.250552810119675e-01 -8.304803539844970e-02 1.611435114625616e-01 -9.139106298581601e-01 4.022059935766588e-01 -8.427159503040536e-01 2.099300245896827e-01 -9.724404933662463e-02
1.222857142857100e+11 2.258776326086475e-01 -8.272149267737990e-02 1.604426478383396e-01 -9.140238512566002e-01 4.019832970794709e-01 -8.428121634795142e-01 2.103801061709474e-01 -9.659794183381464e-02
1.223265306122400e+11 2.264733017608030e-01 -8.285456177958400e-02 1.597439937985577e-01 -9.141356969496244e-01 4.017600591339195e-01 -8.429087647902336e-01 2.101723119967777e-01 -9.670835248382520e-02
1.223673469387800e+11 2.266974110126607e-01 -8.345393409370508e-02 1.590474838185218e-01 -9.142462268122203e-01 4.015362939448117e-01 -8.430057153673102e-01 2.102283442163226e-01 -9.670964690708818e-02
1.224081632653100e+11 2.266835298628922e-01 -8.377642354670156e-02 1.583530495199541e-01 -9.143554979175749e-01 4.013120174438928e-01 -8.431029769966040e-01 2.101123230693791e-01 -9.761986640493338e-02
1.224489795918400e+11 2.271077603886629e-01 -8.375686507404415e-02 1.576606200397116e-01 -9.144635646793542e-01 4.010872470830559e-01 -8.432005124681383e-01 2.091827672236873e-01 -9.791227109203901e-02
1.224897959183700e+11 2.269191273078092e-01 -8.466903161812679e-02 1.569701222074513e-01 -9.145704790736144e-01 4.008620014952923e-01 -8.432982856510980e-01 2.091539439756703e-01 -9.767433708990912e-02
1.225306122449000e+11 2.269758009413985e-01 -8.524968843933325e-02 1.562814808596354e-01 -9.146762903996010e-01 4.006363002752935e-01 -8.433962615536451e-01 2.087761509446497e-01 -9.776256129728080e-02
1.225714285714300e+11 2.268188351595682e-01 -8.522825967946011e-02 1.555946192193233e-01 -9.147810454618962e-01 4.004101637225443e-01 -8.434944065851234e-01 2.085999048589336e-01 -9.825728973774565e-02
1.226122448979600e+11 2.264957652575562e-01 -8.533144884943598e-02 1.549094591100007e-01 -9.148847885553950e-01 4.001836126433719e-01 -8.435926885349748e-01 2.088686449667626e-01 -9.868599797801082e-02
1.226530612244900e+11 2.257958623772947e-01 -8.519708185290439e-02 1.542259210617835e-01 -9.149875615351165e-01 3.999566681968295e-01 -8.436910766475033e-01 2.089608349489473e-01 -9.978266744887830e-02
1.226938775510200e+11 2.255217755468953e-01 -8.446721195580276e-02 1.535439242511610e-01 -9.150894039919840e-01 3.997293518288051e-01 -8.437895416470175e-01 2.095124186700097e-01 -9.953974724731871e-02
1.227346938775500e+11 2.255492594132932e-01 -8.370020515256660e-02 1.528633862679636e-01 -9.151903534548712e-01 3.995016851158689e-01 -8.438880557737211e-01 2.103763375502119e-01 -9.994630002731222e-02
1.227755102040800e+11 2.258992428643946e-01 -8.238358929534365e-02 1.521842231468064e-01 -9.152904453364941e-01 3.992736896682778e-01 -8.439865927843111e-01 2.098304281094691e-01 -1.003793890405847e-01
1.228163265306100e+11 2.266050488230238e-01 -8.270999730424421e-02 1.515063491869349e-01 -9.153897132187009e-01 3.990453871303053e-01 -8.440851278512571e-01 2.116773380307971e-01 -1.010060235581536e-01
1.228571428571400e+11 2.275600624009292e-01 -8.281145216006866e-02 1.508296766024085e-01 -9.154881885798474e-01 3.988167992221287e-01 -8.441836373267972e-01 2.138764923026972e-01 -1.005989026045806e-01
1.228979591836700e+11 2.278569853157485e-01 -8.266609043755067e-02 1.501541155594000e-01 -9.155859011253423e-01 3.985879478712644e-01 -8.442820989768544e-01 2.149827347004988e-01 -1.017941910731460e-01
1.229387755102000e+11 2.279609678818617e-01 -8.318945666598701e-02 1.494795743255390e-01 -9.156828789488232e-01 3.983588555403446e-01 -8.443804921357270e-01 2.148583677285316e-01 -1.018467505517768e-01
1.229795918367300e+11 2.278536921313860e-01 -8.222974317208009e-02 1.488059589358312e-01 -9.157791486819794e-01 3.981295451032222e-01 -8.444787977335576e-01 2.127389590254483e-01 -1.002282030205599e-01
1.230204081632700e+11 2.309604533199470e-01 -8.132478710926362e-02 1.481331733189698e-01 -9.158747355645750e-01 3.979000397078842e-01 -8.445769982439522e-01 2.149116951195629e-01 -9.714771395060820e-02
1.230612244898000e+11 2.327529873465828e-01 -8.231936544355370e-02 1.474611192258029e-01 -9.159696631764919e-01 3.976703622717798e-01 -8.446750770863655e-01 2.177668085658411e-01 -9.667105108004298e-02
1.231020408163300e+11 2.325058629248788e-01 -8.343497533416772e-02 1.467896969252618e-01 -9.160639531235500e-01 3.974405362582698e-01 -8.447730182435500e-01 2.180625556117006e-01 -9.710480449502429e-02
1.231428571428600e+11 2.326222235150390e-01 -8.372504241345115e-02 1.461188056973805e-01 -9.161576252305867e-01 3.972105863086930e-01 -8.448708065805296e-01 2.178172717634409e-01 -9.671503644722057e-02
1.231836734693900e+11 2.327691848995408e-01 -8.433204027789382e-02 1.454483441327800e-01 -9.162506976832152e-01 3.969805379476418e-01 -8.449684281477341e-01 2.174362279206163e-01 -9.627861095182220e-02
1.232244897959200e+11 2.324568050846101e-01 -8.487694587451790e-02 1.447782103803333e-01 -9.163431869129450e-01 3.967504173843355e-01 -8.450658702321093e-01 2.170935734800871e-01 -9.531461446364270e-02
1.232653061224500e+11 2.322487819949347e-01 -8.493611568785502e-02 1.441083024695203e-01 -9.164351075681452e-01 3.965202513429629e-01 -8.451631214683252e-01 2.151601346937912e-01 -9.314902556106074e-02
1.233061224489800e+11 2.326308769893297e-01 -8.561063365669433e-02 1.434385185271060e-01 -9.165264724539313e-01 3.962900671093449e-01 -8.452601718234246e-01 2.182864506532367e-01 -9.311229388722475e-02
1.233469387755100e+11 2.320659608687399e-01 -8.487913996934535e-02 1.427687571986216e-01 -9.166172917327099e-01 3.960598923698623e-01 -8.453570126054413e-01 2.174537745825330e-01 -9.296411730919429e-02
1.233877551020400e+11 2.317964400482027e-01 -8.547425117893502e-02 1.420989182720460e-01 -9.167075744748049e-01 3.958297550942146e-01 -8.454536364152224e-01 2.189559461862818e-01 -9.385592186305725e-02
1.234285714285700e+11 2.318301833724341e-01 -8.375905794427048e-02 1.414289023818546e-01 -9.167973282813565e-01 3.955996833953190e-01 -8.455500371349433e-01 2.159990294162634e-01 -9.247774000293552e-02
1.234693877551000e+11 2.326667023623113e-01 -8.425095272159702e-02 1.407586110934251e-01 -9.168865592912049e-01 3.953697054027565e-01 -8.456462107582711e-01 2.177329249019432e-01 -9.191375916650536e-02
1.235102040816300e+11 2.333162798411779e-01 -8.375919105256555e-02 1.400879471819920e-01 -9.169752718791638e-01 3.951398483293450e-01 -8.457421542113140e-01 2.180686300583122e-01 -9.194986610239561e-02
1.235510204081600e+11 2.338109589308955e-01 -8.358565064985538e-02 1.394168146765690e-01 -9.170634689346211e-01 3.949101390154328e-01 -8.458378655030334e-01 2.187751447825433e-01 -9.179954257895531e-02
1.235918367346900e+11 2.343331471416626e-01 -8.364846553731885e-02 1.387451190122942e-01 -9.171511516498019e-01 3.946806038222440e-01 -8.459333438929456e-01 2.197662521188010e-01 -9.263391388969704e-02
1.236326530612200e+11 2.348174128848515e-01 -8.320172514408274e-02 1.380727673739401e-01 -9.172383194857879e-01 3.944512683965918e-01 -8.460285898787255e-01 2.189159126747698e-01 -9.334594662734606e-02
1.236734693877600e+11 2.353653705827389e-01 -8.324296308797445e-02 1.373996684821525e-01 -9.173249702745618e-01 3.942221578712262e-01 -8.461236052225231e-01 2.194887615340309e-01 -9.349375844668407e-02
1.237142857142900e+11 2.364163022564018e-01 -8.336305761672930e-02 1.367257323469280e-01 -9.174111000630001e-01 3.939932966120838e-01 -8.462183928681222e-01 2.202785149981913e-01 -9.411687851486505e-02
1.237551020408200e+11 2.370566259991797e-01 -8.415735266185881e-02 1.360508703503890e-01 -9.174967031576197e-01 3.937647082120467e-01 -8.463129569073904e-01 2.210195160175953e-01 -9.539080437656262e-02
1.237959183673500e+11 2.371919706994880e-01 -8.469958379455846e-02 1.353749953911716e-01 -9.175817721197781e-01 3.935364156403496e-01 -8.464073027110025e-01 2.208740364765616e-01 -9.624412901148381e-02
1.238367346938800e+11 2.372067831796670e-01 -8.493926494542016e-02 1.346980219060288e-01 -9.176662979486083e-01 3.933084411415075e-01 -8.465014372929341e-01 2.199589931604414e-01 -9.686833843407870e-02
1.238775510204100e+11 2.371125693786493e-01 -8.505387199776719e-02 1.340198658187273e-01 -9.177502702103246e-01 3.930808059878032e-01 -8.465953693512133e-01 2.210656075432444e-01 -9.625778002987612e-02
1.239183673469400e+11 2.386967465708552e-01 -8.491765830138087e-02 1.333404447098968e-01 -9.178336770998290e-01 3.928535299174454e-01 -8.466891091229162e-01 2.213638198891443e-01 -9.620411515816946e-02
1.239591836734700e+11 2.400645899984230e-01 -8.593635324542995e-02 1.326596782442847e-01 -9.179165053512405e-01 3.926266309924270e-01 -8.467826686921840e-01 2.211398192445608e-01 -9.492725847099032e-02
1.240000000000000e+11 2.400962797719088e-01 -8.656398882924227e-02 1.319774885528560e-01 -9.179987402388543e-01 3.924001253819791e-01 -8.468760618823461e-01 2.218589990895274e-01 -9.403350186124516e-02
1.240408163265300e+11 2.402502558240144e-01 -8.719792825821886e-02 1.312938007392988e-01 -9.180803655444332e-01 3.921740274421793e-01 -8.469693040481578e-01 2.223427948455385e-01 -9.367271767270624e-02
1.240816326530600e+11 2.400387548633022e-01 -8.787360233550812e-02 1.306085430234278e-01 -9.181613636110146e-01 3.919483497885795e-01 -8.470624119870395e-01 2.225077128212711e-01 -9.303536096075175e-02
1.241224489795900e+11 2.397672290485813e-01 -8.857227122550333e-02 1.299216467089235e-01 -9.182417155327193e-01 3.917231033162718e-01 -8.471554037711340e-01 2.230104099493515e-01 -9.248724939103960e-02
1.241632653061200e+11 2.402851826610019e-01 -8.884138505827190e-02 1.292330459890308e-01 -9.183214014239545e-01 3.914982971354182e-01 -8.472482985529256e-01 2.241150506719333e-01 -9.197367840179600e-02
1.242040816326500e+11 2.403113847967910e-01 -8.928704833534040e-02 1.285426777283516e-01 -9.184004006087256e-01 3.912739385930700e-01 -8.473411166299528e-01 2.247201319721847e-01 -9.192855080260288e-02
1.242448979591800e+11 2.412577242059415e-01 -8.900006184532663e-02 1.278504815466154e-01 -9.184786916004766e-01 3.910500335835398e-01 -8.474338796082983e-01 2.251715917494794e-01 -9.163694948476479e-02
1.242857142857100e+11 2.413573497089553e-01 -8.839345674992845e-02 1.271563997876386e-01 -9.185562521564026e-01 3.908265865122371e-01 -8.475266105348697e-01 2.245002389282511e-01 -9.127858504387940e-02
1.243265306122400e+11 2.422135386028161e-01 -8.856710435357346e-02 1.264603775081184e-01 -9.186330594437646e-01 3.906036003880666e-01 -8.476193336971364e-01 2.249155222192761e-01 -9.066682255824136e-02
1.243673469387800e+11 2.426599539950098e-01 -8.917229593535701e-02 1.257623622033858e-01 -9.187090899059415e-01 3.903810767143489e-01 -8.477120742572065e-01 2.250731817814081e-01 -9.077635336385172e-02
1.244081632653100e+11 2.431840840800542e-01 -8.974430448088749e-02 1.250623038991686e-01 -9.187843191730458e-01 3.901590157267798e-01 -8.478048581320745e-01 2.247298014804399e-01 -9.115227231405250e-02
1.244489795918400e+11 2.436505430188865e-01 -9.008177408395533e-02 1.243601551498097e-01 -9.188587221858019e-01 3.899374165565113e-01 -8.478977120440904e-01 2.247988536653812e-01 -9.071789844150249e-02
1.244897959183700e+11 2.437681370398274e-01 -9.072726026193781e-02 1.236558707826536e-01 -9.189322733431349e-01 3.897162773776267e-01 -8.479906635544251e-01 2.244921018830056e-01 -9.157858812823659e-02
1.245306122449000e+11 2.436060082025714e-01 -9.140700225852208e-02 1.229494080351457e-01 -9.190049463533971e-01 3.894955955231857e-01 -8.480837410326134e-01 2.237096848703089e-01 -9.140481479530055e-02
1.245714285714300e+11 2.436378491867776e-01 -9.225844587954272e-02 1.222407263041577e-01 -9.190767143077933e-01 3.892753674575265e-01 -8.481769736578392e-01 2.231844002159747e-01 -9.181639761871610e-02
1.246122448979600e+11 2.437425629296117e-01 -9.288339909150013e-02 1.215297872102803e-01 -9.191475495727472e-01 3.890555888643223e-01 -8.482703913345954e-01 2.232307667777840e-01 -9.267199317609899e-02
1.246530612244900e+11 2.435623124998482e-01 -9.273226603460206e-02 1.208165547455074e-01 -9.192174237852109e-01 3.888362545312364e-01 -8.483640247900324e-01 2.228093396907453e-01 -9.216766203486694e-02
1.246938775510200e+11 2.434618537741787e-01 -9.347916359490221e-02 1.201009952705494e-01 -9.192863081838989e-01 3.886173581771884e-01 -8.484579057103704e-01 2.229989283890486e-01 -9.257995024611207e-02
1.247346938775500e+11 2.431975689615831e-01 -9.359939578218610e-02 1.193830775707350e-01 -9.193541733836637e-01 3.883988925403977e-01 -8.485520665245906e-01 2.224102262066488e-01 -9.230543654178966e-02
1.247755102040800e+11 2.434154112339137e-01 -9.442328234776831e-02 1.186627729868742e-01 -9.194209895076147e-01 3.881808493152212e-01 -8.486465406880991e-01 2.228889617695383e-01 -9.250411978074953e-02
1.248163265306100e+11 2.430224472859816e-01 -9.485602287850670e-02 1.179400557393468e-01 -9.194867261634522e-01 3.879632186526782e-01 -8.487413625204574e-01 2.228701501237951e-01 -9.262747502818683e-02
1.248571428571400e+11 2.426963633386086e-01 -9.545306716102513e-02 1.172149031197070e-01 -9.195513527711694e-01 3.877459890310199e-01 -8.488365673010170e-01 2.229086898075505e-01 -9.294432454474851e-02
1.248979591836700e+11 2.432677600207536e-01 -9.579312158736762e-02 1.164872954634234e-01 -9.196148386554623e-01 3.875291469919483e-01 -8.489321912045049e-01 2.236746650406757e-01 -9.332208768142422e-02
1.249387755102000e+11 2.446249515132460e-01 -9.446416841891042e-02 1.157572160356882e-01 -9.196771530700091e-01 3.873126769662240e-01 -8.490282713795690e-01 2.246620317461648e-01 -9.228576401524746e-02
1.249795918367300e+11 2.455390052838108e-01 -9.302275410350576e-02 1.150246511054396e-01 -9.197382654790024e-01 3.870965611973031e-01 -8.491248458745873e-01 2.254744134178609e-01 -9.121516053486824e-02
1.250204081632700e+11 2.450599728948774e-01 -9.265557829140986e-02 1.142895901533478e-01 -9.197981454541998e-01 3.868807799760797e-01 -8.492219532730979e-01 2.253742732308814e-01 -9.123323806577371e-02
1.250612244898000e+11 2.454121856554586e-01 -9.416751151568316e-02 1.135520260425483e-01 -9.198567625040727e-01 3.866653117156539e-01 -8.493196324086650e-01 2.252317519048236e-01 -9.177087224832936e-02
1.251020408163300e+11 2.456310526199806e-01 -9.384746050890022e-02 1.128119549960210e-01 -9.199140861359929e-01 3.864501325988149e-01 -8.494179223308588e-01 2.256167215598415e-01 -9.129767779483812e-02
1.251428571428600e+11 2.471142763932143e-01 -9.430113670932393e-02 1.120693767574673e-01 -9.199700859107411e-01 3.862352163950933e-01 -8.495168625832149e-01 2.267959454924790e-01 -9.167680083556448e-02
1.251836734693900e+11 2.473147597762462e-01 -9.476241195210676e-02 1.113242945796897e-01 -9.200247311459999e-01 3.860205344844218e-01 -8.496164932632799e-01 2.267368349493959e-01 -9.186499540743777e-02
1.252244897959200e+11 2.479328298966214e-01 -9.592997731496589e-02 1.105767155071636e-01 -9.200779911670754e-01 3.858060560392603e-01 -8.497168551483922e-01 2.256496576054235e-01 -9.182459780210622e-02
1.252653061224500e+11 2.479042204795304e-01 -9.772950536914876e-02 1.098266502823490e-01 -9.201298354618563e-01 3.855917478839027e-01 -8.498179897084227e-01 2.257058888110418e-01 -9.157850381239403e-02
1.253061224489800e+11 2.478966423356717e-01 -9.817497137511577e-02 1.090741133773637e-01 -9.201802337091272e-01 3.853775744916853e-01 -8.499199389622913e-01 2.255867479314494e-01 -9.165045988323653e-02
1.253469387755100e+11 2.478783810970373e-01 -9.940523236674169e-02 1.083191230114025e-01 -9.202291562294547e-01 3.851634980558868e-01 -8.500227457352776e-01 2.246908148635424e-01 -9.182294545710977e-02
1.253877551020400e+11 2.478447057678771e-01 -1.001521478419987e-01 1.075617008362213e-01 -9.202765742947422e-01 3.849494787238183e-01 -8.501264535881136e-01 2.244934271807990e-01 -9.045182654504429e-02
1.254285714285700e+11 2.471764287486319e-01 -1.007533830770823e-01 1.068018716399381e-01 -9.203224600458796e-01 3.847354745404632e-01 -8.502311070367382e-01 2.234106077510629e-01 -8.947173805090046e-02
1.254693877551000e+11 2.465921313059740e-01 -9.960145732341151e-02 1.060396636330887e-01 -9.203667864814615e-01 3.845214416856927e-01 -8.503367515878671e-01 2.226420771157242e-01 -8.828005145247975e-02
1.255102040816300e+11 2.466815581537550e-01 -9.918959839810114e-02 1.052751085471162e-01 -9.204095275898885e-01 3.843073341894713e-01 -8.504434328948914e-01 2.225633583733891e-01 -8.838600758874485e-02
1.255510204081600e+11 2.462185118455427e-01 -9.853559209780137e-02 1.045082415407069e-01 -9.204506580934274e-01 3.840931040927767e-01 -8.505511959423696e-01 2.224214887088181e-01 -8.792553834892296e-02
1.255918367346900e+11 2.462120729703502e-01 -9.944029575705091e-02 1.037391009287534e-01 -9.204901534231044e-01 3.838787013874109e-01 -8.506600850683538e-01 2.225977550829461e-01 -8.877031334229647e-02
1.256326530612200e+11 2.461319328739693e-01 -9.983773419241701e-02 1.029677280830577e-01 -9.205279897750684e-01 3.836640740640015e-01 -8.507701438237387e-01 2.224342807986730e-01 -8.854952396322364e-02
1.256734693877600e+11 2.459836983329686e-01 -1.005964497045645e-01 1.021941670777304e-01 -9.205641445815288e-01 3.834491680127134e-01 -8.508814153053845e-01 2.219864975026504e-01 -8.888627068200654e-02
1.257142857142900e+11 2.458973174640418e-01 -1.002837453767731e-01 1.014184647204098e-01 -9.205985963881098e-01 3.832339271017681e-01 -8.509939421870208e-01 2.218993732387494e-01 -8.873246500056779e-02
1.257551020408200e+11 2.465286826244723e-01 -9.913986028268194e-02 1.006406705343861e-01 -9.206313249046201e-01 3.830182930379611e-01 -8.511077668897800e-01 2.224488773200798e-01 -8.817434493960871e-02
1.257959183673500e+11 2.474150200834335e-01 -9.912763169510579e-02 9.986083680769481e-02 -9.206623109507706e-01 3.828022053042846e-01 -8.512229314816268e-01 2.229370205557455e-01 -8.820168573213198e-02
1.258367346938800e+11 2.481416411473464e-01 -9.963390425462942e-02 9.907901899274538e-02 -9.206915363443646e-01 3.825856013682476e-01 -8.513394772759735e-01 2.233112531197220e-01 -8.910556848004786e-02
1.258775510204100e+11 2.482093947173299e-01 -1.007964759966702e-01 9.829527605015591e-02 -9.207189840744878e-01 3.823684169328410e-01 -8.514574447737990e-01 2.217180335346696e-01 -9.007740184183391e-02
1.259183673469400e+11 2.481540117351047e-01 -1.009382401017799e-01 9.750967067425141e-02 -9.207446387115238e-01 3.821505859322069e-01 -8.515768738348319e-01 2.210620230332915e-01 -8.959466842280203e-02
1.259591836734700e+11 2.483032292458206e-01 -1.008463243243676e-01 9.672226878809334e-02 -9.207684865344069e-01 3.819320401001960e-01 -8.516978036287001e-01 2.213120339362242e-01 -8.945814485338285e-02
1.260000000000000e+11 2.488505460607779e-01 -1.021937930251330e-01 9.593313951412244e-02 -9.207905152858248e-01 3.817127088798395e-01 -8.518202721195538e-01 2.210397743776183e-01 -8.983436533487529e-02
1.260408163265300e+11 2.487794248400572e-01 -1.028993748364464e-01 9.514235521153282e-02 -9.208107140931099e-01 3.814925195661950e-01 -8.519443159859829e-01 2.211604705824161e-01 -8.959559079350538e-02
1.260816326530600e+11 2.486388370860973e-01 -1.035372910375282e-01 9.434999163677454e-02 -9.208290734644056e-01 3.812713973274040e-01 -8.520699711165558e-01 2.212090634369891e-01 -8.951218834386260e-02
1.261224489795900e+11 2.486226468230950e-01 -1.037148470255625e-01 9.355612806013319e-02 -9.208455852686273e-01 3.810492650718861e-01 -8.521972727472437e-01 2.214932961036311e-01 -8.876396481779034e-02
1.261632653061200e+11 2.486473073028587e-01 -1.040170877949650e-01 9.276084722769180e-02 -9.208602427138738e-01 3.808260434917901e-01 -8.523262553989975e-01 2.218445636844723e-01 -8.863676157036098e-02
1.262040816326500e+11 2.487985669779273e-01 -1.043041921235495e-01 9.196423534672989e-02 -9.208730402928368e-01 3.806016512238208e-01 -8.524569527207717e-01 2.221581276331779e-01 -8.808903751939330e-02
1.262448979591800e+11 2.484774985531399e-01 -1.045960201214048e-01 9.116638201594794e-02 -9.208839738954879e-01 3.803760050143464e-01 -8.525893974076546e-01 2.223545337624304e-01 -8.717788819679724e-02
1.262857142857100e+11 2.485265761278888e-01 -1.044628955555745e-01 9.036738018607619e-02 -9.208930409574781e-01 3.801490199371459e-01 -8.527236210712795e-01 2.225498757458488e-01 -8.659025792641555e-02
1.263265306122400e+11 2.486356990223995e-01 -1.043591860173295e-01 8.956732612161769e-02 -9.209002405274407e-01 3.799206096519643e-01 -8.528596539936292e-01 2.229863737303939e-01 -8.556024127176248e-02
1.263673469387800e+11 2.488974401449011e-01 -1.042766746104415e-01 8.876631932829103e-02 -9.209055732447290e-01 3.796906867069040e-01 -8.529975249748143e-01 2.234038715838426e-01 -8.446913064025331e-02
1.264081632653100e+11 2.489150256760967e-01 -1.043726177933321e-01 8.796446276281025e-02 -9.209090411594505e-01 3.794591627709283e-01 -8.531372612834326e-01 2.239286637861801e-01 -8.396177181568568e-02
1.264489795918400e+11 2.488993431653767e-01 -1.043894603335236e-01 8.716186311786682e-02 -9.209106477583626e-01 3.792259489504177e-01 -8.532788885685042e-01 2.237908194373661e-01 -8.456973215979253e-02
1.264897959183700e+11 2.488354014584871e-01 -1.045403955369701e-01 8.635863065480623e-02 -9.209103982500632e-01 3.789909562210742e-01 -8.534224305961192e-01 2.236915325701745e-01 -8.541033598096877e-02
1.265306122449000e+11 2.489265892218959e-01 -1.042409965452758e-01 8.555487871738129e-02 -9.209082996393332e-01 3.787540954738553e-01 -8.535679093054249e-01 2.234754938898822e-01 -8.556105661870592e-02
1.265714285714300e+11 2.489289212527948e-01 -1.053871151750220e-01 8.475072334625086e-02 -9.209043609928510e-01 3.785152772587218e-01 -8.537153450258496e-01 2.225774994845356e-01 -8.525320702278368e-02
1.266122448979600e+11 2.485177576512991e-01 -1.054220541965528e-01 8.394628309795178e-02 -9.208985934289149e-01 3.782744121124066e-01 -8.538647563448329e-01 2.221949936509590e-01 -8.493801112497841e-02
1.266530612244900e+11 2.483332767825866e-01 -1.059892053916613e-01 8.314167847962917e-02 -9.208910102977692e-01 3.780314111855054e-01 -8.540161597994708e-01 2.213275143785141e-01 -8.476149176486983e-02
1.266938775510200e+11 2.480281536732341e-01 -1.047214561189240e-01 8.233703167159970e-02 -9.208816271625051e-01 3.777861866628036e-01 -8.541695696713386e-01 2.215057153187941e-01 -8.489037783164552e-02
1.267346938775500e+11 2.479865350422134e-01 -1.052832088127428e-01 8.153246624346105e-02 -9.208704617011014e-01 3.775386519612460e-01 -8.543249981142393e-01 2.206286005292574e-01 -8.503674691801509e-02
1.267755102040800e+11 2.480809153925022e-01 -1.048949905113440e-01 8.072810687346885e-02 -9.208575336262539e-01 3.772887221757996e-01 -8.544824548292451e-01 2.206940927208025e-01 -8.466315206328764e-02
1.268163265306100e+11 2.480162825876865e-01 -1.048378366613287e-01 7.992407914498235e-02 -9.208428646606449e-01 3.770363142243899e-01 -8.546419472026959e-01 2.203006089956076e-01 -8.486442109893387e-02
1.268571428571400e+11 2.480976166501023e-01 -1.048754181296518e-01 7.912050959751991e-02 -9.208264783827611e-01 3.767813471117440e-01 -8.548034801948270e-01 2.203987405039253e-01 -8.458379658165603e-02
1.268979591836700e+11 2.483678801727431e-01 -1.055334183777905e-01 7.831752543038659e-02 -9.208084001672765e-01 3.765237420194650e-01 -8.549670563061980e-01 2.202712243749106e-01 -8.478134549717935e-02
1.269387755102000e+11 2.483223912494497e-01 -1.054060356618049e-01 7.751525438461530e-02 -9.207886570509416e-01 3.762634224172049e-01 -8.551326755267561e-01 2.208703862910606e-01 -8.497940178848208e-02
1.269795918367300e+11 2.485137205073351e-01 -1.056820102336627e-01 7.671382463602593e-02 -9.207672777765559e-01 3.760003140238002e-01 -8.553003354238010e-01 2.207033492028178e-01 -8.545861140164561e-02
1.270204081632700e+11 2.487237141934075e-01 -1.060677780552869e-01 7.591336476732553e-02 -9.207442927173392e-01 3.757343449045905e-01 -8.554700309456490e-01 2.215361710729159e-01 -8.593941508154290e-02
1.270612244898000e+11 2.487385159977391e-01 -1.062092817058495e-01 7.511400355388904e-02 -9.207197337805422e-01 3.754654454932070e-01 -8.556417543820893e-01 2.216405071055653e-01 -8.595023299679166e-02
1.271020408163300e+11 2.488271223473178e-01 -1.064278740322438e-01 7.431586994375708e-02 -9.206936345218322e-01 3.751935487833588e-01 -8.558154952958075e-01 2.218859502720880e-01 -8.620240501183621e-02
1.271428571428600e+11 2.490786989072679e-01 -1.065294316862263e-01 7.351909279983299e-02 -9.206660300186001e-01 3.749185905072944e-01 -8.559912403707232e-01 2.223709306003216e-01 -8.676675685327795e-02
1.271836734693900e+11 2.492223670733775e-01 -1.069208860360603e-01 7.272380054005109e-02 -9.206369568862607e-01 3.746405095190251e-01 -8.561689732704396e-01 2.225622370030912e-01 -8.761221754436822e-02
1.272244897959200e+11 2.490517100388810e-01 -1.073088167615410e-01 7.193012078126795e-02 -9.206064532222364e-01 3.743592482333129e-01 -8.563486747364841e-01 2.224661857527783e-01 -8.834009594458382e-02
1.272653061224500e+11 2.494099145656073e-01 -1.074713377578882e-01 7.113817997649435e-02 -9.205745585791300e-01 3.740747528800468e-01 -8.565303227400876e-01 2.219484091975379e-01 -8.894617701094885e-02
1.273061224489800e+11 2.494769883733823e-01 -1.071180874082473e-01 7.034810303450363e-02 -9.205413141234531e-01 3.737869735622952e-01 -8.567138923845995e-01 2.218896006624677e-01 -8.904478743433740e-02
1.273469387755100e+11 2.499177709318378e-01 -1.075239947056784e-01 6.956001306409829e-02 -9.205067626147588e-01 3.734958644348978e-01 -8.568993559698024e-01 2.217053390901671e-01 -8.928433007354775e-02
1.273877551020400e+11 2.502125038003001e-01 -1.070953732200697e-01 6.877403113987464e-02 -9.204709484021735e-01 3.732013839584099e-01 -8.570866828687457e-01 2.216168186229355e-01 -8.957019992745438e-02
1.274285714285700e+11 2.501618137700682e-01 -1.070901194873184e-01 6.799027598835444e-02 -9.204339173872662e-01 3.729034950510930e-01 -8.572758395935786e-01 2.216028772172264e-01 -8.992031986550648e-02
1.274693877551000e+11 2.499258664246404e-01 -1.076138954873353e-01 6.720886388596545e-02 -9.203957169797055e-01 3.726021652672603e-01 -8.574667898215447e-01 2.214779243312903e-01 -9.039409979847825e-02
1.275102040816300e+11 2.495670242682338e-01 -1.083170935688374e-01 6.642990867783534e-02 -9.203563960226426e-01 3.722973668087287e-01 -8.576594945407178e-01 2.210092026526379e-01 -9.102955637708475e-02
1.275510204081600e+11 2.493692892922471e-01 -1.092214412093041e-01 6.565352153342793e-02 -9.203160046222791e-01 3.719890765556581e-01 -8.578539121649981e-01 2.200822917983899e-01 -9.099289652760026e-02
1.275918367346900e+11 2.485895875583749e-01 -1.093335702880950e-01 6.487981074112277e-02 -9.202745939852280e-01 3.716772760858019e-01 -8.580499987569072e-01 2.196870648458192e-01 -9.027704598084813e-02
1.276326530612200e+11 2.486669440340331e-01 -1.089791000189000e-01 6.410888159812303e-02 -9.202322162647890e-01 3.713619514194638e-01 -8.582477083445887e-01 2.201927104644510e-01 -8.937813226219737e-02
1.276734693877600e+11 2.482360575325303e-01 -1.088465520609534e-01 6.334083659133456e-02 -9.201889241723538e-01 3.710430928477929e-01 -8.584469930061424e-01 2.201991633252987e-01 -8.943727355866360e-02
1.277142857142900e+11 2.471235371612530e-01 -1.084699844187193e-01 6.257577612802555e-02 -9.201447708325797e-01 3.707206947853655e-01 -8.586478029298763e-01 2.188704141936393e-01 -8.943678358029811e-02
1.277551020408200e+11 2.469073924602772e-01 -1.086420160905991e-01 6.181379880615605e-02 -9.200998096292047e-01 3.703947557066209e-01 -8.588500865725307e-01 2.178447359136902e-01 -9.028918038439362e-02
1.277959183673500e+11 2.462589249599871e-01 -1.087607079613034e-01 6.105500124233398e-02 -9.200540937831991e-01 3.700652779042043e-01 -8.590537907192144e-01 2.169356605804859e-01 -9.036023751241029e-02
1.278367346938800e+11 2.456323955710247e-01 -1.086444932583605e-01 6.029947776943229e-02 -9.200076762500893e-01 3.697322672732435e-01 -8.592588606325046e-01 2.161319113369767e-01 -9.112893017884796e-02
1.278775510204100e+11 2.452583812409317e-01 -1.084852161683146e-01 5.954732017033394e-02 -9.199606094859978e-01 3.693957333207044e-01 -8.594652399803109e-01 2.151633971903673e-01 -9.166741568662939e-02
1.279183673469400e+11 2.455926014485337e-01 -1.085246874575059e-01 5.879861702387729e-02 -9.199129451261735e-01 3.690556894910260e-01 -8.596728710151003e-01 2.162237631709633e-01 -9.212573004811973e-02
1.279591836734700e+11 2.454300875786447e-01 -1.083747349148331e-01 5.805345334467978e-02 -9.198647338427277e-01 3.687121531447979e-01 -8.598816947532154e-01 2.158375092068807e-01 -9.197724589910394e-02
1.280000000000000e+11 2.451013966519532e-01 -1.090062981188840e-01 5.731191101016386e-02 -9.198160254775776e-01 3.683651455579494e-01 -8.600916511187007e-01 2.150504885410383e-01 -9.347165009480858e-02
1.280408163265300e+11 2.448095345986191e-01 -1.087700011116760e-01 5.657406889401852e-02 -9.197668687662253e-01 3.680146919035526e-01 -8.603026790897925e-01 2.145734572467274e-01 -9.357689969681264e-02
1.280816326530600e+11 2.449887593720492e-01 -1.083751734436518e-01 5.584000230699963e-02 -9.197173115066988e-01 3.676608213190208e-01 -8.605147169256874e-01 2.152172101487667e-01 -9.281188024561038e-02
1.281224489795900e+11 2.454334576731402e-01 -1.077690300570557e-01 5.510978304814377e-02 -9.196674004802851e-01 3.673035668210062e-01 -8.607277022288944e-01 2.152090515030806e-01 -9.211567113523397e-02
1.281632653061200e+11 2.453698737498732e-01 -1.075481262259748e-01 5.438347979072926e-02 -9.196171812617646e-01 3.669429652816283e-01 -8.609415718935031e-01 2.156710142150122e-01 -9.250284203094261e-02
1.282040816326500e+11 2.448159413234428e-01 -1.073647405208238e-01 5.366115816949755e-02 -9.195666981623957e-01 3.665790575264053e-01 -8.611562621877913e-01 2.151170451043754e-01 -9.313467773345367e-02
1.282448979591800e+11 2.454737867945421e-01 -1.076679690435052e-01 5.294288088457577e-02 -9.195159942639299e-01 3.662118882787194e-01 -8.613717088266558e-01 2.157607794990982e-01 -9.382643479081000e-02
1.282857142857100e+11 2.451775504547951e-01 -1.073103261715008e-01 5.222870727057967e-02 -9.194651116086495e-01 3.658415060752171e-01 -8.615878468401954e-01 2.146980924872069e-01 -9.420322542458151e-02
1.283265306122400e+11 2.455222994056009e-01 -1.071448259979927e-01 5.151869336772733e-02 -9.194140912546499e-01 3.654679632987314e-01 -8.618046111211173e-01 2.139048898255980e-01 -9.455003547959939e-02
1.283673469387800e+11 2.456182203103441e-01 -1.069604810829490e-01 5.081289150141755e-02 -9.193629733208878e-01 3.650913159498799e-01 -8.620219363447190e-01 2.137525870680202e-01 -9.448061014778648e-02
1.284081632653100e+11 2.457238145073158e-01 -1.076793384001917e-01 5.011135015636869e-02 -9.193117971396084e-01 3.647116234780475e-01 -8.622397571084435e-01 2.138474960471908e-01 -9.557168126382080e-02
1.284489795918400e+11 2.455152043059045e-01 -1.074058358427916e-01 4.941411403303326e-02 -9.192606013279853e-01 3.643289486017566e-01 -8.624580078749089e-01 2.130776686012638e-01 -9.578605811738886e-02
1.284897959183700e+11 2.455681290273473e-01 -1.075874847515914e-01 4.872122382902791e-02 -9.192094239655706e-01 3.639433572686122e-01 -8.626766233988370e-01 2.122615082145305e-01 -9.611087525092304e-02
1.285306122449000e+11 2.451837022000799e-01 -1.077030321303252e-01 4.803271622502021e-02 -9.191583025606715e-01 3.635549184672863e-01 -8.628955387889168e-01 2.113095287875750e-01 -9.643270558199306e-02
1.285714285714300e+11 2.447317039081314e-01 -1.073436581794012e-01 4.734862387044576e-02 -9.191072740728693e-01 3.631637039545367e-01 -8.631146896455201e-01 2.099054513375928e-01 -9.648712949600499e-02
1.286122448979600e+11 2.444410929409098e-01 -1.078108333367498e-01 4.666897524712929e-02 -9.190563748811544e-01 3.627697880434800e-01 -8.633340120220554e-01 2.088990258500821e-01 -9.752421274920554e-02
1.286530612244900e+11 2.441233743679379e-01 -1.077725538151891e-01 4.599379462180298e-02 -9.190056407439432e-01 3.623732473365429e-01 -8.635534423593936e-01 2.079472678633952e-01 -9.782753088638520e-02
1.286938775510200e+11 2.436525247034953e-01 -1.069579285033929e-01 4.532310186553357e-02 -9.189551067552403e-01 3.619741606658589e-01 -8.637729177419751e-01 2.068882301345191e-01 -9.804684459977817e-02
1.287346938775500e+11 2.437663930720807e-01 -1.051264965412139e-01 4.465691243429425e-02 -9.189048071826474e-01 3.615726089675650e-01 -8.639923759585707e-01 2.054761291247797e-01 -9.742461183481249e-02
1.287755102040800e+11 2.433596144647819e-01 -1.052642922168140e-01 4.399523733409200e-02 -9.188547753819054e-01 3.611686750868469e-01 -8.642117552982217e-01 2.042470464637330e-01 -9.901301732316675e-02
1.288163265306100e+11 2.436575736809288e-01 -1.044910248358255e-01 4.333808347672459e-02 -9.188050434654045e-01 3.607624436787349e-01 -8.644309945960609e-01 2.036096991069781e-01 -9.967196361530652e-02
1.288571428571400e+11 2.439642389723590e-01 -1.043399722058483e-01 4.268545334500384e-02 -9.187556426781912e-01 3.603540008381952e-01 -8.646500330299052e-01 2.032844326795155e-01 -1.009327880469567e-01
1.288979591836700e+11 2.437206563351632e-01 -1.049090101953717e-01 4.203734501128181e-02 -9.187066033347957e-01 3.599434340519040e-01 -8.648688100340438e-01 2.031476680317914e-01 -1.029447895491713e-01
1.289387755102000e+11 2.430690846794607e-01 -1.047616889992541e-01 4.139375219043182e-02 -9.186579546065717e-01 3.595308321074103e-01 -8.650872654674175e-01 2.016639264766195e-01 -1.054031022973848e-01
1.289795918367300e+11 2.433590876620307e-01 -1.040831461828657e-01 4.075466424145188e-02 -9.186097245360451e-01 3.591162847121774e-01 -8.653053396143453e-01 2.017716868183163e-01 -1.072773486982774e-01
1.290204081632700e+11 2.441717187500723e-01 -1.031353290862671e-01 4.012006593591367e-02 -9.185619399080437e-01 3.586998823273010e-01 -8.655229732337055e-01 2.020234453129248e-01 -1.088375569473135e-01
1.290612244898000e+11 2.452066751841303e-01 -1.034613089348199e-01 3.948993759950354e-02 -9.185146260882565e-01 3.582817160435182e-01 -8.657401075729286e-01 2.048695458325940e-01 -1.096654353502843e-01
1.291020408163300e+11 2.450590937772636e-01 -1.036939632411701e-01 3.886425534117498e-02 -9.184678069575926e-01 3.578618774579255e-01 -8.659566845756809e-01 2.051017604909443e-01 -1.139202500100248e-01
1.291428571428600e+11 2.456621208845920e-01 -1.036018844978234e-01 3.824299176905538e-02 -9.184215052304423e-01 3.574404586274137e-01 -8.661726469317818e-01 2.066655032257898e-01 -1.160001268401163e-01
1.291836734693900e+11 2.456727082825577e-01 -1.031666842190309e-01 3.762611552072226e-02 -9.183757426774223e-01 3.570175519836148e-01 -8.663879383302243e-01 2.066419483461746e-01 -1.188194383464914e-01
1.292244897959200e+11 2.471481517786528e-01 -1.027199772881639e-01 3.701359146659439e-02 -9.183305400098373e-01 3.565932502449713e-01 -8.666025036917727e-01 2.083871370202179e-01 -1.182962289983611e-01
1.292653061224500e+11 2.479212900532341e-01 -1.027425568336420e-01 3.640538072428830e-02 -9.182859169061934e-01 3.561676458720167e-01 -8.668162895641409e-01 2.104192284256014e-01 -1.196709460490795e-01
1.293061224489800e+11 2.489004650513142e-01 -1.023567912858563e-01 3.580144090431178e-02 -9.182418919502654e-01 3.557408312791755e-01 -8.670292436727165e-01 2.127352322267297e-01 -1.197320972532915e-01
1.293469387755100e+11 2.494278016363387e-01 -1.025657876737292e-01 3.520172646929260e-02 -9.181984824014239e-01 3.553128989510955e-01 -8.672413152404428e-01 2.137959538122735e-01 -1.198402007505681e-01
1.293877551020400e+11 2.501987222190946e-01 -1.038387569188256e-01 3.460618901322882e-02 -9.181557044033875e-01 3.548839413787107e-01 -8.674524552019450e-01 2.174304679327874e-01 -1.217630265747321e-01
1.294285714285700e+11 2.502180136733175e-01 -1.039496711111372e-01 3.401477748139364e-02 -9.181135726875437e-01 3.544540509144425e-01 -8.676626161569204e-01 2.186414864780898e-01 -1.225035398772332e-01
1.294693877551000e+11 2.507195101803801e-01 -1.041578117800003e-01 3.342743838161399e-02 -9.180721009738456e-01 3.540233197076004e-01 -8.678717526262772e-01 2.212517275750061e-01 -1.227822849565778e-01
1.295102040816300e+11 2.510500704260321e-01 -1.042522137402105e-01 3.284411586525993e-02 -9.180313017024541e-01 3.535918397535144e-01 -8.680798213610177e-01 2.224697930813913e-01 -1.211996670197508e-01
1.295510204081600e+11 2.512866127663851e-01 -1.045792942205111e-01 3.226475196496608e-02 -9.179911865212360e-01 3.531597026402616e-01 -8.682867813051579e-01 2.241145428214663e-01 -1.204297970118332e-01
1.295918367346900e+11 2.509252977722577e-01 -1.049584798360755e-01 3.168928670842180e-02 -9.179517660669626e-01 3.527269996662952e-01 -8.684925936018222e-01 2.253474124039314e-01 -1.200919176193973e-01
1.296326530612200e+11 2.511904801862018e-01 -1.045484154393011e-01 3.111765816421650e-02 -9.179130503719261e-01 3.522938217052561e-01 -8.686972216506470e-01 2.258629733964031e-01 -1.179657314069682e-01
1.296734693877600e+11 2.513277496735031e-01 -1.041607792733229e-01 3.054980268943254e-02 -9.178750487529478e-01 3.518602590355054e-01 -8.689006312398675e-01 2.257789827618484e-01 -1.165035009552826e-01
1.297142857142900e+11 2.516915465942259e-01 -1.034879485742901e-01 2.998565535045383e-02 -9.178377694076554e-01 3.514264012567147e-01 -8.691027907351979e-01 2.247410434829790e-01 -1.143226097299510e-01
1.297551020408200e+11 2.521310405972872e-01 -1.029915897424661e-01 2.942515016709263e-02 -9.178012192910223e-01 3.509923369966470e-01 -8.693036712024599e-01 2.232061755068306e-01 -1.120497836254959e-01
1.297959183673500e+11 2.527619726357966e-01 -1.033708846450721e-01 2.886822034267608e-02 -9.177654038049764e-01 3.505581538614032e-01 -8.695032461381172e-01 2.235406501491223e-01 -1.107904737520830e-01
1.298367346938800e+11 2.529949527827185e-01 -1.038914016510096e-01 2.831479861497101e-02 -9.177303263602492e-01 3.501239383313891e-01 -8.697014912494151e-01 2.232194801055737e-01 -1.109475499902311e-01
1.298775510204100e+11 2.534874851937385e-01 -1.028575630155169e-01 2.776481771588394e-02 -9.176959887614103e-01 3.496897756763546e-01 -8.698983842485601e-01 2.204488617531633e-01 -1.092892370437817e-01
1.299183673469400e+11 2.538490264710898e-01 -1.026107014444518e-01 2.721821032025903e-02 -9.176623916633128e-01 3.492557500235633e-01 -8.700939046952262e-01 2.188888820728423e-01 -1.089262428625365e-01
1.299591836734700e+11 2.547177834433970e-01 -1.031345534906192e-01 2.667490922547412e-02 -9.176295341482156e-01 3.488219441304318e-01 -8.702880337897008e-01 2.181678367111453e-01 -1.083913193969079e-01
1.300000000000000e+11 2.549701050721731e-01 -1.036994182328208e-01 2.613484760547961e-02 -9.175974137549159e-01 3.483884391236237e-01 -8.704807543672070e-01 2.155422754786484e-01 -1.088574608766189e-01
1.300408163265300e+11 2.551521914048485e-01 -1.042561735056510e-01 2.559795921966391e-02 -9.175660263310593e-01 3.479553146137320e-01 -8.706720508630303e-01 2.144371386126993e-01 -1.094107614834103e-01
1.300816326530600e+11 2.556058868949007e-01 -1.041929480808858e-01 2.506417871536012e-02 -9.175353659408307e-01 3.475226481076560e-01 -8.708619092198342e-01 2.135163141190382e-01 -1.101121964567255e-01
1.301224489795900e+11 2.554056248850941e-01 -1.049023244145595e-01 2.453344194021773e-02 -9.175054250190546e-01 3.470905148624142e-01 -8.710503167873273e-01 2.121257110776536e-01 -1.120172514446565e-01
1.301632653061200e+11 2.549453228694423e-01 -1.049409250144904e-01 2.400568609764474e-02 -9.174761942548972e-01 3.466589877105759e-01 -8.712372622867373e-01 2.114138719195660e-01 -1.137259443393492e-01
1.302040816326500e+11 2.554728984385402e-01 -1.050995361599986e-01 2.348084978081124e-02 -9.174476625519392e-01 3.462281368450128e-01 -8.714227357716380e-01 2.122919483901490e-01 -1.149651991679111e-01
1.302448979591800e+11 2.551024828953398e-01 -1.044140595898777e-01 2.295887297865318e-02 -9.174198172988239e-01 3.457980296030991e-01 -8.716067285509930e-01 2.106387397087306e-01 -1.178220234149402e-01
1.302857142857100e+11 2.554666580708500e-01 -1.041777840132062e-01 2.243969722920599e-02 -9.173926445132996e-01 3.453687306493298e-01 -8.717892331517062e-01 2.104229330787268e-01 -1.191621516274089e-01
1.303265306122400e+11 2.554196481049628e-01 -1.042911269636840e-01 2.192326541732942e-02 -9.173661286183473e-01 3.449403017641672e-01 -8.719702434497330e-01 2.115876582862525e-01 -1.221003299577969e-01
1.303673469387800e+11 2.561346416084981e-01 -1.033391079482561e-01 2.140952176628391e-02 -9.173402523612593e-01 3.445128017184910e-01 -8.721497545869440e-01 2.114176716299005e-01 -1.232411986958923e-01
1.304081632653100e+11 2.566771912867455e-01 -1.029049948577197e-01 2.089841156769598e-02 -9.173149971315319e-01 3.440862860649833e-01 -8.723277628920190e-01 2.118204320636611e-01 -1.243069806625741e-01
1.304489795918400e+11 2.578528908706035e-01 -1.026003413335407e-01 2.038988131401122e-02 -9.172903426136848e-01 3.436608071244091e-01 -8.725042658477110e-01 2.139533811820742e-01 -1.247113394688531e-01
1.304897959183700e+11 2.589779137932462e-01 -1.029478442166294e-01 1.988387867349409e-02 -9.172662666935705e-01 3.432364139088764e-01 -8.726792621163320e-01 2.158396470215231e-01 -1.269190274750638e-01
1.305306122449000e+11 2.601375585423294e-01 -1.037220208145327e-01 1.938035282867839e-02 -9.172427454297816e-01 3.428131521898655e-01 -8.728527515643768e-01 2.189566222262662e-01 -1.287624171058182e-01
1.305714285714300e+11 2.609591615007109e-01 -1.044801653627507e-01 1.887925456600428e-02 -9.172197532499418e-01 3.423910645636190e-01 -8.730247352668863e-01 2.219563925264433e-01 -1.309539726810661e-01
1.306122448979600e+11 2.612001472649326e-01 -1.044855521030365e-01 1.838053640283617e-02 -9.171972633061809e-01 3.419701906314220e-01 -8.731952155460437e-01 2.228929590400177e-01 -1.344728922924301e-01
1.306530612244900e+11 2.626210620845121e-01 -1.048461600514824e-01 1.788415259198583e-02 -9.171752477809321e-01 3.415505671129704e-01 -8.733641960410342e-01 2.233090276888776e-01 -1.343169286721884e-01
1.306938775510200e+11 2.637776743178930e-01 -1.055033877776373e-01 1.739005862129182e-02 -9.171536780467520e-01 3.411322278620598e-01 -8.735316816972105e-01 2.251585036959036e-01 -1.339588096526978e-01
1.307346938775500e+11 2.643007772247701e-01 -1.067938876187219e-01 1.689821135570299e-02 -9.171325244481431e-01 3.407152039471051e-01 -8.736976785728849e-01 2.274661559689559e-01 -1.347196980043537e-01
1.307755102040800e+11 2.648572343610717e-01 -1.074907684511797e-01 1.640856946744960e-02 -9.171117561924262e-01 3.402995237654894e-01 -8.738621940389036e-01 2.270969425217928e-01 -1.329718169491429e-01
1.308163265306100e+11 2.646603110078083e-01 -1.086657819570140e-01 1.592109366558201e-02 -9.170913416539581e-01 3.398852130120945e-01 -8.740252369382008e-01 2.287382262519118e-01 -1.334838963222673e-01
1.308571428571400e+11 2.645932741826331e-01 -1.095852727234293e-01 1.543574703645360e-02 -9.170712483102338e-01 3.394722946245161e-01 -8.741868171422992e-01 2.302117978590339e-01 -1.330411333965117e-01
1.308979591836700e+11 2.642578219552824e-01 -1.105383608336172e-01 1.495249533068879e-02 -9.170514429556089e-01 3.390607885636893e-01 -8.743469457631599e-01 2.317726147376022e-01 -1.330169370475279e-01
1.309387755102000e+11 2.637105524760838e-01 -1.108769789615474e-01 1.447130720290745e-02 -9.170318919543862e-01 3.386507117608994e-01 -8.745056352191657e-01 2.325082328112232e-01 -1.335044344296756e-01
1.309795918367300e+11 2.639034281945224e-01 -1.103661620644276e-01 1.399215446617000e-02 -9.170125615382594e-01 3.382420779816643e-01 -8.746628994236012e-01 2.303606836224040e-01 -1.310730971820794e-01
1.310204081632700e+11 2.631665312694833e-01 -1.109740211052375e-01 1.351501221605395e-02 -9.169934180079691e-01 3.378348976223297e-01 -8.748187538759816e-01 2.318255107836042e-01 -1.314382773843076e-01
1.310612244898000e+11 2.623401747060029e-01 -1.113477656582304e-01 1.303985944952670e-02 -9.169744267818322e-01 3.374291774232447e-01 -8.749732156240028e-01 2.329897895580443e-01 -1.307182029199898e-01
1.311020408163300e+11 2.618273250322424e-01 -1.111713520158031e-01 1.256667902191267e-02 -9.169555529000275e-01 3.370249202724601e-01 -8.751263033195896e-01 2.326454649533840e-01 -1.300617019092394e-01
1.311428571428600e+11 2.609628382236000e-01 -1.114772022968349e-01 1.209545745894271e-02 -9.169367614363716e-01 3.366221252074713e-01 -8.752780372080203e-01 2.351140571617316e-01 -1.328173925798110e-01
1.311836734693900e+11 2.611680072522036e-01 -1.112340308253159e-01 1.162618467570869e-02 -9.169180176468629e-01 3.362207874907285e-01 -8.754284388462952e-01 2.354173454135063e-01 -1.333951182444031e-01
1.312244897959200e+11 2.620385383555882e-01 -1.106729243387540e-01 1.115885385098936e-02 -9.168992871266506e-01 3.358208984132897e-01 -8.755775319767438e-01 2.347375551331347e-01 -1.327081731188748e-01
1.312653061224500e+11 2.628299076632868e-01 -1.106430266613431e-01 1.069346121385211e-02 -9.168805359517981e-01 3.354224453472345e-01 -8.757253423983932e-01 2.342588528496962e-01 -1.319437814230904e-01
1.313061224489800e+11 2.639004329025499e-01 -1.104882295004166e-01 1.023000604046697e-02 -9.168617306500020e-01 3.350254118124389e-01 -8.758718975444995e-01 2.337361197926997e-01 -1.315398388007663e-01
1.313469387755100e+11 2.651146856337595e-01 -1.106860878518824e-01 9.768490553855938e-03 -9.168428381293804e-01 3.346297775969618e-01 -8.760172262322942e-01 2.333616467958026e-01 -1.313763653043619e-01
1.313877551020400e+11 2.659243102116382e-01 -1.111378547762068e-01 9.308919868268132e-03 -9.168238255839579e-01 3.342355189430761e-01 -8.761613583397190e-01 2.328072683566440e-01 -1.314457328575065e-01
1.314285714285700e+11 2.665905709071060e-01 -1.119577287441610e-01 8.851301988001679e-03 -9.168046604562984e-01 3.338426087259252e-01 -8.763043245813124e-01 2.339704790612812e-01 -1.303898933438625e-01
1.314693877551000e+11 2.667843546516681e-01 -1.127055830842837e-01 8.395647865144034e-03 -9.167853103830563e-01 3.334510164100584e-01 -8.764461563039805e-01 2.336641260429810e-01 -1.305675069189154e-01
1.315102040816300e+11 2.669017719559101e-01 -1.135515349854509e-01 7.941971567146376e-03 -9.167657432346314e-01 3.330607084328707e-01 -8.765868855541998e-01 2.335036258307417e-01 -1.300025285583033e-01
1.315510204081600e+11 2.671027065489425e-01 -1.143823131620079e-01 7.490290200781245e-03 -9.167459271902511e-01 3.326716482670999e-01 -8.767265448627060e-01 2.328734833805030e-01 -1.280540794452379e-01
1.315918367346900e+11 2.668190322441084e-01 -1.152678606996223e-01 7.040623714829998e-03 -9.167258308683570e-01 3.322837966044181e-01 -8.768651668749985e-01 2.337935396518327e-01 -1.265205041863289e-01
1.316326530612200e+11 2.659142896860358e-01 -1.158141539324191e-01 6.592994993534525e-03 -9.167054232268348e-01 3.318971116871318e-01 -8.770027841687522e-01 2.363277418737775e-01 -1.278526510967023e-01
1.316734693877600e+11 2.654254386572837e-01 -1.159771334599115e-01 6.147429805634176e-03 -9.166846739385083e-01 3.315115497481406e-01 -8.771394289493026e-01 2.370298208796702e-01 -1.265234393484692e-01
1.317142857142900e+11 2.648564484853724e-01 -1.165060358578941e-01 5.703956692317713e-03 -9.166635536537711e-01 3.311270649541903e-01 -8.772751336597973e-01 2.389043638595792e-01 -1.263360440957379e-01
1.317551020408200e+11 2.640267937086724e-01 -1.164864327932363e-01 5.262606988922107e-03 -9.166420341558845e-01 3.307436094698490e-01 -8.774099308116668e-01 2.392832448339337e-01 -1.263175347314694e-01
1.317959183673500e+11 2.641231882119796e-01 -1.163038517828040e-01 4.823414626124254e-03 -9.166200886006023e-01 3.303611336328800e-01 -8.775438532522382e-01 2.399161376033213e-01 -1.261044392896587e-01
1.318367346938800e+11 2.648325111969139e-01 -1.154671313827250e-01 4.386416041105262e-03 -9.165976917036854e-01 3.299795857532685e-01 -8.776769341592923e-01 2.411096894156810e-01 -1.250794487632048e-01
1.318775510204100e+11 2.630554291289025e-01 -1.155591540090109e-01 3.951650448304954e-03 -9.165748196370672e-01 3.295989119855706e-01 -8.778092073978149e-01 2.422601821631345e-01 -1.267686709596037e-01
1.319183673469400e+11 2.643921399625953e-01 -1.130989075365672e-01 3.519159858795016e-03 -9.165514504104648e-01 3.292190564698811e-01 -8.779407071424673e-01 2.415858727411795e-01 -1.253779138218171e-01
1.319591836734700e+11 2.647812038375424e-01 -1.134974819719054e-01 3.088988535539651e-03 -9.165275642543788e-01 3.288399610374944e-01 -8.780714682294665e-01 2.406647365629258e-01 -1.255795058598094e-01
1.320000000000000e+11 2.646485853770993e-01 -1.141774678957962e-01 2.661183059730034e-03 -9.165031431742926e-01 3.284615652169045e-01 -8.782015257848054e-01 2.400326030018933e-01 -1.268931561732916e-01
1.320408163265300e+11 2.671337663131331e-01 -1.127131116348046e-01 2.235791837028543e-03 -9.164781709541420e-01 3.280838063343722e-01 -8.783309150978363e-01 2.412413019455282e-01 -1.272568896555084e-01
1.320816326530600e+11 2.670107255232646e-01 -1.138012269384324e-01 1.812864853830216e-03 -9.164526330075006e-01 3.277066191254526e-01 -8.784596719429091e-01 2.403643728747817e-01 -1.268785672020631e-01
1.321224489795900e+11 2.684759679464203e-01 -1.140237362274397e-01 1.392453885959461e-03 -9.164265162477777e-01 3.273299358435983e-01 -8.785878324694001e-01 2.404612891363304e-01 -1.262159369324731e-01
1.321632653061200e+11 2.694607312656413e-01 -1.143138238089379e-01 9.746124522583770e-04 -9.163998090013971e-01 3.269536861071913e-01 -8.787154332644709e-01 2.383401661411119e-01 -1.256488774968544e-01
1.322040816326500e+11 2.690392594508413e-01 -1.156272415023982e-01 5.593959340284392e-04 -9.163725009801821e-01 3.265777971405386e-01 -8.788425112298114e-01 2.397753506697771e-01 -1.273961229164315e-01
1.322448979591800e+11 2.704892029844898e-01 -1.163950818554817e-01 1.468614918092342e-04 -9.163445829779823e-01 3.262021936644263e-01 -8.789691029973293e-01 2.395322258028581e-01 -1.257207648938863e-01
1.322857142857100e+11 2.702270186564624e-01 -1.176611327206864e-01 -2.629319452339467e-04 -9.163160468952617e-01 3.258267976643857e-01 -8.790952456894735e-01 2.392825108123635e-01 -1.246773972061352e-01
1.323265306122400e+11 2.708105647670284e-01 -1.183103929220339e-01 -6.699233368462155e-04 -9.162868857323914e-01 3.254515287581496e-01 -8.792209766172243e-01 2.393037153299263e-01 -1.234142554404633e-01
1.323673469387800e+11 2.712418474435340e-01 -1.177933526049750e-01 -1.074049695839326e-03 -9.162570935876077e-01 3.250763045751486e-01 -8.793463331441859e-01 2.404135621823211e-01 -1.223953315923375e-01
1.324081632653100e+11 2.717942486473746e-01 -1.184816857676238e-01 -1.475246057276387e-03 -9.162266658938815e-01 3.247010411210637e-01 -8.794713521462779e-01 2.437524850356740e-01 -1.230215270280457e-01
1.324489795918400e+11 2.706371451822439e-01 -1.188574421608696e-01 -1.873445348974086e-03 -9.161955992132921e-01 3.243256531081902e-01 -8.795960698445108e-01 2.429565791391360e-01 -1.213380603666085e-01
1.324897959183700e+11 2.699644000553794e-01 -1.194244689620568e-01 -2.268578045573409e-03 -9.161638916870396e-01 3.239500539591648e-01 -8.797205222419778e-01 2.443324231217417e-01 -1.238841627615090e-01
1.325306122449000e+11 2.714588414005699e-01 -1.184397431475728e-01 -2.660572737930091e-03 -9.161315429257755e-01 3.235741561533566e-01 -8.798447445975627e-01 2.465366721275722e-01 -1.225560425012646e-01
1.325714285714300e+11 2.712819212238788e-01 -1.189684664170587e-01 -3.049356975873397e-03 -9.160985541446368e-01 3.231978711673173e-01 -8.799687715510648e-01 2.489731227408777e-01 -1.226321330204988e-01
1.326122448979600e+11 2.721386128884711e-01 -1.192131600672847e-01 -3.434857061501986e-03 -9.160649279960134e-01 3.228211100176933e-01 -8.800926369918907e-01 2.514978600470136e-01 -1.222373384960517e-01
1.326530612244900e+11 2.718916634196171e-01 -1.187275719992327e-01 -3.816998314260250e-03 -9.160306688179038e-01 3.224437832236722e-01 -8.802163742116781e-01 2.525651892519445e-01 -1.204973019962841e-01
1.326938775510200e+11 2.740087818317979e-01 -1.191849880808435e-01 -4.195705329556162e-03 -9.159957827440026e-01 3.220658010748362e-01 -8.803400159109916e-01 2.537024664674608e-01 -1.186958832059337e-01
1.327346938775500e+11 2.765588032222877e-01 -1.166520142425635e-01 -4.570902018185708e-03 -9.159602776658295e-01 3.216870734505966e-01 -8.804635939798456e-01 2.577628603155581e-01 -1.178212331911386e-01
1.327755102040800e+11 2.761273264486478e-01 -1.193163291468076e-01 -4.942511050948143e-03 -9.159241628689407e-01 3.213075099299408e-01 -8.805871395938283e-01 2.591427967649071e-01 -1.172736274997978e-01
1.328163265306100e+11 2.785295920224657e-01 -1.190197864371239e-01 -5.310453674549433e-03 -9.158874485748122e-01 3.209270198556085e-01 -8.807106832428977e-01 2.609878038691280e-01 -1.145434940926726e-01
1.328571428571400e+11 2.785089616087585e-01 -1.197961319995081e-01 -5.674650425644964e-03 -9.158501464304839e-01 3.205455123781767e-01 -8.808342549127686e-01 2.611655123433551e-01 -1.121335845151023e-01
1.328979591836700e+11 2.783950472192254e-01 -1.225235665823895e-01 -6.035020707019148e-03 -9.158122693494858e-01 3.201628965667214e-01 -8.809578840051212e-01 2.617644270614654e-01 -1.104551312329820e-01
1.329387755102000e+11 2.788106337494480e-01 -1.237118296590236e-01 -6.391482592107357e-03 -9.157738311801310e-01 3.197790811643346e-01 -8.810815994329572e-01 2.617732728438559e-01 -1.081988108673062e-01
1.329795918367300e+11 2.800354712498192e-01 -1.249143119271871e-01 -6.743952844152828e-03 -9.157348468010365e-01 3.193939745828484e-01 -8.812054299022775e-01 2.607871512087592e-01 -1.051011359282874e-01
1.330204081632700e+11 2.794467606365995e-01 -1.257700452771211e-01 -7.092346657751184e-03 -9.156953318456484e-01 3.190074849730386e-01 -8.813294040170708e-01 2.587034521317798e-01 -1.021522713614818e-01
1.330612244898000e+11 2.790939004001526e-01 -1.273484603980301e-01 -7.436576959503799e-03 -9.156553027434793e-01 3.186195204646792e-01 -8.814535502209985e-01 2.581243018716486e-01 -1.001909785688663e-01
1.331020408163300e+11 2.789082789415345e-01 -1.278265358881704e-01 -7.776553716516130e-03 -9.156147765450769e-01 3.182299889598028e-01 -8.815778966128098e-01 2.612090645933447e-01 -9.748201478952247e-02
1.331428571428600e+11 2.783780669026591e-01 -1.290543963713744e-01 -8.112183880764767e-03 -9.155737710099559e-01 3.178387981995942e-01 -8.817024708172119e-01 2.609884730611359e-01 -9.728861508497925e-02
1.331836734693900e+11 2.780156323181495e-01 -1.290021731113933e-01 -8.443371594877618e-03 -9.155323049282152e-01 3.174458561201871e-01 -8.818273008581746e-01 2.598961639002399e-01 -9.621515854811527e-02
1.332244897959200e+11 2.769769598177529e-01 -1.295428179508436e-01 -8.770018544011422e-03 -9.154903983297562e-01 3.170510707532274e-01 -8.819524151337214e-01 2.579456032551561e-01 -9.490830996683043e-02
1.332653061224500e+11 2.760166837023064e-01 -1.300189073601429e-01 -9.092024340746791e-03 -9.154480724482019e-01 3.166543505226995e-01 -8.820778421434045e-01 2.561049225993461e-01 -9.480240004190212e-02
1.333061224489800e+11 2.759373165251043e-01 -1.296561882623045e-01 -9.409286771515292e-03 -9.154053497316971e-01 3.162556044193966e-01 -8.822036102370474e-01 2.552360844430536e-01 -9.476712154906591e-02
1.333469387755100e+11 2.759659491070345e-01 -1.288996677294156e-01 -9.721702379413031e-03 -9.153622537779660e-01 3.158547424881021e-01 -8.823297472931128e-01 2.545715440067386e-01 -9.452869033357349e-02
1.333877551020400e+11 2.756565993480684e-01 -1.298225959616723e-01 -1.002916716015972e-02 -9.153188093401291e-01 3.154516761903658e-01 -8.824562804419441e-01 2.533428321742561e-01 -9.543005673223892e-02
1.334285714285700e+11 2.773391269437598e-01 -1.284365913489618e-01 -1.033157705252156e-02 -9.152750421910716e-01 3.150463186533966e-01 -8.825832359241832e-01 2.528950688942794e-01 -9.519655769587700e-02
1.334693877551000e+11 2.777204300712017e-01 -1.272168397794364e-01 -1.062882853807700e-02 -9.152309791673414e-01 3.146385849239017e-01 -8.827106391464504e-01 2.516160416371124e-01 -9.566415630708630e-02
1.335102040816300e+11 2.778820933548022e-01 -1.277549563857726e-01 -1.092081896221879e-02 -9.151866480570412e-01 3.142283926002535e-01 -8.828385142507027e-01 2.502946820771798e-01 -9.686423525863590e-02
1.335510204081600e+11 2.788611914707159e-01 -1.280495830071174e-01 -1.120744714667194e-02 -9.151420771573149e-01 3.138156622303920e-01 -8.829668838060668e-01 2.500821160570821e-01 -9.808257516837758e-02
1.335918367346900e+11 2.797681525837002e-01 -1.285409122771961e-01 -1.148861404147518e-02 -9.150972950764222e-01 3.134003173928149e-01 -8.830957687830163e-01 2.501462171957435e-01 -9.957646709584664e-02
1.336326530612200e+11 2.797508885724803e-01 -1.301765818716391e-01 -1.176422320743046e-02 -9.150523304558922e-01 3.129822848629542e-01 -8.832251885218846e-01 2.500593329050569e-01 -1.014834506572775e-01
1.336734693877600e+11 2.815041380289306e-01 -1.304460847060682e-01 -1.203418139853181e-02 -9.150072118029577e-01 3.125614948658561e-01 -8.833551607310307e-01 2.505738552936386e-01 -1.013411731901532e-01
1.337142857142900e+11 2.820212069842237e-01 -1.310852174155880e-01 -1.229839908838293e-02 -9.149619676241200e-01 3.121378811179222e-01 -8.834857016185886e-01 2.515049865776425e-01 -1.017181371069540e-01
1.337551020408200e+11 2.823145665747954e-01 -1.316601678183330e-01 -1.255678992462970e-02 -9.149166264068722e-01 3.117113810266475e-01 -8.836168257672827e-01 2.526722287743749e-01 -1.033082539187250e-01
1.337959183673500e+11 2.826156228416987e-01 -1.326133571753382e-01 -1.280927041870087e-02 -9.148712165840884e-01 3.112819355954217e-01 -8.837485462378940e-01 2.546832967849488e-01 -1.054279431211870e-01
1.338367346938800e+11 2.828792361284931e-01 -1.331574987497148e-01 -1.305576019662806e-02 -9.148257665503855e-01 3.108494892475146e-01 -8.838808744675208e-01 2.567898877938343e-01 -1.076235742572577e-01
1.338775510204100e+11 2.827554432771329e-01 -1.343946334257686e-01 -1.329618235716377e-02 -9.147803047372183e-01 3.104139896163534e-01 -8.840138205685573e-01 2.582385246049999e-01 -1.078104946195993e-01
1.339183673469400e+11 2.817000322096183e-01 -1.362610905562551e-01 -1.353046381159182e-02 -9.147348595407929e-01 3.099753872070694e-01 -8.841473935846276e-01 2.597753258472995e-01 -1.080010278062976e-01
1.339591836734700e+11 2.817225544256237e-01 -1.367014982123544e-01 -1.375853559933977e-02 -9.146894593155039e-01 3.095336352980593e-01 -8.842816015822715e-01 2.617975766633646e-01 -1.073931818890860e-01
1.340000000000000e+11 2.810448913225033e-01 -1.372773804956074e-01 -1.398033325368603e-02 -9.146441325154879e-01 3.090886898564777e-01 -8.844164517235984e-01 2.630345483043995e-01 -1.063282723065959e-01
1.340408163265300e+11 2.806435115223672e-01 -1.373536581118985e-01 -1.419579683765494e-02 -9.145989078951235e-01 3.086405095609843e-01 -8.845519501987194e-01 2.642726064855521e-01 -1.048338353695866e-01
1.340816326530600e+11 2.812677056942374e-01 -1.374111373139853e-01 -1.440487101841916e-02 -9.145538143993777e-01 3.081890556127850e-01 -8.846881023878624e-01 2.660451307168327e-01 -1.037280916668945e-01
1.341224489795900e+11 2.810772871961397e-01 -1.368935486340632e-01 -1.460750502544296e-02 -9.145088812130027e-01 3.077342918123457e-01 -8.848249128321065e-01 2.668698265696504e-01 -1.011869553703649e-01
1.341632653061200e+11 2.820922884840060e-01 -1.372062737725251e-01 -1.480365268305703e-02 -9.144641379901586e-01 3.072761844259682e-01 -8.849623850726750e-01 2.673528396017486e-01 -9.885206401777472e-02
1.342040816326500e+11 2.829633403208386e-01 -1.375155180648462e-01 -1.499327258876858e-02 -9.144196148157121e-01 3.068147021988067e-01 -8.851005214812898e-01 2.674288425093735e-01 -9.712286832879519e-02
1.342448979591800e+11 2.842431442587987e-01 -1.375161583567573e-01 -1.517632815302121e-02 -9.143753421595556e-01 3.063498166041728e-01 -8.852393232616128e-01 2.676406183669446e-01 -9.496361766666794e-02
1.342857142857100e+11 2.854985784390789e-01 -1.382489960152192e-01 -1.535278757262655e-02 -9.143313507594529e-01 3.058815019363004e-01 -8.853787903655098e-01 2.671424424934443e-01 -9.418058596926013e-02
1.343265306122400e+11 2.869114416296821e-01 -1.383586823784746e-01 -1.552262378316913e-02 -9.142876715741391e-01 3.054097356632179e-01 -8.855189213571065e-01 2.670459879641799e-01 -9.285442187198262e-02
1.343673469387800e+11 2.883103192662975e-01 -1.389341843966161e-01 -1.568581462964819e-02 -9.142443357530128e-01 3.049344985448196e-01 -8.856597135141099e-01 2.673298786041304e-01 -9.091912897664198e-02
1.344081632653100e+11 2.880708053775256e-01 -1.380805928962422e-01 -1.584234329436771e-02 -9.142013745265205e-01 3.044557747917025e-01 -8.858011627923573e-01 2.671983125228093e-01 -8.922165863300824e-02
1.344489795918400e+11 2.879746125437593e-01 -1.408738024293969e-01 -1.599219855619958e-02 -9.141588192731031e-01 3.039735521938928e-01 -8.859432637623573e-01 2.653894104300077e-01 -8.837779409180176e-02
1.344897959183700e+11 2.881548077741580e-01 -1.437907120517863e-01 -1.613537482868896e-02 -9.141167008109522e-01 3.034878221555031e-01 -8.860860096205367e-01 2.638505261235242e-01 -8.797585433457174e-02
1.345306122449000e+11 2.880999084793727e-01 -1.453047227640955e-01 -1.627187258733825e-02 -9.140750494513108e-01 3.029985798195546e-01 -8.862293923074918e-01 2.624845528325351e-01 -8.733813651584744e-02
1.345714285714300e+11 2.879882476137353e-01 -1.456348036008687e-01 -1.640169875910519e-02 -9.140338951454235e-01 3.025058240819271e-01 -8.863734027107419e-01 2.618069829458063e-01 -8.686886346783777e-02
1.346122448979600e+11 2.878497742250310e-01 -1.466695103954687e-01 -1.652486690396211e-02 -9.139932674497736e-01 3.020095577012118e-01 -8.865180305414474e-01 2.615433461041086e-01 -8.643134078142956e-02
1.346530612244900e+11 2.873797541636753e-01 -1.477232124237260e-01 -1.664139733142982e-02 -9.139531954837912e-01 3.015097876103904e-01 -8.866632641926759e-01 2.610015140661520e-01 -8.622138192065895e-02
1.346938775510200e+11 2.860937566732168e-01 -1.478413712520087e-01 -1.675131717015648e-02 -9.139137080740712e-01 3.010065250316986e-01 -8.868090908419715e-01 2.605408140817989e-01 -8.614024245189759e-02
1.347346938775500e+11 2.845281988075484e-01 -1.473036332628261e-01 -1.685466037553978e-02 -9.138748337471450e-01 3.004997853867943e-01 -8.869554965377783e-01 2.593970804905374e-01 -8.577144067766727e-02
1.347755102040800e+11 2.839944235870552e-01 -1.495895621649276e-01 -1.695146744585879e-02 -9.138366006421489e-01 2.999895878300232e-01 -8.871024661139876e-01 2.583984695625345e-01 -8.545225771946273e-02
1.348163265306100e+11 2.836390748955747e-01 -1.498804372209143e-01 -1.704178498145505e-02 -9.137990361141896e-01 2.994759554406645e-01 -8.872499832018669e-01 2.575080817043019e-01 -8.553714670332796e-02
1.348571428571400e+11 2.828622984704935e-01 -1.492130822531677e-01 -1.712566589239847e-02 -9.137621670416696e-01 2.989589149992581e-01 -8.873980305197986e-01 2.570057638546988e-01 -8.543253961754742e-02
1.348979591836700e+11 2.833072702932077e-01 -1.489549436097734e-01 -1.720316918647892e-02 -9.137260199651314e-01 2.984384969214874e-01 -8.875465898099502e-01 2.569773538905530e-01 -8.579797740882010e-02
1.349387755102000e+11 2.844176225587106e-01 -1.484299629120323e-01 -1.727435990731862e-02 -9.136906210866254e-01 2.979147348360305e-01 -8.876956416852386e-01 2.570499353695421e-01 -8.551597135187540e-02
1.349795918367300e+11 2.852556456224500e-01 -1.482012018202102e-01 -1.733930873497392e-02 -9.136559963317429e-01 2.973876653629511e-01 -8.878451655109456e-01 2.571543934242708e-01 -8.425220341895720e-02
1.350204081632700e+11 2.857841930782845e-01 -1.480684597547552e-01 -1.739809140624073e-02 -9.136221714186376e-01 2.968573280551691e-01 -8.879951395680897e-01 2.566581728671944e-01 -8.379803266177585e-02
1.350612244898000e+11 2.861686381847691e-01 -1.490914492968876e-01 -1.745078835228132e-02 -9.135891720667464e-01 2.963237654986738e-01 -8.881455409774005e-01 2.558721006103322e-01 -8.379412866369081e-02
1.351020408163300e+11 2.868775061684944e-01 -1.489440917595236e-01 -1.749748457110702e-02 -9.135570237255959e-01 2.957870227857478e-01 -8.882963457893012e-01 2.553134982203495e-01 -8.318895845289395e-02
1.351428571428600e+11 2.876577767919056e-01 -1.494769530029585e-01 -1.753826930571032e-02 -9.135257514268679e-01 2.952471472163502e-01 -8.884475290873584e-01 2.544172897043137e-01 -8.208897509097553e-02
1.351836734693900e+11 2.877279663543940e-01 -1.498974354618905e-01 -1.757323561624592e-02 -9.134953795127130e-01 2.947041882747428e-01 -8.885990650840340e-01 2.535343156408637e-01 -8.106226947590858e-02
1.352244897959200e+11 2.876354309870087e-01 -1.518220032650756e-01 -1.760247995465229e-02 -9.134659317610777e-01 2.941581976576614e-01 -8.887509272897308e-01 2.518201051846878e-01 -8.039299003349366e-02
1.352653061224500e+11 2.863867964119732e-01 -1.522424788376281e-01 -1.762610189788281e-02 -9.134374312114596e-01 2.936092293348049e-01 -8.889030886739510e-01 2.503404253917635e-01 -7.935362338651186e-02
1.353061224489800e+11 2.862660191173176e-01 -1.511520814014010e-01 -1.764420403508198e-02 -9.134099000778512e-01 2.930573393821783e-01 -8.890555219137918e-01 2.497648027216547e-01 -7.789723731714884e-02
1.353469387755100e+11 2.856479145857976e-01 -1.527517380915225e-01 -1.765689195699097e-02 -9.133833593879294e-01 2.925025859010300e-01 -8.892081994217823e-01 2.479873158410071e-01 -7.723374788111842e-02
1.353877551020400e+11 2.848128284477775e-01 -1.530608141366870e-01 -1.766427447119972e-02 -9.133578291133152e-01 2.919450291889035e-01 -8.893610930326136e-01 2.462136167613795e-01 -7.662156774345685e-02
1.354285714285700e+11 2.838239367437908e-01 -1.531032024941920e-01 -1.766646356201385e-02 -9.133333283586215e-01 2.913847315484312e-01 -8.895141742965977e-01 2.443593707069584e-01 -7.637837959220080e-02
1.354693877551000e+11 2.828779700521414e-01 -1.538370465662952e-01 -1.766357435958195e-02 -9.133098754010525e-01 2.908217572198805e-01 -8.896674144730203e-01 2.420209106024314e-01 -7.598603949391561e-02
1.355102040816300e+11 2.810596437071828e-01 -1.524088155165832e-01 -1.765572516738824e-02 -9.132874874349907e-01 2.902561723452098e-01 -8.898207845399664e-01 2.399238698926864e-01 -7.582143613672933e-02
1.355510204081600e+11 2.813514144128408e-01 -1.522919335108763e-01 -1.764303758329888e-02 -9.132661805985864e-01 2.896880448928302e-01 -8.899742552406499e-01 2.381150580653872e-01 -7.642308752914756e-02
1.355918367346900e+11 2.816543941725981e-01 -1.525910673306430e-01 -1.762563648462585e-02 -9.132459697797433e-01 2.891174445621238e-01 -8.901277968374798e-01 2.362814738595672e-01 -7.663365696081366e-02
1.356326530612200e+11 2.822845711268280e-01 -1.522538680182352e-01 -1.760365003498475e-02 -9.132268688295762e-01 2.885444429095749e-01 -8.902813791862692e-01 2.351009693314066e-01 -7.667727651171120e-02
1.356734693877600e+11 2.813409445705280e-01 -1.511851648551798e-01 -1.757720972518713e-02 -9.132088906847733e-01 2.879691132281800e-01 -8.904349719933028e-01 2.343308714502229e-01 -7.690194074345438e-02
1.357142857142900e+11 2.827186820305873e-01 -1.511687363849565e-01 -1.754645013521905e-02 -9.131920474330202e-01 2.873915302345809e-01 -8.905885448902662e-01 2.334733997047997e-01 -7.861775774348280e-02
1.357551020408200e+11 2.843698453628148e-01 -1.503173059181779e-01 -1.751150868508875e-02 -9.131763502854120e-01 2.868117697858609e-01 -8.907420673268985e-01 2.335082322752581e-01 -8.059040092077835e-02
1.357959183673500e+11 2.855677955889097e-01 -1.503862517450463e-01 -1.747252559685385e-02 -9.131618095520107e-01 2.862299087486745e-01 -8.908955087647996e-01 2.335763492026926e-01 -8.232976237523397e-02
1.358367346938800e+11 2.869538630957491e-01 -1.497603107208982e-01 -1.742964332680910e-02 -9.131484346734652e-01 2.856460248628956e-01 -8.910488388605189e-01 2.344001900579249e-01 -8.398840230780984e-02
1.358775510204100e+11 2.874144938696105e-01 -1.507029116056157e-01 -1.738300639199930e-02 -9.131362342446281e-01 2.850601966209236e-01 -8.912020274594510e-01 2.346623557631379e-01 -8.465836183219952e-02
1.359183673469400e+11 2.881772142279407e-01 -1.517119786574136e-01 -1.733276082328429e-02 -9.131252159657076e-01 2.844725035080511e-01 -8.913550447598816e-01 2.348901973419996e-01 -8.576410207310180e-02
1.359591836734700e+11 2.886565221092282e-01 -1.522057591143690e-01 -1.727905368044057e-02 -9.131153864493280e-01 2.838830256326920e-01 -8.915078615582959e-01 2.355110528646650e-01 -8.640033868322713e-02
1.360000000000000e+11 2.892148428810705e-01 -1.529945051520743e-01 -1.722203270370181e-02 -9.131067511801597e-01 2.832918434081451e-01 -8.916604494136618e-01 2.362039354437064e-01 -8.620987638543544e-02
1.360408163265300e+11 2.897780026180179e-01 -1.529225075530025e-01 -1.716184610071808e-02 -9.130993145588521e-01 2.826990374484585e-01 -8.918127806422829e-01 2.380612844254992e-01 -8.624551408137954e-02
1.360816326530600e+11 2.894322393301967e-01 -1.542650349887654e-01 -1.709864241328185e-02 -9.130930795699671e-01 2.821046886503642e-01 -8.919648283699905e-01 2.392693490798236e-01 -8.553985738160548e-02
1.361224489795900e+11 2.888560121142191e-01 -1.562133278936518e-01 -1.703257012717117e-02 -9.130880478049356e-01 2.815088782941859e-01 -8.921165666869915e-01 2.392576699546189e-01 -8.465758005568186e-02
1.361632653061200e+11 2.877121195671825e-01 -1.556813064852707e-01 -1.696377762794533e-02 -9.130842193463339e-01 2.809116881085105e-01 -8.922679706533484e-01 2.406696322389300e-01 -8.404665388850618e-02
1.362040816326500e+11 2.876989702685231e-01 -1.560331334426103e-01 -1.689241336051206e-02 -9.130815925107059e-01 2.803131999853212e-01 -8.924190162103429e-01 2.412311589371211e-01 -8.311568166493503e-02
1.362448979591800e+11 2.864925013765592e-01 -1.557831026071387e-01 -1.681862552785159e-02 -9.130801636018415e-01 2.797134959424165e-01 -8.925696800373272e-01 2.417492649293557e-01 -8.171081985421202e-02
1.362857142857100e+11 2.857684447791275e-01 -1.544220886502723e-01 -1.674256202523691e-02 -9.130799270356934e-01 2.791126582839222e-01 -8.927199395405561e-01 2.422169595439065e-01 -7.990168645014802e-02
1.363265306122400e+11 2.852107280327442e-01 -1.539293639474968e-01 -1.666437047181310e-02 -9.130808753543718e-01 2.785107696535057e-01 -8.928697721956532e-01 2.422385095393237e-01 -7.839193143130493e-02
1.363673469387800e+11 2.859292186726663e-01 -1.527324824877210e-01 -1.658419810291002e-02 -9.130829991377996e-01 2.779079131511387e-01 -8.930191548227394e-01 2.427109202050538e-01 -7.731569979083866e-02
1.364081632653100e+11 2.867172648349177e-01 -1.532994314842850e-01 -1.650219174638539e-02 -9.130862869366856e-01 2.773041723383577e-01 -8.931680631174731e-01 2.429463741779400e-01 -7.636162700954871e-02
1.364489795918400e+11 2.868548644613086e-01 -1.538255187424193e-01 -1.641849740731549e-02 -9.130907254559364e-01 2.766996314438349e-01 -8.933164713622181e-01 2.427441409513992e-01 -7.527772750808474e-02
1.364897959183700e+11 2.869333884733682e-01 -1.542232778328875e-01 -1.633326025709143e-02 -9.130962996200442e-01 2.760943755218710e-01 -8.934643526534224e-01 2.422195453377896e-01 -7.422592421416045e-02
1.365306122449000e+11 2.868917896866228e-01 -1.544072249204683e-01 -1.624662465218285e-02 -9.131029923908197e-01 2.754884905234334e-01 -8.936116789959855e-01 2.408004789294966e-01 -7.353631338247260e-02
1.365714285714300e+11 2.874801331282139e-01 -1.550523680895085e-01 -1.615873412168063e-02 -9.131107848174698e-01 2.748820632230612e-01 -8.937584215662254e-01 2.391872098386903e-01 -7.302121959037339e-02
1.366122448979600e+11 2.879432416929373e-01 -1.555105823679539e-01 -1.606973126391913e-02 -9.131196561347684e-01 2.742751808184450e-01 -8.939045509785586e-01 2.381799022617052e-01 -7.214850534266534e-02
1.366530612244900e+11 2.876185539166939e-01 -1.559237126611572e-01 -1.597975720953848e-02 -9.131295835389304e-01 2.736679304679052e-01 -8.940500380664566e-01 2.371131936141395e-01 -7.156180441530770e-02
1.366938775510200e+11 2.877620191437805e-01 -1.564193693057215e-01 -1.588895153981525e-02 -9.131405423965111e-01 2.730603993772042e-01 -8.941948536065701e-01 2.359175507925115e-01 -7.187487518232838e-02
1.367346938775500e+11 2.885721547992634e-01 -1.568681709619020e-01 -1.579745191812184e-02 -9.131525058952430e-01 2.724526746422687e-01 -8.943389683864483e-01 2.342422197132132e-01 -7.228657247425127e-02
1.367755102040800e+11 2.883224600226232e-01 -1.575727427714721e-01 -1.570539402285137e-02 -9.131654454039572e-01 2.718448431065792e-01 -8.944823532047045e-01 2.321669986973162e-01 -7.278688637797612e-02
1.368163265306100e+11 2.885009288725332e-01 -1.575843530806424e-01 -1.561291134728862e-02 -9.131793306070712e-01 2.712369912471743e-01 -8.946249792341106e-01 2.303677699493424e-01 -7.362120471871816e-02
1.368571428571400e+11 2.891804437456054e-01 -1.580295295522362e-01 -1.552013519422644e-02 -9.131941296640287e-01 2.706292048821104e-01 -8.947668180904729e-01 2.290018150475910e-01 -7.475981838778342e-02
1.368979591836700e+11 2.891132083685866e-01 -1.584772326532480e-01 -1.542719465221976e-02 -9.132098095222517e-01 2.700215692581191e-01 -8.949078418284149e-01 2.281194711543475e-01 -7.590459566001079e-02
1.369387755102000e+11 2.878047759815895e-01 -1.593295248458119e-01 -1.533421655698942e-02 -9.132263363574452e-01 2.694141692446455e-01 -8.950480230003999e-01 2.259945674427338e-01 -7.776939679970359e-02
1.369795918367300e+11 2.870399679309287e-01 -1.596033112379390e-01 -1.524132561808621e-02 -9.132436758356143e-01 2.688070893597196e-01 -8.951873345304595e-01 2.238778312097965e-01 -7.861698809839272e-02
1.370204081632700e+11 2.878880867069548e-01 -1.587273707876438e-01 -1.514864485443716e-02 -9.132617930324602e-01 2.682004135932283e-01 -8.953257496674776e-01 2.242545873898919e-01 -7.941131995278398e-02
1.370612244898000e+11 2.875150541389552e-01 -1.591102435871031e-01 -1.505629585727055e-02 -9.132806524213795e-01 2.675942252019986e-01 -8.954632420143274e-01 2.236472434290922e-01 -8.137350164478463e-02
1.371020408163300e+11 2.863699406334470e-01 -1.584408166589141e-01 -1.496439859898941e-02 -9.133002182483220e-01 2.669886071584190e-01 -8.955997852527180e-01 2.225444348781570e-01 -8.211341564014238e-02
1.371428571428600e+11 2.862893780510975e-01 -1.583309318753818e-01 -1.487307155741920e-02 -9.133204548670223e-01 2.663836424480126e-01 -8.957353532193778e-01 2.225091531347221e-01 -8.356417443583578e-02
1.371836734693900e+11 2.869270384886947e-01 -1.589714187241300e-01 -1.478243183518743e-02 -9.133413264325942e-01 2.657794138344796e-01 -8.958699199414637e-01 2.226192893188731e-01 -8.576067990366724e-02
1.372244897959200e+11 2.874830630675730e-01 -1.587764330540920e-01 -1.469259513796247e-02 -9.133627970325462e-01 2.651760037890715e-01 -8.960034595086813e-01 2.232309629997376e-01 -8.750988098833418e-02
1.372653061224500e+11 2.866296358546951e-01 -1.570372606109272e-01 -1.460367582188701e-02 -9.133848308873953e-01 2.645734945990592e-01 -8.961359461569779e-01 2.225595769664684e-01 -8.739403512249833e-02
1.373061224489800e+11 2.866886235874717e-01 -1.566990969894686e-01 -1.451578677563619e-02 -9.134073923508266e-01 2.639719686616693e-01 -8.962673546158577e-01 2.216270573696716e-01 -8.767456504152736e-02
1.373469387755100e+11 2.880264163178325e-01 -1.578957559395759e-01 -1.442903905527389e-02 -9.134304454858871e-01 2.633715081381058e-01 -8.963976600992462e-01 2.218161042277705e-01 -8.957667514331863e-02
1.373877551020400e+11 2.884664131523045e-01 -1.583222214161878e-01 -1.434354185297948e-02 -9.134539542908447e-01 2.627721943383371e-01 -8.965268378481076e-01 2.222784251369114e-01 -9.160004228987084e-02
1.374285714285700e+11 2.886230940671875e-01 -1.579060264638861e-01 -1.425940266530555e-02 -9.134778829922212e-01 2.621741077427208e-01 -8.966548633086006e-01 2.223250330671995e-01 -9.292893848177355e-02
1.374693877551000e+11 2.888507812488211e-01 -1.603708357685615e-01 -1.417672699694662e-02 -9.135021961995720e-01 2.615773277182726e-01 -8.967817124007191e-01 2.223409984294996e-01 -9.528623405723358e-02
1.375102040816300e+11 2.891701679339451e-01 -1.602246921571919e-01 -1.409561785687164e-02 -9.135268591708423e-01 2.609819322979737e-01 -8.969073616499859e-01 2.218063011746161e-01 -9.435753596894364e-02
1.375510204081600e+11 2.891196217527986e-01 -1.599460287905554e-01 -1.401617603588478e-02 -9.135518379829032e-01 2.603879980497892e-01 -8.970317887888359e-01 2.223262369027378e-01 -9.415008787920841e-02
1.375918367346900e+11 2.887842506450229e-01 -1.597863479219621e-01 -1.393849999890844e-02 -9.135770993744071e-01 2.597955997519436e-01 -8.971549723298824e-01 2.220134904503543e-01 -9.419653289813774e-02
1.376326530612200e+11 2.883597445421062e-01 -1.591046940651569e-01 -1.386268551562147e-02 -9.136026106112871e-01 2.592048103804062e-01 -8.972768914269927e-01 2.215970193486959e-01 -9.428716662045965e-02
1.376734693877600e+11 2.879129669770750e-01 -1.596209917000674e-01 -1.378882554843170e-02 -9.136283393377109e-01 2.586157009679496e-01 -8.973975257623440e-01 2.215050658619957e-01 -9.433920806464813e-02
1.377142857142900e+11 2.875766551777737e-01 -1.599150952233034e-01 -1.371701009985315e-02 -9.136542534993215e-01 2.580283407219918e-01 -8.975168555287562e-01 2.211057585478886e-01 -9.454002287262610e-02
1.377551020408200e+11 2.866883034736647e-01 -1.595218279163559e-01 -1.364732639379462e-02 -9.136803212211841e-01 2.574427969983077e-01 -8.976348614104801e-01 2.208447239846247e-01 -9.444723972849803e-02
1.377959183673500e+11 2.870239690077889e-01 -1.583087164261135e-01 -1.357985900011089e-02 -9.137065108447759e-01 2.568591353337676e-01 -8.977515244365438e-01 2.211720072612277e-01 -9.377769809457756e-02
1.378367346938800e+11 2.878841460675792e-01 -1.578107258676287e-01 -1.351468991393292e-02 -9.137327909321877e-01 2.562774195069187e-01 -8.978668256945415e-01 2.237684687384506e-01 -9.318913393327573e-02
1.378775510204100e+11 2.885366636337726e-01 -1.584756522278930e-01 -1.345189857147833e-02 -9.137591301976934e-01 2.556977118367633e-01 -8.979807462476950e-01 2.254120521741158e-01 -9.538314644932580e-02
1.379183673469400e+11 2.873071133773909e-01 -1.595503069840386e-01 -1.339156171717631e-02 -9.137854976469754e-01 2.551200737061394e-01 -8.980932669523336e-01 2.250054441575022e-01 -9.770083492195333e-02
1.379591836734700e+11 2.868482760178593e-01 -1.586069829393974e-01 -1.333375325474090e-02 -9.138118629524246e-01 2.545445658757295e-01 -8.982043690752757e-01 2.245093046760949e-01 -9.772669597748589e-02
1.380000000000000e+11 2.872694541080924e-01 -1.576293338636520e-01 -1.327854446637729e-02 -9.138381963640216e-01 2.539712481134689e-01 -8.983140347914723e-01 2.254029132779800e-01 -9.590257968003572e-02
1.380408163265300e+11 2.877336503757804e-01 -1.577852758927800e-01 -1.322600396570814e-02 -9.138644685455996e-01 2.534001789403496e-01 -8.984222471505510e-01 2.269283170020416e-01 -9.589007004206537e-02
1.380816326530600e+11 2.890658368509085e-01 -1.574577528160740e-01 -1.317619768265339e-02 -9.138906501746004e-01 2.528314157264544e-01 -8.985289895047028e-01 2.288757679997630e-01 -9.507823915554946e-02
1.381224489795900e+11 2.898157561244628e-01 -1.586350578306970e-01 -1.312918837603050e-02 -9.139167119096301e-01 2.522650146536464e-01 -8.986342455585266e-01 2.313989227442998e-01 -9.701597972630176e-02
1.381632653061200e+11 2.901655732611429e-01 -1.591121653337665e-01 -1.308503520472504e-02 -9.139426244363411e-01 2.517010309959570e-01 -8.987379992646279e-01 2.321428910719405e-01 -9.708653829595862e-02
1.382040816326500e+11 2.905056516341986e-01 -1.592710238970580e-01 -1.304379356651711e-02 -9.139683590563732e-01 2.511395192325050e-01 -8.988402351422321e-01 2.323313214679825e-01 -9.675393647923813e-02
1.382448979591800e+11 2.912848575477613e-01 -1.601282867866724e-01 -1.300551491198158e-02 -9.139938876132316e-01 2.505805329414481e-01 -8.989409384804679e-01 2.345345130912630e-01 -9.742002665344685e-02
1.382857142857100e+11 2.905638941631662e-01 -1.609222210139365e-01 -1.297024670084211e-02 -9.140191827160891e-01 2.500241246260156e-01 -8.990400951073072e-01 2.334849698357579e-01 -9.834707017285234e-02
1.383265306122400e+11 2.902688833644022e-01 -1.599999494174506e-01 -1.293803226583894e-02 -9.140442177937343e-01 2.494703458916456e-01 -8.991376916064010e-01 2.325871474604253e-01 -9.552510784977848e-02
1.383673469387800e+11 2.911475611040847e-01 -1.602152593509488e-01 -1.290891112200847e-02 -9.140689670293468e-01 2.489192470671913e-01 -8.992337153684858e-01 2.338693440593537e-01 -9.422534990468222e-02
1.384081632653100e+11 2.917948949109191e-01 -1.604311143719411e-01 -1.288291875368866e-02 -9.140934046520949e-01 2.483708770193576e-01 -8.993281544052181e-01 2.356664886665818e-01 -9.388221138793475e-02
1.384489795918400e+11 2.903184194444978e-01 -1.619438153913026e-01 -1.286008613179301e-02 -9.141175049959492e-01 2.478252832418297e-01 -8.994209972117229e-01 2.339048618778284e-01 -9.563576730836917e-02
1.384897959183700e+11 2.892264989879759e-01 -1.602027527862422e-01 -1.284043954660279e-02 -9.141412427251084e-01 2.472825122551144e-01 -8.995122329395738e-01 2.321812677113360e-01 -9.143522281638337e-02
1.385306122449000e+11 2.895471564469811e-01 -1.608358930608393e-01 -1.282400129277644e-02 -9.141645932599582e-01 2.467426092263394e-01 -8.996018516696935e-01 2.328932555904684e-01 -9.112644412715663e-02
1.385714285714300e+11 2.893340167415644e-01 -1.612311083931758e-01 -1.281078962686610e-02 -9.141875318573028e-01 2.462056178598649e-01 -8.996898439240071e-01 2.321158113732884e-01 -9.125152978235579e-02
1.386122448979600e+11 2.888069017924999e-01 -1.613404333951669e-01 -1.280081879814704e-02 -9.142100338086296e-01 2.456715804813174e-01 -8.997762008195620e-01 2.310766645856706e-01 -9.108065228669629e-02
1.386530612244900e+11 2.878098665060160e-01 -1.609438683394181e-01 -1.279409909972215e-02 -9.142320745067936e-01 2.451405378026241e-01 -8.998609141510948e-01 2.293818375757727e-01 -9.060112049032094e-02
1.386938775510200e+11 2.880535212144723e-01 -1.606932575984669e-01 -1.279063694623427e-02 -9.142536296338060e-01 2.446125288428761e-01 -8.999439764349909e-01 2.287515159927319e-01 -9.008495677564222e-02
1.387346938775500e+11 2.879885463569493e-01 -1.609020841239027e-01 -1.279043509486968e-02 -9.142746752051684e-01 2.440875907906217e-01 -9.000253806900821e-01 2.272855663023603e-01 -9.037792535822933e-02
1.387755102040800e+11 2.871815498187730e-01 -1.609188108654103e-01 -1.279349259136853e-02 -9.142951877436536e-01 2.435657590807169e-01 -9.001051203319594e-01 2.252709275107547e-01 -9.069406759384203e-02
1.388163265306100e+11 2.869414497837653e-01 -1.605646105138046e-01 -1.279980510287278e-02 -9.143151444047201e-01 2.430470673645594e-01 -9.001831891223691e-01 2.231249830847733e-01 -9.123953474618862e-02
1.388571428571400e+11 2.877519852572241e-01 -1.607270123087123e-01 -1.280936530011676e-02 -9.143345228748502e-01 2.425315473304882e-01 -9.002595809773577e-01 2.228091191657794e-01 -9.189062943771407e-02
1.388979591836700e+11 2.882577153336804e-01 -1.612492694046768e-01 -1.282216313384555e-02 -9.143533012099396e-01 2.420192286357245e-01 -9.003342899644329e-01 2.218559887621881e-01 -9.444303967445081e-02
1.389387755102000e+11 2.874333402925793e-01 -1.605928716274506e-01 -1.283818566938170e-02 -9.143714578947927e-01 2.415101389914416e-01 -9.004073105200325e-01 2.192926641530437e-01 -9.524726056997793e-02
1.389795918367300e+11 2.871714352528498e-01 -1.602893677865717e-01 -1.285741707326660e-02 -9.143889721816477e-01 2.410043039526353e-01 -9.004786376007305e-01 2.184545456332051e-01 -9.697872444880060e-02
1.390204081632700e+11 2.873909602182234e-01 -1.602713550353204e-01 -1.287983877143319e-02 -9.144058239836146e-01 2.405017465121192e-01 -9.005482663474073e-01 2.173085100560708e-01 -9.874390011445042e-02
1.390612244898000e+11 2.883110984495088e-01 -1.598058088304112e-01 -1.290542953973392e-02 -9.144219937912703e-01 2.400024869019294e-01 -9.006161920346172e-01 2.171666124055683e-01 -1.001455741622553e-01
1.391020408163300e+11 2.885068765027942e-01 -1.602551239146521e-01 -1.293416571799405e-02 -9.144374625259801e-01 2.395065424749244e-01 -9.006824100672949e-01 2.175784719858047e-01 -1.031162600217649e-01
1.391428571428600e+11 2.881718625709768e-01 -1.612009551695485e-01 -1.296602103327943e-02 -9.144522115021730e-01 2.390139276919999e-01 -9.007469159311595e-01 2.173878958745209e-01 -1.070067099577872e-01
1.391836734693900e+11 2.885929650898407e-01 -1.603427045916455e-01 -1.300096660497378e-02 -9.144662225379385e-01 2.385246540426493e-01 -9.008097053428259e-01 2.166631210237477e-01 -1.077679571674797e-01
1.392244897959200e+11 2.895066763884271e-01 -1.602596698059172e-01 -1.303897107956592e-02 -9.144794782250466e-01 2.380387298567241e-01 -9.008707744750465e-01 2.187455779481734e-01 -1.084208779902469e-01
1.392653061224500e+11 2.894404725873518e-01 -1.610551565115811e-01 -1.308000080142474e-02 -9.144919618991720e-01 2.375561602789357e-01 -9.009301196027109e-01 2.199863541829384e-01 -1.120511227610446e-01
1.393061224489800e+11 2.898184024886104e-01 -1.607150387804167e-01 -1.312401967923591e-02 -9.145036576027717e-01 2.370769475349979e-01 -9.009877369445636e-01 2.205175632520092e-01 -1.140274514951737e-01
1.393469387755100e+11 2.909993898977939e-01 -1.605062402636958e-01 -1.317098947685058e-02 -9.145145502784380e-01 2.366010908965973e-01 -9.010436227999659e-01 2.230436027859550e-01 -1.143239090041913e-01
1.393877551020400e+11 2.910605398551817e-01 -1.606944153324641e-01 -1.322087008840910e-02 -9.145246257426051e-01 2.361285868253025e-01 -9.010977735261204e-01 2.248729730158891e-01 -1.169895465620599e-01
1.394285714285700e+11 2.905570264209730e-01 -1.612671171399559e-01 -1.327361963337935e-02 -9.145338708098069e-01 2.356594295728401e-01 -9.011501854588976e-01 2.266627431696625e-01 -1.186621132924613e-01
1.394693877551000e+11 2.911180551687086e-01 -1.618694826261932e-01 -1.332919478376983e-02 -9.145422733858616e-01 2.351936112393158e-01 -9.012008549212854e-01 2.299083752119910e-01 -1.211505577245557e-01
1.395102040816300e+11 2.918173953025104e-01 -1.632404110419683e-01 -1.338755119849409e-02 -9.145498224619550e-01 2.347311218364770e-01 -9.012497781897656e-01 2.339951194834037e-01 -1.224495076998203e-01
1.395510204081600e+11 2.924956859201940e-01 -1.626733510405094e-01 -1.344864378591317e-02 -9.145565084070938e-01 2.342719497444245e-01 -9.012969516327570e-01 2.370806197554102e-01 -1.226081935757678e-01
1.395918367346900e+11 2.933838967656393e-01 -1.632365016700133e-01 -1.351242692428917e-02 -9.145623232705500e-01 2.338160821691024e-01 -9.013423719513123e-01 2.404163947393604e-01 -1.231382429414087e-01
1.396326530612200e+11 2.940593493364581e-01 -1.634059815003121e-01 -1.357885467375492e-02 -9.145672606568236e-01 2.333635054685946e-01 -9.013860361623419e-01 2.436053176666687e-01 -1.230771864086848e-01
1.396734693877600e+11 2.945759428370722e-01 -1.637021412100843e-01 -1.364788099767630e-02 -9.145713156053429e-01 2.329142055214363e-01 -9.014279414942533e-01 2.470871645775127e-01 -1.236480089389761e-01
1.397142857142900e+11 2.951951752137025e-01 -1.642637448285199e-01 -1.371945984536769e-02 -9.145744846367191e-01 2.324681681241194e-01 -9.014680852655400e-01 2.497061140039105e-01 -1.232123742838676e-01
1.397551020408200e+11 2.963941331784862e-01 -1.645931958226267e-01 -1.379354527388270e-02 -9.145767658728016e-01 2.320253793175260e-01 -9.015064648939426e-01 2.532730330462076e-01 -1.222669835029062e-01
1.397959183673500e+11 2.961599380214797e-01 -1.656196346523435e-01 -1.387009155223966e-02 -9.145781589076349e-01 2.315858256026850e-01 -9.015430778348448e-01 2.564974902225042e-01 -1.214132792974150e-01
1.398367346938800e+11 2.959099751419181e-01 -1.652385992262644e-01 -1.394905292960968e-02 -9.145786648058092e-01 2.311494943068534e-01 -9.015779217057273e-01 2.554193780914372e-01 -1.191416734577322e-01
1.398775510204100e+11 2.973549824582937e-01 -1.662147213436240e-01 -1.403038369736422e-02 -9.145782863780242e-01 2.307163736430587e-01 -9.016109944126692e-01 2.588889383102728e-01 -1.174684574324128e-01
1.399183673469400e+11 2.962032556174946e-01 -1.665764778487930e-01 -1.411403890964551e-02 -9.145770277189194e-01 2.302864528588115e-01 -9.016422935843227e-01 2.596579296957224e-01 -1.157631317479266e-01
1.399591836734700e+11 2.961169335189606e-01 -1.666732927651214e-01 -1.419997404364929e-02 -9.145748941983449e-01 2.298597227243499e-01 -9.016718167791050e-01 2.597952714727101e-01 -1.127620625906849e-01
1.400000000000000e+11 2.955233716095189e-01 -1.666145918909595e-01 -1.428814484588795e-02 -9.145718924807656e-01 2.294361751053615e-01 -9.016995617486426e-01 2.592326693908898e-01 -1.103718813176121e-01
1.400408163265300e+11 2.946418862360458e-01 -1.674037016787761e-01 -1.437850720579216e-02 -9.145680304454241e-01 2.290158029988206e-01 -9.017255264507925e-01 2.581293158483312e-01 -1.080435537831008e-01
1.400816326530600e+11 2.944759617477939e-01 -1.679862966096949e-01 -1.447101720178274e-02 -9.145633170442315e-01 2.285986004210072e-01 -9.017497089106887e-01 2.576767775487948e-01 -1.054617775389736e-01
1.401224489795900e+11 2.941299475758621e-01 -1.685664716089504e-01 -1.456563119293175e-02 -9.145577621719310e-01 2.281845620625264e-01 -9.017721070992918e-01 2.567154672167585e-01 -1.035825148424424e-01
1.401632653061200e+11 2.936467763363524e-01 -1.682744232544992e-01 -1.466230573130822e-02 -9.145513766692012e-01 2.277736832411026e-01 -9.017927189366207e-01 2.546170081218328e-01 -1.017691204054298e-01
1.402040816326500e+11 2.930328773865081e-01 -1.689552322769071e-01 -1.476099780015353e-02 -9.145441723171859e-01 2.273659599717023e-01 -9.018115422600234e-01 2.532830466095301e-01 -1.010489405979070e-01
1.402448979591800e+11 2.923868361079646e-01 -1.690323621351811e-01 -1.486166493760007e-02 -9.145361617073332e-01 2.269613890173374e-01 -9.018285748123935e-01 2.510599901070919e-01 -1.002683894450512e-01
1.402857142857100e+11 2.919144766948372e-01 -1.688196066620891e-01 -1.496426569065479e-02 -9.145273583091529e-01 2.265599679223658e-01 -9.018438142052660e-01 2.484620276859938e-01 -9.972009357636018e-02
1.403265306122400e+11 2.923101234032578e-01 -1.692221807562556e-01 -1.506876009126177e-02 -9.145177762889874e-01 2.261616950627745e-01 -9.018572578772543e-01 2.475376920148525e-01 -9.940577659802731e-02
1.403673469387800e+11 2.908257100539140e-01 -1.692535288104255e-01 -1.517510991787947e-02 -9.145074302452334e-01 2.257665696192447e-01 -9.018689031040177e-01 2.450266955184379e-01 -1.021548554083184e-01
1.404081632653100e+11 2.894244163730741e-01 -1.684721997233649e-01 -1.528327856528021e-02 -9.144963355853984e-01 2.253745918127776e-01 -9.018787471257027e-01 2.410443594997339e-01 -1.041261074457103e-01
1.404489795918400e+11 2.902044071519226e-01 -1.672077912546201e-01 -1.539323195466043e-02 -9.144845085652128e-01 2.249857628364319e-01 -9.018867872957509e-01 2.382115254399952e-01 -1.043795931233332e-01
1.404897959183700e+11 2.904081546680510e-01 -1.666407502081810e-01 -1.550493914267680e-02 -9.144719661632352e-01 2.246000841777996e-01 -9.018930209978566e-01 2.359163329970529e-01 -1.056977125493252e-01
1.405306122449000e+11 2.904815211629976e-01 -1.664130159167338e-01 -1.561837288082944e-02 -9.144587259022079e-01 2.242175580618109e-01 -9.018974452791459e-01 2.342899793620139e-01 -1.081426457056803e-01
1.405714285714300e+11 2.907294657425069e-01 -1.664179898870396e-01 -1.573350983251908e-02 -9.144448056248156e-01 2.238381873761122e-01 -9.019000568012209e-01 2.328428218251224e-01 -1.104406514876371e-01
1.406122448979600e+11 2.910739920993304e-01 -1.653734747766742e-01 -1.585033077869687e-02 -9.144302233884388e-01 2.234619754975157e-01 -9.019008518043290e-01 2.312972474196002e-01 -1.123094848320745e-01
1.406530612244900e+11 2.915559401484945e-01 -1.652616016742538e-01 -1.596882072846788e-02 -9.144149973556238e-01 2.230889261852400e-01 -9.018998262115959e-01 2.305410592981951e-01 -1.159381894529899e-01
1.406938775510200e+11 2.918099675445057e-01 -1.645870448003511e-01 -1.608896890132953e-02 -9.143991455943745e-01 2.227190434868641e-01 -9.018969757582153e-01 2.291172191527675e-01 -1.188523599891143e-01
1.407346938775500e+11 2.918393658652221e-01 -1.645360806836420e-01 -1.621076875696751e-02 -9.143826862017070e-01 2.223523315022476e-01 -9.018922961518137e-01 2.277390559960449e-01 -1.216932449672554e-01
1.407755102040800e+11 2.920106609724611e-01 -1.633489219466596e-01 -1.633421797447183e-02 -9.143656372156761e-01 2.219887940545457e-01 -9.018857832745627e-01 2.255688070050061e-01 -1.229983130150329e-01
1.408163265306100e+11 2.940774130227456e-01 -1.634738534706078e-01 -1.645931849828149e-02 -9.143480164458575e-01 2.216284341116672e-01 -9.018774332408481e-01 2.266957967196971e-01 -1.240849716619217e-01
1.408571428571400e+11 2.949570301800417e-01 -1.636189436199274e-01 -1.658607670609922e-02 -9.143298411978208e-01 2.212712535046513e-01 -9.018672420826517e-01 2.276921491790581e-01 -1.260375369152079e-01
1.408979591836700e+11 2.958714665446324e-01 -1.638956714573638e-01 -1.671450304091500e-02 -9.143111282927529e-01 2.209172532381437e-01 -9.018552058737369e-01 2.274445961216517e-01 -1.274750826669022e-01
1.409387755102000e+11 2.972576242588454e-01 -1.637934175467149e-01 -1.684461151914502e-02 -9.142918941560537e-01 2.205664332361860e-01 -9.018413208783765e-01 2.282911701473657e-01 -1.292326654869619e-01
1.409795918367300e+11 2.980845008852027e-01 -1.637779334539633e-01 -1.697641951615632e-02 -9.142721547081748e-01 2.202187919297517e-01 -9.018255834060841e-01 2.301797275809043e-01 -1.325332676893178e-01
1.410204081632700e+11 2.989388725585374e-01 -1.638891483807639e-01 -1.710994758252979e-02 -9.142519253340583e-01 2.198743261979186e-01 -9.018079896199570e-01 2.304367549144907e-01 -1.337531107459776e-01
1.410612244898000e+11 3.007744123993265e-01 -1.642533497813493e-01 -1.724521959702338e-02 -9.142312208822945e-01 2.195330315606407e-01 -9.017885356030221e-01 2.323490169095070e-01 -1.356382563893777e-01
1.411020408163300e+11 3.021354159214690e-01 -1.644853864874379e-01 -1.738226296303430e-02 -9.142100555705692e-01 2.191949024942861e-01 -9.017672171303972e-01 2.339737805809512e-01 -1.379717598614824e-01
1.411428571428600e+11 3.030924375458547e-01 -1.656514340206971e-01 -1.752110861272090e-02 -9.141884427749926e-01 2.188599328561991e-01 -9.017440297351321e-01 2.361912928934411e-01 -1.391655790331578e-01
1.411836734693900e+11 3.035385138400701e-01 -1.665950177570223e-01 -1.766179111305554e-02 -9.141663946391335e-01 2.185281161554767e-01 -9.017189689239119e-01 2.402794622550576e-01 -1.410404673268317e-01
1.412244897959200e+11 3.052569110618811e-01 -1.673470942562898e-01 -1.780434869751564e-02 -9.141439219884641e-01 2.181994456715882e-01 -9.016920302578604e-01 2.424491223972774e-01 -1.434133563427392e-01
1.412653061224500e+11 3.049025949004711e-01 -1.687636331251293e-01 -1.794882323438574e-02 -9.141210346178845e-01 2.178739146546667e-01 -9.016632096151354e-01 2.414613240164215e-01 -1.453973917936739e-01
1.413061224489800e+11 3.066492262495497e-01 -1.690786319888869e-01 -1.809526000812537e-02 -9.140977413207143e-01 2.175515163923077e-01 -9.016325030636211e-01 2.438475563056850e-01 -1.439577433646264e-01
1.413469387755100e+11 3.064350485703911e-01 -1.713087949342783e-01 -1.824370816994165e-02 -9.140740499572504e-01 2.172322441313849e-01 -9.015999065158679e-01 2.466263113664320e-01 -1.420860485241831e-01
1.413877551020400e+11 3.066326891935153e-01 -1.716645750212257e-01 -1.839422036693053e-02 -9.140499673971364e-01 2.169160916387147e-01 -9.015654155812911e-01 2.524181055058939e-01 -1.394274518226687e-01
1.414285714285700e+11 3.070710376428817e-01 -1.728770932068301e-01 -1.854685249363400e-02 -9.140254997719365e-01 2.166030535214284e-01 -9.015290257010521e-01 2.573280989173383e-01 -1.405214799944420e-01
1.414693877551000e+11 3.072770113573524e-01 -1.725164237595560e-01 -1.870166333341837e-02 -9.140006525348124e-01 2.162931255605713e-01 -9.014907320281063e-01 2.604730064177077e-01 -1.412442030981607e-01
1.415102040816300e+11 3.079380374191787e-01 -1.732656696878546e-01 -1.885871433104545e-02 -9.139754307581692e-01 2.159863047334369e-01 -9.014505297128796e-01 2.640356342778532e-01 -1.413842764180516e-01
1.415510204081600e+11 3.079940661233852e-01 -1.742731022223241e-01 -1.901806946805747e-02 -9.139498390744820e-01 2.156825892308147e-01 -9.014084139039901e-01 2.683178550850111e-01 -1.408748547182448e-01
1.415918367346900e+11 3.083544896089617e-01 -1.753456304901084e-01 -1.917979500733164e-02 -9.139238818784581e-01 2.153819785152088e-01 -9.013643798748725e-01 2.718792323063671e-01 -1.400278415434268e-01
1.416326530612200e+11 3.082867356811964e-01 -1.758560230722140e-01 -1.934395936531684e-02 -9.138975635167446e-01 2.150844731845938e-01 -9.013184232062657e-01 2.764410094152220e-01 -1.395219538784792e-01
1.416734693877600e+11 3.083746761243957e-01 -1.761019818329567e-01 -1.951063253443648e-02 -9.138708884377608e-01 2.147900747860872e-01 -9.012705399980953e-01 2.797866222877932e-01 -1.380962145301363e-01
1.417142857142900e+11 3.081878556618387e-01 -1.769560592179231e-01 -1.967988601025639e-02 -9.138438614822358e-01 2.144987858614940e-01 -9.012207270124857e-01 2.827290970252624e-01 -1.358714994397895e-01
1.417551020408200e+11 3.077137407362719e-01 -1.785028091935101e-01 -1.985179273002636e-02 -9.138164879391194e-01 2.142106099657179e-01 -9.011689817471534e-01 2.860719475232992e-01 -1.347662702902346e-01
1.417959183673500e+11 3.079295320603072e-01 -1.787198998359057e-01 -2.002642704119003e-02 -9.137887737073678e-01 2.139255515235418e-01 -9.011153025582235e-01 2.897999645564309e-01 -1.320444390851118e-01
1.418367346938800e+11 3.087338540967818e-01 -1.781578077533869e-01 -2.020386481823724e-02 -9.137607254134267e-01 2.136436157208450e-01 -9.010596888503125e-01 2.945470712159404e-01 -1.288466651154678e-01
1.418775510204100e+11 3.077648282650008e-01 -1.795062411913294e-01 -2.038418316453134e-02 -9.137323504373867e-01 2.133648085822488e-01 -9.010021411256572e-01 2.962470618792410e-01 -1.271289948674026e-01
1.419183673469400e+11 3.074319128678978e-01 -1.790987100617193e-01 -2.056746033266849e-02 -9.137036569878950e-01 2.130891372035455e-01 -9.009426609032596e-01 2.979648792406243e-01 -1.237026071142690e-01
1.419591836734700e+11 3.076902704848209e-01 -1.790890704331686e-01 -2.075377603594639e-02 -9.136746542167405e-01 2.128166097167730e-01 -9.008812511125148e-01 2.976982290126610e-01 -1.210796454536647e-01
1.420000000000000e+11 3.081680940565322e-01 -1.790993423954397e-01 -2.094321156275084e-02 -9.136453518587410e-01 2.125472353994650e-01 -9.008179162983621e-01 3.001483527148199e-01 -1.172216683574966e-01
1.420408163265300e+11 3.082182589523015e-01 -1.785643074863124e-01 -2.113584968184771e-02 -9.136157600777861e-01 2.122810244908108e-01 -9.007526625051877e-01 3.012093911723471e-01 -1.138540393198608e-01
1.420816326530600e+11 3.089822290128522e-01 -1.777491431517851e-01 -2.133177465155099e-02 -9.135858898226669e-01 2.120179881982364e-01 -9.006854968958146e-01 3.012699477141874e-01 -1.112038685284440e-01
1.421224489795900e+11 3.098023648281550e-01 -1.770097184873211e-01 -2.153107263930101e-02 -9.135557528077584e-01 2.117581389860938e-01 -9.006164275849771e-01 3.004002406844561e-01 -1.072368730463363e-01
1.421632653061200e+11 3.102316149070061e-01 -1.771306562392702e-01 -2.173383178190424e-02 -9.135253608618806e-01 2.115014908645588e-01 -9.005454639341414e-01 2.997509171946694e-01 -1.022161975272932e-01
1.422040816326500e+11 3.100565202209745e-01 -1.780474533803257e-01 -2.194014197863269e-02 -9.134947258683148e-01 2.112480594606013e-01 -9.004726161815994e-01 2.986012925535052e-01 -9.976401967135178e-02
1.422448979591800e+11 3.103930103424614e-01 -1.782107698651095e-01 -2.215009477677837e-02 -9.134638600097823e-01 2.109978619947943e-01 -9.003978952819636e-01 2.966215536850807e-01 -9.728846350188661e-02
1.422857142857100e+11 3.113233838515110e-01 -1.778275364761865e-01 -2.236378331876397e-02 -9.134327757926496e-01 2.107509169839122e-01 -9.003213130699352e-01 2.939766650381850e-01 -9.464305318004178e-02
1.423265306122400e+11 3.121262431575418e-01 -1.779486310225730e-01 -2.258130224677609e-02 -9.134014858984852e-01 2.105072439328584e-01 -9.002428823572785e-01 2.912396966231494e-01 -9.092021472155649e-02
1.423673469387800e+11 3.128635304806225e-01 -1.777910854184880e-01 -2.280274739212471e-02 -9.133700029167925e-01 2.102668632609430e-01 -9.001626166611932e-01 2.887779116741201e-01 -8.970810707160069e-02
1.424081632653100e+11 3.138020092852673e-01 -1.788574313832243e-01 -2.302821551052175e-02 -9.133383392504965e-01 2.100297961396166e-01 -9.000805300643167e-01 2.866440627689574e-01 -8.665907789121098e-02
1.424489795918400e+11 3.145440699501159e-01 -1.796136754933716e-01 -2.325780404581702e-02 -9.133065065842118e-01 2.097960642300657e-01 -8.999966373161415e-01 2.836118425171235e-01 -8.555788254867276e-02
1.424897959183700e+11 3.155476347135697e-01 -1.799481861250019e-01 -2.349161075144739e-02 -9.132745166386048e-01 2.095656894822804e-01 -8.999109538529503e-01 2.811120152809765e-01 -8.449655722693086e-02
1.425306122449000e+11 3.156643067051910e-01 -1.803988211570954e-01 -2.372973347681615e-02 -9.132423812498125e-01 2.093386939126249e-01 -8.998234955339712e-01 2.782739048605337e-01 -8.308125183271199e-02
1.425714285714300e+11 3.163548768027964e-01 -1.810826464354206e-01 -2.397226986167551e-02 -9.132101123478690e-01 2.091150995171137e-01 -8.997342786705512e-01 2.759646370901773e-01 -8.292161252008400e-02
1.426122448979600e+11 3.171592830306382e-01 -1.819857309882841e-01 -2.421931730715583e-02 -9.131777218304138e-01 2.088949280908239e-01 -8.996433200831317e-01 2.738048809395854e-01 -8.326488799627940e-02
1.426530612244900e+11 3.169779595919253e-01 -1.831857770236260e-01 -2.447097280111583e-02 -9.131452214950307e-01 2.086782009795056e-01 -8.995506371622303e-01 2.712988014207254e-01 -8.383963079649884e-02
1.426938775510200e+11 3.174383225756768e-01 -1.840641728255181e-01 -2.472733267485695e-02 -9.131126230480999e-01 2.084649388954669e-01 -8.994562477002519e-01 2.686735223835821e-01 -8.491225870069972e-02
1.427346938775500e+11 3.167195659481197e-01 -1.847971729026863e-01 -2.498849254058422e-02 -9.130799380576221e-01 2.082551616985910e-01 -8.993601698044928e-01 2.668540234928229e-01 -8.511912205887427e-02
1.427755102040800e+11 3.172692736431567e-01 -1.842415217784974e-01 -2.525454711154544e-02 -9.130471777530914e-01 2.080488884509180e-01 -8.992624219239705e-01 2.655788423407107e-01 -8.595567066403915e-02
1.428163265306100e+11 3.180954508379829e-01 -1.814806453978692e-01 -2.552559071254590e-02 -9.130143532034921e-01 2.078461372505698e-01 -8.991630229548896e-01 2.650378717646641e-01 -8.659012476342069e-02
1.428571428571400e+11 3.196720688570441e-01 -1.814266064482408e-01 -2.580171700953840e-02 -9.129814749978129e-01 2.076469252147320e-01 -8.990619922043239e-01 2.641952936224232e-01 -8.794748272386044e-02
1.428979591836700e+11 3.209674362171925e-01 -1.836592890755473e-01 -2.608301861251234e-02 -9.129485530089184e-01 2.074512684600588e-01 -8.989593485639795e-01 2.633939395261256e-01 -9.000356282093390e-02
1.429387755102000e+11 3.206295819747387e-01 -1.865280001466618e-01 -2.636958705081516e-02 -9.129155962540904e-01 2.072591834208133e-01 -8.988551105232974e-01 2.624336491344751e-01 -9.162866064778731e-02
1.429795918367300e+11 3.204898028678607e-01 -1.876849458802474e-01 -2.666151282025704e-02 -9.128826127251194e-01 2.070706866091835e-01 -8.987492970718991e-01 2.621820864164162e-01 -9.259614104444566e-02
1.430204081632700e+11 3.210796164726435e-01 -1.869915744648314e-01 -2.695888556745291e-02 -9.128496093297512e-01 2.068857941433491e-01 -8.986419281145654e-01 2.623445186100470e-01 -9.295349087064912e-02
1.430612244898000e+11 3.212930591062679e-01 -1.873636992539117e-01 -2.726179408317265e-02 -9.128165919853611e-01 2.067045215437912e-01 -8.985330243621222e-01 2.619589316448299e-01 -9.287795618238370e-02
1.431020408163300e+11 3.211921859935054e-01 -1.886246166992519e-01 -2.757032607872640e-02 -9.127835656388372e-01 2.065268841987260e-01 -8.984226068910958e-01 2.615417727486694e-01 -9.332366938136701e-02
1.431428571428600e+11 3.213917823135179e-01 -1.897739350087483e-01 -2.788456817442848e-02 -9.127505346211159e-01 2.063528975815033e-01 -8.983106963770581e-01 2.630592354459399e-01 -9.351222355624067e-02
1.431836734693900e+11 3.218836410607167e-01 -1.901475825165518e-01 -2.820460585789202e-02 -9.127175022624365e-01 2.061825772236421e-01 -8.981973130994159e-01 2.643029729337930e-01 -9.375652530061540e-02
1.432244897959200e+11 3.223878495847293e-01 -1.908964025564017e-01 -2.853052330962948e-02 -9.126844710923855e-01 2.060159387717416e-01 -8.980824769752074e-01 2.664720168087992e-01 -9.410770500893333e-02
1.432653061224500e+11 3.216287961116682e-01 -1.909943210060069e-01 -2.886240290518164e-02 -9.126514430649371e-01 2.058529979563359e-01 -8.979662076210211e-01 2.679248494216568e-01 -9.424658472308078e-02
1.433061224489800e+11 3.218346334311765e-01 -1.917447939982927e-01 -2.920032510733775e-02 -9.126184200993367e-01 2.056937705796366e-01 -8.978485244344574e-01 2.691665621809746e-01 -9.465134801374943e-02
1.433469387755100e+11 3.224705448495658e-01 -1.919858266688199e-01 -2.954436857852184e-02 -9.125854039815435e-01 2.055382725464350e-01 -8.977294465125929e-01 2.698067615701052e-01 -9.549623638496749e-02
1.433877551020400e+11 3.223358661281749e-01 -1.934175694051484e-01 -2.989461032002652e-02 -9.125523963563361e-01 2.053865198743143e-01 -8.976089926974125e-01 2.709525620136956e-01 -9.499272264675958e-02
1.434285714285700e+11 3.211275352966840e-01 -1.933759082328456e-01 -3.025112548049521e-02 -9.125193986304893e-01 2.052385286171567e-01 -8.974871815857267e-01 2.715742842752265e-01 -9.437979134608368e-02
1.434693877551000e+11 3.236925306409980e-01 -1.901045785503863e-01 -3.061398724908934e-02 -9.124864118049054e-01 2.050943147437704e-01 -8.973640318270736e-01 2.738070197954257e-01 -9.390524939751597e-02
1.435102040816300e+11 3.233258459297721e-01 -1.963138711893144e-01 -3.098326681783598e-02 -9.124534362202696e-01 2.049538941869470e-01 -8.972395621575823e-01 2.717304723339657e-01 -9.491037954493894e-02
1.435510204081600e+11 3.204989404083760e-01 -1.954793488564548e-01 -3.135903259909835e-02 -9.124204715088505e-01 2.048172831022307e-01 -8.971137916817131e-01 2.730085626548996e-01 -9.302531167489614e-02
1.435918367346900e+11 3.185470723184031e-01 -1.922878394616391e-01 -3.174135070605978e-02 -9.123875170045338e-01 2.046844969837864e-01 -8.969867403963037e-01 2.721565398833529e-01 -9.257660184336840e-02
1.436326530612200e+11 3.205440855812777e-01 -1.911223195941425e-01 -3.213028511997144e-02 -9.123545712868294e-01 2.045555502711031e-01 -8.968584291537655e-01 2.717251292229644e-01 -9.115422054328433e-02
1.436734693877600e+11 3.229867357176912e-01 -1.922937639306015e-01 -3.252589739095783e-02 -9.123216314168731e-01 2.044304565734683e-01 -8.967288784475430e-01 2.714283168952586e-01 -9.028929553334319e-02
1.437142857142900e+11 3.232166026795839e-01 -1.928808789066888e-01 -3.292824573171091e-02 -9.122886930648731e-01 2.043092289471659e-01 -8.965981084940601e-01 2.709498416006265e-01 -9.010745006022274e-02
1.437551020408200e+11 3.225776624026418e-01 -1.940727310192337e-01 -3.333738485554729e-02 -9.122557512279779e-01 2.041918798812466e-01 -8.964661396491129e-01 2.705179314112204e-01 -8.847407598542563e-02
1.437959183673500e+11 3.223988186030605e-01 -1.951690137227762e-01 -3.375336597247205e-02 -9.122228004430935e-01 2.040784209679863e-01 -8.963329924999019e-01 2.698232398555151e-01 -8.683587457448737e-02
1.438367346938800e+11 3.211585659576284e-01 -1.945368884317213e-01 -3.417623684146649e-02 -9.121898348158617e-01 2.039688627614583e-01 -8.961986878541247e-01 2.699725665101367e-01 -8.624297978009680e-02
1.438775510204100e+11 3.222264463041418e-01 -1.953949062060890e-01 -3.460604181837637e-02 -9.121568480674408e-01 2.038632148548209e-01 -8.960632466490094e-01 2.693943312139923e-01 -8.604708590809813e-02
1.439183673469400e+11 3.215012275051010e-01 -1.959396157763470e-01 -3.504282181733306e-02 -9.121238334044718e-01 2.037614859555808e-01 -8.959266896871848e-01 2.682721175320451e-01 -8.546429539585008e-02
1.439591836734700e+11 3.207536773354072e-01 -1.961277807950505e-01 -3.548661448150925e-02 -9.120907836446145e-01 2.036636841671514e-01 -8.957890379090339e-01 2.675815199709482e-01 -8.457535590133547e-02
1.440000000000000e+11 3.201877803187177e-01 -1.959984190366482e-01 -3.593745421201457e-02 -9.120576911344909e-01 2.035698167916460e-01 -8.956503123070191e-01 2.672159654546338e-01 -8.433857519307446e-02
1.440408163265300e+11 3.218687122005333e-01 -1.966202439973105e-01 -3.639537242320457e-02 -9.120245475302886e-01 2.034798904298507e-01 -8.955105338056899e-01 2.677527481307669e-01 -8.370174086462247e-02
1.440816326530600e+11 3.212423478992432e-01 -1.969083093108754e-01 -3.686039736983974e-02 -9.119913434159336e-01 2.033939109090706e-01 -8.953697233748471e-01 2.672730599333860e-01 -8.408060830143071e-02
1.441224489795900e+11 3.217272064114626e-01 -1.973809647431383e-01 -3.733255385820701e-02 -9.119580688912353e-01 2.033118834723865e-01 -8.952279021531148e-01 2.675665672689943e-01 -8.403935449816843e-02
1.441632653061200e+11 3.205640372064154e-01 -1.967659741821140e-01 -3.781186315382390e-02 -9.119247133985220e-01 2.032338125354170e-01 -8.950850914235208e-01 2.677219112508565e-01 -8.371177834149383e-02
1.442040816326500e+11 3.228491982711739e-01 -1.972533055491657e-01 -3.829834269191160e-02 -9.118912660763432e-01 2.031597016443332e-01 -8.949413124849828e-01 2.673968258408946e-01 -8.444753003924681e-02
1.442448979591800e+11 3.221127463146470e-01 -1.971037141304418e-01 -3.879200593741512e-02 -9.118577154680333e-01 2.030895534810183e-01 -8.947965865704609e-01 2.672043478230955e-01 -8.366761393278113e-02
1.442857142857100e+11 3.220371318523530e-01 -1.973464700830373e-01 -3.929286236890991e-02 -9.118240499043456e-01 2.030233702631334e-01 -8.946509349955467e-01 2.670891033749280e-01 -8.245719344671608e-02
1.443265306122400e+11 3.222116380951405e-01 -1.970812671532787e-01 -3.980091748070520e-02 -9.117902573250041e-01 2.029611533083638e-01 -8.945043792307757e-01 2.665353760814304e-01 -8.228724932210801e-02
1.443673469387800e+11 3.226413495690777e-01 -1.962427189679838e-01 -4.031617270788859e-02 -9.117563253682318e-01 2.029029029251653e-01 -8.943569407758872e-01 2.660532576468417e-01 -8.208645038598367e-02
1.444081632653100e+11 3.231330182870034e-01 -1.961184415105807e-01 -4.083862544791424e-02 -9.117222413108337e-01 2.028486181543444e-01 -8.942086412922574e-01 2.658767205928919e-01 -8.205189597737497e-02
1.444489795918400e+11 3.226690223141238e-01 -1.971389734948427e-01 -4.136826899495604e-02 -9.116879920056596e-01 2.027982968920247e-01 -8.940595025286990e-01 2.649811389146866e-01 -8.058709174045529e-02
1.444897959183700e+11 3.228509905720549e-01 -1.973353663139195e-01 -4.190509244081432e-02 -9.116535639399672e-01 2.027519356544918e-01 -8.939095462161574e-01 2.642674149531165e-01 -7.938082658863176e-02
1.445306122449000e+11 3.236695673552270e-01 -1.975110609149609e-01 -4.244908082855264e-02 -9.116189431078362e-01 2.027095293159180e-01 -8.937587939919531e-01 2.639859687395308e-01 -7.892890100964965e-02
1.445714285714300e+11 3.243046331790224e-01 -1.977680036641772e-01 -4.300021510719534e-02 -9.115841148642901e-01 2.026710710742485e-01 -8.936072674849667e-01 2.635305457668390e-01 -7.911114698450897e-02
1.446122448979600e+11 3.243476132451216e-01 -1.978845370529402e-01 -4.355847176401489e-02 -9.115490639057938e-01 2.026365523451832e-01 -8.934549884444990e-01 2.629073534344335e-01 -7.860620983234910e-02
1.446530612244900e+11 3.239623686952857e-01 -1.985878328714755e-01 -4.412382256417136e-02 -9.115137744362566e-01 2.026059626857730e-01 -8.933019787330114e-01 2.620930300624399e-01 -7.808545510843429e-02
1.446938775510200e+11 3.238545665837234e-01 -1.993800248428007e-01 -4.469623443036027e-02 -9.114782302108443e-01 2.025792897698329e-01 -8.931482601479892e-01 2.613705674073127e-01 -7.871523620539224e-02
1.447346938775500e+11 3.240931760600883e-01 -1.994441318425431e-01 -4.527566928093316e-02 -9.114424145654533e-01 2.025565192970809e-01 -8.929938541257100e-01 2.618400912971575e-01 -7.929358336513199e-02
1.447755102040800e+11 3.247223806630138e-01 -2.007139931649152e-01 -4.586208413019030e-02 -9.114063104760661e-01 2.025376349362827e-01 -8.928387817864480e-01 2.615126349700839e-01 -8.016424197313733e-02
1.448163265306100e+11 3.234799146799182e-01 -2.016459084912164e-01 -4.645543101365436e-02 -9.113699007634199e-01 2.025226184372589e-01 -8.926830639789630e-01 2.608310273835254e-01 -8.004895297866006e-02
1.448571428571400e+11 3.228564550417543e-01 -2.020889600539536e-01 -4.705565711203524e-02 -9.113331684318510e-01 2.025114497276569e-01 -8.925267215499667e-01 2.595859217348869e-01 -8.143421710858002e-02
1.448979591836700e+11 3.227426053143849e-01 -2.020571476764709e-01 -4.766270523090257e-02 -9.112960967141069e-01 2.025041070862478e-01 -8.923697752015372e-01 2.597663844113453e-01 -8.252017189306723e-02
1.449387755102000e+11 3.224257086541072e-01 -2.021643226239973e-01 -4.827651424899791e-02 -9.112586694520100e-01 2.025005672095141e-01 -8.922122454742586e-01 2.596087224030521e-01 -8.328650179985031e-02
1.449795918367300e+11 3.221779915921308e-01 -2.030122865997022e-01 -4.889701941457830e-02 -9.112208710262336e-01 2.025008056900594e-01 -8.920541527351026e-01 2.590182032333836e-01 -8.401005368127565e-02
1.450204081632700e+11 3.218824913044659e-01 -2.029017096590979e-01 -4.952415265192568e-02 -9.111826862801505e-01 2.025047975066828e-01 -8.918955172430972e-01 2.584448237242722e-01 -8.481907724477546e-02
1.450612244898000e+11 3.221566201152525e-01 -2.028841553267658e-01 -5.015784288365946e-02 -9.111441004627873e-01 2.025125171499516e-01 -8.917363592098888e-01 2.583917038903061e-01 -8.564622161478708e-02
1.451020408163300e+11 3.220880434678421e-01 -2.025210467667581e-01 -5.079801622074833e-02 -9.111050991713165e-01 2.025239387272314e-01 -8.915766987416680e-01 2.579296496814666e-01 -8.646263562536030e-02
1.451428571428600e+11 3.217750740894306e-01 -2.020860841278463e-01 -5.144459627627222e-02 -9.110656683662238e-01 2.025390360374629e-01 -8.914165559229782e-01 2.574888010976928e-01 -8.662702112064001e-02
1.451836734693900e+11 3.211814877821305e-01 -2.029100991806555e-01 -5.209750430247496e-02 -9.110257944579545e-01 2.025577827694957e-01 -8.912559507869823e-01 2.561898551679509e-01 -8.645499471957847e-02
1.452244897959200e+11 3.211625686389312e-01 -2.039208428580292e-01 -5.275665925694013e-02 -9.109854643239589e-01 2.025801525802566e-01 -8.910949033507198e-01 2.556708368326183e-01 -8.652691244890509e-02
1.452653061224500e+11 3.218683820631646e-01 -2.032503417144301e-01 -5.342197808524617e-02 -9.109446653132599e-01 2.026061188493544e-01 -8.909334336132598e-01 2.559463348381089e-01 -8.747963902334280e-02
1.453061224489800e+11 3.216736347648659e-01 -2.029042386266985e-01 -5.409337584210438e-02 -9.109033851499979e-01 2.026356545937694e-01 -8.907715616215583e-01 2.561052717609035e-01 -8.809492611497681e-02
1.453469387755100e+11 3.214171808972650e-01 -2.035345044479964e-01 -5.477076549414794e-02 -9.108616119504177e-01 2.026687325088187e-01 -8.906093074884838e-01 2.563364054801412e-01 -8.861828652381661e-02
1.453877551020400e+11 3.217551853840243e-01 -2.031565934473251e-01 -5.545405772066320e-02 -9.108193341004104e-01 2.027053249313378e-01 -8.904466913705436e-01 2.571532501099378e-01 -8.798673940196193e-02
1.454285714285700e+11 3.222509194246049e-01 -2.036551937854588e-01 -5.614316081069668e-02 -9.107765403226151e-01 2.027454034538096e-01 -8.902837334777308e-01 2.578712269543003e-01 -8.831616400545114e-02
1.454693877551000e+11 3.209942917023550e-01 -2.047517512393760e-01 -5.683798051333724e-02 -9.107332198462058e-01 2.027889390694757e-01 -8.901204541304011e-01 2.575359686848070e-01 -8.965718038076112e-02
1.455102040816300e+11 3.210977841364173e-01 -2.045166801206051e-01 -5.753841989041944e-02 -9.106893627586241e-01 2.028359021122808e-01 -8.899568738963962e-01 2.583603314858565e-01 -8.869356553437367e-02
1.455510204081600e+11 3.213266423103849e-01 -2.027597503385251e-01 -5.824437950607045e-02 -9.106449599703856e-01 2.028862616043512e-01 -8.897930135694615e-01 2.593263846016645e-01 -8.696501248112445e-02
1.455918367346900e+11 3.217178081269801e-01 -2.023743914086343e-01 -5.895575724103335e-02 -9.106000031402460e-01 2.029399850882082e-01 -8.896288938836199e-01 2.602689356429908e-01 -8.738879008871243e-02
1.456326530612200e+11 3.215816756083774e-01 -2.046378798016164e-01 -5.967244805884791e-02 -9.105544844310712e-01 2.029970389143919e-01 -8.894645349619537e-01 2.606308543255704e-01 -8.919577999030463e-02
1.456734693877600e+11 3.225005742927549e-01 -2.046445669917023e-01 -6.039434386880434e-02 -9.105083967204283e-01 2.030573884163620e-01 -8.892999564020186e-01 2.622841977453629e-01 -9.059089944551550e-02
1.457142857142900e+11 3.230095725576284e-01 -2.043526881999861e-01 -6.112133395704934e-02 -9.104617337316293e-01 2.031209977263990e-01 -8.891351776056751e-01 2.630241337862199e-01 -9.116164805014274e-02
1.457551020408200e+11 3.222882715370710e-01 -2.042049383136326e-01 -6.185330506025993e-02 -9.104144899637419e-01 2.031878300604404e-01 -8.889702179825155e-01 2.627497103677040e-01 -9.031635600766426e-02
1.457959183673500e+11 3.222387853627871e-01 -2.039599710199033e-01 -6.259014142319547e-02 -9.103666605274049e-01 2.032578479262929e-01 -8.888050971077571e-01 2.626668992038901e-01 -8.968369675391002e-02
1.458367346938800e+11 3.230966384639966e-01 -2.045242957668481e-01 -6.333172481538349e-02 -9.103182410445634e-01 2.033310130515356e-01 -8.886398345891218e-01 2.626817717726996e-01 -9.040697160157718e-02
1.458775510204100e+11 3.236601166672511e-01 -2.045177424901389e-01 -6.407793478465873e-02 -9.102692277371309e-01 2.034072868831759e-01 -8.884744497970627e-01 2.630889442052867e-01 -9.040631025628551e-02
1.459183673469400e+11 3.230717064370103e-01 -2.043767413869547e-01 -6.482864944379330e-02 -9.102196175623156e-01 2.034866312490690e-01 -8.883089622231699e-01 2.621179055462757e-01 -8.988142266089158e-02
1.459591836734700e+11 3.222633024669312e-01 -2.042018870755652e-01 -6.558374575962204e-02 -9.101694078017925e-01 2.035690086507738e-01 -8.881433917213379e-01 2.612112411003366e-01 -8.995026120917871e-02
1.460000000000000e+11 3.229770744785713e-01 -2.043171560352602e-01 -6.634310010700047e-02 -9.101185962484866e-01 2.036543820159509e-01 -8.879777578219312e-01 2.613502691317835e-01 -9.002510611238830e-02
1.460408163265300e+11 3.223195817800741e-01 -2.046044646677493e-01 -6.710658886380479e-02 -9.100671810785274e-01 2.037427148837218e-01 -8.878120795195364e-01 2.603417616203514e-01 -8.969815048344000e-02
1.460816326530600e+11 3.208449606546009e-01 -2.048949554185721e-01 -6.787408852959881e-02 -9.100151608829847e-01 2.038339716561184e-01 -8.876463754851343e-01 2.587138367452865e-01 -8.920930592397572e-02
1.461224489795900e+11 3.200337174020083e-01 -2.047322523527814e-01 -6.864547614469418e-02 -9.099625348098911e-01 2.039281175153785e-01 -8.874806638182210e-01 2.567959252134807e-01 -8.947511333343500e-02
1.461632653061200e+11 3.201475546604104e-01 -2.023754037956131e-01 -6.942062966073831e-02 -9.099093022655056e-01 2.040251183468191e-01 -8.873149621967737e-01 2.571217900193499e-01 -8.909604754717668e-02
1.462040816326500e+11 3.224804098063054e-01 -2.039370543270005e-01 -7.019942818923522e-02 -9.098554625353784e-01 2.041249405011353e-01 -8.871492878080203e-01 2.574287403900984e-01 -9.056910045571283e-02
1.462448979591800e+11 3.211841038801589e-01 -2.059971005889395e-01 -7.098175158537495e-02 -9.098010139509156e-01 2.042275511649453e-01 -8.869836577460884e-01 2.551704662805797e-01 -9.064101349160378e-02
1.462857142857100e+11 3.209110997288641e-01 -2.050785821021334e-01 -7.176747996905770e-02 -9.097459544986708e-01 2.043329180622009e-01 -8.868180897164621e-01 2.539519684274850e-01 -8.917919864816637e-02
1.463265306122400e+11 3.200570988762701e-01 -2.050237491554818e-01 -7.255649428635998e-02 -9.096902826184617e-01 2.044410087360858e-01 -8.866526017155356e-01 2.540821189773968e-01 -8.972663470577458e-02
1.463673469387800e+11 3.203008805293404e-01 -2.043470898041727e-01 -7.334867684568565e-02 -9.096339974662268e-01 2.045517902531294e-01 -8.864872109851861e-01 2.572286308332503e-01 -9.045153708951384e-02
1.464081632653100e+11 3.206069009701163e-01 -2.062981310517369e-01 -7.414391138083078e-02 -9.095770983483782e-01 2.046652291260840e-01 -8.863219337003841e-01 2.563549787057118e-01 -9.446200028849698e-02
1.464489795918400e+11 3.207097583414825e-01 -2.063242598757852e-01 -7.494208261445835e-02 -9.095195843918756e-01 2.047812918287373e-01 -8.861567844802241e-01 2.559781215576540e-01 -9.602737130679681e-02
1.464897959183700e+11 3.204344489174809e-01 -2.060907657308264e-01 -7.574307555134067e-02 -9.094614546080160e-01 2.048999442646502e-01 -8.859917777651606e-01 2.558653402667776e-01 -9.609536889973314e-02
1.465306122449000e+11 3.204220839797473e-01 -2.062353346519744e-01 -7.654677483102350e-02 -9.094027080717312e-01 2.050211515913755e-01 -8.858269283072695e-01 2.557040685654297e-01 -9.751282683668010e-02
1.465714285714300e+11 3.208982494952002e-01 -2.071356499708257e-01 -7.735306490722571e-02 -9.093433440492593e-01 2.051448781097893e-01 -8.856622509138666e-01 2.558582526901050e-01 -1.004299534638004e-01
1.466122448979600e+11 3.215119376929285e-01 -2.073060243616795e-01 -7.816183036423488e-02 -9.092833620347052e-01 2.052710873495803e-01 -8.854977600832346e-01 2.553270189721062e-01 -1.015369152211570e-01
1.466530612244900e+11 3.217064758488594e-01 -2.075718430654120e-01 -7.897295621665068e-02 -9.092227617843801e-01 2.053997420671999e-01 -8.853334703572875e-01 2.557325718359589e-01 -1.033852272854800e-01
1.466938775510200e+11 3.230632317689869e-01 -2.067727013387774e-01 -7.978632831305509e-02 -9.091615433125961e-01 2.055308043556759e-01 -8.851693962262105e-01 2.573107897572499e-01 -1.047553766540615e-01
1.467346938775500e+11 3.220780627121025e-01 -2.067986344227445e-01 -8.060183391512704e-02 -9.090997069949179e-01 2.056642361819921e-01 -8.850055520327820e-01 2.569910605314154e-01 -1.057319087434543e-01
1.467755102040800e+11 3.229182518331928e-01 -2.067913028436270e-01 -8.141936195365641e-02 -9.090372532760727e-01 2.058000000273503e-01 -8.848419524300333e-01 2.563192979483838e-01 -1.065675936287648e-01
1.468163265306100e+11 3.229693168000461e-01 -2.061179273499294e-01 -8.223880342096598e-02 -9.089741825210135e-01 2.059380589123100e-01 -8.846786121717661e-01 2.558420209058642e-01 -1.066106699002089e-01
1.468571428571400e+11 3.233849169680884e-01 -2.045083361141688e-01 -8.306005185519311e-02 -9.089104952179783e-01 2.060783766340750e-01 -8.845155457051140e-01 2.571927351238372e-01 -1.059840804218873e-01
1.468979591836700e+11 3.244206041860055e-01 -2.046538942973105e-01 -8.388300371097743e-02 -9.088461918958328e-01 2.062209180720419e-01 -8.843527669421161e-01 2.589858635529346e-01 -1.047374901347084e-01
1.469387755102000e+11 3.242463364917186e-01 -2.057055751566290e-01 -8.470755843557261e-02 -9.087812728225718e-01 2.063656496367119e-01 -8.841902893324712e-01 2.604607905852508e-01 -1.043274155185688e-01
1.469795918367300e+11 3.253583109878313e-01 -2.058148935880452e-01 -8.553361833794028e-02 -9.087157378311336e-01 2.065125393959403e-01 -8.840281256662406e-01 2.613911025096818e-01 -1.037168610889897e-01
1.470204081632700e+11 3.267973131241996e-01 -2.049826380870879e-01 -8.636108877228399e-02 -9.086495862131174e-01 2.066615569951575e-01 -8.838662877553995e-01 2.637896026153874e-01 -1.033187062701484e-01
1.470612244898000e+11 3.257707596679990e-01 -2.045600181783817e-01 -8.718987824571622e-02 -9.085828167757496e-01 2.068126737420309e-01 -8.837047864115404e-01 2.644930713480777e-01 -1.033262345973766e-01
1.471020408163300e+11 3.254904386762796e-01 -2.047353854400094e-01 -8.801989798287908e-02 -9.085154276757881e-01 2.069658630521687e-01 -8.835436315834571e-01 2.650942362743262e-01 -1.019844509645460e-01
1.471428571428600e+11 3.263774523955884e-01 -2.067990573323107e-01 -8.885106186736269e-02 -9.084474164449533e-01 2.071211003687656e-01 -8.833828323739804e-01 2.679591596995805e-01 -1.059657210902353e-01
1.471836734693900e+11 3.254541526806391e-01 -2.079796805361999e-01 -8.968328645170599e-02 -9.083787798731097e-01 2.072783630158624e-01 -8.832223966861413e-01 2.675967863947121e-01 -1.078700007607952e-01
1.472244897959200e+11 3.264709309863012e-01 -2.060669599574015e-01 -9.051649097997631e-02 -9.083095145495760e-01 2.074376302583011e-01 -8.830623319429053e-01 2.686644328299103e-01 -1.052734748446708e-01
1.472653061224500e+11 3.250392001972016e-01 -2.083788664098809e-01 -9.135059760990151e-02 -9.082396167047653e-01 2.075988828794855e-01 -8.829026450338303e-01 2.692365795340099e-01 -1.120144473045604e-01
1.473061224489800e+11 3.252068488880073e-01 -2.093257294869987e-01 -9.218553136875969e-02 -9.081690819246370e-01 2.077621036230161e-01 -8.827433414134693e-01 2.706629490486052e-01 -1.160154510082284e-01
1.473469387755100e+11 3.252564506008847e-01 -2.084520687820096e-01 -9.302122050186301e-02 -9.080979054276750e-01 2.079272768202553e-01 -8.825844262346700e-01 2.694370805328606e-01 -1.149719652999128e-01
1.473877551020400e+11 3.261111901672668e-01 -2.070812263473601e-01 -9.385759684076439e-02 -9.080260828586720e-01 2.080943886567900e-01 -8.824259044053240e-01 2.705380336078171e-01 -1.115859435925279e-01
1.474285714285700e+11 3.273262036945012e-01 -2.077682521261955e-01 -9.469459599645938e-02 -9.079536097841314e-01 2.082634271738618e-01 -8.822677802925449e-01 2.728093416091912e-01 -1.158269634480381e-01
1.474693877551000e+11 3.275442529285379e-01 -2.068315303294081e-01 -9.553215658957827e-02 -9.078804810588740e-01 2.084343822876641e-01 -8.821100571806346e-01 2.731991577832222e-01 -1.155844908483005e-01
1.475102040816300e+11 3.288196882082223e-01 -2.073967281462673e-01 -9.637022064622115e-02 -9.078066913543267e-01 2.086072461220527e-01 -8.819527378242775e-01 2.748799304082780e-01 -1.159607700962363e-01
1.475510204081600e+11 3.285978149107664e-01 -2.085910566381897e-01 -9.720873354752178e-02 -9.077322350039314e-01 2.087820131532514e-01 -8.817958245673927e-01 2.759269793833058e-01 -1.152177912588222e-01
1.475918367346900e+11 3.294562190389655e-01 -2.078702245123963e-01 -9.804764440446935e-02 -9.076571061981087e-01 2.089586805163757e-01 -8.816393191284587e-01 2.766839744028878e-01 -1.136554161293116e-01
1.476326530612200e+11 3.304342284444037e-01 -2.061674208495057e-01 -9.888690673182773e-02 -9.075812988183941e-01 2.091372481916430e-01 -8.814832220537098e-01 2.761076251896083e-01 -1.125471514992258e-01
1.476734693877600e+11 3.314849259197791e-01 -2.089885606501594e-01 -9.972647827910175e-02 -9.075048058196521e-01 2.093177191429443e-01 -8.813275331342189e-01 2.797074803569214e-01 -1.147328519713966e-01
1.477142857142900e+11 3.309802858079372e-01 -2.100416053823488e-01 -1.005663207014790e-01 -9.074276190281703e-01 2.095000993268999e-01 -8.811722514188650e-01 2.802905179109821e-01 -1.157377951323007e-01
1.477551020408200e+11 3.297268807068583e-01 -2.089239553608657e-01 -1.014063999104817e-01 -9.073497298717365e-01 2.096843978975330e-01 -8.810173753005389e-01 2.773874414937524e-01 -1.109479485187544e-01
1.477959183673500e+11 3.300506724501910e-01 -2.083911867844336e-01 -1.022466870704059e-01 -9.072711295129448e-01 2.098706276185201e-01 -8.808629022694711e-01 2.784349434517761e-01 -1.091254734652308e-01
1.478367346938800e+11 3.334906581193894e-01 -2.086791191489408e-01 -1.030871584634445e-01 -9.071918075639313e-01 2.100588044197046e-01 -8.807088286701925e-01 2.808042032950353e-01 -1.077588207467578e-01
1.478775510204100e+11 3.325360922461582e-01 -2.099993402789499e-01 -1.039277953693402e-01 -9.071117522100961e-01 2.102489474538752e-01 -8.805551492995726e-01 2.819617973996412e-01 -1.102333073378852e-01
1.479183673469400e+11 3.312415942530361e-01 -2.117913603818990e-01 -1.047685838556193e-01 -9.070309505023814e-01 2.104410797814787e-01 -8.804018573317042e-01 2.819126926276392e-01 -1.115587316207071e-01
1.479591836734700e+11 3.310076879603420e-01 -2.118913977314048e-01 -1.056095150997204e-01 -9.069493883502723e-01 2.106352279860167e-01 -8.802489446577150e-01 2.815493633492619e-01 -1.107862909013141e-01
1.480000000000000e+11 3.313640261625839e-01 -2.118744903195445e-01 -1.064505855708503e-01 -9.068670506334047e-01 2.108314216894511e-01 -8.800964019180380e-01 2.808255880272992e-01 -1.108217279027121e-01
1.480408163265300e+11 3.324453800780558e-01 -2.127591349675051e-01 -1.072917966466911e-01 -9.067839211353645e-01 2.110296933725170e-01 -8.799442185879627e-01 2.822236585623474e-01 -1.112637678892046e-01
1.480816326530600e+11 3.318887054689434e-01 -2.133348128056609e-01 -1.081331542814448e-01 -9.066999824260540e-01 2.112300780958156e-01 -8.797923829900143e-01 2.821954651003428e-01 -1.133645603423804e-01
1.481224489795900e+11 3.313555909966197e-01 -2.144983315851278e-01 -1.089746684812349e-01 -9.066152162524473e-01 2.114326134138651e-01 -8.796408824543799e-01 2.833129726847561e-01 -1.161780495835069e-01
1.481632653061200e+11 3.310464146936201e-01 -2.148445447397319e-01 -1.098163533175099e-01 -9.065296037572524e-01 2.116373390277579e-01 -8.794897035225504e-01 2.828866817114923e-01 -1.164304055381384e-01
1.482040816326500e+11 3.317530345843124e-01 -2.146314050228784e-01 -1.106582268055430e-01 -9.064431258986523e-01 2.118442964272798e-01 -8.793388321862080e-01 2.825889240180350e-01 -1.173297182067081e-01
1.482448979591800e+11 3.333381126768569e-01 -2.134692868286518e-01 -1.115003105110012e-01 -9.063557633195980e-01 2.120535285789459e-01 -8.791882538010251e-01 2.836969301586861e-01 -1.156705872697166e-01
1.482857142857100e+11 3.344327402651108e-01 -2.134762001523950e-01 -1.123426294020461e-01 -9.062674964072484e-01 2.122650797033694e-01 -8.790379531517826e-01 2.847423626832009e-01 -1.158903791655662e-01
1.483265306122400e+11 3.344509181933400e-01 -2.127297779750950e-01 -1.131852112921173e-01 -9.061783051926370e-01 2.124789955158560e-01 -8.788879143342814e-01 2.838400763266689e-01 -1.178678958763760e-01
1.483673469387800e+11 3.340249558283416e-01 -2.130195626980370e-01 -1.140280867785192e-01 -9.060881692380002e-01 2.126953232365494e-01 -8.787381206891801e-01 2.826377790133129e-01 -1.189952833631149e-01
1.484081632653100e+11 3.350627654455200e-01 -2.134216650942087e-01 -1.148712890407318e-01 -9.059970676639781e-01 2.129141113130813e-01 -8.785885549075895e-01 2.832755232089569e-01 -1.171366799790432e-01
1.484489795918400e+11 3.358757680498751e-01 -2.140135343690695e-01 -1.157148537916418e-01 -9.059049790342104e-01 2.131354090136303e-01 -8.784391991708191e-01 2.847335056830753e-01 -1.178248515256936e-01
1.484897959183700e+11 3.355514453757931e-01 -2.146782123649320e-01 -1.165588192929543e-01 -9.058118811116084e-01 2.133592666634597e-01 -8.782900351053207e-01 2.841113646713051e-01 -1.182408136344050e-01
1.485306122449000e+11 3.354398517915503e-01 -2.144625774826925e-01 -1.174032266108592e-01 -9.057177509559009e-01 2.135857356408302e-01 -8.781410438017797e-01 2.844283825920369e-01 -1.193186709038659e-01
1.485714285714300e+11 3.369331470872214e-01 -2.143304696323141e-01 -1.182481195700300e-01 -9.056225646307060e-01 2.138148678481639e-01 -8.779922057728856e-01 2.871182272310868e-01 -1.179105973953755e-01
1.486122448979600e+11 3.365155625551469e-01 -2.150817976770297e-01 -1.190935448911450e-01 -9.055262972987573e-01 2.140467155952400e-01 -8.778435008592052e-01 2.886025509562183e-01 -1.173502075208856e-01
1.486530612244900e+11 3.351950973803892e-01 -2.165448284199509e-01 -1.199395517892944e-01 -9.054289232857508e-01 2.142813319967153e-01 -8.776949081872740e-01 2.882112532913597e-01 -1.180341486326435e-01
1.486938775510200e+11 3.347408688518386e-01 -2.175539633676106e-01 -1.207861919250388e-01 -9.053304160793562e-01 2.145187707322270e-01 -8.775464062525454e-01 2.893821199089535e-01 -1.195899493548911e-01
1.487346938775500e+11 3.346178055618952e-01 -2.181269309595767e-01 -1.216335194380353e-01 -9.052307482279609e-01 2.147590855362419e-01 -8.773979729251267e-01 2.900676659677813e-01 -1.194833679662188e-01
1.487755102040800e+11 3.344391358539787e-01 -2.182426942253177e-01 -1.224815910660782e-01 -9.051298913420269e-01 2.150023299752480e-01 -8.772495855822355e-01 2.899780231880577e-01 -1.193367381275784e-01
1.488163265306100e+11 3.348320733141547e-01 -2.198796034178357e-01 -1.233304661458403e-01 -9.050278162181611e-01 2.152485574427469e-01 -8.771012211166376e-01 2.910439786572824e-01 -1.203496350163913e-01
1.488571428571400e+11 3.353626341476264e-01 -2.197406882359543e-01 -1.241802063561576e-01 -9.049244929103578e-01 2.154978208977809e-01 -8.769528559823165e-01 2.927436121487407e-01 -1.210769501136855e-01
1.488979591836700e+11 3.350992612562326e-01 -2.198458008038872e-01 -1.250308756741445e-01 -9.048198907766763e-01 2.157501725949021e-01 -8.768044663870241e-01 2.930609129012263e-01 -1.220066355738130e-01
1.489387755102000e+11 3.348123925085213e-01 -2.201457208529414e-01 -1.258825399691588e-01 -9.047139787681175e-01 2.160056638651834e-01 -8.766560285618541e-01 2.932789879103209e-01 -1.221886620275010e-01
1.489795918367300e+11 3.350463870488871e-01 -2.211019786124452e-01 -1.267352666898782e-01 -9.046067254108253e-01 2.162643448594223e-01 -8.765075188875328e-01 2.939663635393547e-01 -1.212763185955601e-01
1.490204081632700e+11 3.352539545529123e-01 -2.205700474685435e-01 -1.275891244260812e-01 -9.044980989768717e-01 2.165262642289534e-01 -8.763589139389947e-01 2.944295448670323e-01 -1.207658121557680e-01
1.490612244898000e+11 3.362973259268798e-01 -2.198291046011482e-01 -1.284441825720981e-01 -9.043880675639783e-01 2.167914688272318e-01 -8.762101907575759e-01 2.951663174665410e-01 -1.200381285651444e-01
1.491020408163300e+11 3.355862670913985e-01 -2.211694350071309e-01 -1.293005109829288e-01 -9.042765990799334e-01 2.170600035798658e-01 -8.760613269069371e-01 2.956420392310874e-01 -1.211665448829695e-01
1.491428571428600e+11 3.360999147311400e-01 -2.222505074825236e-01 -1.301581796532601e-01 -9.041636613080105e-01 2.173319115186929e-01 -8.759123005165713e-01 2.968791037320583e-01 -1.185819885466203e-01
1.491836734693900e+11 3.369049891147931e-01 -2.230188360648589e-01 -1.310172586751097e-01 -9.040492220858238e-01 2.176072333574140e-01 -8.757630904030141e-01 2.975555883209662e-01 -1.147419671178586e-01
1.492244897959200e+11 3.372205434198127e-01 -2.231790810641701e-01 -1.318778179605506e-01 -9.039332494973968e-01 2.178860075961432e-01 -8.756136761329774e-01 2.972802379790103e-01 -1.134954334610894e-01
1.492653061224500e+11 3.372221883727837e-01 -2.230167259668653e-01 -1.327399269208238e-01 -9.038157118618930e-01 2.181682706907431e-01 -8.754640380381625e-01 2.981726243470746e-01 -1.131246434168425e-01
1.493061224489800e+11 3.364350253636837e-01 -2.241378634812807e-01 -1.336036544478425e-01 -9.036965777973436e-01 2.184540571734543e-01 -8.753141570885455e-01 2.999680331505845e-01 -1.130050173640536e-01
1.493469387755100e+11 3.367219429700866e-01 -2.234762117237546e-01 -1.344690688009194e-01 -9.035758163760372e-01 2.187433998678639e-01 -8.751640148507094e-01 2.981750702628146e-01 -1.098771084577132e-01
1.493877551020400e+11 3.364291498900862e-01 -2.242574674760015e-01 -1.353362378395691e-01 -9.034533974866999e-01 2.190363300620026e-01 -8.750135935516786e-01 2.983281324419819e-01 -1.083475636536777e-01
1.494285714285700e+11 3.356837340287356e-01 -2.252415899504585e-01 -1.362052286500123e-01 -9.033292915469600e-01 2.193328776421646e-01 -8.748628759057576e-01 3.001234540941143e-01 -1.083863680334451e-01
1.494693877551000e+11 3.357608568330765e-01 -2.255102013248964e-01 -1.370761074454613e-01 -9.032034695532277e-01 2.196330712627729e-01 -8.747118450420301e-01 2.980588685318873e-01 -1.075931045265956e-01
1.495102040816300e+11 3.358478614893289e-01 -2.256410955459470e-01 -1.379489397128462e-01 -9.030759035862082e-01 2.199369382697470e-01 -8.745604846416580e-01 2.970699021212520e-01 -1.075838410868716e-01
1.495510204081600e+11 3.352888295291592e-01 -2.259084358589716e-01 -1.388237900365061e-01 -9.029465666285812e-01 2.202445045027897e-01 -8.744087789372097e-01 2.965254418973488e-01 -1.076704584153513e-01
1.495918367346900e+11 3.355547013773241e-01 -2.254715765592590e-01 -1.397007220688714e-01 -9.028154326308537e-01 2.205557943807563e-01 -8.742567125440891e-01 2.967608728991406e-01 -1.082852475626803e-01
1.496326530612200e+11 3.349691392766544e-01 -2.253655258115087e-01 -1.405797985439826e-01 -9.026824764489558e-01 2.208708307485711e-01 -8.741042705021662e-01 2.967413002437584e-01 -1.096255954699475e-01
1.496734693877600e+11 3.351979921996540e-01 -2.252882582446146e-01 -1.414610811191118e-01 -9.025476738615563e-01 2.211896347328553e-01 -8.739514383260192e-01 2.975755041819101e-01 -1.095233390558209e-01
1.497142857142900e+11 3.351463211828523e-01 -2.255578953916102e-01 -1.423446302385706e-01 -9.024110015387028e-01 2.215122253010554e-01 -8.737982021522932e-01 2.968384864273424e-01 -1.091532564725778e-01
1.497551020408200e+11 3.352073097577909e-01 -2.258607730538423e-01 -1.432305047996831e-01 -9.022724371958136e-01 2.218386191466050e-01 -8.736445488890454e-01 2.962407724717530e-01 -1.096555124182652e-01
1.497959183673500e+11 3.338942694154599e-01 -2.259071824584382e-01 -1.441187617890110e-01 -9.021319596107822e-01 2.221688306571446e-01 -8.734904662592153e-01 2.949268433209813e-01 -1.102366368236776e-01
1.498367346938800e+11 3.350141395785705e-01 -2.259411804185947e-01 -1.450094559861156e-01 -9.019895487773972e-01 2.225028717863403e-01 -8.733359428651032e-01 2.956643603664982e-01 -1.099023997955743e-01
1.498775510204100e+11 3.351611045271299e-01 -2.257871283796828e-01 -1.459026399683364e-01 -9.018451858541865e-01 2.228407514392095e-01 -8.731809681522925e-01 2.954492441833521e-01 -1.102435635063209e-01
1.499183673469400e+11 3.364078810287417e-01 -2.247605363868906e-01 -1.467983638148591e-01 -9.016988532328513e-01 2.231824754890218e-01 -8.730255324140179e-01 2.948062794220628e-01 -1.102569426222864e-01
1.499591836734700e+11 3.374003816862492e-01 -2.245228941638314e-01 -1.476966749336670e-01 -9.015505345299170e-01 2.235280466921062e-01 -8.728696268867379e-01 2.949482717987706e-01 -1.102423074250010e-01
1.500000000000000e+11 3.374822891819669e-01 -2.248964750525476e-01 -1.485976182031511e-01 -9.014002144818268e-01 2.238774648582000e-01 -8.727132434774851e-01 2.950579658784026e-01 -1.105037900973687e-01
1.500408163265300e+11 3.378090366431897e-01 -2.242298887845152e-01 -1.495012359421897e-01 -9.012478788685890e-01 2.242307268195901e-01 -8.725563747559354e-01 2.954337239172725e-01 -1.107451914421105e-01
1.500816326530600e+11 3.384716720440204e-01 -2.235691544651210e-01 -1.504075681902752e-01 -9.010935142575321e-01 2.245878263931484e-01 -8.723990138672562e-01 2.955554915960168e-01 -1.110150233666631e-01
1.501224489795900e+11 3.395442762533346e-01 -2.248498101350325e-01 -1.513166529072357e-01 -9.009371078542859e-01 2.249487544967401e-01 -8.722411544009916e-01 2.965249847275226e-01 -1.111605292162770e-01
1.501632653061200e+11 3.407814278888694e-01 -2.270248393740497e-01 -1.522285263683429e-01 -9.007786472084665e-01 2.253134993855837e-01 -8.720827902378726e-01 2.982920078334053e-01 -1.101113801782989e-01
1.502040816326500e+11 3.408498608128145e-01 -2.284981521500310e-01 -1.531432234780338e-01 -9.006181202192108e-01 2.256820468179155e-01 -8.719239155763692e-01 2.987331711918383e-01 -1.095382108816434e-01
1.502448979591800e+11 3.406482044291216e-01 -2.287182190744498e-01 -1.540607778725646e-01 -9.004555153355729e-01 2.260543800496936e-01 -8.717645248247650e-01 2.983847096488033e-01 -1.097745175825291e-01
1.502857142857100e+11 3.404511335504075e-01 -2.283666866435466e-01 -1.549812221719129e-01 -9.002908216051049e-01 2.264304799412913e-01 -8.716046126364799e-01 2.985932367329596e-01 -1.095903136755317e-01
1.503265306122400e+11 3.403617474491358e-01 -2.292502826365921e-01 -1.559045881787894e-01 -9.001240285954083e-01 2.268103250529432e-01 -8.714441738840848e-01 2.983984129931884e-01 -1.092013500194297e-01
1.503673469387800e+11 3.406311404171391e-01 -2.293975808073964e-01 -1.568309069866014e-01 -8.999551263073871e-01 2.271938915654086e-01 -8.712832034899562e-01 2.979962197950615e-01 -1.073447726588336e-01
1.504081632653100e+11 3.411544027687270e-01 -2.303723122816044e-01 -1.577602091789118e-01 -8.997841049409082e-01 2.275811532314979e-01 -8.711216962239688e-01 2.973587422038753e-01 -1.061953090306733e-01
1.504489795918400e+11 3.400855482352173e-01 -2.328430255690961e-01 -1.586925247318827e-01 -8.996109548907900e-01 2.279720815434780e-01 -8.709596465613043e-01 2.982544259448485e-01 -1.039773619419614e-01
1.504897959183700e+11 3.402227950383006e-01 -2.327933208828823e-01 -1.596278829497676e-01 -8.994356667465331e-01 2.283666457433175e-01 -8.707970488236756e-01 2.979510538279195e-01 -1.029644240389349e-01
1.505306122449000e+11 3.409277632471972e-01 -2.323455382166932e-01 -1.605663123026057e-01 -8.992582314641300e-01 2.287648126978036e-01 -8.706338974315112e-01 2.978214208108700e-01 -1.023684833043373e-01
1.505714285714300e+11 3.419876141308659e-01 -2.328074515285942e-01 -1.615078402008772e-01 -8.990786401220453e-01 2.291665469791185e-01 -8.704701868605252e-01 2.999668199609943e-01 -1.008203564759943e-01
1.506122448979600e+11 3.427758909816045e-01 -2.331579891811954e-01 -1.624524925974108e-01 -8.988968838612216e-01 2.295718107060361e-01 -8.703059115053469e-01 2.972915711569591e-01 -1.008249347160895e-01
1.506530612244900e+11 3.439811883344510e-01 -2.345831399232211e-01 -1.634002935896036e-01 -8.987129543563324e-01 2.299805637944130e-01 -8.701410655556631e-01 2.968301827006644e-01 -1.005140441417330e-01
1.506938775510200e+11 3.435855714482232e-01 -2.363021648083893e-01 -1.643512653457900e-01 -8.985268435518633e-01 2.303927638365817e-01 -8.699756426913259e-01 2.971298371891427e-01 -9.917295924729629e-02
1.507346938775500e+11 3.435861369746676e-01 -2.373865812469390e-01 -1.653054278609028e-01 -8.983385439987818e-01 2.308083662448054e-01 -8.698096362807699e-01 2.960942835526418e-01 -9.927986887174381e-02
1.507755102040800e+11 3.439897383979998e-01 -2.381402347390532e-01 -1.662627989997485e-01 -8.981480489638688e-01 2.312273245480106e-01 -8.696430398094545e-01 2.952968809666087e-01 -9.817402087940623e-02
1.508163265306100e+11 3.446233140682743e-01 -2.372508574169748e-01 -1.672233946563149e-01 -8.979553524847217e-01 2.316495903874283e-01 -8.694758468796938e-01 2.954200401993358e-01 -9.736149250203606e-02
1.508571428571400e+11 3.455031959414298e-01 -2.373570429149925e-01 -1.681872288087580e-01 -8.977604493895182e-01 2.320751135998331e-01 -8.693080510492676e-01 2.949459017210773e-01 -9.730628624672069e-02
1.508979591836700e+11 3.462616353229823e-01 -2.372077445895930e-01 -1.691543134296440e-01 -8.975633352110571e-01 2.325038425187454e-01 -8.691396456048078e-01 2.932520453224515e-01 -9.690697984327773e-02
1.509387755102000e+11 3.463645860227095e-01 -2.382171580565497e-01 -1.701246587099881e-01 -8.973640062599835e-01 2.329357244519071e-01 -8.689706235097200e-01 2.933348378301728e-01 -9.596097841012267e-02
1.509795918367300e+11 3.456206356067589e-01 -2.395970250977496e-01 -1.710982728822813e-01 -8.971624594580806e-01 2.333707060137836e-01 -8.688009772043579e-01 2.929811582730283e-01 -9.607808121132545e-02
1.510204081632700e+11 3.456546042489796e-01 -2.398627710501103e-01 -1.720751621514077e-01 -8.969586923944977e-01 2.338087331103531e-01 -8.686306986916033e-01 2.937527530805513e-01 -9.593788023678554e-02
1.510612244898000e+11 3.464746782978003e-01 -2.401227462832630e-01 -1.730553308752544e-01 -8.967527034092238e-01 2.342497508970872e-01 -8.684597794543907e-01 2.938529398007799e-01 -9.585467818008077e-02
1.511020408163300e+11 3.463034117968524e-01 -2.410502009081800e-01 -1.740387816228778e-01 -8.965444916725703e-01 2.346937038532663e-01 -8.682882106026596e-01 2.932821444454803e-01 -9.503004102653577e-02
1.511428571428600e+11 3.447288551053229e-01 -2.422989979306172e-01 -1.750255149943616e-01 -8.963340572628798e-01 2.351405357444001e-01 -8.681159829044754e-01 2.929650719998063e-01 -9.477007726562520e-02
1.511836734693900e+11 3.441789847125135e-01 -2.426025513576361e-01 -1.760155294489648e-01 -8.961214011472894e-01 2.355901897307761e-01 -8.679430868812485e-01 2.936726689595758e-01 -9.490870135989873e-02
1.512244897959200e+11 3.442938360919167e-01 -2.430273337890788e-01 -1.770088212567135e-01 -8.959065251182560e-01 2.360426081390607e-01 -8.677695129304552e-01 2.939230360220030e-01 -9.493001474994565e-02
1.512653061224500e+11 3.455601464654030e-01 -2.429564755901097e-01 -1.780053844607524e-01 -8.956894318698674e-01 2.364977322565987e-01 -8.675952514137413e-01 2.943343484225113e-01 -9.455693591201438e-02
1.513061224489800e+11 3.452575944609554e-01 -2.428605038391414e-01 -1.790052106892036e-01 -8.954701250017241e-01 2.369555022810069e-01 -8.674202927795817e-01 2.937846090786222e-01 -9.603443015809895e-02
1.513469387755100e+11 3.459033360370722e-01 -2.432536785861432e-01 -1.800082888100586e-01 -8.952486090063939e-01 2.374158575239126e-01 -8.672446276817476e-01 2.938488258037902e-01 -9.629906351201543e-02
1.513877551020400e+11 3.455218348511096e-01 -2.432040971609614e-01 -1.810146047651102e-01 -8.950248892916584e-01 2.378787363104302e-01 -8.670682470267362e-01 2.929106814955634e-01 -9.628566649074907e-02
1.514285714285700e+11 3.460978180953303e-01 -2.433321790769889e-01 -1.820241414312860e-01 -8.947989722943305e-01 2.383440760240404e-01 -8.668911420778276e-01 2.938318909241875e-01 -9.792348832670626e-02
1.514693877551000e+11 3.465918009897812e-01 -2.423013580191677e-01 -1.830368787197358e-01 -8.945708655006497e-01 2.388118131162605e-01 -8.667133043068286e-01 2.930535719719377e-01 -9.874036626309367e-02
1.515102040816300e+11 3.473576618552855e-01 -2.417846747946154e-01 -1.840527935789961e-01 -8.943405770910746e-01 2.392818830817649e-01 -8.665347258759396e-01 2.929499960497564e-01 -9.915457587191097e-02
1.515510204081600e+11 3.481756403222905e-01 -2.423906166841096e-01 -1.850718597744824e-01 -8.941081157820804e-01 2.397542204221444e-01 -8.663553994715062e-01 2.925050067964829e-01 -9.958464833450754e-02
1.515918367346900e+11 3.486714980062503e-01 -2.428385153145958e-01 -1.860940478572684e-01 -8.938734908179796e-01 2.402287590241105e-01 -8.661753180728955e-01 2.921989696242830e-01 -1.001953284842937e-01
1.516326530612200e+11 3.485611121585919e-01 -2.431346311752613e-01 -1.871193253440768e-01 -8.936367120330463e-01 2.407054325354865e-01 -8.659944749611362e-01 2.915913396450945e-01 -1.005791073085121e-01
1.516734693877600e+11 3.502343809710594e-01 -2.438903062944660e-01 -1.881476569753452e-01 -8.933977898659463e-01 2.411841745349492e-01 -8.658128637613096e-01 2.913313616545031e-01 -9.982469349384915e-02
1.517142857142900e+11 3.510612370680045e-01 -2.457476413741177e-01 -1.891790049421595e-01 -8.931567354324593e-01 2.416649187400818e-01 -8.656304782090681e-01 2.908149563260053e-01 -1.007689112486397e-01
1.517551020408200e+11 3.502004913003383e-01 -2.464971305378025e-01 -1.902133289960861e-01 -8.929135605568411e-01 2.421475996790011e-01 -8.654473122607244e-01 2.916580909887769e-01 -9.926416733304468e-02
1.517959183673500e+11 3.509249799622075e-01 -2.464967732480260e-01 -1.912505867996300e-01 -8.926682777663807e-01 2.426321525180980e-01 -8.652633602094715e-01 2.922909021291797e-01 -9.963639695219521e-02
1.518367346938800e+11 3.513436264308526e-01 -2.475963599539675e-01 -1.922907342019482e-01 -8.924209002375065e-01 2.431185134190841e-01 -8.650786169609724e-01 2.908462852354606e-01 -1.005089805666954e-01
1.518775510204100e+11 3.518741473876795e-01 -2.476817872951096e-01 -1.933337250113422e-01 -8.921714419219877e-01 2.436066191402729e-01 -8.648930779576623e-01 2.905986841526927e-01 -9.938109586715696e-02
1.519183673469400e+11 3.496301314922037e-01 -2.493853612463736e-01 -1.943795109889314e-01 -8.919199173617766e-01 2.440964071712835e-01 -8.647067391025963e-01 2.905017656240143e-01 -9.959227165148163e-02
1.519591836734700e+11 3.485612963022596e-01 -2.505458530320152e-01 -1.954280413127514e-01 -8.916663417225127e-01 2.445878160171564e-01 -8.645195968548551e-01 2.897930330128530e-01 -9.977491131366810e-02
1.520000000000000e+11 3.490960637744447e-01 -2.519448944107520e-01 -1.964792627147056e-01 -8.914107309229027e-01 2.450807847463838e-01 -8.643316482344731e-01 2.903230616452898e-01 -1.012085417822257e-01
1.520408163265300e+11 3.481117970688332e-01 -2.520714888113052e-01 -1.975331196032034e-01 -8.911531016670410e-01 2.455752526026276e-01 -8.641428906133498e-01 2.903849025222483e-01 -1.006243983652304e-01
1.520816326530600e+11 3.468578278303490e-01 -2.497716574073253e-01 -1.985895542930904e-01 -8.908934718151144e-01 2.460711587134738e-01 -8.639533219254234e-01 2.905051739136491e-01 -1.010201967726479e-01
1.521224489795900e+11 3.477918100007977e-01 -2.511809633307787e-01 -1.996485067383618e-01 -8.906318604013106e-01 2.465684421275867e-01 -8.637629406443288e-01 2.900175699030553e-01 -1.030953946779477e-01
1.521632653061200e+11 3.475954220054380e-01 -2.532785177328033e-01 -2.007099141031464e-01 -8.903682874602943e-01 2.470670420448195e-01 -8.635717457695472e-01 2.885858768548616e-01 -1.043988875305993e-01
1.522040816326500e+11 3.457855746994148e-01 -2.511877244477853e-01 -2.017737107210996e-01 -8.901027741317434e-01 2.475668976442771e-01 -8.633797372315674e-01 2.887605775589876e-01 -1.044626777923034e-01
1.522448979591800e+11 3.471168562979474e-01 -2.513418241345312e-01 -2.028398283502268e-01 -8.898353426358464e-01 2.480679477271033e-01 -8.631869162196039e-01 2.887334630576870e-01 -1.051097119754529e-01
1.522857142857100e+11 3.469653752445138e-01 -2.507776391860361e-01 -2.039081960150249e-01 -8.895660160331528e-01 2.485701306058727e-01 -8.629932848402456e-01 2.886323257998831e-01 -1.067476077154401e-01
1.523265306122400e+11 3.484860735265313e-01 -2.512256141622990e-01 -2.049787399311843e-01 -8.892948183020859e-01 2.490733844557030e-01 -8.627988463628158e-01 2.876608366650693e-01 -1.080732814796529e-01
1.523673469387800e+11 3.496333675114103e-01 -2.507335959456068e-01 -2.060513835557136e-01 -8.890217742543030e-01 2.495776472440134e-01 -8.626036052983512e-01 2.879422728422247e-01 -1.081163868316449e-01
1.524081632653100e+11 3.487074913937085e-01 -2.535293748896940e-01 -2.071260478474195e-01 -8.887469094776087e-01 2.500828568559357e-01 -8.624075675169613e-01 2.875142391353396e-01 -1.076797935657103e-01
1.524489795918400e+11 3.488164063511817e-01 -2.527591795214261e-01 -2.082026511807819e-01 -8.884702505241477e-01 2.505889513747416e-01 -8.622107402326827e-01 2.877609039990360e-01 -1.080061497142660e-01
1.524897959183700e+11 3.489510357802845e-01 -2.541436858906437e-01 -2.092811099108244e-01 -8.881918246799412e-01 2.510958690714430e-01 -8.620131321560919e-01 2.870913731675948e-01 -1.087112569753815e-01
1.525306122449000e+11 3.478778402105882e-01 -2.536251779667419e-01 -2.103613386150655e-01 -8.879116598301972e-01 2.516035486891020e-01 -8.618147533418236e-01 2.871619124416829e-01 -1.094086540563480e-01
1.525714285714300e+11 3.480351301192410e-01 -2.557919859067294e-01 -2.114432505842912e-01 -8.876297843411519e-01 2.521119296194329e-01 -8.616156151470191e-01 2.856513958023771e-01 -1.101524645816774e-01
1.526122448979600e+11 3.469292588037639e-01 -2.564972006374127e-01 -2.125267581267948e-01 -8.873462268143825e-01 2.526209521118484e-01 -8.614157300946355e-01 2.844822121593152e-01 -1.100647686378870e-01
1.526530612244900e+11 3.458118721647532e-01 -2.564841421503631e-01 -2.136117731768707e-01 -8.870610161223211e-01 2.531305575814802e-01 -8.612151117116804e-01 2.845248140158825e-01 -1.090038370730625e-01
1.526938775510200e+11 3.460594244271736e-01 -2.579593874444953e-01 -2.146982075970530e-01 -8.867741811126343e-01 2.536406888403117e-01 -8.610137742726320e-01 2.827593924308667e-01 -1.092422614458778e-01
1.527346938775500e+11 3.448891561557126e-01 -2.582051509600330e-01 -2.157859731495317e-01 -8.864857503981942e-01 2.541512902101116e-01 -8.608117327702889e-01 2.821152601421616e-01 -1.088025993037885e-01
1.527755102040800e+11 3.451699787978792e-01 -2.580750237909716e-01 -2.168749816325097e-01 -8.861957526467867e-01 2.546623076537025e-01 -8.606090026792542e-01 2.811547745921132e-01 -1.089082562929394e-01
1.528163265306100e+11 3.447700877944090e-01 -2.574104436795092e-01 -2.179651450785321e-01 -8.859042165795806e-01 2.551736887492234e-01 -8.604055998349210e-01 2.805285474793303e-01 -1.087463308937989e-01
1.528571428571400e+11 3.439017467503084e-01 -2.577996056246165e-01 -2.190563757930142e-01 -8.856111709072467e-01 2.556853826819158e-01 -8.602015408022005e-01 2.805182088917407e-01 -1.083991117291206e-01
1.528979591836700e+11 3.434315463655287e-01 -2.587827901139856e-01 -2.201485862338590e-01 -8.853166443618891e-01 2.561973403653741e-01 -8.599968429945499e-01 2.789281381142240e-01 -1.101582362258819e-01
1.529387755102000e+11 3.432110244609674e-01 -2.573643265903084e-01 -2.212416889744608e-01 -8.850206656610239e-01 2.567095141454561e-01 -8.597915248206056e-01 2.777555650469141e-01 -1.122408438551317e-01
1.529795918367300e+11 3.437049574233368e-01 -2.562697899106586e-01 -2.223355969459652e-01 -8.847232633951617e-01 2.572218574609850e-01 -8.595856058153083e-01 2.764881608206065e-01 -1.144808786123068e-01
1.530204081632700e+11 3.436484367857346e-01 -2.558293364154738e-01 -2.234302233277957e-01 -8.844244659256889e-01 2.577343247072655e-01 -8.593791065748816e-01 2.758186264157136e-01 -1.152228062078470e-01
1.530612244898000e+11 3.428141519441497e-01 -2.566474794026912e-01 -2.245254814548512e-01 -8.841243015183339e-01 2.582468712831175e-01 -8.591720487378089e-01 2.745141596701334e-01 -1.156862872151354e-01
1.531020408163300e+11 3.424830794882627e-01 -2.570622219466611e-01 -2.256212846345851e-01 -8.838227984643823e-01 2.587594537038403e-01 -8.589644547704394e-01 2.723981614357509e-01 -1.170424337442099e-01
1.531428571428600e+11 3.435749311812907e-01 -2.579819798287137e-01 -2.267175462055971e-01 -8.835199850411674e-01 2.592720292117807e-01 -8.587563481074134e-01 2.710803588917730e-01 -1.187209522094739e-01
1.531836734693900e+11 3.425247154437868e-01 -2.555309892791748e-01 -2.278141796798896e-01 -8.832158893476881e-01 2.597845554196635e-01 -8.585477534267879e-01 2.714047020021250e-01 -1.204806553695667e-01
1.532244897959200e+11 3.433115973720174e-01 -2.566653692221371e-01 -2.289110992119428e-01 -8.829105394557526e-01 2.602969904846711e-01 -8.583386964997930e-01 2.707600760767096e-01 -1.209665553811597e-01
1.532653061224500e+11 3.435357446105651e-01 -2.557525031812017e-01 -2.300082197292941e-01 -8.826039633633971e-01 2.608092934482831e-01 -8.581292036796883e-01 2.695721099197962e-01 -1.218731789103413e-01
1.533061224489800e+11 3.434550140846758e-01 -2.557162580203476e-01 -2.311054571948463e-01 -8.822961891748966e-01 2.613214240595368e-01 -8.579193023917266e-01 2.689965829177727e-01 -1.216639729414027e-01
1.533469387755100e+11 3.438356428550423e-01 -2.555137867664680e-01 -2.322027290888409e-01 -8.819872451153561e-01 2.618333428655565e-01 -8.577090208973142e-01 2.686402858864484e-01 -1.234808052149865e-01
1.533877551020400e+11 3.436807336991438e-01 -2.553130817760728e-01 -2.332999545978376e-01 -8.816771596210740e-01 2.623450114612043e-01 -8.574983882126892e-01 2.672663149897294e-01 -1.249519941559967e-01
1.534285714285700e+11 3.435292246050344e-01 -2.565354676221390e-01 -2.343970546630699e-01 -8.813659612117857e-01 2.628563926124207e-01 -8.572874339359816e-01 2.660255729236288e-01 -1.257684524376869e-01
1.534693877551000e+11 3.442931177289837e-01 -2.567574815661543e-01 -2.354939524558567e-01 -8.810536784216355e-01 2.633674502122831e-01 -8.570761882059721e-01 2.666719919825853e-01 -1.255359514001302e-01
1.535102040816300e+11 3.434689243586198e-01 -2.571013342613590e-01 -2.365905738425539e-01 -8.807403398577919e-01 2.638781490532064e-01 -8.568646821303938e-01 2.668104374818326e-01 -1.271988988576652e-01
1.535510204081600e+11 3.444005310253492e-01 -2.552561636991530e-01 -2.376868477701852e-01 -8.804259743050362e-01 2.643884551659035e-01 -8.566529473112683e-01 2.678478287125691e-01 -1.292572343885922e-01
1.535918367346900e+11 3.448406136547466e-01 -2.552374057231499e-01 -2.387827066820201e-01 -8.801106106301659e-01 2.648983359324083e-01 -8.564410157611394e-01 2.680225661171979e-01 -1.320640474693294e-01
1.536326530612200e+11 3.463139632190386e-01 -2.543374395763474e-01 -2.398780861357593e-01 -8.797942776390499e-01 2.654077603532635e-01 -8.562289196728069e-01 2.693500619326128e-01 -1.329040991140899e-01
1.536734693877600e+11 3.461774724560668e-01 -2.540838784694239e-01 -2.409729250202797e-01 -8.794770040274734e-01 2.659166987595253e-01 -8.560166914929376e-01 2.688065366596897e-01 -1.325738125351325e-01
1.537142857142900e+11 3.470280891334391e-01 -2.552535758385620e-01 -2.420671650327518e-01 -8.791588182001030e-01 2.664251227983865e-01 -8.558043638404557e-01 2.678419546046462e-01 -1.339780889767611e-01
1.537551020408200e+11 3.466560914742622e-01 -2.533241365913266e-01 -2.431607505991918e-01 -8.788397483649337e-01 2.669330052419253e-01 -8.555919697946153e-01 2.697927573784333e-01 -1.347881953986395e-01
1.537959183673500e+11 3.458603040770862e-01 -2.543958575605367e-01 -2.442536291868409e-01 -8.785198229384111e-01 2.674403197016333e-01 -8.553795435747363e-01 2.690902876168968e-01 -1.365266716648861e-01
1.538367346938800e+11 3.466262857270665e-01 -2.549718367452571e-01 -2.453457510881354e-01 -8.781990698118658e-01 2.679470408234992e-01 -8.551671201539667e-01 2.700040607189911e-01 -1.369801429975820e-01
1.538775510204100e+11 3.476810970032702e-01 -2.539226872049038e-01 -2.464370698954750e-01 -8.778775164999980e-01 2.684531436461161e-01 -8.549547353339070e-01 2.722144572029687e-01 -1.348070922867882e-01
1.539183673469400e+11 3.484262719792687e-01 -2.542592818919237e-01 -2.475275428811000e-01 -8.775551904315362e-01 2.689586038902866e-01 -8.547424256857036e-01 2.718067322741664e-01 -1.365715254532520e-01
1.539591836734700e+11 3.481520458610731e-01 -2.553217315612855e-01 -2.486171299440927e-01 -8.772321184691870e-01 2.694633981486959e-01 -8.545302284853480e-01 2.706042555487693e-01 -1.390231704354995e-01
1.540000000000000e+11 3.480610210948124e-01 -2.557074181874600e-01 -2.497057939965957e-01 -8.769083271956729e-01 2.699675039105582e-01 -8.543181818983547e-01 2.708654944695914e-01 -1.379254541968126e-01
1.540408163265300e+11 3.486299458344701e-01 -2.554475847507130e-01 -2.507935013996379e-01 -8.765838429138871e-01 2.704708990778792e-01 -8.541063252026625e-01 2.721285644802740e-01 -1.358708155335379e-01
1.540816326530600e+11 3.505259452119771e-01 -2.555462020657792e-01 -2.518802216893960e-01 -8.762586911331178e-01 2.709735621118616e-01 -8.538946990394846e-01 2.732746463331892e-01 -1.365196371600897e-01
1.541224489795900e+11 3.509935032376654e-01 -2.553447513171053e-01 -2.529659274044871e-01 -8.759328964814957e-01 2.714754726698820e-01 -8.536833451245170e-01 2.733898168599164e-01 -1.364866560624490e-01
1.541632653061200e+11 3.500501904444113e-01 -2.567981006908007e-01 -2.540505940878692e-01 -8.756064826841850e-01 2.719766115890199e-01 -8.534723062724838e-01 2.724016489467060e-01 -1.377115177311543e-01
1.542040816326500e+11 3.501992847357381e-01 -2.588323290173838e-01 -2.551342001260319e-01 -8.752794724230324e-01 2.724769612492974e-01 -8.532616263725341e-01 2.709618018488998e-01 -1.380620171417727e-01
1.542448979591800e+11 3.486211731077442e-01 -2.593110998432280e-01 -2.562167272497093e-01 -8.749518871402151e-01 2.729765056292250e-01 -8.530513505239986e-01 2.699355208005256e-01 -1.380450967347679e-01
1.542857142857100e+11 3.495464224112273e-01 -2.593362681144560e-01 -2.572981608657129e-01 -8.746237472342735e-01 2.734752302528037e-01 -8.528415251854896e-01 2.694109578686266e-01 -1.396481443446390e-01
1.543265306122400e+11 3.495683771234832e-01 -2.595619488619463e-01 -2.583784899478911e-01 -8.742950719938972e-01 2.739731219267115e-01 -8.526321980772749e-01 2.693660077389656e-01 -1.412753185933151e-01
1.543673469387800e+11 3.498479290654175e-01 -2.593665619935650e-01 -2.594577070295154e-01 -8.739658800018594e-01 2.744701690285542e-01 -8.524234184184015e-01 2.688180437566605e-01 -1.427318185058239e-01
1.544081632653100e+11 3.489412498087947e-01 -2.599792136384268e-01 -2.605358078930702e-01 -8.736361892937453e-01 2.749663613970492e-01 -8.522152368653818e-01 2.669881263913187e-01 -1.460329367918278e-01
1.544489795918400e+11 3.496063621445628e-01 -2.591442066878940e-01 -2.616127914149605e-01 -8.733060174029731e-01 2.754616902152665e-01 -8.520077056120309e-01 2.671725776813250e-01 -1.491071965199213e-01
1.544897959183700e+11 3.500691068669100e-01 -2.583721864193286e-01 -2.626886593963360e-01 -8.729753814609815e-01 2.759561473473979e-01 -8.518008785301849e-01 2.669724666577609e-01 -1.510665152726239e-01
1.545306122449000e+11 3.507830791616554e-01 -2.579987707643030e-01 -2.637634162152396e-01 -8.726442982918243e-01 2.764497252120806e-01 -8.515948110538321e-01 2.664715227393010e-01 -1.533993016000084e-01
1.545714285714300e+11 3.515545774347965e-01 -2.571480101565207e-01 -2.648370685790225e-01 -8.723127845035329e-01 2.769424167142854e-01 -8.513895600293119e-01 2.666071943730733e-01 -1.562670724080030e-01
1.546122448979600e+11 3.516807142173905e-01 -2.568971398768163e-01 -2.659096251360968e-01 -8.719808568192676e-01 2.774342150052357e-01 -8.511851837650696e-01 2.667213325293743e-01 -1.585980020411631e-01
1.546530612244900e+11 3.518333545787483e-01 -2.579841693935419e-01 -2.669810963710652e-01 -8.716485322900482e-01 2.779251133738687e-01 -8.509817419228540e-01 2.656495999160389e-01 -1.614349841092228e-01
1.546938775510200e+11 3.523049550062036e-01 -2.575223370358337e-01 -2.680514945362852e-01 -8.713158282207518e-01 2.784151047481994e-01 -8.507792954468693e-01 2.653027303158354e-01 -1.635522146684537e-01
1.547346938775500e+11 3.524931703206910e-01 -2.574478487666161e-01 -2.691208338145958e-01 -8.709827622629772e-01 2.789041815667295e-01 -8.505779068081261e-01 2.653096163314089e-01 -1.650463723712102e-01
1.547755102040800e+11 3.529496491983834e-01 -2.569405883030416e-01 -2.701891301529988e-01 -8.706493525127957e-01 2.793923355556182e-01 -8.503776401270671e-01 2.678269806331110e-01 -1.675129702260843e-01
1.548163265306100e+11 3.539552065930767e-01 -2.549328570122310e-01 -2.712564012434929e-01 -8.703156174433277e-01 2.798795578463480e-01 -8.501785611995523e-01 2.707010590639861e-01 -1.703436349836158e-01
1.548571428571400e+11 3.543321567617568e-01 -2.546214104550094e-01 -2.723226665962168e-01 -8.699815757905390e-01 2.803658392106462e-01 -8.499807372808277e-01 2.718661745927882e-01 -1.728505768847727e-01
1.548979591836700e+11 3.515282038237664e-01 -2.556121392084315e-01 -2.733879475186162e-01 -8.696472462518814e-01 2.808511704516982e-01 -8.497842367159250e-01 2.702785944513928e-01 -1.747809077326721e-01
1.549387755102000e+11 3.525176193568763e-01 -2.566183940013346e-01 -2.744522680742247e-01 -8.693126473974150e-01 2.813355428121129e-01 -8.495891285650464e-01 2.697724098463606e-01 -1.762956166253610e-01
1.549795918367300e+11 3.532865102519333e-01 -2.564928679462903e-01 -2.755156559519699e-01 -8.689777972107757e-01 2.818189480515854e-01 -8.493954825184042e-01 2.720624876945527e-01 -1.765104359940258e-01
1.550204081632700e+11 3.579208649846772e-01 -2.422687012015560e-01 -2.765781428616195e-01 -8.686427134482392e-01 2.823013791808635e-01 -8.492033692762362e-01 2.919972333980047e-01 -1.858473219054112e-01
1.550612244898000e+11 3.551028589035601e-01 -2.470152447468242e-01 -2.776397647874562e-01 -8.683074137012793e-01 2.827828304613876e-01 -8.490128602746351e-01 2.966948428746334e-01 -1.836662314471254e-01
1.551020408163300e+11 3.568900369164262e-01 -2.442872383480096e-01 -2.787005615095073e-01 -8.679719141052921e-01 2.832632983515895e-01 -8.488240262387575e-01 3.000036718388828e-01 -1.872632259034635e-01
1.551428571428600e+11 3.590729775055787e-01 -2.423408834887573e-01 -2.797605763263765e-01 -8.676362291373023e-01 2.837427806232559e-01 -8.486369367665595e-01 3.010318645690430e-01 -1.918651194762769e-01
1.551836734693900e+11 3.599799743963753e-01 -2.423008641082254e-01 -2.808198560555404e-01 -8.673003712452635e-01 2.842212764847830e-01 -8.484516601967619e-01 3.029122853020524e-01 -1.903689421565963e-01
1.552244897959200e+11 3.613234976538735e-01 -2.424424487506321e-01 -2.818784511525959e-01 -8.669643508243061e-01 2.846987863547151e-01 -8.482682638755865e-01 3.061364358404765e-01 -1.918877459426623e-01
1.552653061224500e+11 3.628351521665435e-01 -2.408957244861634e-01 -2.829364153805030e-01 -8.666281763810477e-01 2.851753116538001e-01 -8.480868139420961e-01 3.093521252254643e-01 -1.904641320135562e-01
1.553061224489800e+11 3.621934223435272e-01 -2.407692727800519e-01 -2.839938050833289e-01 -8.662918551294222e-01 2.856508549182952e-01 -8.479073752296826e-01 3.110466460346832e-01 -1.904252425948951e-01
1.553469387755100e+11 3.624893629493103e-01 -2.415491655904999e-01 -2.850506780860801e-01 -8.659553929952184e-01 2.861254196103502e-01 -8.477300112940289e-01 3.106642521559173e-01 -1.913668392961012e-01
1.553877551020400e+11 3.631583060719895e-01 -2.417942168570431e-01 -2.861070933802167e-01 -8.656187944447409e-01 2.865990096147045e-01 -8.475547842511423e-01 3.111728165433124e-01 -1.903865658234893e-01
1.554285714285700e+11 3.644044774832706e-01 -2.414550457631917e-01 -2.871631106000692e-01 -8.652820627486403e-01 2.870716287024360e-01 -8.473817551155830e-01 3.131708783661633e-01 -1.880981350822301e-01
1.554693877551000e+11 3.636325153885351e-01 -2.418539520319448e-01 -2.882187893940650e-01 -8.649452004280541e-01 2.875432803081533e-01 -8.472109841469083e-01 3.132963263650224e-01 -1.885730655505785e-01
1.555102040816300e+11 3.634997779813656e-01 -2.425756957074453e-01 -2.892741885378410e-01 -8.646082096023976e-01 2.880139676558628e-01 -8.470425307756272e-01 3.135023521179937e-01 -1.898518024899227e-01
1.555510204081600e+11 3.642644920061923e-01 -2.427564573368684e-01 -2.903293656698931e-01 -8.642710919695007e-01 2.884836929659712e-01 -8.468764536894783e-01 3.147662064925656e-01 -1.896384092481522e-01
1.555918367346900e+11 3.648144055471310e-01 -2.423910375000938e-01 -2.913843771523348e-01 -8.639338489710130e-01 2.889524570106972e-01 -8.467128108989498e-01 3.164774285549496e-01 -1.894455061278539e-01
1.556326530612200e+11 3.629884267166483e-01 -2.436628596298438e-01 -2.924392779245725e-01 -8.635964818934638e-01 2.894202592749322e-01 -8.465516596937572e-01 3.143782423666543e-01 -1.898831237669287e-01
1.556734693877600e+11 3.627504902272693e-01 -2.446706711727291e-01 -2.934941213717564e-01 -8.632589917605378e-01 2.898870985159049e-01 -8.463930566431009e-01 3.151474718946370e-01 -1.928451569691026e-01
1.557142857142900e+11 3.642857542154905e-01 -2.444553978800073e-01 -2.945489599524584e-01 -8.629213791382471e-01 2.903529727238812e-01 -8.462370575506090e-01 3.179046977128281e-01 -1.933731962825965e-01
1.557551020408200e+11 3.650431006776153e-01 -2.432289404471127e-01 -2.956038458197252e-01 -8.625836443196476e-01 2.908178793179200e-01 -8.460837173951811e-01 3.190183358053783e-01 -1.934417298873478e-01
1.557959183673500e+11 3.646095455794201e-01 -2.433170418650869e-01 -2.966588306632684e-01 -8.622457874829097e-01 2.912818159707725e-01 -8.459330903104914e-01 3.190136432342344e-01 -1.937706935439249e-01
1.558367346938800e+11 3.630451598703723e-01 -2.443905975686963e-01 -2.977139658320625e-01 -8.619078084941473e-01 2.917447810182359e-01 -8.457852293606041e-01 3.183675092708165e-01 -1.965576825034811e-01
1.558775510204100e+11 3.636861815187476e-01 -2.439731583469503e-01 -2.987693027540002e-01 -8.615697068142490e-01 2.922067738830890e-01 -8.456401862364972e-01 3.203000064098291e-01 -1.958850791470235e-01
1.559183673469400e+11 3.652480609228916e-01 -2.433212607389982e-01 -2.998248937620123e-01 -8.612314811673990e-01 2.926677949353637e-01 -8.454980111993757e-01 3.239302224509841e-01 -1.972241102467303e-01
1.559591836734700e+11 3.661202624699516e-01 -2.419810429692874e-01 -3.008807922400091e-01 -8.608931295608810e-01 2.931278463167694e-01 -8.453587527144240e-01 3.253343933538389e-01 -1.989099406559033e-01
1.560000000000000e+11 3.646188671705748e-01 -2.415368680566177e-01 -3.019370527321716e-01 -8.605546493212829e-01 2.935869325703240e-01 -8.452224574583974e-01 3.246668170600153e-01 -1.992994030595071e-01
1.560408163265300e+11 3.643626059153821e-01 -2.415603516086333e-01 -3.029937310300541e-01 -8.602160369060016e-01 2.940450606704393e-01 -8.450891703542877e-01 3.250506725613027e-01 -2.013698247376762e-01
1.560816326530600e+11 3.636543556537629e-01 -2.412925917708116e-01 -3.040508841884810e-01 -8.598772874013022e-01 2.945022392751827e-01 -8.449589344861821e-01 3.238706157932521e-01 -2.024602860101648e-01
1.561224489795900e+11 3.658648691937472e-01 -2.397105843970491e-01 -3.051085707783533e-01 -8.595383946308658e-01 2.949584784279282e-01 -8.448317909454903e-01 3.259640633026654e-01 -2.015665778429823e-01
1.561632653061200e+11 3.676400452283803e-01 -2.386068054435567e-01 -3.061668505656415e-01 -8.591993508742167e-01 2.954137890692577e-01 -8.447077789091483e-01 3.298587673981658e-01 -2.020350484362976e-01
1.562040816326500e+11 3.690463808231115e-01 -2.385557539338625e-01 -3.072257837818134e-01 -8.588601469697282e-01 2.958681831012593e-01 -8.445869358169698e-01 3.333718003848803e-01 -2.015009374614396e-01
1.562448979591800e+11 3.679661462770117e-01 -2.399837874303323e-01 -3.082854302231001e-01 -8.585207724740819e-01 2.963216732639328e-01 -8.444692974532986e-01 3.337468516919735e-01 -2.023334559004755e-01
1.562857142857100e+11 3.695538982643494e-01 -2.391055562518116e-01 -3.093458485698346e-01 -8.581812160281277e-01 2.967742728706626e-01 -8.443548980596947e-01 3.360840745660551e-01 -1.994531933281484e-01
1.563265306122400e+11 3.715457306659664e-01 -2.389187788571025e-01 -3.104070961936986e-01 -8.578414654602414e-01 2.972259948543316e-01 -8.442437707613817e-01 3.406854489456423e-01 -1.957569720881397e-01
1.563673469387800e+11 3.719015183661692e-01 -2.397282755045890e-01 -3.114692284621520e-01 -8.575015079284634e-01 2.976768514609685e-01 -8.441359478100559e-01 3.433865147877365e-01 -1.930409050390754e-01
1.564081632653100e+11 3.698412287832040e-01 -2.402571643090509e-01 -3.125322976803921e-01 -8.571613303015783e-01 2.981268540114936e-01 -8.440314604818087e-01 3.406386069263526e-01 -1.947019822133832e-01
1.564489795918400e+11 3.694982799819408e-01 -2.404911415500866e-01 -3.135963521060123e-01 -8.568209196178336e-01 2.985760120991909e-01 -8.439303389497270e-01 3.411858619532516e-01 -1.918834431088593e-01
1.564897959183700e+11 3.702581012589868e-01 -2.400183523950219e-01 -3.146614361223687e-01 -8.564802627970746e-01 2.990243324755753e-01 -8.438326125219969e-01 3.413912071324910e-01 -1.897419381866150e-01
1.565306122449000e+11 3.704513244709192e-01 -2.407314328272613e-01 -3.157275902776571e-01 -8.561393464229397e-01 2.994718191298644e-01 -8.437383091960349e-01 3.427841304542729e-01 -1.878689892647096e-01
1.565714285714300e+11 3.695991156664284e-01 -2.414209995196885e-01 -3.167948513816233e-01 -8.557981568096478e-01 2.999184736791237e-01 -8.436474554183144e-01 3.424351351734416e-01 -1.856919231583457e-01
1.566122448979600e+11 3.683361559223826e-01 -2.415211537783991e-01 -3.178632527158614e-01 -8.554566799810810e-01 3.003642959091709e-01 -8.435600759615615e-01 3.426153050651665e-01 -1.842305606435923e-01
1.566530612244900e+11 3.674790768302282e-01 -2.418999672092247e-01 -3.189328240088511e-01 -8.551149014284408e-01 3.008092837186785e-01 -8.434761939303140e-01 3.418360767913706e-01 -1.817846940616041e-01
1.566938775510200e+11 3.666313536136942e-01 -2.434836831105009e-01 -3.200035918203203e-01 -8.547728059976685e-01 3.012534329177526e-01 -8.433958305317245e-01 3.433148913471751e-01 -1.809762085401778e-01
1.567346938775500e+11 3.670972816799447e-01 -2.435364781156386e-01 -3.210755798668353e-01 -8.544303776310127e-01 3.016967373151225e-01 -8.433190047689175e-01 3.459698936173194e-01 -1.773478678629888e-01
1.567755102040800e+11 3.687860607616914e-01 -2.437633905786582e-01 -3.221488096220840e-01 -8.540875996684705e-01 3.021391891946509e-01 -8.432457332312997e-01 3.516064870858110e-01 -1.739520027064116e-01
1.568163265306100e+11 3.710930912717624e-01 -2.444765452337969e-01 -3.232233002108828e-01 -8.537444547784722e-01 3.025807800428083e-01 -8.431760297201500e-01 3.569001636389717e-01 -1.710103154488361e-01
1.568571428571400e+11 3.706889800837379e-01 -2.465710542609745e-01 -3.242990676817126e-01 -8.534009249567552e-01 3.030215014948128e-01 -8.431099053926082e-01 3.597634137013350e-01 -1.749164040161391e-01
1.568979591836700e+11 3.688614539634176e-01 -2.475719214737468e-01 -3.253761242716839e-01 -8.530569919290548e-01 3.034613462626051e-01 -8.430473688846345e-01 3.572096991994121e-01 -1.798501771747581e-01
1.569387755102000e+11 3.679460263745477e-01 -2.470831029238316e-01 -3.264544785915922e-01 -8.527126377246289e-01 3.039003084635745e-01 -8.429884269335559e-01 3.525041106659518e-01 -1.792736396409544e-01
1.569795918367300e+11 3.675987971839410e-01 -2.463507867344243e-01 -3.275341364448121e-01 -8.523678448918830e-01 3.043383832989222e-01 -8.429330847940069e-01 3.494550470145861e-01 -1.814931047544450e-01
1.570204081632700e+11 3.673505283040944e-01 -2.459412746673158e-01 -3.286151009575565e-01 -8.520225960067698e-01 3.047755664591620e-01 -8.428813461941574e-01 3.483315365765686e-01 -1.788683520212309e-01
1.570612244898000e+11 3.678633060475642e-01 -2.467977644069157e-01 -3.296973725875946e-01 -8.516768734059875e-01 3.052118534398993e-01 -8.428332135973430e-01 3.497251889563560e-01 -1.777619356322528e-01
1.571020408163300e+11 3.682627310635127e-01 -2.471560061431780e-01 -3.307809489566442e-01 -8.513306588077099e-01 3.056472392394348e-01 -8.427886879382658e-01 3.495983334358247e-01 -1.756053868159322e-01
1.571428571428600e+11 3.666166050088095e-01 -2.479378593844982e-01 -3.318658243276243e-01 -8.509839336086786e-01 3.060817184121457e-01 -8.427477688107921e-01 3.467866037746217e-01 -1.784385365415602e-01
1.571836734693900e+11 3.670942819582786e-01 -2.477362088415041e-01 -3.329519889209550e-01 -8.506366790799091e-01 3.065152845004796e-01 -8.427104546025765e-01 3.474866580711998e-01 -1.765766350753068e-01
1.572244897959200e+11 3.685222954843515e-01 -2.482339324969738e-01 -3.340394292680193e-01 -8.502888764269014e-01 3.069479290364835e-01 -8.426767427172285e-01 3.506165709317370e-01 -1.708275403396512e-01
1.572653061224500e+11 3.676330196427921e-01 -2.498084351701458e-01 -3.351281276823708e-01 -8.499405066569403e-01 3.073796412339239e-01 -8.426466292862694e-01 3.530145560811231e-01 -1.709335933601343e-01
1.573061224489800e+11 3.683075661363889e-01 -2.506307182418531e-01 -3.362180614520179e-01 -8.495915505350464e-01 3.078104081724329e-01 -8.426201085930939e-01 3.550164423293571e-01 -1.689839069252698e-01
1.573469387755100e+11 3.668105779876940e-01 -2.519579659120496e-01 -3.373092025424144e-01 -8.492419887654239e-01 3.082402145110432e-01 -8.425971732610549e-01 3.565152399914239e-01 -1.681824125595764e-01
1.573877551020400e+11 3.665232285341840e-01 -2.527480590182554e-01 -3.384015173813888e-01 -8.488918022261634e-01 3.086690428964472e-01 -8.425778141686543e-01 3.588126125141909e-01 -1.679117300537659e-01
1.574285714285700e+11 3.662771386275931e-01 -2.531722228768957e-01 -3.394949671058224e-01 -8.485409719646965e-01 3.090968741430060e-01 -8.425620205418588e-01 3.604729769833173e-01 -1.685691023403719e-01
1.574693877551000e+11 3.655418004523590e-01 -2.545358316393959e-01 -3.405895076584178e-01 -8.481894794765539e-01 3.095236875815258e-01 -8.425497801125843e-01 3.616588936729057e-01 -1.660204074927217e-01
1.575102040816300e+11 3.655193027927097e-01 -2.543464816414415e-01 -3.416850898532637e-01 -8.478373069347326e-01 3.099494611890862e-01 -8.425410791130169e-01 3.621151069092857e-01 -1.624705338407930e-01
1.575510204081600e+11 3.627903716313060e-01 -2.553982748918335e-01 -3.427816598139815e-01 -8.474844372342997e-01 3.103741719363771e-01 -8.425359018675380e-01 3.628221954377652e-01 -1.644646405031542e-01
1.575918367346900e+11 3.624428394922157e-01 -2.558244466535491e-01 -3.438791593903340e-01 -8.471308538450093e-01 3.107977963545726e-01 -8.425342303490908e-01 3.641994201463954e-01 -1.654947861630031e-01
1.576326530612200e+11 3.629610591834260e-01 -2.563868528037673e-01 -3.449775266396613e-01 -8.467765408587655e-01 3.112203102583896e-01 -8.425360444465742e-01 3.664038718594659e-01 -1.654339785204041e-01
1.576734693877600e+11 3.618711154555069e-01 -2.559792734596753e-01 -3.460766962964145e-01 -8.464214832745951e-01 3.116416891365866e-01 -8.425413218956473e-01 3.659948094662645e-01 -1.664116938101523e-01
1.577142857142900e+11 3.622122318661880e-01 -2.558955261375478e-01 -3.471766000606002e-01 -8.460656672649898e-01 3.120619086227057e-01 -8.425500385283237e-01 3.662212957921861e-01 -1.652880657290048e-01
1.577551020408200e+11 3.613991753757049e-01 -2.557239479214962e-01 -3.482771669460976e-01 -8.457090799695307e-01 3.124809444822996e-01 -8.425621683887746e-01 3.651587506117207e-01 -1.636168640926249e-01
1.577959183673500e+11 3.617118509122325e-01 -2.550144891263398e-01 -3.493783234067662e-01 -8.453517092723553e-01 3.128987727428509e-01 -8.425776839233419e-01 3.647203589409250e-01 -1.640876348983493e-01
1.578367346938800e+11 3.624243244846716e-01 -2.551883681505595e-01 -3.504799936294697e-01 -8.449935433063083e-01 3.133153695228615e-01 -8.425965557773885e-01 3.655301724766379e-01 -1.625268622320983e-01
1.578775510204100e+11 3.619783335391265e-01 -2.568524625114014e-01 -3.515820996638114e-01 -8.446345703730369e-01 3.137307109733626e-01 -8.426187529022441e-01 3.649466238285434e-01 -1.614975340583364e-01
1.579183673469400e+11 3.619449483374205e-01 -2.576302751361170e-01 -3.526845612729141e-01 -8.442747790526630e-01 3.141447732057686e-01 -8.426442426422034e-01 3.637750202598092e-01 -1.614119654693120e-01
1.579591836734700e+11 3.635339178739309e-01 -2.576060224397527e-01 -3.537872961117818e-01 -8.439141582526450e-01 3.145575320356244e-01 -8.426729908493528e-01 3.630665177596029e-01 -1.616688462758917e-01
1.580000000000000e+11 3.649950918158179e-01 -2.581468722421210e-01 -3.548902196629969e-01 -8.435526972865731e-01 3.149689627218100e-01 -8.427049618343543e-01 3.639998170093365e-01 -1.572485988583434e-01
1.580408163265300e+11 3.636158435637586e-01 -2.604800325460147e-01 -3.559932447473779e-01 -8.431903862092430e-01 3.153790397414425e-01 -8.427401184643345e-01 3.649660487834734e-01 -1.571127468684284e-01
1.580816326530600e+11 3.611386594809768e-01 -2.630043214552237e-01 -3.570962811046121e-01 -8.428272159112351e-01 3.157877369114054e-01 -8.427784219173717e-01 3.647209187082101e-01 -1.608593833272786e-01
1.581224489795900e+11 3.608480741929079e-01 -2.631605189977823e-01 -3.581992354271576e-01 -8.424631783583265e-01 3.161950269105580e-01 -8.428198318570386e-01 3.610821845902570e-01 -1.600209853646352e-01
1.581632653061200e+11 3.611956647886416e-01 -2.639690728141783e-01 -3.593020119592286e-01 -8.420982667894341e-01 3.166008808700299e-01 -8.428643067836562e-01 3.680436013482518e-01 -1.590671477808969e-01
1.582040816326500e+11 3.561915999527770e-01 -2.647235953536355e-01 -3.604045125212090e-01 -8.417324752202735e-01 3.170052682502615e-01 -8.429118040561090e-01 3.645535141874611e-01 -1.698048746416264e-01
1.582448979591800e+11 3.528871121928429e-01 -2.660355001884808e-01 -3.615066361065910e-01 -8.413657995704242e-01 3.174081573995592e-01 -8.429622799858100e-01 3.590743986491807e-01 -1.703751021013283e-01
1.582857142857100e+11 3.520449919638219e-01 -2.685556579010916e-01 -3.626082802838970e-01 -8.409982374640194e-01 3.178095147401156e-01 -8.430156907304995e-01 3.601431787940899e-01 -1.723868266176563e-01
1.583265306122400e+11 3.503192583461543e-01 -2.700477020371673e-01 -3.637093421983605e-01 -8.406297878683503e-01 3.182093046135302e-01 -8.430719919194999e-01 3.619754782120165e-01 -1.738820763896018e-01
1.583673469387800e+11 3.544894966814190e-01 -2.677256944380143e-01 -3.648097190294277e-01 -8.402604510222134e-01 3.186074897701241e-01 -8.431311391097228e-01 3.569153189258181e-01 -1.620139849226447e-01
1.584081632653100e+11 3.541156627766157e-01 -2.672606133566939e-01 -3.659093088842708e-01 -8.398902284191183e-01 3.190040316758484e-01 -8.431930878442421e-01 3.550975977050655e-01 -1.607620846912814e-01
1.584489795918400e+11 3.530619247312382e-01 -2.673483254706853e-01 -3.670080087265466e-01 -8.395191222382118e-01 3.193988910329241e-01 -8.432577929860192e-01 3.551032150688443e-01 -1.644400247292160e-01
1.584897959183700e+11 3.535154320738806e-01 -2.682914455051196e-01 -3.681057144837077e-01 -8.391471349555724e-01 3.197920280188953e-01 -8.433252084523363e-01 3.573476633635731e-01 -1.615440134931558e-01
1.585306122449000e+11 3.540497556368843e-01 -2.680597731237779e-01 -3.692023215471588e-01 -8.387742693080742e-01 3.201834020822012e-01 -8.433952874832774e-01 3.565525481532866e-01 -1.609645324000782e-01
1.585714285714300e+11 3.549294835704287e-01 -2.688038445954629e-01 -3.702977246828477e-01 -8.384005286005956e-01 3.205729722964688e-01 -8.434679825408622e-01 3.556737876267796e-01 -1.573463737921570e-01
1.586122448979600e+11 3.553338797504432e-01 -2.693321387424446e-01 -3.713918182547388e-01 -8.380259164843707e-01 3.209606975101145e-01 -8.435432451423786e-01 3.556922353454087e-01 -1.571789922130612e-01
1.586530612244900e+11 3.562904328870038e-01 -2.698479083320268e-01 -3.724844959903156e-01 -8.376504368269702e-01 3.213465367662924e-01 -8.436210255496972e-01 3.540827360459767e-01 -1.555023039652485e-01
1.586938775510200e+11 3.579528826238121e-01 -2.709868548364298e-01 -3.735756513417427e-01 -8.372740936450896e-01 3.217304494192935e-01 -8.437012727297674e-01 3.548340958161049e-01 -1.532937407274116e-01
1.587346938775500e+11 3.584113566427871e-01 -2.709088861226290e-01 -3.746651774069366e-01 -8.368968909703163e-01 3.221123950390775e-01 -8.437839342459985e-01 3.539811061482315e-01 -1.515372238899420e-01
1.587755102040800e+11 3.566052258484258e-01 -2.731839609393453e-01 -3.757529665755774e-01 -8.365188330669042e-01 3.224923335139531e-01 -8.438689562614734e-01 3.536290152342121e-01 -1.513430723080462e-01
1.588163265306100e+11 3.547670515859455e-01 -2.751774484356137e-01 -3.768389103490223e-01 -8.361399243031479e-01 3.228702250000135e-01 -8.439562833858797e-01 3.536770638136006e-01 -1.538935227803477e-01
1.588571428571400e+11 3.525379259267230e-01 -2.764519416450779e-01 -3.779228997542378e-01 -8.357601689541664e-01 3.232460295856264e-01 -8.440458588233066e-01 3.546163809734517e-01 -1.592461898194323e-01
1.588979591836700e+11 3.528304288759809e-01 -2.771432347243973e-01 -3.790048256888028e-01 -8.353795713322452e-01 3.236197068600090e-01 -8.441376246252602e-01 3.572030187843688e-01 -1.604453363504063e-01
1.589387755102000e+11 3.498576396071155e-01 -2.789379465626647e-01 -3.800845792174582e-01 -8.349981359828964e-01 3.239912152689906e-01 -8.442315223574544e-01 3.582102989374238e-01 -1.634499874592388e-01
1.589795918367300e+11 3.460838252332801e-01 -2.809779043975776e-01 -3.811620516717257e-01 -8.346158680525095e-01 3.243605123641736e-01 -8.443274931937579e-01 3.605049846404395e-01 -1.668343105564938e-01
1.590204081632700e+11 3.442834709473851e-01 -2.832323140211547e-01 -3.822371355400204e-01 -8.342327733050490e-01 3.247275546443831e-01 -8.444254779796816e-01 3.579514258482377e-01 -1.610989537388623e-01
1.590612244898000e+11 3.454782780497459e-01 -2.847910536774115e-01 -3.833097257119381e-01 -8.338488583230224e-01 3.250922973741992e-01 -8.445254174844702e-01 3.542821449660473e-01 -1.548824232004681e-01
1.591020408163300e+11 3.460101612390113e-01 -2.842589213769228e-01 -3.843797192433280e-01 -8.334641304263053e-01 3.254546949993898e-01 -8.446272521887841e-01 3.533057877163044e-01 -1.556025194791071e-01
1.591428571428600e+11 3.448452838180244e-01 -2.849712502381967e-01 -3.854470149285315e-01 -8.330785975965419e-01 3.258147018498614e-01 -8.447309221007373e-01 3.529639425506999e-01 -1.596740460534113e-01
1.591836734693900e+11 3.430122082574807e-01 -2.855274294799585e-01 -3.865115134024850e-01 -8.326922684211613e-01 3.261722724320813e-01 -8.448363667424967e-01 3.523762590220426e-01 -1.607454912501476e-01
1.592244897959200e+11 3.432577063312747e-01 -2.850181239321413e-01 -3.875731176122114e-01 -8.323051518185809e-01 3.265273611342746e-01 -8.449435252969024e-01 3.510275110148275e-01 -1.601312229410812e-01
1.592653061224500e+11 3.429378748873648e-01 -2.856418551548361e-01 -3.886317332942060e-01 -8.319172566919514e-01 3.268799224287042e-01 -8.450523366490885e-01 3.491109095075710e-01 -1.611247510585140e-01
1.593061224489800e+11 3.446674164010803e-01 -2.859337293967248e-01 -3.896872692962668e-01 -8.315285917157683e-01 3.272299112869232e-01 -8.451627393554041e-01 3.483698267120940e-01 -1.634648441933408e-01
1.593469387755100e+11 3.457615007357305e-01 -2.891769338424471e-01 -3.907396378412907e-01 -8.311391653101059e-01 3.275772832908096e-01 -8.452746717838424e-01 3.469819751203842e-01 -1.650793452947717e-01
1.593877551020400e+11 3.437471792213824e-01 -2.892846148086037e-01 -3.917887544411294e-01 -8.307489859601285e-01 3.279219948340998e-01 -8.453880722186708e-01 3.446590393987077e-01 -1.655278050060011e-01
1.594285714285700e+11 3.436527767088520e-01 -2.902351461934381e-01 -3.928345382542260e-01 -8.303580626009739e-01 3.282640031954726e-01 -8.455028790352657e-01 3.425928311112068e-01 -1.651085286459399e-01
1.594693877551000e+11 3.441980349179704e-01 -2.901177534005057e-01 -3.938769123100169e-01 -8.299664043580135e-01 3.286032661067528e-01 -8.456190305300868e-01 3.397293667813465e-01 -1.644138970551194e-01
1.595102040816300e+11 3.441355217615678e-01 -2.908722743761724e-01 -3.949158033248143e-01 -8.295740204791799e-01 3.289397418844234e-01 -8.457364650228771e-01 3.372985851673627e-01 -1.621986939647485e-01
1.595510204081600e+11 3.453600335995810e-01 -2.900750584060512e-01 -3.959511413155779e-01 -8.291809202654928e-01 3.292733895204945e-01 -8.458551208801927e-01 3.352436463138123e-01 -1.612061803483909e-01
1.595918367346900e+11 3.464199886306875e-01 -2.903141041751782e-01 -3.969828591442272e-01 -8.287871130683147e-01 3.296041686171458e-01 -8.459749365016886e-01 3.338972111582118e-01 -1.610569101235464e-01
1.596326530612200e+11 3.470782226993236e-01 -2.909350545007345e-01 -3.980108917272082e-01 -8.283926083627164e-01 3.299320393726753e-01 -8.460958502154915e-01 3.324733258581240e-01 -1.632531754678345e-01
1.596734693877600e+11 3.475721711554555e-01 -2.919694527735457e-01 -3.990351755175394e-01 -8.279974158372000e-01 3.302569626412437e-01 -8.462178001997305e-01 3.324382263317011e-01 -1.639642671799623e-01
1.597142857142900e+11 3.474116186822697e-01 -2.930299628165913e-01 -4.000556482708476e-01 -8.276015453893026e-01 3.305788997613485e-01 -8.463407245648698e-01 3.334827997926358e-01 -1.632381578350254e-01
1.597551020408200e+11 3.464400803071157e-01 -2.936093459916932e-01 -4.010722488230452e-01 -8.272050072302711e-01 3.308978125605224e-01 -8.464645615352125e-01 3.331769713565964e-01 -1.639834322882930e-01
1.597959183673500e+11 3.451707671349802e-01 -2.939734425746351e-01 -4.020849169361895e-01 -8.268078119461761e-01 3.312136632984301e-01 -8.465892495971121e-01 3.325928427924360e-01 -1.656946712615551e-01
1.598367346938800e+11 3.449712476452479e-01 -2.935933459734331e-01 -4.030935933138651e-01 -8.264099705413281e-01 3.315264145357302e-01 -8.467147273996417e-01 3.322584833760956e-01 -1.670288897047448e-01
1.598775510204100e+11 3.454323718649035e-01 -2.943482020800681e-01 -4.040982197333797e-01 -8.260114941864750e-01 3.318360290319869e-01 -8.468409337691203e-01 3.330621455968130e-01 -1.667424734351758e-01
1.599183673469400e+11 3.448456353585949e-01 -2.959675103863409e-01 -4.050987391980203e-01 -8.256123938655604e-01 3.321424699246823e-01 -8.469678076391918e-01 3.341232290377036e-01 -1.663308653669907e-01
1.599591836734700e+11 3.431809677756255e-01 -2.971612742951158e-01 -4.060950960021800e-01 -8.252126804343328e-01 3.324457011366883e-01 -8.470952879929639e-01 3.338581217418055e-01 -1.658547511729185e-01
1.600000000000000e+11 3.444524775165386e-01 -2.927566994085181e-01 -4.070872359598346e-01 -8.248123646185019e-01 3.327456876143102e-01 -8.472233138622587e-01 3.434248323364600e-01 -1.649892577126405e-01
1.600408163265300e+11 3.462441842487807e-01 -2.888240277015008e-01 -4.080751067765163e-01 -8.244114566439397e-01 3.330423954322307e-01 -8.473518244152279e-01 3.444239284367991e-01 -1.707060647279906e-01
1.600816326530600e+11 3.469221329195279e-01 -2.898226056966602e-01 -4.090586581393649e-01 -8.240099658391944e-01 3.333357919261970e-01 -8.474807585453893e-01 3.458903129210181e-01 -1.735913977537718e-01
1.601224489795900e+11 3.468729298064642e-01 -2.907112217065034e-01 -4.100378419841241e-01 -8.236079001937949e-01 3.336258458349303e-01 -8.476100543175694e-01 3.454104695904521e-01 -1.730218472282886e-01
1.601632653061200e+11 3.470559943573850e-01 -2.899919085381000e-01 -4.110126128994573e-01 -8.232052664360302e-01 3.339125274012407e-01 -8.477396493685270e-01 3.436399803213614e-01 -1.720106365270082e-01
1.602040816326500e+11 3.479875066241914e-01 -2.901824859989617e-01 -4.119829282343905e-01 -8.228020699991250e-01 3.341958082825356e-01 -8.478694810361095e-01 3.429822932219816e-01 -1.691127226088583e-01
1.602448979591800e+11 3.497539194031515e-01 -2.918886645238554e-01 -4.129487480290662e-01 -8.223983146541621e-01 3.344756615984730e-01 -8.479994863365399e-01 3.424066710802441e-01 -1.669744358108583e-01
1.602857142857100e+11 3.498003939353770e-01 -2.940666242423646e-01 -4.139100349421935e-01 -8.219940026635054e-01 3.347520619988339e-01 -8.481296019583432e-01 3.419684915033076e-01 -1.672650486198508e-01
1.603265306122400e+11 3.497352647257871e-01 -2.962927899259604e-01 -4.148667546225547e-01 -8.215891349180064e-01 3.350249859751023e-01 -8.482597645185680e-01 3.408569749671850e-01 -1.670660264789931e-01
1.603673469387800e+11 3.495814513066988e-01 -2.984006412383149e-01 -4.158188757996305e-01 -8.211837111498215e-01 3.352944115095886e-01 -8.483899107219357e-01 3.394307227058256e-01 -1.662155237006835e-01
1.604081632653100e+11 3.485169447478997e-01 -3.000359272399725e-01 -4.167663704757579e-01 -8.207777300952368e-01 3.355603180117699e-01 -8.485199774926558e-01 3.389814595336867e-01 -1.660874580014153e-01
1.604489795918400e+11 3.481793897706684e-01 -3.021260488399136e-01 -4.177092142292370e-01 -8.203711895911928e-01 3.358226864987598e-01 -8.486499020309550e-01 3.391638997224494e-01 -1.668607377740664e-01
1.604897959183700e+11 3.461116793785055e-01 -3.048748394872462e-01 -4.186473863321796e-01 -8.199640866307365e-01 3.360814991391139e-01 -8.487796220113561e-01 3.381173710388800e-01 -1.653321226365493e-01
1.605306122449000e+11 3.460502530954845e-01 -3.053236139508785e-01 -4.195808699495583e-01 -8.195564175354850e-01 3.363367388964181e-01 -8.489090758318338e-01 3.351442507906052e-01 -1.633243690328987e-01
1.605714285714300e+11 3.452569941719886e-01 -3.106648317958713e-01 -4.205096522059707e-01 -8.191481781581806e-01 3.365883894935354e-01 -8.490382027009584e-01 3.313992584778415e-01 -1.649670501197597e-01
1.606122448979600e+11 3.430681435359375e-01 -3.105006092082980e-01 -4.214337238793799e-01 -8.187393641256148e-01 3.368364358761903e-01 -8.491669426070516e-01 3.291339518222179e-01 -1.660750415818044e-01
1.606530612244900e+11 3.422073965035634e-01 -3.108867173818677e-01 -4.223530794630256e-01 -8.183299710332304e-01 3.370808640237312e-01 -8.492952367329396e-01 3.268545745618078e-01 -1.648792118243440e-01
1.606938775510200e+11 3.406381259320263e-01 -3.138936824478301e-01 -4.232677172570264e-01 -8.179199942767390e-01 3.373216607633998e-01 -8.494230272419429e-01 3.236079925058973e-01 -1.657235691784258e-01
1.607346938775500e+11 3.409268987618139e-01 -3.135015341217751e-01 -4.241776391864082e-01 -8.175094292263709e-01 3.375588141499294e-01 -8.495502570883470e-01 3.206964894528553e-01 -1.697895013879510e-01
1.607755102040800e+11 3.392392832707006e-01 -3.148836257458259e-01 -4.250828510663677e-01 -8.170982713086852e-01 3.377923134820094e-01 -8.496768701679915e-01 3.164979385600599e-01 -1.715918095036639e-01
1.608163265306100e+11 3.406223654953440e-01 -3.139068869389299e-01 -4.259833626621797e-01 -8.166865158307247e-01 3.380221492479625e-01 -8.498028112542496e-01 3.133393298605095e-01 -1.752146175187238e-01
1.608571428571400e+11 3.411333170407691e-01 -3.126920304614173e-01 -4.268791878316463e-01 -8.162741577483514e-01 3.382483132076196e-01 -8.499280259813925e-01 3.114715567286526e-01 -1.778407668741582e-01
1.608979591836700e+11 3.409264722214377e-01 -3.111474051139839e-01 -4.277703445773586e-01 -8.158611916616459e-01 3.384707988638648e-01 -8.500524607977392e-01 3.094187120806609e-01 -1.821477316427311e-01
1.609387755102000e+11 3.409841446011159e-01 -3.092750663857621e-01 -4.286568548002961e-01 -8.154476115810808e-01 3.386896017418939e-01 -8.501760631197955e-01 3.068557274790856e-01 -1.869702772013256e-01
1.609795918367300e+11 3.412203540375309e-01 -3.083229044677924e-01 -4.295387440237643e-01 -8.150334108994082e-01 3.389047189020148e-01 -8.502987815075621e-01 3.036188931853671e-01 -1.910329689739708e-01
1.610204081632700e+11 3.417707363118627e-01 -3.079247138254837e-01 -4.304160415565686e-01 -8.146185823406312e-01 3.391161487316467e-01 -8.504205656921223e-01 3.011666004834563e-01 -1.935610735445817e-01
1.610612244898000e+11 3.455361237361758e-01 -3.087625371215861e-01 -4.312887801968069e-01 -8.142031178595498e-01 3.393238909842514e-01 -8.505413666318925e-01 2.978343895615047e-01 -1.981717910277242e-01
1.611020408163300e+11 3.481435475895062e-01 -3.089011036704462e-01 -4.321569960746600e-01 -8.137870085765728e-01 3.395279468389643e-01 -8.506611365663279e-01 2.949748446518056e-01 -2.019589945612495e-01
1.611428571428600e+11 3.501754125379100e-01 -3.083924251537389e-01 -4.330207283564879e-01 -8.133702450909960e-01 3.397283191705973e-01 -8.507798293152046e-01 2.928455850398491e-01 -2.039773497693054e-01
1.611836734693900e+11 3.501116489576373e-01 -3.086261628246286e-01 -4.338800189601857e-01 -8.129528176336782e-01 3.399250123552142e-01 -8.508974005048832e-01 2.921066197698864e-01 -2.054769286512993e-01
1.612244897959200e+11 3.519762894838191e-01 -3.087188999415882e-01 -4.347349122495094e-01 -8.125347162149731e-01 3.401180321498340e-01 -8.510138077046338e-01 2.914981934218513e-01 -2.061531533445185e-01
1.612653061224500e+11 3.503480124040178e-01 -3.099462657490145e-01 -4.355854550073053e-01 -8.121159306890440e-01 3.403073854676073e-01 -8.511290104613027e-01 2.922358008468290e-01 -2.085876584973120e-01
1.613061224489800e+11 3.511548475696564e-01 -3.064695485746072e-01 -4.364316962042706e-01 -8.116964509510540e-01 3.404930804254041e-01 -8.512429702984100e-01 2.934449320825111e-01 -2.089684291234070e-01
1.613469387755100e+11 3.505851206313979e-01 -3.057663264679240e-01 -4.372736871437335e-01 -8.112762667155070e-01 3.406751261351292e-01 -8.513556504302823e-01 2.947207133521667e-01 -2.103751181503028e-01
1.613877551020400e+11 3.495510187161025e-01 -3.055860758967032e-01 -4.381114809277921e-01 -8.108553674821473e-01 3.408535325575059e-01 -8.514670154381184e-01 2.961745604528087e-01 -2.120772261032322e-01
1.614285714285700e+11 3.505635846034197e-01 -3.034824713955278e-01 -4.389451319794189e-01 -8.104337422496457e-01 3.410283106220148e-01 -8.515770313064353e-01 2.982751983687516e-01 -2.143311271489027e-01
1.614693877551000e+11 3.503782698457504e-01 -3.040672942572960e-01 -4.397746962330111e-01 -8.100113792106596e-01 3.411994719015353e-01 -8.516856654887608e-01 2.992290031544116e-01 -2.141317502841288e-01
1.615102040816300e+11 3.499283131372637e-01 -3.057231735638732e-01 -4.406002308597354e-01 -8.095882658262309e-01 3.413670286846779e-01 -8.517928863786902e-01 3.003572411965881e-01 -2.134925401450922e-01
1.615510204081600e+11 3.500943479198256e-01 -3.048162846735007e-01 -4.414217943565079e-01 -8.091643889536525e-01 3.415309938930540e-01 -8.518986632647806e-01 3.002994910580383e-01 -2.131305050872889e-01
1.615918367346900e+11 3.507502790805342e-01 -3.056622110908245e-01 -4.422394468171736e-01 -8.087397351238104e-01 3.416913812032866e-01 -8.520029663182528e-01 3.001808840433826e-01 -2.130454591500009e-01
1.616326530612200e+11 3.495821678346831e-01 -3.058303206608370e-01 -4.430532494657819e-01 -8.083142903835658e-01 3.418482050442591e-01 -8.521057665669174e-01 3.004094922305368e-01 -2.124031059269343e-01
1.616734693877600e+11 3.495306104862227e-01 -3.052692540581395e-01 -4.438632650540763e-01 -8.078880401797672e-01 3.420014807914956e-01 -8.522070358303785e-01 2.998798932761846e-01 -2.127681178903560e-01
1.617142857142900e+11 3.494288609055066e-01 -3.072471884599746e-01 -4.446695580627980e-01 -8.074609689385158e-01 3.421512250464825e-01 -8.523067469141670e-01 2.986840691312818e-01 -2.138724710253595e-01
1.617551020408200e+11 3.498692600633310e-01 -3.055394001831736e-01 -4.454721949644272e-01 -8.070330598805824e-01 3.422974557007727e-01 -8.524048737472504e-01 2.983124980682359e-01 -2.134995779387585e-01
1.617959183673500e+11 3.504346087625811e-01 -3.056427976160073e-01 -4.462712445872575e-01 -8.066042949830550e-01 3.424401915257046e-01 -8.525013917179519e-01 2.963116302239731e-01 -2.132845033300766e-01
1.618367346938800e+11 3.499017076293395e-01 -3.064076230871275e-01 -4.470667776837355e-01 -8.061746551008159e-01 3.425794521325822e-01 -8.525962775946794e-01 2.950163521082220e-01 -2.121598684033986e-01
1.618775510204100e+11 3.496465822635580e-01 -3.052036160849647e-01 -4.478588668171594e-01 -8.057441202035174e-01 3.427152578977199e-01 -8.526895093978811e-01 2.925777832646386e-01 -2.120751331827677e-01
1.619183673469400e+11 3.494625438612640e-01 -3.036399738399329e-01 -4.486475862094975e-01 -8.053126693650130e-01 3.428476299995813e-01 -8.527810665590844e-01 2.907695381774624e-01 -2.127825852759636e-01
1.619591836734700e+11 3.527495130431376e-01 -3.043708295702919e-01 -4.494330115679219e-01 -8.048802807978164e-01 3.429765902180546e-01 -8.528709299176165e-01 2.885628569447026e-01 -2.143034606210806e-01
1.620000000000000e+11 3.535427516279975e-01 -3.074903337117714e-01 -4.502152194383737e-01 -8.044469314974494e-01 3.431021611321182e-01 -8.529590815607025e-01 2.852729961419817e-01 -2.160503982499660e-01
1.620408163265300e+11 3.543961688516822e-01 -3.084735683427683e-01 -4.509942869389866e-01 -8.040125979648137e-01 3.432243662283647e-01 -8.530455054142130e-01 2.827887326040111e-01 -2.165616931334849e-01
1.620816326530600e+11 3.534228525320201e-01 -3.107873589873718e-01 -4.517702919296710e-01 -8.035772565720321e-01 3.433432294398633e-01 -8.531301872754640e-01 2.775558043454209e-01 -2.174380811418301e-01
1.621224489795900e+11 3.513179112942911e-01 -3.112277843786073e-01 -4.525433129896700e-01 -8.031408839003262e-01 3.434587754061599e-01 -8.532131147946219e-01 2.764426924771712e-01 -2.195251606157895e-01
1.621632653061200e+11 3.511577963519331e-01 -3.127921043369880e-01 -4.533134292808121e-01 -8.027034571455507e-01 3.435710289936387e-01 -8.532942776236201e-01 2.739500306359069e-01 -2.212772289462749e-01
1.622040816326500e+11 3.511045164435579e-01 -3.131419423695176e-01 -4.540807202420634e-01 -8.022649536741709e-01 3.436800153237319e-01 -8.533736673508117e-01 2.709030669079820e-01 -2.244301155951156e-01
1.622448979591800e+11 3.498055870099214e-01 -3.134990644415682e-01 -4.548452656735850e-01 -8.018253513622254e-01 3.437857595685820e-01 -8.534512779183689e-01 2.683858769557820e-01 -2.273794671672484e-01
1.622857142857100e+11 3.484762250846004e-01 -3.140018493156678e-01 -4.556071456923763e-01 -8.013846286815898e-01 3.438882868912998e-01 -8.535271058520579e-01 2.659599829765613e-01 -2.317574607601532e-01
1.623265306122400e+11 3.470785833726115e-01 -3.144379680580228e-01 -4.563664408372507e-01 -8.009427646013062e-01 3.439876224736641e-01 -8.536011500698484e-01 2.631697616707680e-01 -2.367058324133721e-01
1.623673469387800e+11 3.472235046835592e-01 -3.142522587957692e-01 -4.571232317300605e-01 -8.004997385798422e-01 3.440837916431652e-01 -8.536734119108238e-01 2.598533294293204e-01 -2.411344481504745e-01
1.624081632653100e+11 3.472761709135497e-01 -3.151236708439601e-01 -4.578775990737047e-01 -8.000555307904280e-01 3.441768199804452e-01 -8.537438952138292e-01 2.570918530831861e-01 -2.442889514727394e-01
1.624489795918400e+11 3.470670236569577e-01 -3.145985911770570e-01 -4.586296239789892e-01 -7.996101225312089e-01 3.442667332761867e-01 -8.538126063251696e-01 2.561251418161982e-01 -2.481162429884197e-01
1.624897959183700e+11 3.470720442433756e-01 -3.143037870637821e-01 -4.593793885693565e-01 -7.991634960491022e-01 3.443535575050138e-01 -8.538795539945840e-01 2.539922679100858e-01 -2.525235104375614e-01
1.625306122449000e+11 3.477283033328125e-01 -3.119784845849901e-01 -4.601269759836891e-01 -7.987156345930182e-01 3.444373192799703e-01 -8.539447489685292e-01 2.516448677903387e-01 -2.575930443768975e-01
1.625714285714300e+11 3.486059998852248e-01 -3.099741622916961e-01 -4.608724698572901e-01 -7.982665222399449e-01 3.445180457983278e-01 -8.540082047992414e-01 2.500750486209429e-01 -2.615131445293045e-01
1.626122448979600e+11 3.512355065674692e-01 -3.097164678012326e-01 -4.616159541793399e-01 -7.978161437376572e-01 3.445957646151648e-01 -8.540699378495527e-01 2.498327958348330e-01 -2.639376657676296e-01
1.626530612244900e+11 3.532363552185886e-01 -3.094005516576854e-01 -4.623575127752230e-01 -7.973644844510998e-01 3.446705032710448e-01 -8.541299672223799e-01 2.485940531034884e-01 -2.677591263824748e-01
1.626938775510200e+11 3.563425551825835e-01 -3.032824515150513e-01 -4.630972292062828e-01 -7.969115311445436e-01 3.447422892528679e-01 -8.541883152443592e-01 2.509827832460769e-01 -2.752610134052585e-01
1.627346938775500e+11 3.566235065208314e-01 -3.007819501430140e-01 -4.638351868238930e-01 -7.964572720776951e-01 3.448111498008161e-01 -8.542450077984607e-01 2.544504402734628e-01 -2.790735056114605e-01
1.627755102040800e+11 3.573863537312650e-01 -2.984178166022252e-01 -4.645714683022954e-01 -7.960016964480913e-01 3.448771120944832e-01 -8.543000740119875e-01 2.571881287213433e-01 -2.826991262206454e-01
1.628163265306100e+11 3.601507917551401e-01 -2.963945935104947e-01 -4.653061551355426e-01 -7.955447946434554e-01 3.449402024055247e-01 -8.543535457268827e-01 2.604940482438652e-01 -2.845897412684228e-01
1.628571428571400e+11 3.613630939281999e-01 -2.955411525249286e-01 -4.660393270797959e-01 -7.950865581479672e-01 3.450004462036982e-01 -8.544054571118319e-01 2.622100018831606e-01 -2.878492116861679e-01
1.628979591836700e+11 3.611243057097296e-01 -2.950548376534299e-01 -4.667710616422797e-01 -7.946269799931781e-01 3.450578684680962e-01 -8.544558445644398e-01 2.624882472124567e-01 -2.904499263268828e-01
1.629387755102000e+11 3.621492589438138e-01 -2.949680600107116e-01 -4.675014339388032e-01 -7.941660550660737e-01 3.451124934217104e-01 -8.545047467191812e-01 2.645102599009808e-01 -2.916412652008006e-01
1.629795918367300e+11 3.635220327358841e-01 -2.959784367041108e-01 -4.682305167246996e-01 -7.937037800085228e-01 3.451643438693064e-01 -8.545522043685306e-01 2.666093526915277e-01 -2.945559066969425e-01
1.630204081632700e+11 3.625358911780375e-01 -2.966774597283774e-01 -4.689583800511450e-01 -7.932401535097330e-01 3.452134411164532e-01 -8.545982604451856e-01 2.673517070093618e-01 -2.967503922074357e-01
1.630612244898000e+11 3.616523077065373e-01 -2.957439820610301e-01 -4.696850913255243e-01 -7.927751770526346e-01 3.452598053374710e-01 -8.546429599832275e-01 2.698154150556738e-01 -2.974742716788274e-01
1.631020408163300e+11 3.622286837679971e-01 -2.939642261234178e-01 -4.704107156179825e-01 -7.923088544202885e-01 3.453034555563370e-01 -8.546863501834029e-01 2.718195014892872e-01 -2.993480116829733e-01
1.631428571428600e+11 3.615490580698475e-01 -2.928861446729936e-01 -4.711353156272005e-01 -7.918411913978534e-01 3.453444096066192e-01 -8.547284798765549e-01 2.739427221481156e-01 -3.009114025150367e-01
1.631836734693900e+11 3.609737702028550e-01 -2.921754474265013e-01 -4.718589517046710e-01 -7.913721959486765e-01 3.453826845941194e-01 -8.547693991953053e-01 2.756084437123879e-01 -3.004021359469013e-01
1.632244897959200e+11 3.624908403580442e-01 -2.920770966234764e-01 -4.725816818683143e-01 -7.909018778379626e-01 3.454182975290744e-01 -8.548091592057308e-01 2.769696568387139e-01 -2.995536012030958e-01
1.632653061224500e+11 3.632002170100738e-01 -2.923292641585526e-01 -4.733035615120073e-01 -7.904302483685256e-01 3.454512655513494e-01 -8.548478114019991e-01 2.763980916893464e-01 -3.014931162853561e-01
1.633061224489800e+11 3.623962386417948e-01 -2.910895339505417e-01 -4.740246430857502e-01 -7.899573206037878e-01 3.454816064165494e-01 -8.548854075791680e-01 2.775693078634922e-01 -3.052881344026884e-01
1.633469387755100e+11 3.623372061138113e-01 -2.912958093608557e-01 -4.747449769298253e-01 -7.894831095827560e-01 3.455093386927461e-01 -8.549219999164166e-01 2.774849653189355e-01 -3.091425839684767e-01
1.633877551020400e+11 3.632663212827960e-01 -2.902838602319677e-01 -4.754646108253939e-01 -7.890076319691558e-01 3.455344817270450e-01 -8.549576414255331e-01 2.784061738045818e-01 -3.115288477582165e-01
1.634285714285700e+11 3.646645979797015e-01 -2.894278127230057e-01 -4.761835904335077e-01 -7.885309058320338e-01 3.455570554113180e-01 -8.549923861717593e-01 2.803974736047302e-01 -3.112676757546025e-01
1.634693877551000e+11 3.660915688687482e-01 -2.884418489071843e-01 -4.769019592930113e-01 -7.880529511298930e-01 3.455770802864874e-01 -8.550262889126854e-01 2.817835984434351e-01 -3.127036285305263e-01
1.635102040816300e+11 3.658156745117246e-01 -2.870556091692683e-01 -4.776197585658305e-01 -7.875737897901031e-01 3.455945778377948e-01 -8.550594049685764e-01 2.813015876793342e-01 -3.121115600155356e-01
1.635510204081600e+11 3.665948070810577e-01 -2.857947620832270e-01 -4.783370265738179e-01 -7.870934459587069e-01 3.456095705735912e-01 -8.550917904692910e-01 2.806947139782626e-01 -3.160689895900193e-01
1.635918367346900e+11 3.670006708190655e-01 -2.845075833337308e-01 -4.790537982757745e-01 -7.866119455926096e-01 3.456220814039540e-01 -8.551235025113701e-01 2.800813213221925e-01 -3.186161735334226e-01
1.636326530612200e+11 3.681749861532479e-01 -2.848177257948815e-01 -4.797701056323913e-01 -7.861293167118865e-01 3.456321334257199e-01 -8.551545991573555e-01 2.799846576916079e-01 -3.208361022285363e-01
1.636734693877600e+11 3.692050686072649e-01 -2.837743760601533e-01 -4.804859774783618e-01 -7.856455893457389e-01 3.456397495416175e-01 -8.551851393350302e-01 2.805472813258819e-01 -3.197409707464606e-01
1.637142857142900e+11 3.696661893696651e-01 -2.842746868130580e-01 -4.812014393799302e-01 -7.851607957315464e-01 3.456449521933109e-01 -8.552151830564334e-01 2.804461276315152e-01 -3.213047227407060e-01
1.637551020408200e+11 3.712198261441088e-01 -2.837417002815392e-01 -4.819165130899355e-01 -7.846749703319137e-01 3.456477633333249e-01 -8.552447912977057e-01 2.833368634262677e-01 -3.222318075011255e-01
1.637959183673500e+11 3.705121316212008e-01 -2.843608990867325e-01 -4.826312171673153e-01 -7.841881501614252e-01 3.456482043657776e-01 -8.552740256739042e-01 2.839748057321150e-01 -3.245657501756536e-01
1.638367346938800e+11 3.701917068211830e-01 -2.846335093815532e-01 -4.833455664792258e-01 -7.837003749673543e-01 3.456462963651336e-01 -8.553029485431126e-01 2.862178356487383e-01 -3.235949818230765e-01
1.638775510204100e+11 3.687278329801874e-01 -2.861877396508056e-01 -4.840595724608088e-01 -7.832116871727692e-01 3.456420599401747e-01 -8.553316225831751e-01 2.850798079209755e-01 -3.247174863742057e-01
1.639183673469400e+11 3.657118194425389e-01 -2.886199914769101e-01 -4.847732424949667e-01 -7.827221317423898e-01 3.456355153118404e-01 -8.553601103164425e-01 2.816312445894740e-01 -3.273597295144311e-01
1.639591836734700e+11 3.629295917298197e-01 -2.897333135046170e-01 -4.854865804898172e-01 -7.822317563417861e-01 3.456266825718354e-01 -8.553884742945691e-01 2.779641885357996e-01 -3.311097161466475e-01
1.640000000000000e+11 3.611564646867604e-01 -2.900270896304062e-01 -4.861995877049862e-01 -7.817406111513393e-01 3.456155818965032e-01 -8.554167772004020e-01 2.775538972406721e-01 -3.337072949317763e-01
1.640408163265300e+11 3.616113226675301e-01 -2.882873341334655e-01 -4.869122633615668e-01 -7.812487484319105e-01 3.456022332641117e-01 -8.554450824323302e-01 2.809708137064288e-01 -3.344701463043172e-01
1.640816326530600e+11 3.625619910677381e-01 -2.861847329766268e-01 -4.876246047598173e-01 -7.807562221551442e-01 3.455866565799552e-01 -8.554734541950290e-01 2.843853367897204e-01 -3.342259385291078e-01
1.641224489795900e+11 3.627260281201099e-01 -2.859483853754410e-01 -4.883366070171711e-01 -7.802630880526187e-01 3.455688723049535e-01 -8.555019570687449e-01 2.849522092719565e-01 -3.366484462665634e-01
1.641632653061200e+11 3.620697779601840e-01 -2.860072128041498e-01 -4.890482630221473e-01 -7.797694035516538e-01 3.455489024277364e-01 -8.555306554915644e-01 2.829998876040059e-01 -3.407420678319549e-01
1.642040816326500e+11 3.635563162873156e-01 -2.847997804467099e-01 -4.897595637334508e-01 -7.792752278345775e-01 3.455267705972656e-01 -8.555596140047537e-01 2.838951683427524e-01 -3.447252012574703e-01
1.642448979591800e+11 3.657945765857689e-01 -2.832750929049904e-01 -4.904704986393110e-01 -7.787806217681867e-01 3.455025017422625e-01 -8.555888974427430e-01 2.841396673566101e-01 -3.486976220215587e-01
1.642857142857100e+11 3.676983305193958e-01 -2.819672698971877e-01 -4.911810556690775e-01 -7.782856481288152e-01 3.454761221539908e-01 -8.556185710280272e-01 2.856083847289365e-01 -3.508282415923227e-01
1.643265306122400e+11 3.682023203298582e-01 -2.823082832346008e-01 -4.918912209281167e-01 -7.777903722085026e-01 3.454476594400431e-01 -8.556487006867008e-01 2.850987539821966e-01 -3.536039436588232e-01
1.643673469387800e+11 3.683858615387591e-01 -2.824673053048002e-01 -4.926009784526320e-01 -7.772948620059116e-01 3.454171425015795e-01 -8.556793528527108e-01 2.848154186836075e-01 -3.581664927288766e-01
1.644081632653100e+11 3.692952722258439e-01 -2.817134338560905e-01 -4.933103100259398e-01 -7.767991882147212e-01 3.453846009071688e-01 -8.557105945087016e-01 2.861429318282291e-01 -3.622028877868942e-01
1.644489795918400e+11 3.701096869909589e-01 -2.812970904225939e-01 -4.940191955428258e-01 -7.763034240533919e-01 3.453500646198328e-01 -8.557424932766177e-01 2.880949251062065e-01 -3.648233500034382e-01
1.644897959183700e+11 3.687896079313489e-01 -2.824796217120331e-01 -4.947276130787105e-01 -7.758076452398990e-01 3.453135639921627e-01 -8.557751174440105e-01 2.865452398453029e-01 -3.678175492770959e-01
1.645306122449000e+11 3.690482341133308e-01 -2.811471961938811e-01 -4.954355389861846e-01 -7.753119299222497e-01 3.452751300409997e-01 -8.558085356199276e-01 2.874629002800569e-01 -3.720340053655616e-01
1.645714285714300e+11 3.678665324094624e-01 -2.812237511169908e-01 -4.961429482682204e-01 -7.748163583729329e-01 3.452347937972113e-01 -8.558428171647886e-01 2.863519308752069e-01 -3.769001691009768e-01
1.646122448979600e+11 3.676358170954400e-01 -2.812284641783696e-01 -4.968498146603524e-01 -7.743210126747289e-01 3.451925860320141e-01 -8.558780320893841e-01 2.897602934692517e-01 -3.759064656502601e-01
1.646530612244900e+11 3.660181542909293e-01 -2.815865645230818e-01 -4.975561109390065e-01 -7.738259765885923e-01 3.451485367951216e-01 -8.559142509998303e-01 2.896661878139504e-01 -3.757649708818839e-01
1.646938775510200e+11 3.678907892287544e-01 -2.788409711187054e-01 -4.982618083992939e-01 -7.733313353951944e-01 3.451026754251105e-01 -8.559515447267203e-01 2.952360146239578e-01 -3.737591726798492e-01
1.647346938775500e+11 3.687215854947437e-01 -2.777363143402866e-01 -4.989668776354201e-01 -7.728371754158418e-01 3.450550307626121e-01 -8.559899839964569e-01 3.011502195046529e-01 -3.776461700977204e-01
1.647755102040800e+11 3.680957218393476e-01 -2.764526412110515e-01 -4.996712881146745e-01 -7.723435837831153e-01 3.450056319296283e-01 -8.560296389457669e-01 3.068058720701392e-01 -3.775265296879729e-01
1.648163265306100e+11 3.651668113409252e-01 -2.777440613061544e-01 -5.003750076849914e-01 -7.718506486790276e-01 3.449545080291835e-01 -8.560705789448416e-01 3.036558634896628e-01 -3.834143511076491e-01
1.648571428571400e+11 3.628628872732382e-01 -2.770048084886952e-01 -5.010780026516011e-01 -7.713584584640042e-01 3.449016883023273e-01 -8.561128716635984e-01 3.015220000841115e-01 -3.848127931352103e-01
1.648979591836700e+11 3.658625709528294e-01 -2.743318500383691e-01 -5.017802393337343e-01 -7.708671013104513e-01 3.448472022007384e-01 -8.561565836772178e-01 3.094048570595447e-01 -3.806475981570944e-01
1.649387755102000e+11 3.668927531905160e-01 -2.722181216064738e-01 -5.024816849352719e-01 -7.703766645427831e-01 3.447910792114982e-01 -8.562017804905997e-01 3.151970431351788e-01 -3.799388496256619e-01
1.649795918367300e+11 3.673387267478403e-01 -2.703185574432641e-01 -5.031823066580100e-01 -7.698872347436685e-01 3.447333495140161e-01 -8.562485261412177e-01 3.174723079454448e-01 -3.814343974187870e-01
1.650204081632700e+11 3.672432084502125e-01 -2.686079566952717e-01 -5.038820715450066e-01 -7.693988975319845e-01 3.446740439949110e-01 -8.562968826563484e-01 3.193012143360579e-01 -3.781462330467818e-01
1.650612244898000e+11 3.673561086619097e-01 -2.680140293370544e-01 -5.045809465509403e-01 -7.689117373715652e-01 3.446131941718402e-01 -8.563469099553368e-01 3.200446291874574e-01 -3.769448127833411e-01
1.651020408163300e+11 3.669879553927469e-01 -2.678015312828904e-01 -5.052788982729505e-01 -7.684258374962667e-01 3.445508319579091e-01 -8.563986655838741e-01 3.247047172746363e-01 -3.764056096180152e-01
1.651428571428600e+11 3.691867737963281e-01 -2.673099340961489e-01 -5.059758926744108e-01 -7.679412802158456e-01 3.444869892186642e-01 -8.564522050990364e-01 3.335982134001004e-01 -3.722158038177153e-01
1.651836734693900e+11 3.734243123415011e-01 -2.644617397969538e-01 -5.066718948034191e-01 -7.674581471819666e-01 3.444216968423643e-01 -8.565075826308481e-01 3.407705010093071e-01 -3.614278990316478e-01
1.652244897959200e+11 3.720289147240441e-01 -2.663461534836264e-01 -5.073668682123899e-01 -7.669765196511494e-01 3.443549850954468e-01 -8.565648509268736e-01 3.384949685524162e-01 -3.659649363732196e-01
1.652653061224500e+11 3.702115462601326e-01 -2.672664506710836e-01 -5.080607738153974e-01 -7.664964787731695e-01 3.442868844330405e-01 -8.566240601209744e-01 3.361978021997777e-01 -3.620471386113733e-01
1.653061224489800e+11 3.704653510761540e-01 -2.686693529554863e-01 -5.087535702216962e-01 -7.660181058438646e-01 3.442174246776421e-01 -8.566852589035899e-01 3.390012607198713e-01 -3.582887312165473e-01
1.653469387755100e+11 3.706332127337158e-01 -2.698819549032833e-01 -5.094452140666351e-01 -7.655414820977190e-01 3.441466343881327e-01 -8.567484944029008e-01 3.398279774835773e-01 -3.561104039860324e-01
1.653877551020400e+11 3.692150495431688e-01 -2.716416512789250e-01 -5.101356601074220e-01 -7.650666887405072e-01 3.440745413423605e-01 -8.568138122465664e-01 3.401456361012610e-01 -3.547470979194366e-01
1.654285714285700e+11 3.656145719539255e-01 -2.744953332272918e-01 -5.108248614115721e-01 -7.645938074518956e-01 3.440011726245102e-01 -8.568812566202296e-01 3.381421654700358e-01 -3.549482895573823e-01
1.654693877551000e+11 3.635083823202700e-01 -2.774286993237319e-01 -5.115127699349610e-01 -7.641229201122909e-01 3.439265548005866e-01 -8.569508702152621e-01 3.383146098685794e-01 -3.517996726609520e-01
1.655102040816300e+11 3.620533676863528e-01 -2.796155650431563e-01 -5.121993371853376e-01 -7.636541082611429e-01 3.438507137549683e-01 -8.570226946996102e-01 3.357788066400313e-01 -3.484109870076136e-01
1.655510204081600e+11 3.615429098227952e-01 -2.808354959944378e-01 -5.128845146995206e-01 -7.631874529229959e-01 3.437736754268929e-01 -8.570967709207721e-01 3.373776886615022e-01 -3.430003548212326e-01
1.655918367346900e+11 3.591199803390038e-01 -2.824390026304095e-01 -5.135682544613815e-01 -7.627230347458338e-01 3.436954660930276e-01 -8.571731388152326e-01 3.367831022553842e-01 -3.420322057007845e-01
1.656326530612200e+11 3.556092390301023e-01 -2.829729105074252e-01 -5.142505090871041e-01 -7.622609341892176e-01 3.436161132016019e-01 -8.572518366308565e-01 3.333970635803042e-01 -3.447391887909591e-01
1.656734693877600e+11 3.548646515058528e-01 -2.828725967180051e-01 -5.149312322698166e-01 -7.618012314267329e-01 3.435356458541711e-01 -8.573329008606572e-01 3.317894644549010e-01 -3.429515239260928e-01
1.657142857142900e+11 3.520368446530101e-01 -2.830650770666656e-01 -5.156103794027330e-01 -7.613440059023709e-01 3.434540947837784e-01 -8.574163669377158e-01 3.257828341621673e-01 -3.455793702690108e-01
1.657551020408200e+11 3.503663998414951e-01 -2.829548918602764e-01 -5.162879075853900e-01 -7.608893360563603e-01 3.433714926607575e-01 -8.575022689182763e-01 3.233619797652867e-01 -3.496067784785316e-01
1.657959183673500e+11 3.522549009146522e-01 -2.813740593167885e-01 -5.169637760083932e-01 -7.604372990436095e-01 3.432878734358883e-01 -8.575906400574467e-01 3.254558477729674e-01 -3.489855185892009e-01
1.658367346938800e+11 3.532597645957880e-01 -2.800901541354563e-01 -5.176379463406708e-01 -7.599879708795737e-01 3.432032718822432e-01 -8.576815129811030e-01 3.264609922867037e-01 -3.482181521148274e-01
1.658775510204100e+11 3.523570801312733e-01 -2.796205910914728e-01 -5.183103821654497e-01 -7.595414267122861e-01 3.431177239406958e-01 -8.577749195575998e-01 3.255590074274622e-01 -3.505999006670621e-01
1.659183673469400e+11 3.537942117745633e-01 -2.795800896948134e-01 -5.189810483317302e-01 -7.590977408141182e-01 3.430312667594595e-01 -8.578708909102447e-01 3.249199122653529e-01 -3.556866662096591e-01
1.659591836734700e+11 3.552907277861230e-01 -2.786550729211030e-01 -5.196499105934151e-01 -7.586569864389499e-01 3.429439377689501e-01 -8.579694575934613e-01 3.283094408818366e-01 -3.561374987560537e-01
1.660000000000000e+11 3.552057555902975e-01 -2.780570330134422e-01 -5.203169361173972e-01 -7.582192361860561e-01 3.428557745464501e-01 -8.580706496846806e-01 3.277051026502976e-01 -3.618155523992875e-01
1.660408163265300e+11 3.560262000962749e-01 -2.778162266874573e-01 -5.209820929942518e-01 -7.577845620376844e-01 3.427668148918893e-01 -8.581744965965187e-01 3.281644152988593e-01 -3.660163610170072e-01
1.660816326530600e+11 3.559613444119133e-01 -2.785208816356109e-01 -5.216453503644715e-01 -7.573530352493890e-01 3.426770963970264e-01 -8.582810272979335e-01 3.313092433768396e-01 -3.688089674431199e-01
1.661224489795900e+11 3.541554686520253e-01 -2.794859251128629e-01 -5.223066782389446e-01 -7.569247263434064e-01 3.425866561039120e-01 -8.583902703092950e-01 3.345733135629450e-01 -3.705823924487484e-01
1.661632653061200e+11 3.545806052373147e-01 -2.790913958056855e-01 -5.229660474748385e-01 -7.564997053149745e-01 3.424955302495953e-01 -8.585022537970245e-01 3.383927316619085e-01 -3.711324130216684e-01
1.662040816326500e+11 3.526280615831646e-01 -2.791084922827381e-01 -5.236234296055473e-01 -7.560780411775232e-01 3.424037535932197e-01 -8.586170055526287e-01 3.402372220680488e-01 -3.732562390120124e-01
1.662448979591800e+11 3.546611262286605e-01 -2.772905486673441e-01 -5.242787966298024e-01 -7.556598015312095e-01 3.423113593844764e-01 -8.587345527611291e-01 3.444155479296373e-01 -3.708697108203271e-01
1.662857142857100e+11 3.513206531244948e-01 -2.802632454273820e-01 -5.249321213978406e-01 -7.552450521784616e-01 3.422183791757226e-01 -8.588549218458893e-01 3.478608010863983e-01 -3.732267337665845e-01
1.663265306122400e+11 3.480504023930566e-01 -2.818012759365913e-01 -5.255833773061189e-01 -7.548338569745394e-01 3.421248432974797e-01 -8.589781376420060e-01 3.516731921752255e-01 -3.761781176328486e-01
1.663673469387800e+11 3.464855995376379e-01 -2.808445015865547e-01 -5.262325387704732e-01 -7.544262774217950e-01 3.420307808040348e-01 -8.591042236943536e-01 3.540081409273378e-01 -3.763535020434624e-01
1.664081632653100e+11 3.460988158981069e-01 -2.800059328028914e-01 -5.268795820783223e-01 -7.540223722894198e-01 3.419362192561136e-01 -8.592332021020741e-01 3.558868420583693e-01 -3.740316101795179e-01
1.664489795918400e+11 3.451764950362964e-01 -2.797422884853396e-01 -5.275244858817334e-01 -7.536221968850999e-01 3.418411850703065e-01 -8.593650933026445e-01 3.593288503246118e-01 -3.720623985835848e-01
1.664897959183700e+11 3.439905204622964e-01 -2.793852027443577e-01 -5.281672312380624e-01 -7.532258025794089e-01 3.417457039939001e-01 -8.594999158191031e-01 3.616846143616730e-01 -3.663192254352119e-01
1.665306122449000e+11 3.415118401492609e-01 -2.801458390238163e-01 -5.288078019056487e-01 -7.528332366669399e-01 3.416498015564209e-01 -8.596376859187512e-01 3.642451545377171e-01 -3.652189220317970e-01
1.665714285714300e+11 3.410808450951655e-01 -2.796434070301983e-01 -5.294461847362680e-01 -7.524445416425494e-01 3.415535031617461e-01 -8.597784168729777e-01 3.707161287869350e-01 -3.603293889382174e-01
1.666122448979600e+11 3.420022367090340e-01 -2.780123112741197e-01 -5.300823699386099e-01 -7.520597545934526e-01 3.414568338599619e-01 -8.599221193731240e-01 3.760870289979225e-01 -3.578511206660319e-01
1.666530612244900e+11 3.416319735356800e-01 -2.778037120067730e-01 -5.307163508705115e-01 -7.516789072733665e-01 3.413598184437924e-01 -8.600688012818674e-01 3.767371262249036e-01 -3.573942319388446e-01
1.666938775510200e+11 3.421888183962445e-01 -2.778226082651181e-01 -5.313481241603917e-01 -7.513020261133242e-01 3.412624820618124e-01 -8.602184675416740e-01 3.777507471552167e-01 -3.504997015108388e-01
1.667346938775500e+11 3.398689594743580e-01 -2.792545790673890e-01 -5.319776897357185e-01 -7.509291321230990e-01 3.411648498614998e-01 -8.603711205514808e-01 3.791673264458113e-01 -3.488455123130706e-01
1.667755102040800e+11 3.404636828082843e-01 -2.781342349699665e-01 -5.326050501641413e-01 -7.505602410981387e-01 3.410669466616464e-01 -8.605267600590139e-01 3.819561744363263e-01 -3.439386477422858e-01
1.668163265306100e+11 3.424033712216175e-01 -2.790231953287623e-01 -5.332302108768762e-01 -7.501953639792314e-01 3.409687962930936e-01 -8.606853834878045e-01 3.868379673890939e-01 -3.382667095975244e-01
1.668571428571400e+11 3.420635494179073e-01 -2.813288181711525e-01 -5.338531796814723e-01 -7.498345070086496e-01 3.408704214247457e-01 -8.608469858567925e-01 3.884021082706857e-01 -3.349072706670937e-01
1.668979591836700e+11 3.409726521659080e-01 -2.838117451310263e-01 -5.344739662231041e-01 -7.494776722476244e-01 3.407718435815757e-01 -8.610115596322389e-01 3.885144811725879e-01 -3.311983742459271e-01
1.669387755102000e+11 3.391065005049405e-01 -2.869060235998551e-01 -5.350925816042327e-01 -7.491248581467836e-01 3.406730825369798e-01 -8.611790951955132e-01 3.885111981485088e-01 -3.291436614190412e-01
1.669795918367300e+11 3.364525391985361e-01 -2.906166371787676e-01 -5.357090381613501e-01 -7.487760599335511e-01 3.405741558389344e-01 -8.613495811783368e-01 3.908811263187970e-01 -3.286983397906749e-01
1.670204081632700e+11 3.356692088267285e-01 -2.918947293528157e-01 -5.363233494657647e-01 -7.484312700235498e-01 3.404750785150424e-01 -8.615230047397474e-01 3.888980423074511e-01 -3.246954536852740e-01
1.670612244898000e+11 3.337167042448274e-01 -2.930118204058405e-01 -5.369355305284594e-01 -7.480904783027051e-01 3.403758629265023e-01 -8.616993521878256e-01 3.864818686368426e-01 -3.218288244191294e-01
1.671020408163300e+11 3.324164316615003e-01 -2.952034664990200e-01 -5.375455975045433e-01 -7.477536720934453e-01 3.402765186950867e-01 -8.618786089069715e-01 3.857685223888960e-01 -3.203976100683597e-01
1.671428571428600e+11 3.299849573749814e-01 -2.978381204867935e-01 -5.381535674905616e-01 -7.474208359605942e-01 3.401770523459638e-01 -8.620607592740708e-01 3.868755559876224e-01 -3.206977871279080e-01
1.671836734693900e+11 3.301919416297081e-01 -2.991721437148961e-01 -5.387594583069308e-01 -7.470919517957022e-01 3.400774673665019e-01 -8.622457865221684e-01 3.892221241198234e-01 -3.174072202760058e-01
1.672244897959200e+11 3.278924969996630e-01 -3.012260138066259e-01 -5.393632889234806e-01 -7.467669987578307e-01 3.399777644986879e-01 -8.624336730060727e-01 3.870138806433565e-01 -3.155071943525941e-01
1.672653061224500e+11 3.273772116014184e-01 -3.021616126001889e-01 -5.399650792839903e-01 -7.464459538542031e-01 3.398779424750561e-01 -8.626243999534645e-01 3.862976629742267e-01 -3.144400961581796e-01
1.673061224489800e+11 3.265182095411615e-01 -3.024767743533091e-01 -5.405648505290558e-01 -7.461287915509190e-01 3.397779984498924e-01 -8.628179474451766e-01 3.873429131901060e-01 -3.152067090635157e-01
1.673469387755100e+11 3.258011033540477e-01 -3.027326045636480e-01 -5.411626253539455e-01 -7.458154835081686e-01 3.396779286480473e-01 -8.630142943880469e-01 3.880268411647785e-01 -3.151832750105459e-01
1.673877551020400e+11 3.257220951010384e-01 -3.036713645977269e-01 -5.417584282321464e-01 -7.455059983694430e-01 3.395777287817651e-01 -8.632134183458584e-01 3.887680822913737e-01 -3.144809388399926e-01
1.674285714285700e+11 3.246291650096119e-01 -3.028600799506282e-01 -5.423522855166805e-01 -7.452003016037050e-01 3.394773944111198e-01 -8.634152953068718e-01 3.879903767926422e-01 -3.132766110408184e-01
1.674693877551000e+11 3.258684960889253e-01 -3.023038231621807e-01 -5.429442256114687e-01 -7.448983556270943e-01 3.393769213432777e-01 -8.636198996852166e-01 3.898817091228377e-01 -3.122518563179383e-01
1.675102040816300e+11 3.259280222908535e-01 -3.030222727784085e-01 -5.435342790015598e-01 -7.446001195751450e-01 3.392763058458650e-01 -8.638272040355055e-01 3.920364838412120e-01 -3.115660948763049e-01
1.675510204081600e+11 3.247386898519145e-01 -3.029673714729018e-01 -5.441224781212417e-01 -7.443055492310416e-01 3.391755450982669e-01 -8.640371789638335e-01 3.941002660504808e-01 -3.097463415860728e-01
1.675918367346900e+11 3.246036810179700e-01 -3.036050006548933e-01 -5.447088572739992e-01 -7.440145972149026e-01 3.390746371715599e-01 -8.642497931651043e-01 3.955676377957857e-01 -3.107818630327817e-01
1.676326530612200e+11 3.249151919189753e-01 -3.039353275777197e-01 -5.452934526536977e-01 -7.437272128717441e-01 3.389735809105249e-01 -8.644650131026569e-01 3.965025841362022e-01 -3.114957963474537e-01
1.676734693877600e+11 3.274404539756374e-01 -3.045497757568350e-01 -5.458763023883244e-01 -7.434433421959848e-01 3.388723758514338e-01 -8.646828031042413e-01 3.993279876144363e-01 -3.087934574305429e-01
1.677142857142900e+11 3.267617525267298e-01 -3.071108105894587e-01 -5.464574462898376e-01 -7.431629281451195e-01 3.387710220578129e-01 -8.649031255049762e-01 4.017170180208887e-01 -3.060533123723371e-01
1.677551020408200e+11 3.245140348343180e-01 -3.093785655653944e-01 -5.470369250972600e-01 -7.428859113705069e-01 3.386695204370428e-01 -8.651259406156704e-01 4.043951532467969e-01 -3.048399236796586e-01
1.677959183673500e+11 3.246209919036077e-01 -3.112491462515668e-01 -5.476147800617878e-01 -7.426122304576084e-01 3.385678722950419e-01 -8.653512069308074e-01 4.060759851963379e-01 -3.026699226256632e-01
1.678367346938800e+11 3.238232820701265e-01 -3.143978387981565e-01 -5.481910527858529e-01 -7.423418222049325e-01 3.384660787946066e-01 -8.655788811587153e-01 4.078158718011695e-01 -3.025255489654256e-01
1.678775510204100e+11 3.222113294086412e-01 -3.161888042166301e-01 -5.487657844471777e-01 -7.420746220011323e-01 3.383641408883298e-01 -8.658089183006521e-01 4.109058945044188e-01 -3.020980162295963e-01
1.679183673469400e+11 3.202809988760055e-01 -3.192725826329322e-01 -5.493390154455294e-01 -7.418105641891819e-01 3.382620592707412e-01 -8.660412721107340e-01 4.102450002025386e-01 -3.004306740501315e-01
1.679591836734700e+11 3.193409496148223e-01 -3.223786041205088e-01 -5.499107850885447e-01 -7.415495825196567e-01 3.381598342905870e-01 -8.662758952064641e-01 4.080734671000238e-01 -2.974538341562464e-01
1.680000000000000e+11 3.193631258552829e-01 -3.251867434567742e-01 -5.504811315211037e-01 -7.412916101833942e-01 3.380574656587234e-01 -8.665127391948952e-01 4.065304869886783e-01 -2.943267814730804e-01
1.680408163265300e+11 3.176623556109616e-01 -3.288881827465633e-01 -5.510500915938087e-01 -7.410365798496370e-01 3.379549524670885e-01 -8.667517547713297e-01 4.057401516994911e-01 -2.910639716903643e-01
1.680816326530600e+11 3.147406688700629e-01 -3.305074749629071e-01 -5.516177007533999e-01 -7.407844240138272e-01 3.378522935543299e-01 -8.669928916629795e-01 4.034775145196369e-01 -2.925061450100741e-01
1.681224489795900e+11 3.102802829432403e-01 -3.339888335382528e-01 -5.521839934777977e-01 -7.405350752285769e-01 3.377494878710449e-01 -8.672360987357043e-01 4.010424021911823e-01 -2.899129430863409e-01
1.681632653061200e+11 3.075440053649270e-01 -3.334832806652772e-01 -5.527490039089931e-01 -7.402884656779617e-01 3.376465342873004e-01 -8.674813241752057e-01 3.993293212093057e-01 -2.870835740119153e-01
1.682040816326500e+11 3.092603751163023e-01 -3.316045538103978e-01 -5.533127664802460e-01 -7.400445268587890e-01 3.375434317878030e-01 -8.677285156232188e-01 3.981769454256152e-01 -2.863546139581603e-01
1.682448979591800e+11 3.095793566325977e-01 -3.313150987391659e-01 -5.538753161249539e-01 -7.398031892499271e-01 3.374401798339572e-01 -8.679776198080942e-01 3.963846601229725e-01 -2.880240819815583e-01
1.682857142857100e+11 3.102753183643609e-01 -3.316436766288652e-01 -5.544366882136230e-01 -7.395643822685048e-01 3.373367787646387e-01 -8.682285824235908e-01 3.951970789840479e-01 -2.883322145973355e-01
1.683265306122400e+11 3.104109331020362e-01 -3.320705079533260e-01 -5.549969186091179e-01 -7.393280341558186e-01 3.372332297506082e-01 -8.684813482596402e-01 3.940203099703620e-01 -2.866245277469658e-01
1.683673469387800e+11 3.114437035034122e-01 -3.330713772943087e-01 -5.555560435710633e-01 -7.390940720631329e-01 3.371295349056714e-01 -8.687358613646106e-01 3.927215955801370e-01 -2.851716032176080e-01
1.684081632653100e+11 3.133985040353354e-01 -3.343296100402152e-01 -5.561140994676089e-01 -7.388624220510774e-01 3.370256972577882e-01 -8.689920650805195e-01 3.927611011772482e-01 -2.841167678221910e-01
1.684489795918400e+11 3.129680707628586e-01 -3.362321548279379e-01 -5.566711227972591e-01 -7.386330090920252e-01 3.369217206679024e-01 -8.692499021647740e-01 3.918527812008907e-01 -2.846117997306865e-01
1.684897959183700e+11 3.135269424202029e-01 -3.358715683203632e-01 -5.572271502462472e-01 -7.384057573095036e-01 3.368176100455220e-01 -8.695093148621262e-01 3.898543325925292e-01 -2.847172806787382e-01
1.685306122449000e+11 3.144653622999335e-01 -3.372175641742942e-01 -5.577822190658958e-01 -7.381805900449423e-01 3.367133711205472e-01 -8.697702450721219e-01 3.898566893811965e-01 -2.828568398564777e-01
1.685714285714300e+11 3.145835302258548e-01 -3.388412175476027e-01 -5.583363668569099e-01 -7.379574297630328e-01 3.366090103339142e-01 -8.700326341809823e-01 3.904626921985445e-01 -2.836402821779669e-01
1.686122448979600e+11 3.139194933074736e-01 -3.407546298733418e-01 -5.588896311352872e-01 -7.377361984461092e-01 3.365045348275332e-01 -8.702964232565649e-01 3.906039793904250e-01 -2.837996353137723e-01
1.686530612244900e+11 3.142236548626942e-01 -3.421930146443810e-01 -5.594420491985472e-01 -7.375168178779593e-01 3.363999520173702e-01 -8.705615533606240e-01 3.903478317426264e-01 -2.827239652327957e-01
1.686938775510200e+11 3.141953559043698e-01 -3.441794182704399e-01 -5.599936579618207e-01 -7.372992098489312e-01 3.362952689556116e-01 -8.708279658710677e-01 3.894762527439612e-01 -2.804470506032348e-01
1.687346938775500e+11 3.127068575492478e-01 -3.469265423433734e-01 -5.605444935308911e-01 -7.370832965279516e-01 3.361904920244174e-01 -8.710956025149440e-01 3.898709326929034e-01 -2.779458833929044e-01
1.687755102040800e+11 3.127230721992979e-01 -3.484388000384908e-01 -5.610945909470052e-01 -7.368690007451255e-01 3.360856266981416e-01 -8.713644054034083e-01 3.895853015293677e-01 -2.772721294005628e-01
1.688163265306100e+11 3.129589773646504e-01 -3.496541501556654e-01 -5.616439840223632e-01 -7.366562462359916e-01 3.359806773670400e-01 -8.716343173121240e-01 3.898731053696958e-01 -2.751350610766697e-01
1.688571428571400e+11 3.124937312131181e-01 -3.503972233504248e-01 -5.621927052478364e-01 -7.364449579518556e-01 3.358756471313000e-01 -8.719052818504591e-01 3.876616419930838e-01 -2.740394507058597e-01
1.688979591836700e+11 3.108709171885461e-01 -3.528628852371743e-01 -5.627407856534760e-01 -7.362350623136820e-01 3.357705380117513e-01 -8.721772433866630e-01 3.851456504619674e-01 -2.720052115307339e-01
1.689387755102000e+11 3.111128894303516e-01 -3.530342420250230e-01 -5.632882550029081e-01 -7.360264869948102e-01 3.356653509992616e-01 -8.724501469437006e-01 3.831292795809243e-01 -2.711912788858964e-01
1.689795918367300e+11 3.123797587035189e-01 -3.546187053136272e-01 -5.638351421449949e-01 -7.358191606255530e-01 3.355600861411572e-01 -8.727239382976297e-01 3.828668877790247e-01 -2.681098517333985e-01
1.690204081632700e+11 3.128111099263744e-01 -3.552762084244020e-01 -5.643814751940657e-01 -7.356130125880883e-01 3.354547426686319e-01 -8.729985640433100e-01 3.810011039863350e-01 -2.680470690490674e-01
1.690612244898000e+11 3.130112841621842e-01 -3.566553515802265e-01 -5.649272815718569e-01 -7.354079732697587e-01 3.353493196654103e-01 -8.732739715287295e-01 3.776945747711364e-01 -2.673634514357355e-01
1.691020408163300e+11 3.124938237043068e-01 -3.567907278089842e-01 -5.654725883220109e-01 -7.352039739899230e-01 3.352438162286878e-01 -8.735501089348919e-01 3.754440767617299e-01 -2.682456422809536e-01
1.691428571428600e+11 3.144296650616235e-01 -3.581510275518010e-01 -5.660174225848530e-01 -7.350009468506737e-01 3.351382316881578e-01 -8.738269251970924e-01 3.707186955092355e-01 -2.682199273327127e-01
1.691836734693900e+11 3.152149964512621e-01 -3.593050234724408e-01 -5.665618118318457e-01 -7.347988246929665e-01 3.350325656903740e-01 -8.741043699069739e-01 3.665953043911230e-01 -2.657604206316314e-01
1.692244897959200e+11 3.150918175904487e-01 -3.609963854557257e-01 -5.671057840059560e-01 -7.345975411498481e-01 3.349268184908412e-01 -8.743823934317018e-01 3.641724759332186e-01 -2.643519279096038e-01
1.692653061224500e+11 3.161317323713436e-01 -3.617432237379978e-01 -5.676493670661268e-01 -7.343970308471667e-01 3.348209909660063e-01 -8.746609471000337e-01 3.616923763683739e-01 -2.635079334621382e-01
1.693061224489800e+11 3.167313380496635e-01 -3.616740875804996e-01 -5.681925892414679e-01 -7.341972294888613e-01 3.347150847465072e-01 -8.749399833618368e-01 3.583416976000676e-01 -2.663799091335281e-01
1.693469387755100e+11 3.173514119277174e-01 -3.623668001026304e-01 -5.687354788949929e-01 -7.339980741579136e-01 3.346091025460665e-01 -8.752194559707024e-01 3.542495969460910e-01 -2.683709524542284e-01
1.693877551020400e+11 3.177510520763208e-01 -3.623410780677840e-01 -5.692780647452875e-01 -7.337995033028435e-01 3.345030479690607e-01 -8.754993201705286e-01 3.510748200979705e-01 -2.690671614667379e-01
1.694285714285700e+11 3.189128262653781e-01 -3.628379419799384e-01 -5.698203756098859e-01 -7.336014567964341e-01 3.343969255032266e-01 -8.757795328602578e-01 3.492699798968215e-01 -2.685312227939937e-01
1.694693877551000e+11 3.207720184611779e-01 -3.651395386127964e-01 -5.703624401808544e-01 -7.334038760918299e-01 3.342907404722104e-01 -8.760600526710496e-01 3.462979972819048e-01 -2.701839743365793e-01
1.695102040816300e+11 3.207793760613057e-01 -3.660197282075247e-01 -5.709042866580997e-01 -7.332067047603429e-01 3.341844989795527e-01 -8.763408400624635e-01 3.431836708069695e-01 -2.729092154035431e-01
1.695510204081600e+11 3.194331194954791e-01 -3.662300103941104e-01 -5.714459425788490e-01 -7.330098889425541e-01 3.340782077643444e-01 -8.766218577267905e-01 3.415593617967006e-01 -2.750296336670480e-01
1.695918367346900e+11 3.204821046461842e-01 -3.653530228958595e-01 -5.719874346151147e-01 -7.328133775380914e-01 3.339718739329914e-01 -8.769030706577613e-01 3.393452464663698e-01 -2.779414243688003e-01
1.696326530612200e+11 3.210355828048110e-01 -3.676942179965312e-01 -5.725287883274245e-01 -7.326171224779905e-01 3.338655047851435e-01 -8.771844461715671e-01 3.374272048340975e-01 -2.807209070228872e-01
1.696734693877600e+11 3.196361967874695e-01 -3.685247515880828e-01 -5.730700275634349e-01 -7.324210791858266e-01 3.337591075095559e-01 -8.774659541039309e-01 3.350160032094361e-01 -2.836169854855739e-01
1.697142857142900e+11 3.194441125988307e-01 -3.695056198252472e-01 -5.736111740221900e-01 -7.322252068966565e-01 3.336526888312736e-01 -8.777475674100863e-01 3.336803457120836e-01 -2.862132076757914e-01
1.697551020408200e+11 3.193441934517353e-01 -3.698648829319169e-01 -5.741522471840030e-01 -7.320294687712250e-01 3.335462546260630e-01 -8.780292621487840e-01 3.318529133195857e-01 -2.886659134321934e-01
1.697959183673500e+11 3.182415811534111e-01 -3.692669748195440e-01 -5.746932642871528e-01 -7.318338321665413e-01 3.334398097444951e-01 -8.783110176134671e-01 3.298198651270833e-01 -2.909633656093690e-01
1.698367346938800e+11 3.211305157592753e-01 -3.669006182673741e-01 -5.752342405483756e-01 -7.316382687781239e-01 3.333333579731199e-01 -8.785928161961200e-01 3.284805536982260e-01 -2.923187170903545e-01
1.698775510204100e+11 3.222959553203208e-01 -3.659267587127296e-01 -5.757751892030221e-01 -7.314427545099192e-01 3.332269019102146e-01 -8.788746433908434e-01 3.278417065350175e-01 -2.930508959105311e-01
1.699183673469400e+11 3.239768726165648e-01 -3.653794679418721e-01 -5.763161211266216e-01 -7.312472697391084e-01 3.331204434646657e-01 -8.791564876460600e-01 3.267715839619372e-01 -2.930025818186496e-01
1.699591836734700e+11 3.246026583367616e-01 -3.642744206315428e-01 -5.768570445906476e-01 -7.310517997010727e-01 3.330139839270389e-01 -8.794383403964438e-01 3.249283886282459e-01 -2.943823802721029e-01
1.700000000000000e+11 3.264906493892931e-01 -3.645851463749963e-01 -5.773979652181584e-01 -7.308563345985777e-01 3.329075241115397e-01 -8.797201959809832e-01 3.234450542449073e-01 -2.941309682508516e-01
