! Generated by Phase I extraction
# Hz S RI R 50
1.100000000000000e+11 1.965617522016737e-01 -1.438437217587724e-02
1.100408163265300e+11 1.966939674730401e-01 -1.429848643446274e-02
1.100816326530600e+11 1.968252665418945e-01 -1.421575090124441e-02
1.101224489795900e+11 1.969556218732088e-01 -1.413635403952915e-02
1.101632653061200e+11 1.970850064927351e-01 -1.406047086808983e-02
1.102040816326500e+11 1.972133977784166e-01 -1.398825983590476e-02
1.102448979591800e+11 1.972772150152761e-01 -1.395357528069961e-02
1.102857142857100e+11 1.974040826759692e-01 -1.388712029318383e-02
1.103265306122400e+11 1.975299154048384e-01 -1.382462744132057e-02
1.103673469387800e+11 1.976546978186395e-01 -1.376617436406244e-02
1.104081632653100e+11 1.977784138530803e-01 -1.371182338096156e-02
1.104489795918400e+11 1.979010466693776e-01 -1.366162319102067e-02
1.104897959183700e+11 1.980225791847696e-01 -1.361561066428372e-02
1.105306122449000e+11 1.980829274806092e-01 -1.359418361185099e-02
1.105714285714300e+11 1.982027792822030e-01 -1.355449909465817e-02
1.106122448979600e+11 1.983214959700462e-01 -1.351904762819732e-02
1.106530612244900e+11 1.984390683572971e-01 -1.348783127073326e-02
1.106938775510200e+11 1.985554903249176e-01 -1.346084487445834e-02
1.107346938775500e+11 1.986707612251657e-01 -1.343807619218791e-02
1.107755102040800e+11 1.987279666452682e-01 -1.342826760865693e-02
1.108163265306100e+11 1.988415266714959e-01 -1.341178391375829e-02
1.108571428571400e+11 1.989539727598624e-01 -1.339944495581168e-02
1.108979591836700e+11 1.990653361114783e-01 -1.339120221827513e-02
1.109387755102000e+11 1.991756553892928e-01 -1.338699638539194e-02
1.109795918367300e+11 1.992849760247639e-01 -1.338675629832670e-02
1.110204081632700e+11 1.993933491324778e-01 -1.339039799989053e-02
1.110612244898000e+11 1.994471974404396e-01 -1.339364480876358e-02
1.111020408163300e+11 1.995542544917129e-01 -1.340292131496961e-02
1.111428571428600e+11 1.996605105042396e-01 -1.341580390104081e-02
1.111836734693900e+11 1.997660263751399e-01 -1.343215709012745e-02
1.112244897959200e+11 1.998708603746543e-01 -1.345183382938424e-02
1.112653061224500e+11 1.999750668044019e-01 -1.347467673931373e-02
1.113061224489800e+11 2.000786950066975e-01 -1.350051969033476e-02
1.113469387755100e+11 2.001303061321639e-01 -1.351451232075574e-02
1.113877551020400e+11 2.002331456844150e-01 -1.354452818731018e-02
1.114285714285700e+11 2.003354998603827e-01 -1.357709847121718e-02
1.114693877551000e+11 2.004373927343235e-01 -1.361203822685103e-02
1.115102040816300e+11 2.005388422007372e-01 -1.364916285701075e-02
1.115510204081600e+11 2.006398605332976e-01 -1.368828984118618e-02
1.115918367346900e+11 2.006902105126633e-01 -1.370854806839960e-02
1.116326530612200e+11 2.007905951256672e-01 -1.375034514562835e-02
1.116734693877600e+11 2.008905615536148e-01 -1.379371078219176e-02
1.117142857142900e+11 2.009901110845905e-01 -1.383848533182572e-02
1.117551020408200e+11 2.010892444992207e-01 -1.388451859404023e-02
1.117959183673500e+11 2.011879630823705e-01 -1.393167026078822e-02
1.118367346938800e+11 2.012862693430208e-01 -1.397980974338074e-02
1.118775510204100e+11 2.013352690562551e-01 -1.400421171784384e-02
1.119183673469400e+11 2.014329666376541e-01 -1.405360981643670e-02
1.119591836734700e+11 2.015302720009995e-01 -1.410371453495237e-02
1.120000000000000e+11 2.016271997005180e-01 -1.415443099963716e-02
1.120408163265300e+11 2.017237672025493e-01 -1.420567205266942e-02
1.120816326530600e+11 2.018199943470203e-01 -1.425735307041040e-02
1.121224489795900e+11 2.019159022767680e-01 -1.430938742324956e-02
1.121632653061200e+11 2.019637434181794e-01 -1.433550906761263e-02
1.122040816326500e+11 2.020592152408656e-01 -1.438790301344918e-02
1.122448979591800e+11 2.021544277774144e-01 -1.444041679561327e-02
1.122857142857100e+11 2.022494058582555e-01 -1.449294845433005e-02
1.123265306122400e+11 2.023441734620351e-01 -1.454539068920322e-02
1.123673469387800e+11 2.024387539854666e-01 -1.459763088158141e-02
1.124081632653100e+11 2.025331683825161e-01 -1.464955181970161e-02
1.124489795918400e+11 2.025803186229408e-01 -1.467535488656651e-02
1.124897959183700e+11 2.026745137523518e-01 -1.472656840281384e-02
1.125306122449000e+11 2.027685767401693e-01 -1.477715204804592e-02
1.125714285714300e+11 2.028625141310259e-01 -1.482697540947318e-02
1.126122448979600e+11 2.029563289926731e-01 -1.487590543332991e-02
1.126530612244900e+11 2.030500212679526e-01 -1.492380760794332e-02
1.126938775510200e+11 2.030968207648240e-01 -1.494733104222726e-02
1.127346938775500e+11 2.031903243036893e-01 -1.499343790320223e-02
1.127755102040800e+11 2.032836972753562e-01 -1.503817774895059e-02
1.128163265306100e+11 2.033769355008685e-01 -1.508141427708942e-02
1.128571428571400e+11 2.034700354615249e-01 -1.512301190092408e-02
1.128979591836700e+11 2.035629953043397e-01 -1.516283626881899e-02
1.129387755102000e+11 2.036558155003481e-01 -1.520075524511974e-02
1.129795918367300e+11 2.037021739945730e-01 -1.521895980462108e-02
1.130204081632700e+11 2.037947905605364e-01 -1.525377915799710e-02
1.130612244898000e+11 2.038872784732055e-01 -1.528637416818889e-02
1.131020408163300e+11 2.039796454598249e-01 -1.531662401774629e-02
1.131428571428600e+11 2.040719003963567e-01 -1.534441323735387e-02
1.131836734693900e+11 2.041640525781844e-01 -1.536963147458161e-02
1.132244897959200e+11 2.042561111254589e-01 -1.539217324758279e-02
1.132653061224500e+11 2.043021079971881e-01 -1.540240874950360e-02
1.133061224489800e+11 2.043940424729385e-01 -1.542074708005192e-02
1.133469387755100e+11 2.044859048998102e-01 -1.543616121583546e-02
1.133877551020400e+11 2.045777018894189e-01 -1.544855942056355e-02
1.134285714285700e+11 2.046694380261468e-01 -1.545785678452778e-02
1.134693877551000e+11 2.047611159108923e-01 -1.546397622769972e-02
1.135102040816300e+11 2.048069332840171e-01 -1.546582231976938e-02
1.135510204081600e+11 2.048985250801930e-01 -1.546704734174333e-02
1.135918367346900e+11 2.049900595833663e-01 -1.546493538417634e-02
1.136326530612200e+11 2.050815360088231e-01 -1.545943689661902e-02
1.136734693877600e+11 2.051729531973120e-01 -1.545051061385149e-02
1.137142857142900e+11 2.052643096278859e-01 -1.543812334383542e-02
1.137551020408200e+11 2.053556036405528e-01 -1.542224926531494e-02
1.137959183673500e+11 2.054012266470387e-01 -1.541299856660376e-02
1.138367346938800e+11 2.054924243115667e-01 -1.539186132844573e-02
1.138775510204100e+11 2.055835585812907e-01 -1.536720291243184e-02
1.139183673469400e+11 2.056746314738057e-01 -1.533902085688693e-02
1.139591836734700e+11 2.057656456353480e-01 -1.530731785345205e-02
1.140000000000000e+11 2.058566034914604e-01 -1.527210066154438e-02
1.140408163265300e+11 2.059475063869472e-01 -1.523337910526808e-02
1.140816326530600e+11 2.059929371895328e-01 -1.521270781982238e-02
1.141224489795900e+11 2.060837569191090e-01 -1.516875100833662e-02
1.141632653061200e+11 2.061745185514729e-01 -1.512131727466565e-02
1.142040816326500e+11 2.062652144904278e-01 -1.507041889235392e-02
1.142448979591800e+11 2.063558304772126e-01 -1.501607043133547e-02
1.142857142857100e+11 2.064463445195102e-01 -1.495828885061109e-02
1.143265306122400e+11 2.064915541246275e-01 -1.492811668749261e-02
1.143673469387800e+11 2.065818550459974e-01 -1.486522297151885e-02
1.144081632653100e+11 2.066719602180046e-01 -1.479895008046459e-02
1.144489795918400e+11 2.067618163573713e-01 -1.472932672711428e-02
1.144897959183700e+11 2.068513618001695e-01 -1.465638778261233e-02
1.145306122449000e+11 2.069405270729047e-01 -1.458017506531472e-02
1.145714285714300e+11 2.070292353202249e-01 -1.450073769080053e-02
1.146122448979600e+11 2.070733921743931e-01 -1.445982715079685e-02
1.146530612244900e+11 2.071612572229470e-01 -1.437566090628103e-02
1.146938775510200e+11 2.072484493040249e-01 -1.428842447759053e-02
1.147346938775500e+11 2.073348751140298e-01 -1.419819272308367e-02
1.147755102040800e+11 2.074204385306096e-01 -1.410504842713973e-02
1.148163265306100e+11 2.075050416520647e-01 -1.400908267892203e-02
1.148571428571400e+11 2.075885857915200e-01 -1.391039545918745e-02
1.148979591836700e+11 2.076299299623422e-01 -1.386006494949114e-02
1.149387755102000e+11 2.077117041677775e-01 -1.375750124844336e-02
1.149795918367300e+11 2.077921868642774e-01 -1.365249993487451e-02
1.150204081632700e+11 2.078712933958213e-01 -1.354518523329416e-02
1.150612244898000e+11 2.079103050723334e-01 -1.349070071848435e-02
1.151020408163300e+11 2.079489429052277e-01 -1.343568674268711e-02
1.151428571428600e+11 2.079871985512433e-01 -1.338015948196116e-02
1.151836734693900e+11 2.080250645457472e-01 -1.332413474265954e-02
1.152244897959200e+11 2.080625341397772e-01 -1.326762791297224e-02
1.152653061224500e+11 2.080996011447145e-01 -1.321065393763964e-02
1.153061224489800e+11 2.081362597976492e-01 -1.315322735480647e-02
1.153469387755100e+11 2.081725046225565e-01 -1.309536235784203e-02
1.153877551020400e+11 2.082083303477423e-01 -1.303707285366210e-02
1.154285714285700e+11 2.082437318227819e-01 -1.297837256028764e-02
1.154693877551000e+11 2.082787039964794e-01 -1.291927509201832e-02
1.155102040816300e+11 2.083132418981803e-01 -1.285979402418439e-02
1.155510204081600e+11 2.083473406309550e-01 -1.279994293490777e-02
1.155918367346900e+11 2.083809954154516e-01 -1.273973543691515e-02
1.156326530612200e+11 2.084142015874506e-01 -1.267918516346155e-02
1.156734693877600e+11 2.084469545535464e-01 -1.261830571492281e-02
1.157142857142900e+11 2.084792497885500e-01 -1.255711061846730e-02
1.157551020408200e+11 2.085110827961641e-01 -1.249561328577779e-02
1.157959183673500e+11 2.085424490884501e-01 -1.243382692147406e-02
1.158367346938800e+11 2.085733441838941e-01 -1.237176445874926e-02
1.158775510204100e+11 2.086037635670260e-01 -1.230943849070442e-02
1.159183673469400e+11 2.086337026387534e-01 -1.224686128495096e-02
1.159591836734700e+11 2.086631566678177e-01 -1.218404477466008e-02
1.160000000000000e+11 2.086921207656214e-01 -1.212100059697024e-02
1.160408163265300e+11 2.087205898886151e-01 -1.205774014508827e-02
1.160816326530600e+11 2.087485588276405e-01 -1.199427465769096e-02
1.161224489795900e+11 2.087760222148571e-01 -1.193061530920649e-02
1.161632653061200e+11 2.088029745594696e-01 -1.186677330873122e-02
1.162040816326500e+11 2.088294103133793e-01 -1.180275999668589e-02
1.162448979591800e+11 2.088553239769075e-01 -1.173858695834023e-02
1.162857142857100e+11 2.088807102174530e-01 -1.167426609110381e-02
1.163265306122400e+11 2.089055639976914e-01 -1.160980964487671e-02
1.163673469387800e+11 2.089298807048039e-01 -1.154523020404772e-02
1.164081632653100e+11 2.089536562985649e-01 -1.148054069439287e-02
1.164489795918400e+11 2.089768874846704e-01 -1.141575437353314e-02
1.164897959183700e+11 2.089995718426651e-01 -1.135088474583445e-02
1.165306122449000e+11 2.090217079271105e-01 -1.128594548336483e-02
1.165714285714300e+11 2.090432953178277e-01 -1.122095033751123e-02
1.166122448979600e+11 2.090643346702669e-01 -1.115591304619574e-02
1.166530612244900e+11 2.090848277107189e-01 -1.109084723185916e-02
1.166938775510200e+11 2.091047772231021e-01 -1.102576627986690e-02
1.167346938775500e+11 2.091241870664096e-01 -1.096068318903759e-02
1.167755102040800e+11 2.091430621294720e-01 -1.089561043162058e-02
1.168163265306100e+11 2.091614082367856e-01 -1.083055986378497e-02
1.168571428571400e+11 2.091792320391600e-01 -1.076554262654148e-02
1.168979591836700e+11 2.091965408909404e-01 -1.070056908847448e-02
1.169387755102000e+11 2.092133426759198e-01 -1.063564880792747e-02
1.169795918367300e+11 2.092296456481241e-01 -1.057079054056272e-02
1.170204081632700e+11 2.092454582887588e-01 -1.050600224993473e-02
1.170612244898000e+11 2.092607891862285e-01 -1.044129115410251e-02
1.171020408163300e+11 2.092756469418875e-01 -1.037666377056659e-02
1.171428571428600e+11 2.092900401027079e-01 -1.031212600611402e-02
1.171836734693900e+11 2.093039770914654e-01 -1.024768320604173e-02
1.172244897959200e+11 2.093174661767325e-01 -1.018334026125942e-02
1.172653061224500e+11 2.093305154349921e-01 -1.011910169887044e-02
1.173061224489800e+11 2.093431327330865e-01 -1.005497174861020e-02
1.173469387755100e+11 2.093553257389644e-01 -9.990954412352223e-03
1.173877551020400e+11 2.093671019345293e-01 -9.927053535320380e-03
1.174285714285700e+11 2.093784686720399e-01 -9.863272872304372e-03
1.174693877551000e+11 2.093894332299827e-01 -9.799616130554318e-03
1.175102040816300e+11 2.094000028373272e-01 -9.736086964058354e-03
1.175510204081600e+11 2.094101847143880e-01 -9.672688995844921e-03
1.175918367346900e+11 2.094199861022031e-01 -9.609425833555401e-03
1.176326530612200e+11 2.094294143174767e-01 -9.546301064047809e-03
1.176734693877600e+11 2.094384768262510e-01 -9.483318214689288e-03
1.177142857142900e+11 2.094471812748095e-01 -9.420480725767550e-03
1.177551020408200e+11 2.094555355140088e-01 -9.357791972688207e-03
1.177959183673500e+11 2.094635476307824e-01 -9.295255264091310e-03
1.178367346938800e+11 2.094712259671866e-01 -9.232873848044283e-03
1.178775510204100e+11 2.094785791387812e-01 -9.170650886453850e-03
1.179183673469400e+11 2.094856160743837e-01 -9.108589431922337e-03
1.179591836734700e+11 2.094923460561784e-01 -9.046692373259469e-03
1.180000000000000e+11 2.094987787522760e-01 -8.984962417561231e-03
1.180408163265300e+11 2.095049242236402e-01 -8.923402033142120e-03
1.180816326530600e+11 2.095107929172581e-01 -8.862013428675000e-03
1.181224489795900e+11 2.095163957815007e-01 -8.800798981930777e-03
1.181632653061200e+11 2.095217443000050e-01 -8.739761221682154e-03
1.182040816326500e+11 2.095268504706105e-01 -8.678902818783855e-03
1.182448979591800e+11 2.095317267719782e-01 -8.618226601453923e-03
1.182857142857100e+11 2.095363861848978e-01 -8.557735573481344e-03
1.183265306122400e+11 2.095408421753586e-01 -8.497432957006277e-03
1.183673469387800e+11 2.095451086838329e-01 -8.437322170819442e-03
1.184081632653100e+11 2.095492001205611e-01 -8.377406840457808e-03
1.184489795918400e+11 2.095531313792909e-01 -8.317690787327220e-03
1.184897959183700e+11 2.095569178425492e-01 -8.258178053367527e-03
1.185306122449000e+11 2.095605753982595e-01 -8.198872909651322e-03
1.185714285714300e+11 2.095641204192952e-01 -8.139779886033326e-03
1.186122448979600e+11 2.095675697063606e-01 -8.080903779599812e-03
1.186530612244900e+11 2.095709404438078e-01 -8.022249701156298e-03
1.186938775510200e+11 2.095742501075270e-01 -7.963823109208611e-03
1.187346938775500e+11 2.095775163479328e-01 -7.905629808590239e-03
1.187755102040800e+11 2.095807568876675e-01 -7.847675968822491e-03
1.188163265306100e+11 2.095839894605418e-01 -7.789968134965066e-03
1.188571428571400e+11 2.095872317190804e-01 -7.732513225815577e-03
1.188979591836700e+11 2.095905011363047e-01 -7.675318531360276e-03
1.189387755102000e+11 2.095938149445083e-01 -7.618391710206692e-03
1.189795918367300e+11 2.095971900712702e-01 -7.561740825595639e-03
1.190204081632700e+11 2.096006431483642e-01 -7.505374383383566e-03
1.190612244898000e+11 2.096041904953082e-01 -7.449301342407233e-03
1.191020408163300e+11 2.096078481246705e-01 -7.393531097570124e-03
1.191428571428600e+11 2.096116317582645e-01 -7.338073511438026e-03
1.191836734693900e+11 2.096155568373851e-01 -7.282938958234736e-03
1.192244897959200e+11 2.096196385459790e-01 -7.228138321449713e-03
1.192653061224500e+11 2.096238918515373e-01 -7.173683026005995e-03
1.193061224489800e+11 2.096283314941408e-01 -7.119585027943270e-03
1.193469387755100e+11 2.096329719853261e-01 -7.065856844922389e-03
1.193877551020400e+11 2.096378275699704e-01 -7.012511566597719e-03
1.194285714285700e+11 2.096429122460665e-01 -6.959562840367696e-03
1.194693877551000e+11 2.096482397682864e-01 -6.907024782627742e-03
1.195102040816300e+11 2.096538236413172e-01 -6.854911898185768e-03
1.195510204081600e+11 2.096596771250412e-01 -6.803239046336827e-03
1.195918367346900e+11 2.096658132250254e-01 -6.752021390686052e-03
1.196326530612200e+11 2.096722447300097e-01 -6.701274303768880e-03
1.196734693877600e+11 2.096789842075747e-01 -6.651013279812097e-03
1.197142857142900e+11 2.096860440193999e-01 -6.601253860977705e-03
1.197551020408200e+11 2.096934363283056e-01 -6.552011602288663e-03
1.197959183673500e+11 2.097011730959110e-01 -6.503302009662379e-03
1.198367346938800e+11 2.097092660688455e-01 -6.455140455095613e-03
1.198775510204100e+11 2.097177267628999e-01 -6.407542160368954e-03
1.199183673469400e+11 2.097265664728820e-01 -6.360522195220092e-03
1.199591836734700e+11 2.097357962871374e-01 -6.314095472073316e-03
1.200000000000000e+11 2.097454270341116e-01 -6.268276717634079e-03
1.200408163265300e+11 2.097554692480590e-01 -6.223080460910013e-03
1.200816326530600e+11 2.097659331055673e-01 -6.178521084914602e-03
1.201224489795900e+11 2.097768283486822e-01 -6.134612851119528e-03
1.201632653061200e+11 2.097881642196700e-01 -6.091369973848858e-03
1.202040816326500e+11 2.097999494178076e-01 -6.048806685954459e-03
1.202448979591800e+11 2.098121920826544e-01 -6.006937323370935e-03
1.202857142857100e+11 2.098248997538691e-01 -5.965776352283743e-03
1.203265306122400e+11 2.098380793491814e-01 -5.925338410335197e-03
1.203673469387800e+11 2.098517371950148e-01 -5.885638348154237e-03
1.204081632653100e+11 2.098658791195552e-01 -5.846691314875387e-03
1.204489795918400e+11 2.098805105033993e-01 -5.808512801798830e-03
1.204897959183700e+11 2.098956363440872e-01 -5.771118622714864e-03
1.205306122449000e+11 2.099112613155643e-01 -5.734524933231776e-03
1.205714285714300e+11 2.099273898566679e-01 -5.698748234117096e-03
1.206122448979600e+11 2.099440262433801e-01 -5.663805395289150e-03
1.206530612244900e+11 2.099611746467779e-01 -5.629713617252370e-03
1.206938775510200e+11 2.099788391828597e-01 -5.596490355388443e-03
1.207346938775500e+11 2.099970239269765e-01 -5.564153275560172e-03
1.207755102040800e+11 2.100157328957131e-01 -5.532720157268896e-03
1.208163265306100e+11 2.100349700548083e-01 -5.502208753455418e-03
1.208571428571400e+11 2.100547392950355e-01 -5.472636636280873e-03
1.208979591836700e+11 2.100750444155048e-01 -5.444021014448039e-03
1.209387755102000e+11 2.100958891225014e-01 -5.416378576468057e-03
1.209795918367300e+11 2.101172770425699e-01 -5.389725256043478e-03
1.210204081632700e+11 2.101392117339314e-01 -5.364076094770717e-03
1.210612244898000e+11 2.101616966722196e-01 -5.339445122527546e-03
1.211020408163300e+11 2.101847352498777e-01 -5.315845241990493e-03
1.211428571428600e+11 2.102083307452879e-01 -5.293288127697855e-03
1.211836734693900e+11 2.102324862648042e-01 -5.271784118617810e-03
1.212244897959200e+11 2.102572047089872e-01 -5.251342174139926e-03
1.212653061224500e+11 2.102824887813702e-01 -5.231969858239331e-03
1.213061224489800e+11 2.103083409929261e-01 -5.213673375610511e-03
1.213469387755100e+11 2.103347636039940e-01 -5.196457662464992e-03
1.213877551020400e+11 2.103617585750835e-01 -5.180326461756073e-03
1.214285714285700e+11 2.103893275362680e-01 -5.165282388574340e-03
1.214693877551000e+11 2.104174717462112e-01 -5.151326965194404e-03
1.215102040816300e+11 2.104461920574674e-01 -5.138460639192266e-03
1.215510204081600e+11 2.104754888783846e-01 -5.126682762444542e-03
1.215918367346900e+11 2.105053621842778e-01 -5.115991612967547e-03
1.216326530612200e+11 2.105358115626437e-01 -5.106384456662351e-03
1.216734693877600e+11 2.105668362156064e-01 -5.097857558161161e-03
1.217142857142900e+11 2.105984350112042e-01 -5.090406172438395e-03
1.217551020408200e+11 2.106306065176540e-01 -5.084024576748869e-03
1.217959183673500e+11 2.106633490545207e-01 -5.078706109876264e-03
1.218367346938800e+11 2.106966607144969e-01 -5.074443192395787e-03
1.218775510204100e+11 2.107305393981302e-01 -5.071227336132084e-03
1.219183673469400e+11 2.107649828531953e-01 -5.069049166915777e-03
1.219591836734700e+11 2.107999886887851e-01 -5.067898416722174e-03
1.220000000000000e+11 2.108355543477585e-01 -5.067763952977547e-03
1.220408163265300e+11 2.108716770785497e-01 -5.068633859960266e-03
1.220816326530600e+11 2.109083538847896e-01 -5.070495489636241e-03
1.221224489795900e+11 2.109455815065222e-01 -5.073335527183658e-03
1.221632653061200e+11 2.109833563665874e-01 -5.077140079745790e-03
1.222040816326500e+11 2.110216745067410e-01 -5.081894805044359e-03
1.222448979591800e+11 2.110605315422514e-01 -5.087585038924932e-03
1.222857142857100e+11 2.110999226657417e-01 -5.094195871346796e-03
1.223265306122400e+11 2.111398426578072e-01 -5.101712234894749e-03
1.223673469387800e+11 2.111802859181684e-01 -5.110118964618164e-03
1.224081632653100e+11 2.112212464966094e-01 -5.119400842449852e-03
1.224489795918400e+11 2.112627181949477e-01 -5.129542582679152e-03
1.224897959183700e+11 2.113046946386402e-01 -5.140528847190493e-03
1.225306122449000e+11 2.113471693629072e-01 -5.152344263492358e-03
1.225714285714300e+11 2.113901359483901e-01 -5.164973402947743e-03
1.226122448979600e+11 2.114335880506450e-01 -5.178400773629133e-03
1.226530612244900e+11 2.114775194508401e-01 -5.192610791260806e-03
1.226938775510200e+11 2.115219241016411e-01 -5.207587772496139e-03
1.227346938775500e+11 2.115667960798855e-01 -5.223315881413327e-03
1.227755102040800e+11 2.116121295300637e-01 -5.239779055434037e-03
1.228163265306100e+11 2.116579185883668e-01 -5.256960889483940e-03
1.228571428571400e+11 2.117041572656594e-01 -5.274844609411377e-03
1.228979591836700e+11 2.117508393680125e-01 -5.293413033949721e-03
1.229387755102000e+11 2.117979584321774e-01 -5.312648515139099e-03
1.229795918367300e+11 2.118455076693185e-01 -5.332532872460396e-03
1.230204081632700e+11 2.118934799069442e-01 -5.353047384428070e-03
1.230612244898000e+11 2.119418674890405e-01 -5.374172756356976e-03
1.231020408163300e+11 2.119906622193727e-01 -5.395889093911076e-03
1.231428571428600e+11 2.120398553763113e-01 -5.418175921753730e-03
1.231836734693900e+11 2.120894377473075e-01 -5.441012235899606e-03
1.232244897959200e+11 2.121393996537727e-01 -5.464376577555542e-03
1.232653061224500e+11 2.121897309762039e-01 -5.488247102921178e-03
1.233061224489800e+11 2.122404211550459e-01 -5.512601669776061e-03
1.233469387755100e+11 2.122914592091049e-01 -5.537417912111972e-03
1.233877551020400e+11 2.123428337809339e-01 -5.562673369050443e-03
1.234285714285700e+11 2.123945331662716e-01 -5.588345589410914e-03
1.234693877551000e+11 2.124465453240531e-01 -5.614412200685751e-03
1.235102040816300e+11 2.124988578367701e-01 -5.640850955206013e-03
1.235510204081600e+11 2.125514579324612e-01 -5.667639759047210e-03
1.235918367346900e+11 2.126043324980305e-01 -5.694756701737571e-03
1.236326530612200e+11 2.126574681401209e-01 -5.722180077940808e-03
1.236734693877600e+11 2.127108512409565e-01 -5.749888346423313e-03
1.237142857142900e+11 2.127644680031373e-01 -5.777860086424666e-03
1.237551020408200e+11 2.128183045340551e-01 -5.806073934557188e-03
1.237959183673500e+11 2.128723469466230e-01 -5.834508539844018e-03
1.238367346938800e+11 2.129265814277597e-01 -5.863142515462013e-03
1.238775510204100e+11 2.129809943068651e-01 -5.891954382619452e-03
1.239183673469400e+11 2.130355721283101e-01 -5.920922571959996e-03
1.239591836734700e+11 2.130903017591921e-01 -5.950025407010481e-03
1.240000000000000e+11 2.131451704381301e-01 -5.979241105968425e-03
1.240408163265300e+11 2.132001657456382e-01 -6.008547814398533e-03
1.240816326530600e+11 2.132552755570707e-01 -6.037923637607379e-03
1.241224489795900e+11 2.133104879911536e-01 -6.067346612700571e-03
1.241632653061200e+11 2.133657913510602e-01 -6.096794726708380e-03
1.242040816326500e+11 2.134211740228028e-01 -6.126245946111868e-03
1.242448979591800e+11 2.134766243523320e-01 -6.155678231166481e-03
1.242857142857100e+11 2.135321306096077e-01 -6.185069569285360e-03
1.243265306122400e+11 2.135876809509807e-01 -6.214398020715670e-03
1.243673469387800e+11 2.136432634161179e-01 -6.243641789587038e-03
1.244081632653100e+11 2.136988659304394e-01 -6.272779288252028e-03
1.244489795918400e+11 2.137544762997959e-01 -6.301789148404901e-03
1.244897959183700e+11 2.138100822242400e-01 -6.330650275772003e-03
1.245306122449000e+11 2.138656713755741e-01 -6.359341906358486e-03
1.245714285714300e+11 2.139212314780734e-01 -6.387843705475813e-03
1.246122448979600e+11 2.139767503565621e-01 -6.416135826054475e-03
1.246530612244900e+11 2.140322159680775e-01 -6.444198919324859e-03
1.246938775510200e+11 2.140876164046826e-01 -6.472014161195172e-03
1.247346938775500e+11 2.141429399238353e-01 -6.499563280762016e-03
1.247755102040800e+11 2.141981749691108e-01 -6.526828584869573e-03
1.248163265306100e+11 2.142533101547407e-01 -6.553792964246144e-03
1.248571428571400e+11 2.143083342345873e-01 -6.580439856542407e-03
1.248979591836700e+11 2.143632360429658e-01 -6.606753217726346e-03
1.249387755102000e+11 2.144180044446976e-01 -6.632717531920590e-03
1.249795918367300e+11 2.144726282712987e-01 -6.658317759076235e-03
1.250204081632700e+11 2.145270962557498e-01 -6.683539309418965e-03
1.250612244898000e+11 2.145813969389202e-01 -6.708368021564337e-03
1.251020408163300e+11 2.146355185777906e-01 -6.732790160565899e-03
1.251428571428600e+11 2.146894490837356e-01 -6.756792396232426e-03
1.251836734693900e+11 2.147431759802882e-01 -6.780361810314186e-03
1.252244897959200e+11 2.147966863861336e-01 -6.803485895755806e-03
1.252653061224500e+11 2.148499670257393e-01 -6.826152600396165e-03
1.253061224489800e+11 2.149030042057952e-01 -6.848350330635183e-03
1.253469387755100e+11 2.149557838715843e-01 -6.870067981017922e-03
1.253877551020400e+11 2.150082916370987e-01 -6.891295006172759e-03
1.254285714285700e+11 2.150605127869703e-01 -6.912021485131150e-03
1.254693877551000e+11 2.151124323092928e-01 -6.932238169079195e-03
1.255102040816300e+11 2.151640349043864e-01 -6.951936561291089e-03
1.255510204081600e+11 2.152153049814866e-01 -6.971108981659994e-03
1.255918367346900e+11 2.152662266788258e-01 -6.989748616649163e-03
1.256326530612200e+11 2.153167838960736e-01 -7.007849509653709e-03
1.256734693877600e+11 2.153669603175173e-01 -7.025406593489240e-03
1.257142857142900e+11 2.154167394413246e-01 -7.042415688469253e-03
1.257551020408200e+11 2.154661046353338e-01 -7.058873492428315e-03
1.257959183673500e+11 2.155150392297731e-01 -7.074777535949757e-03
1.258367346938800e+11 2.155635265673314e-01 -7.090126153341788e-03
1.258775510204100e+11 2.156115500586238e-01 -7.104918409668797e-03
1.259183673469400e+11 2.156590932394385e-01 -7.119154065162490e-03
1.259591836734700e+11 2.157061398237173e-01 -7.132833526283969e-03
1.260000000000000e+11 2.157526737109847e-01 -7.145957814420454e-03
1.260408163265300e+11 2.157986790025788e-01 -7.158528532147012e-03
1.260816326530600e+11 2.158441400049573e-01 -7.170547799035915e-03
1.261224489795900e+11 2.158890412291208e-01 -7.182018217030312e-03
1.261632653061200e+11 2.159333673119146e-01 -7.192942859781357e-03
1.262040816326500e+11 2.159771029735257e-01 -7.203325266266370e-03
1.262448979591800e+11 2.160202329245258e-01 -7.213169460912224e-03
1.262857142857100e+11 2.160627417770832e-01 -7.222479934314670e-03
1.263265306122400e+11 2.161046139518367e-01 -7.231261629761938e-03
1.263673469387800e+11 2.161458335888837e-01 -7.239519960945722e-03
1.264081632653100e+11 2.161863845241215e-01 -7.247260852518540e-03
1.264489795918400e+11 2.162262502660087e-01 -7.254490787014738e-03
1.264897959183700e+11 2.162654139395847e-01 -7.261216801237723e-03
1.265306122449000e+11 2.163038582445811e-01 -7.267446512906787e-03
1.265714285714300e+11 2.163415654756119e-01 -7.273188192096203e-03
1.266122448979600e+11 2.163785175174049e-01 -7.278450810536425e-03
1.266530612244900e+11 2.164146958531188e-01 -7.283244062164775e-03
1.266938775510200e+11 2.164500815824243e-01 -7.287578370480423e-03
1.267346938775500e+11 2.164846554689036e-01 -7.291464886788876e-03
1.267755102040800e+11 2.165183980062299e-01 -7.294915537716092e-03
1.268163265306100e+11 2.165512894468422e-01 -7.297943019820112e-03
1.268571428571400e+11 2.165833098447996e-01 -7.300560798346577e-03
1.268979591836700e+11 2.166144390879436e-01 -7.302783103134694e-03
1.269387755102000e+11 2.166446569591170e-01 -7.304624875214020e-03
1.269795918367300e+11 2.166739431988841e-01 -7.306101732241164e-03
1.270204081632700e+11 2.167022775497066e-01 -7.307229970305041e-03
1.270612244898000e+11 2.167296397974990e-01 -7.308026537479710e-03
1.271020408163300e+11 2.167560098087941e-01 -7.308508987865795e-03
1.271428571428600e+11 2.167813675855234e-01 -7.308695400805297e-03
1.271836734693900e+11 2.168056933205683e-01 -7.308604290956923e-03
1.272244897959200e+11 2.168289674690740e-01 -7.308254512675051e-03
1.272653061224500e+11 2.168511708159148e-01 -7.307665185421722e-03
1.273061224489800e+11 2.168722845096884e-01 -7.306855641540482e-03
1.273469387755100e+11 2.168922900685435e-01 -7.305845348326804e-03
1.273877551020400e+11 2.169111694161879e-01 -7.304653833554278e-03
1.274285714285700e+11 2.169289049051916e-01 -7.303300636908550e-03
1.274693877551000e+11 2.169454793259639e-01 -7.301805310047733e-03
1.275102040816300e+11 2.169608758712191e-01 -7.300187397277672e-03
1.275510204081600e+11 2.169750781100369e-01 -7.298466447216692e-03
1.275918367346900e+11 2.169880699364443e-01 -7.296662034728050e-03
1.276326530612200e+11 2.169998355564978e-01 -7.294793762126632e-03
1.276734693877600e+11 2.170103594791674e-01 -7.292881264691662e-03
1.277142857142900e+11 2.170196264881582e-01 -7.290944221277392e-03
1.277551020408200e+11 2.170276216158480e-01 -7.289002373892787e-03
1.277959183673500e+11 2.170343301393571e-01 -7.287075542941310e-03
1.278367346938800e+11 2.170397376302207e-01 -7.285183659263257e-03
1.278775510204100e+11 2.170438299748016e-01 -7.283346718309526e-03
1.279183673469400e+11 2.170465934202070e-01 -7.281584756135430e-03
1.279591836734700e+11 2.170480146045951e-01 -7.279917817366663e-03
1.280000000000000e+11 2.170480805928391e-01 -7.278365974077600e-03
1.280408163265300e+11 2.170467788472889e-01 -7.276949334499637e-03
1.280816326530600e+11 2.170440972015938e-01 -7.275688027957354e-03
1.281224489795900e+11 2.170400238209131e-01 -7.274602201282144e-03
1.281632653061200e+11 2.170345471727871e-01 -7.273711985859451e-03
1.282040816326500e+11 2.170276559880163e-01 -7.273037424167912e-03
1.282448979591800e+11 2.170193392048040e-01 -7.272598419664771e-03
1.282857142857100e+11 2.170095859588902e-01 -7.272414687604667e-03
1.283265306122400e+11 2.169983855736312e-01 -7.272505727239888e-03
1.283673469387800e+11 2.169857275444195e-01 -7.272890791682301e-03
1.284081632653100e+11 2.169716015220148e-01 -7.273588824456259e-03
1.284489795918400e+11 2.169559973186427e-01 -7.274618450725285e-03
1.284897959183700e+11 2.169389049247487e-01 -7.275998005162498e-03
1.285306122449000e+11 2.169203145263826e-01 -7.277745546996255e-03
1.285714285714300e+11 2.169002165584074e-01 -7.279878915292946e-03
1.286122448979600e+11 2.168786017713200e-01 -7.282415775024020e-03
1.286530612244900e+11 2.168554613002364e-01 -7.285373637740503e-03
1.286938775510200e+11 2.168307867311671e-01 -7.288769934324116e-03
1.287346938775500e+11 2.168045702056814e-01 -7.292622072495767e-03
1.287755102040800e+11 2.167768045271667e-01 -7.296947498282515e-03
1.288163265306100e+11 2.167474832429711e-01 -7.301763724083752e-03
1.288571428571400e+11 2.167166007586620e-01 -7.307088388687678e-03
1.288979591836700e+11 2.166841524086325e-01 -7.312939263219104e-03
1.289387755102000e+11 2.166501345931643e-01 -7.319334259649936e-03
1.289795918367300e+11 2.166145448835644e-01 -7.326291390816728e-03
1.290204081632700e+11 2.165773820943958e-01 -7.333828692958305e-03
1.290612244898000e+11 2.165386463752262e-01 -7.341964165316453e-03
1.291020408163300e+11 2.164983392831260e-01 -7.350715698107032e-03
1.291428571428600e+11 2.164564638738010e-01 -7.360100933734843e-03
1.291836734693900e+11 2.164130247443494e-01 -7.370137156480870e-03
1.292244897959200e+11 2.163680280940896e-01 -7.380841159196585e-03
1.292653061224500e+11 2.163214817596407e-01 -7.392229110460922e-03
1.293061224489800e+11 2.162733951855335e-01 -7.404316484935941e-03
1.293469387755100e+11 2.162237793698032e-01 -7.417117970673489e-03
1.293877551020400e+11 2.161726468506514e-01 -7.430647394824965e-03
1.294285714285700e+11 2.161200116053142e-01 -7.444917686950043e-03
1.294693877551000e+11 2.160658889392327e-01 -7.459940886553156e-03
1.295102040816300e+11 2.160102953453430e-01 -7.475728148438316e-03
1.295510204081600e+11 2.159532484043137e-01 -7.492289745077669e-03
1.295918367346900e+11 2.158947666415753e-01 -7.509635073276424e-03
1.296326530612200e+11 2.158348694264260e-01 -7.527772715297301e-03
1.296734693877600e+11 2.157735768415870e-01 -7.546710530840300e-03
1.297142857142900e+11 2.157109095701768e-01 -7.566455737991290e-03
1.297551020408200e+11 2.156468888091982e-01 -7.587015038403423e-03
1.297959183673500e+11 2.155815361975426e-01 -7.608394739700698e-03
1.298367346938800e+11 2.155148737674427e-01 -7.630600873440486e-03
1.298775510204100e+11 2.154469239204655e-01 -7.653639336519216e-03
1.299183673469400e+11 2.153777093987690e-01 -7.677516008313812e-03
1.299591836734700e+11 2.153072533131621e-01 -7.702236804256630e-03
1.300000000000000e+11 2.152355792238993e-01 -7.727807768916756e-03
1.300408163265300e+11 2.151627112341664e-01 -7.754235142422111e-03
1.300816326530600e+11 2.150886740782489e-01 -7.781525414857773e-03
1.301224489795900e+11 2.150134932269055e-01 -7.809685374411613e-03
1.301632653061200e+11 2.149371949965088e-01 -7.838722146132767e-03
1.302040816326500e+11 2.148598066171644e-01 -7.868643235766361e-03
1.302448979591800e+11 2.147813563072914e-01 -7.899456492609569e-03
1.302857142857100e+11 2.147018733602929e-01 -7.931170048236473e-03
1.303265306122400e+11 2.146213881305371e-01 -7.963792254334792e-03
1.303673469387800e+11 2.145399320459351e-01 -7.997331614304158e-03
1.304081632653100e+11 2.144575376087656e-01 -8.031796746165262e-03
1.304489795918400e+11 2.143742383169521e-01 -8.067196284260190e-03
1.304897959183700e+11 2.142900686533986e-01 -8.103538821598396e-03
1.305306122449000e+11 2.142050640643017e-01 -8.140832839599255e-03
1.305714285714300e+11 2.141192609027696e-01 -8.179086679209073e-03
1.306122448979600e+11 2.140326963796450e-01 -8.218308480562790e-03
1.306530612244900e+11 2.139454085451384e-01 -8.258506105199379e-03
1.306938775510200e+11 2.138574362580969e-01 -8.299687095834118e-03
1.307346938775500e+11 2.137688191775919e-01 -8.341858594726373e-03
1.307755102040800e+11 2.136795977349209e-01 -8.385027291822521e-03
1.308163265306100e+11 2.135898131035194e-01 -8.429199461016473e-03
1.308571428571400e+11 2.134995071589405e-01 -8.474381005838954e-03
1.308979591836700e+11 2.134087224311060e-01 -8.520577513360427e-03
1.309387755102000e+11 2.133175020375039e-01 -8.567794278915759e-03
1.309795918367300e+11 2.132258895989486e-01 -8.616036357648517e-03
1.310204081632700e+11 2.131339291409016e-01 -8.665308617995417e-03
1.310612244898000e+11 2.130416649593956e-01 -8.715615761588920e-03
1.311020408163300e+11 2.129491414422597e-01 -8.766962415775355e-03
1.311428571428600e+11 2.128564029719840e-01 -8.819353138452649e-03
1.311836734693900e+11 2.127634938386525e-01 -8.872792437691677e-03
1.312244897959200e+11 2.126704581763570e-01 -8.927284866330492e-03
1.312653061224500e+11 2.125773399046084e-01 -8.982835044842529e-03
1.313061224489800e+11 2.124841826432937e-01 -9.039447620346404e-03
1.313469387755100e+11 2.123910296706941e-01 -9.097127214837701e-03
1.313877551020400e+11 2.122979238922129e-01 -9.155878412424512e-03
1.314285714285700e+11 2.122049078737681e-01 -9.215705733930326e-03
1.314693877551000e+11 2.121120238662724e-01 -9.276613637175231e-03
1.315102040816300e+11 2.120193137943359e-01 -9.338606469692260e-03
1.315510204081600e+11 2.119268192268556e-01 -9.401688464421097e-03
1.315918367346900e+11 2.118345813964054e-01 -9.465863732869333e-03
1.316326530612200e+11 2.117426412364408e-01 -9.531136201987167e-03
1.316734693877600e+11 2.116510393513077e-01 -9.597509613377188e-03
1.317142857142900e+11 2.115598159799446e-01 -9.664987527047128e-03
1.317551020408200e+11 2.114690109181014e-01 -9.733573315592122e-03
1.317959183673500e+11 2.113786634241292e-01 -9.803270175368790e-03
1.318367346938800e+11 2.112888121402565e-01 -9.874081111370099e-03
1.318775510204100e+11 2.111994950002003e-01 -9.946008937121839e-03
1.319183673469400e+11 2.111107491308758e-01 -1.001905629412254e-02
1.319591836734700e+11 2.110226107485708e-01 -1.009322566331997e-02
1.320000000000000e+11 2.109351150528120e-01 -1.016851934218721e-02
1.320408163265300e+11 2.108482961792694e-01 -1.024493937114810e-02
1.320816326530600e+11 2.107621871969803e-01 -1.032248748393287e-02
1.321224489795900e+11 2.106768201005114e-01 -1.040116508124100e-02
1.321632653061200e+11 2.105922258644865e-01 -1.048097312976114e-02
1.322040816326500e+11 2.105084345114016e-01 -1.056191207970674e-02
1.322448979591800e+11 2.104254751945618e-01 -1.064398181921724e-02
1.322857142857100e+11 2.103433763240445e-01 -1.072718162671045e-02
1.323265306122400e+11 2.102621656368053e-01 -1.081151007280066e-02
1.323673469387800e+11 2.101818702462766e-01 -1.089696494627289e-02
1.324081632653100e+11 2.101025167101928e-01 -1.098354322823747e-02
1.324489795918400e+11 2.100241310442252e-01 -1.107124109262520e-02
1.324897959183700e+11 2.099467386984583e-01 -1.116005387455734e-02
1.325306122449000e+11 2.098703644672927e-01 -1.124997599459639e-02
1.325714285714300e+11 2.097950324846403e-01 -1.134100095547918e-02
1.326122448979600e+11 2.097207661504819e-01 -1.143312130076408e-02
1.326530612244900e+11 2.096475880151142e-01 -1.152632854448182e-02
1.326938775510200e+11 2.095755196648370e-01 -1.162061314218219e-02
1.327346938775500e+11 2.095045816233917e-01 -1.171596449063506e-02
1.327755102040800e+11 2.094347932734666e-01 -1.181237090921345e-02
1.328163265306100e+11 2.093661727254288e-01 -1.190981965979651e-02
1.328571428571400e+11 2.092987367228392e-01 -1.200829687858494e-02
1.328979591836700e+11 2.092325005620381e-01 -1.210778762046546e-02
1.329387755102000e+11 2.091674781277803e-01 -1.220827590831064e-02
1.329795918367300e+11 2.091036819363424e-01 -1.230974477160200e-02
1.330204081632700e+11 2.090411231617233e-01 -1.241217633197232e-02
1.330612244898000e+11 2.089798117143864e-01 -1.251555193995253e-02
1.331020408163300e+11 2.089197562624530e-01 -1.261985229107792e-02
1.331428571428600e+11 2.088609643318514e-01 -1.272505757581188e-02
1.331836734693900e+11 2.088034423802285e-01 -1.283114757449755e-02
1.332244897959200e+11 2.087471958285355e-01 -1.293810176328935e-02
1.332653061224500e+11 2.086922290529708e-01 -1.304589940448506e-02
1.333061224489800e+11 2.086385453964083e-01 -1.315451964410383e-02
1.333469387755100e+11 2.085861472098279e-01 -1.326394163506357e-02
1.333877551020400e+11 2.085350359466224e-01 -1.337414457985777e-02
1.334285714285700e+11 2.084852122493638e-01 -1.348510774928774e-02
1.334693877551000e+11 2.084366759756529e-01 -1.359681050222000e-02
1.335102040816300e+11 2.083894262185093e-01 -1.370923226141527e-02
1.335510204081600e+11 2.083434613054902e-01 -1.382235249485182e-02
1.335918367346900e+11 2.082987788643642e-01 -1.393615063872690e-02
1.336326530612200e+11 2.082553758876722e-01 -1.405060605002791e-02
1.336734693877600e+11 2.082132487696144e-01 -1.416569790563359e-02
1.337142857142900e+11 2.081723933483749e-01 -1.428140509679497e-02
1.337551020408200e+11 2.081328049509842e-01 -1.439770613291755e-02
1.337959183673500e+11 2.080944784699144e-01 -1.451457908279835e-02
1.338367346938800e+11 2.080574083557124e-01 -1.463200148865999e-02
1.338775510204100e+11 2.080215886029405e-01 -1.474995023291854e-02
1.339183673469400e+11 2.079870127046918e-01 -1.486840144584404e-02
1.339591836734700e+11 2.079536736258287e-01 -1.498733036784906e-02
1.340000000000000e+11 2.079215637496706e-01 -1.510671130157706e-02
1.340408163265300e+11 2.078906747669767e-01 -1.522651758604026e-02
1.340816326530600e+11 2.078609975411666e-01 -1.534672156803784e-02
1.341224489795900e+11 2.078325219546341e-01 -1.546729457935843e-02
1.341632653061200e+11 2.078052368047977e-01 -1.558820696346271e-02
1.342040816326500e+11 2.077791296823662e-01 -1.570942813544478e-02
1.342448979591800e+11 2.077541869203549e-01 -1.583092663940777e-02
1.342857142857100e+11 2.077303935434647e-01 -1.595267022804701e-02
1.343265306122400e+11 2.077077332448347e-01 -1.607462591835789e-02
1.343673469387800e+11 2.076861883768737e-01 -1.619676012452307e-02
1.344081632653100e+11 2.076657399559187e-01 -1.631903877566198e-02
1.344489795918400e+11 2.076463676697170e-01 -1.644142738489802e-02
1.344897959183700e+11 2.076280498985570e-01 -1.656389114633060e-02
1.345306122449000e+11 2.076107638300367e-01 -1.668639503321684e-02
1.345714285714300e+11 2.075944855946729e-01 -1.680890390906628e-02
1.346122448979600e+11 2.075791903795445e-01 -1.693138262321386e-02
1.346530612244900e+11 2.075648525205974e-01 -1.705379610153605e-02
1.346938775510200e+11 2.075514456351727e-01 -1.717610940269450e-02
1.347346938775500e+11 2.075389427640685e-01 -1.729828778215956e-02
1.347755102040800e+11 2.075273165169516e-01 -1.742029676305181e-02
1.348163265306100e+11 2.075165391605783e-01 -1.754210218971881e-02
1.348571428571400e+11 2.075065827002809e-01 -1.766367023765420e-02
1.348979591836700e+11 2.074974188771189e-01 -1.778496742519316e-02
1.349387755102000e+11 2.074890192063938e-01 -1.790596063799180e-02
1.349795918367300e+11 2.074813549796875e-01 -1.802661719744970e-02
1.350204081632700e+11 2.074743972593215e-01 -1.814690485896941e-02
1.350612244898000e+11 2.074681168913747e-01 -1.826679181798693e-02
1.351020408163300e+11 2.074624844925252e-01 -1.838624673650105e-02
1.351428571428600e+11 2.074574703880956e-01 -1.850523881554021e-02
1.351836734693900e+11 2.074530445955129e-01 -1.862373785540781e-02
1.352244897959200e+11 2.074491768210429e-01 -1.874171429742021e-02
1.352653061224500e+11 2.074458364739729e-01 -1.885913929727621e-02
1.353061224489800e+11 2.074429926643877e-01 -1.897598477581849e-02
1.353469387755100e+11 2.074406142481934e-01 -1.909222348173377e-02
1.353877551020400e+11 2.074386698655995e-01 -1.920782905989149e-02
1.354285714285700e+11 2.074371279432517e-01 -1.932277611100125e-02
1.354693877551000e+11 2.074359567107370e-01 -1.943704027503010e-02
1.355102040816300e+11 2.074351242381883e-01 -1.955059830178279e-02
1.355510204081600e+11 2.074345984950402e-01 -1.966342808814526e-02
1.355918367346900e+11 2.074343473917716e-01 -1.977550869835296e-02
1.356326530612200e+11 2.074343387731556e-01 -1.988682040592750e-02
1.356734693877600e+11 2.074345404406001e-01 -1.999734467309189e-02
1.357142857142900e+11 2.074349202725141e-01 -2.010706410946877e-02
1.357551020408200e+11 2.074354463311224e-01 -2.021596237431564e-02
1.357959183673500e+11 2.074360869052162e-01 -2.032402417289467e-02
1.358367346938800e+11 2.074368105087021e-01 -2.043123527544914e-02
1.358775510204100e+11 2.074375859406813e-01 -2.053758249804164e-02
1.359183673469400e+11 2.074383823241769e-01 -2.064305364063751e-02
1.359591836734700e+11 2.074391691807805e-01 -2.074763736661698e-02
1.360000000000000e+11 2.074399164804243e-01 -2.085132315631077e-02
1.360408163265300e+11 2.074405946551999e-01 -2.095410124985242e-02
1.360816326530600e+11 2.074411746057372e-01 -2.105596256932032e-02
1.361224489795900e+11 2.074416277332876e-01 -2.115689869072043e-02
1.361632653061200e+11 2.074419259833686e-01 -2.125690178617828e-02
1.362040816326500e+11 2.074420418478480e-01 -2.135596458352451e-02
1.362448979591800e+11 2.074419483570752e-01 -2.145408034892022e-02
1.362857142857100e+11 2.074416190569032e-01 -2.155124286395868e-02
1.363265306122400e+11 2.074410279378242e-01 -2.164744646734191e-02
1.363673469387800e+11 2.074401494114410e-01 -2.174268608454117e-02
1.364081632653100e+11 2.074389583136255e-01 -2.183695724894164e-02
1.364489795918400e+11 2.074374299257754e-01 -2.193025611377328e-02
1.364897959183700e+11 2.074355399936166e-01 -2.202257953360253e-02
1.365306122449000e+11 2.074332647109935e-01 -2.211392514016836e-02
1.365714285714300e+11 2.074305807715173e-01 -2.220429139927582e-02
1.366122448979600e+11 2.074274654264602e-01 -2.229367765888697e-02
1.366530612244900e+11 2.074238964810816e-01 -2.238208421331124e-02
1.366938775510200e+11 2.074198523549699e-01 -2.246951233684887e-02
1.367346938775500e+11 2.074153121557534e-01 -2.255596428055162e-02
1.367755102040800e+11 2.074102558010232e-01 -2.264144333424406e-02
1.368163265306100e+11 2.074046641250308e-01 -2.272595385432826e-02
1.368571428571400e+11 2.073985189102921e-01 -2.280950128234401e-02
1.368979591836700e+11 2.073918029396067e-01 -2.289209215336484e-02
1.369387755102000e+11 2.073845000988666e-01 -2.297373403048154e-02
1.369795918367300e+11 2.073765954574588e-01 -2.305443550014024e-02
1.370204081632700e+11 2.073680752372717e-01 -2.313420619434852e-02
1.370612244898000e+11 2.073589268150003e-01 -2.321305676382730e-02
1.371020408163300e+11 2.073491387713068e-01 -2.329099878946340e-02
1.371428571428600e+11 2.073387009210023e-01 -2.336804469562987e-02
1.371836734693900e+11 2.073276043212059e-01 -2.344420768950175e-02
1.372244897959200e+11 2.073158412812691e-01 -2.351950173630472e-02
1.372653061224500e+11 2.073034053397703e-01 -2.359394153964611e-02
1.373061224489800e+11 2.072902912729897e-01 -2.366754248974280e-02
1.373469387755100e+11 2.072764950769836e-01 -2.374032060623479e-02
1.373877551020400e+11 2.072620139790132e-01 -2.381229251671772e-02
1.374285714285700e+11 2.072468464359102e-01 -2.388347540030980e-02
1.374693877551000e+11 2.072309921634922e-01 -2.395388695676752e-02
1.375102040816300e+11 2.072144520891168e-01 -2.402354537077708e-02
1.375510204081600e+11 2.071972283240920e-01 -2.409246932160579e-02
1.375918367346900e+11 2.071793241398248e-01 -2.416067792993000e-02
1.376326530612200e+11 2.071607439680210e-01 -2.422819069806329e-02
1.376734693877600e+11 2.071414933345621e-01 -2.429502750329472e-02
1.377142857142900e+11 2.071215787846225e-01 -2.436120860895093e-02
1.377551020408200e+11 2.071010077871398e-01 -2.442675462697790e-02
1.377959183673500e+11 2.070797887021834e-01 -2.449168645795833e-02
1.378367346938800e+11 2.070579307378216e-01 -2.455602526146061e-02
1.378775510204100e+11 2.070354438599434e-01 -2.461979244127667e-02
1.379183673469400e+11 2.070123387647025e-01 -2.468300960018811e-02
1.379591836734700e+11 2.069886268423178e-01 -2.474569848191110e-02
1.380000000000000e+11 2.069643201179044e-01 -2.480788090568340e-02
1.380408163265300e+11 2.069394312116820e-01 -2.486957874703151e-02
1.380816326530600e+11 2.069139733172680e-01 -2.493081393110975e-02
1.381224489795900e+11 2.068879601858114e-01 -2.499160839506990e-02
1.381632653061200e+11 2.068614060974784e-01 -2.505198404656865e-02
1.382040816326500e+11 2.068343258557397e-01 -2.511196276892009e-02
1.382448979591800e+11 2.068067348178134e-01 -2.517156636302140e-02
1.382857142857100e+11 2.067786488937184e-01 -2.523081647846294e-02
1.383265306122400e+11 2.067500845649504e-01 -2.528973463325680e-02
1.383673469387800e+11 2.067210588352944e-01 -2.534834226246055e-02
1.384081632653100e+11 2.066915892454589e-01 -2.540666068364490e-02
1.384489795918400e+11 2.066616938818546e-01 -2.546471107070034e-02
1.384897959183700e+11 2.066313913653390e-01 -2.552251445336211e-02
1.385306122449000e+11 2.066007007876911e-01 -2.558009172353691e-02
1.385714285714300e+11 2.065696416742978e-01 -2.563746362779567e-02
1.386122448979600e+11 2.065382339786884e-01 -2.569465074642293e-02
1.386530612244900e+11 2.065064980308740e-01 -2.575167351376367e-02
1.386938775510200e+11 2.064744544694193e-01 -2.580855223455229e-02
1.387346938775500e+11 2.064421241764658e-01 -2.586530710818887e-02
1.387755102040800e+11 2.064095282544833e-01 -2.592195821034071e-02
1.388163265306100e+11 2.063766880409854e-01 -2.597852545725154e-02
1.388571428571400e+11 2.063436251618981e-01 -2.603502863171210e-02
1.388979591836700e+11 2.063103615277385e-01 -2.609148737717350e-02
1.389387755102000e+11 2.062769193739682e-01 -2.614792117120690e-02
1.389795918367300e+11 2.062433212824850e-01 -2.620434931417107e-02
1.390204081632700e+11 2.062095902800702e-01 -2.626079087588763e-02
1.390612244898000e+11 2.061757499521058e-01 -2.631726466474684e-02
1.391020408163300e+11 2.061418245366205e-01 -2.637378917597347e-02
1.391428571428600e+11 2.061078389362264e-01 -2.643038257147696e-02
1.391836734693900e+11 2.060738187101213e-01 -2.648706269909978e-02
1.392244897959200e+11 2.060397900424337e-01 -2.654384701902363e-02
1.392653061224500e+11 2.060057797703357e-01 -2.660075252272589e-02
1.393061224489800e+11 2.059718153682521e-01 -2.665779560049514e-02
1.393469387755100e+11 2.059379248838822e-01 -2.671499199755416e-02
1.393877551020400e+11 2.059041368759071e-01 -2.677235676362711e-02
1.394285714285700e+11 2.058704803775995e-01 -2.682990417594064e-02
1.394693877551000e+11 2.058369848196094e-01 -2.688764767014641e-02
1.395102040816300e+11 2.058036799631958e-01 -2.694559974225944e-02
1.395510204081600e+11 2.057705958239290e-01 -2.700377190365208e-02
1.395918367346900e+11 2.057377626394428e-01 -2.706217466284641e-02
1.396326530612200e+11 2.057052108289997e-01 -2.712081752712223e-02
1.396734693877600e+11 2.056729709066926e-01 -2.717970901899540e-02
1.397142857142900e+11 2.056410734137227e-01 -2.723885664117675e-02
1.397551020408200e+11 2.056095488581062e-01 -2.729826690097169e-02
1.397959183673500e+11 2.055784277084316e-01 -2.735794539081442e-02
1.398367346938800e+11 2.055477403536707e-01 -2.741789682607285e-02
1.398775510204100e+11 2.055175171034510e-01 -2.747812503487560e-02
1.399183673469400e+11 2.054877880800739e-01 -2.753863297518013e-02
1.399591836734700e+11 2.054585832217834e-01 -2.759942275552268e-02
1.400000000000000e+11 2.054299322158116e-01 -2.766049571555062e-02
1.400408163265300e+11 2.054018644854411e-01 -2.772185243023265e-02
1.400816326530600e+11 2.053744092274712e-01 -2.778349272236872e-02
1.401224489795900e+11 2.053475953734668e-01 -2.784541569485793e-02
1.401632653061200e+11 2.053214515551894e-01 -2.790761977679069e-02
1.402040816326500e+11 2.052960060361971e-01 -2.797010288770842e-02
1.402448979591800e+11 2.052712866259614e-01 -2.803286249265556e-02
1.402857142857100e+11 2.052473206879196e-01 -2.809589561172018e-02
1.403265306122400e+11 2.052241351501322e-01 -2.815919882345244e-02
1.403673469387800e+11 2.052017564917237e-01 -2.822276831116457e-02
1.404081632653100e+11 2.051802106923014e-01 -2.828659993271539e-02
1.404489795918400e+11 2.051595232664127e-01 -2.835068927776664e-02
1.404897959183700e+11 2.051397193405984e-01 -2.841503164192350e-02
1.405306122449000e+11 2.051208236715109e-01 -2.847962204662465e-02
1.405714285714300e+11 2.051028606823119e-01 -2.854445521013412e-02
1.406122448979600e+11 2.050858545183995e-01 -2.860952556687722e-02
1.406530612244900e+11 2.050698291183391e-01 -2.867482721315234e-02
1.406938775510200e+11 2.050548082202786e-01 -2.874035383785108e-02
1.407346938775500e+11 2.050408154792158e-01 -2.880609865476555e-02
1.407755102040800e+11 2.050278744648061e-01 -2.887205441601315e-02
1.408163265306100e+11 2.050160087124907e-01 -2.893821339065662e-02
1.408571428571400e+11 2.050052416686370e-01 -2.900456726918539e-02
1.408979591836700e+11 2.049955966471527e-01 -2.907110698555276e-02
1.409387755102000e+11 2.049870967973315e-01 -2.913782267336621e-02
1.409795918367300e+11 2.049797650673109e-01 -2.920470369321661e-02
1.410204081632700e+11 2.049736241380875e-01 -2.927173862350762e-02
1.410612244898000e+11 2.049686963941341e-01 -2.933891518127590e-02
1.411020408163300e+11 2.049650038860194e-01 -2.940622014094807e-02
1.411428571428600e+11 2.049625682920947e-01 -2.947363932751986e-02
1.411836734693900e+11 2.049614109653896e-01 -2.954115755709732e-02
1.412244897959200e+11 2.049615529411429e-01 -2.960875850052862e-02
1.412653061224500e+11 2.049630149697807e-01 -2.967642454486391e-02
1.413061224489800e+11 2.049658174347287e-01 -2.974413686644425e-02
1.413469387755100e+11 2.049699802436569e-01 -2.981187547497631e-02
1.413877551020400e+11 2.049755228248026e-01 -2.987961915473445e-02
1.414285714285700e+11 2.049824641036119e-01 -2.994734535389918e-02
1.414693877551000e+11 2.049908225226408e-01 -3.001503009552529e-02
1.415102040816300e+11 2.050006159955380e-01 -3.008264807617629e-02
1.415510204081600e+11 2.050118618411305e-01 -3.015017280528310e-02
1.415918367346900e+11 2.050245767630962e-01 -3.021757666100397e-02
1.416326530612200e+11 2.050387767424178e-01 -3.028483082769755e-02
1.416734693877600e+11 2.050544768842254e-01 -3.035190526617473e-02
1.417142857142900e+11 2.050716913065119e-01 -3.041876881665443e-02
1.417551020408200e+11 2.050904330282017e-01 -3.048538927025619e-02
1.417959183673500e+11 2.051107138634679e-01 -3.055173332953928e-02
1.418367346938800e+11 2.051325442900767e-01 -3.061776667522528e-02
1.418775510204100e+11 2.051559333647546e-01 -3.068345396517859e-02
1.419183673469400e+11 2.051808886498860e-01 -3.074875897902034e-02
1.419591836734700e+11 2.052074160902554e-01 -3.081364482988747e-02
1.420000000000000e+11 2.052355198756034e-01 -3.087807412269788e-02
1.420408163265300e+11 2.052652023605961e-01 -3.094200896807982e-02
1.420816326530600e+11 2.052964640000854e-01 -3.100541099405900e-02
1.421224489795900e+11 2.053293032831517e-01 -3.106824137525730e-02
1.421632653061200e+11 2.053637167115273e-01 -3.113046090886435e-02
1.422040816326500e+11 2.053996988839664e-01 -3.119203014844182e-02
1.422448979591800e+11 2.054372426112278e-01 -3.125290954352791e-02
1.422857142857100e+11 2.054763389372036e-01 -3.131305962617007e-02
1.423265306122400e+11 2.055169770978188e-01 -3.137244109449457e-02
1.423673469387800e+11 2.055591445772137e-01 -3.143101493064842e-02
1.424081632653100e+11 2.056028272176268e-01 -3.148874245381970e-02
1.424489795918400e+11 2.056480092579070e-01 -3.154558543659894e-02
1.424897959183700e+11 2.056946734023440e-01 -3.160150625668914e-02
1.425306122449000e+11 2.057428008918710e-01 -3.165646796237771e-02
1.425714285714300e+11 2.057923716295040e-01 -3.171043432623611e-02
1.426122448979600e+11 2.058433642954241e-01 -3.176336985907144e-02
1.426530612244900e+11 2.058957564137294e-01 -3.181523987885848e-02
1.426938775510200e+11 2.059495243934437e-01 -3.186601055406438e-02
1.427346938775500e+11 2.060046437039571e-01 -3.191564889712789e-02
1.427755102040800e+11 2.060610890422488e-01 -3.196412274584969e-02
1.428163265306100e+11 2.061188344361232e-01 -3.201140078138558e-02
1.428571428571400e+11 2.061778533317181e-01 -3.205745252547903e-02
1.428979591836700e+11 2.062381187505600e-01 -3.210224829878206e-02
1.429387755102000e+11 2.062996034086623e-01 -3.214575923829163e-02
1.429795918367300e+11 2.063622798055105e-01 -3.218795726581526e-02
1.430204081632700e+11 2.064261203297562e-01 -3.222881507197378e-02
1.430612244898000e+11 2.064910973185946e-01 -3.226830608597241e-02
1.431020408163300e+11 2.065571831520939e-01 -3.230640444247877e-02
1.431428571428600e+11 2.066243502589143e-01 -3.234308501287059e-02
1.431836734693900e+11 2.066925710659283e-01 -3.237832337525957e-02
1.432244897959200e+11 2.067618179884501e-01 -3.241209578414584e-02
1.432653061224500e+11 2.068320634393986e-01 -3.244437921657214e-02
1.433061224489800e+11 2.069032798239637e-01 -3.247515140227192e-02
1.433469387755100e+11 2.069754394929332e-01 -3.250439082516290e-02
1.433877551020400e+11 2.070485147573179e-01 -3.253207671952464e-02
1.434285714285700e+11 2.071224778635181e-01 -3.255818911737981e-02
1.434693877551000e+11 2.071973010531342e-01 -3.258270889385047e-02
1.435102040816300e+11 2.072729565450541e-01 -3.260561779946491e-02
1.435510204081600e+11 2.073494165495286e-01 -3.262689846128972e-02
1.435918367346900e+11 2.074266532600391e-01 -3.264653440596377e-02
1.436326530612200e+11 2.075046388805311e-01 -3.266451013244900e-02
1.436734693877600e+11 2.075833456383464e-01 -3.268081114644788e-02
1.437142857142900e+11 2.076627458092355e-01 -3.269542395777024e-02
1.437551020408200e+11 2.077428117372576e-01 -3.270833613053409e-02
1.437959183673500e+11 2.078235158051540e-01 -3.271953634759515e-02
1.438367346938800e+11 2.079048304055305e-01 -3.272901445746242e-02
1.438775510204100e+11 2.079867279569361e-01 -3.273676145180213e-02
1.439183673469400e+11 2.080691808948247e-01 -3.274276951791134e-02
1.439591836734700e+11 2.081521615625629e-01 -3.274703202880019e-02
1.440000000000000e+11 2.082356421093330e-01 -3.274954356746641e-02
1.440408163265300e+11 2.083195944975887e-01 -3.275029993692358e-02
1.440816326530600e+11 2.084039904619567e-01 -3.274929818446509e-02
1.441224489795900e+11 2.084888015335928e-01 -3.274653663289760e-02
1.441632653061200e+11 2.085739990011894e-01 -3.274201494910677e-02
1.442040816326500e+11 2.086595539057189e-01 -3.273573418825926e-02
1.442448979591800e+11 2.087454371046069e-01 -3.272769682424116e-02
1.442857142857100e+11 2.088316192317257e-01 -3.271790679902897e-02
1.443265306122400e+11 2.089180706871097e-01 -3.270636948690175e-02
1.443673469387800e+11 2.090047616940188e-01 -3.269309164679018e-02
1.444081632653100e+11 2.090916622882437e-01 -3.267808140316278e-02
1.444489795918400e+11 2.091787423131842e-01 -3.266134822058852e-02
1.444897959183700e+11 2.092659714716341e-01 -3.264290291781084e-02
1.445306122449000e+11 2.093533193645264e-01 -3.262275758534242e-02
1.445714285714300e+11 2.094407554997929e-01 -3.260092552272707e-02
1.446122448979600e+11 2.095282493170088e-01 -3.257742120453723e-02
1.446530612244900e+11 2.096157701870236e-01 -3.255226027628539e-02
1.446938775510200e+11 2.097032874570167e-01 -3.252545956515387e-02
1.447346938775500e+11 2.097907704569480e-01 -3.249703710236380e-02
1.447755102040800e+11 2.098781884881973e-01 -3.246701214912907e-02
1.448163265306100e+11 2.099655108673874e-01 -3.243540522254639e-02
1.448571428571400e+11 2.100527069401744e-01 -3.240223810951207e-02
1.448979591836700e+11 2.101397460843578e-01 -3.236753387476723e-02
1.449387755102000e+11 2.102265977687625e-01 -3.233131690889268e-02
1.449795918367300e+11 2.103132315886177e-01 -3.229361292564315e-02
1.450204081632700e+11 2.103996172840411e-01 -3.225444894812442e-02
1.450612244898000e+11 2.104857247563884e-01 -3.221385334169363e-02
1.451020408163300e+11 2.105715240896440e-01 -3.217185580581557e-02
1.451428571428600e+11 2.106569856015801e-01 -3.212848732419666e-02
1.451836734693900e+11 2.107420798242128e-01 -3.208378013858100e-02
1.452244897959200e+11 2.108267774951053e-01 -3.203776770398971e-02
1.452653061224500e+11 2.109110495495086e-01 -3.199048455173556e-02
1.453061224489800e+11 2.109948670790972e-01 -3.194196621055044e-02
1.453469387755100e+11 2.110782013243763e-01 -3.189224920715223e-02
1.453877551020400e+11 2.111610236375109e-01 -3.184137107593959e-02
1.454285714285700e+11 2.112433054951650e-01 -3.178937031921698e-02
1.454693877551000e+11 2.113250184755302e-01 -3.173628631470075e-02
1.455102040816300e+11 2.114061342005348e-01 -3.168215926451382e-02
1.455510204081600e+11 2.114866242696921e-01 -3.162703024306324e-02
1.455918367346900e+11 2.115664602910426e-01 -3.157094112665453e-02
1.456326530612200e+11 2.116456138662402e-01 -3.151393454814764e-02
1.456734693877600e+11 2.117240565443224e-01 -3.145605388876010e-02
1.457142857142900e+11 2.118017598183993e-01 -3.139734330927937e-02
1.457551020408200e+11 2.118786951007458e-01 -3.133784790207346e-02
1.457959183673500e+11 2.119548336833105e-01 -3.127761378229986e-02
1.458367346938800e+11 2.120301467258008e-01 -3.121668807739866e-02
1.458775510204100e+11 2.121046052779481e-01 -3.115511887146486e-02
1.459183673469400e+11 2.121781802988285e-01 -3.109295518708166e-02
1.459591836734700e+11 2.122508426798758e-01 -3.103024702698320e-02
1.460000000000000e+11 2.123225632522716e-01 -3.096704542005572e-02
1.460408163265300e+11 2.123933127530176e-01 -3.090340249237764e-02
1.460816326530600e+11 2.124630618854584e-01 -3.083937146739439e-02
1.461224489795900e+11 2.125317813398444e-01 -3.077500662838734e-02
1.461632653061200e+11 2.125994417837244e-01 -3.071036330034045e-02
1.462040816326500e+11 2.126660138381789e-01 -3.064549792362533e-02
1.462448979591800e+11 2.127314681742114e-01 -3.058046806018747e-02
1.462857142857100e+11 2.127957756212753e-01 -3.051533231991102e-02
1.463265306122400e+11 2.128589072987128e-01 -3.045015023855902e-02
1.463673469387800e+11 2.129208347723557e-01 -3.038498222269924e-02
1.464081632653100e+11 2.129815301205182e-01 -3.031988960302954e-02
1.464489795918400e+11 2.130409661207789e-01 -3.025493469176504e-02
1.464897959183700e+11 2.130991163708204e-01 -3.019018072176200e-02
1.465306122449000e+11 2.131559553421385e-01 -3.012569180907603e-02
1.465714285714300e+11 2.132114584041305e-01 -3.006153286850156e-02
1.466122448979600e+11 2.132656018757743e-01 -2.999776958928218e-02
1.466530612244900e+11 2.133183631533922e-01 -2.993446835988286e-02
1.466938775510200e+11 2.133697208282021e-01 -2.987169624225346e-02
1.467346938775500e+11 2.134196547160594e-01 -2.980952102799105e-02
1.467755102040800e+11 2.134681458654567e-01 -2.974801116211683e-02
1.468163265306100e+11 2.135151765439390e-01 -2.968723562280086e-02
1.468571428571400e+11 2.135607302960988e-01 -2.962726382774452e-02
1.468979591836700e+11 2.136047918762589e-01 -2.956816561706920e-02
1.469387755102000e+11 2.136473471889575e-01 -2.951001127062852e-02
1.469795918367300e+11 2.136883833318057e-01 -2.945287133004371e-02
1.470204081632700e+11 2.137278887105762e-01 -2.939681654112861e-02
1.470612244898000e+11 2.137658530271018e-01 -2.934191787370319e-02
1.471020408163300e+11 2.138022672083917e-01 -2.928824652184678e-02
1.471428571428600e+11 2.138371233819515e-01 -2.923587378237980e-02
1.471836734693900e+11 2.138704149112078e-01 -2.918487095969763e-02
1.472244897959200e+11 2.139021364227792e-01 -2.913530931744909e-02
1.472653061224500e+11 2.139322838742064e-01 -2.908726000859697e-02
1.473061224489800e+11 2.139608546558261e-01 -2.904079399463279e-02
1.473469387755100e+11 2.139878476030518e-01 -2.899598210847094e-02
1.473877551020400e+11 2.140132630519533e-01 -2.895289502525496e-02
1.474285714285700e+11 2.140371028565247e-01 -2.891160317273895e-02
1.474693877551000e+11 2.140593704172829e-01 -2.887217664348817e-02
1.475102040816300e+11 2.140800707140333e-01 -2.883468518136300e-02
1.475510204081600e+11 2.140992102443564e-01 -2.879919817635796e-02
1.475918367346900e+11 2.141167970537810e-01 -2.876578463578100e-02
1.476326530612200e+11 2.141328407692927e-01 -2.873451310683007e-02
1.476734693877600e+11 2.141473525947915e-01 -2.870545166498493e-02
1.477142857142900e+11 2.141603451953238e-01 -2.867866793103625e-02
1.477551020408200e+11 2.141718326694566e-01 -2.865422908918522e-02
1.477959183673500e+11 2.141818305275310e-01 -2.863220180859768e-02
1.478367346938800e+11 2.141903556745885e-01 -2.861265202590280e-02
1.478775510204100e+11 2.141974264240308e-01 -2.859564488127816e-02
1.479183673469400e+11 2.142030624814799e-01 -2.858124474191293e-02
1.479591836734700e+11 2.142072848985246e-01 -2.856951528921684e-02
1.480000000000000e+11 2.142101160502028e-01 -2.856051949211577e-02
1.480408163265300e+11 2.142115796407404e-01 -2.855431952705249e-02
1.480816326530600e+11 2.142117007345559e-01 -2.855097673878424e-02
1.481224489795900e+11 2.142105058157263e-01 -2.855055166448041e-02
1.481632653061200e+11 2.142080227738562e-01 -2.855310405703349e-02
1.482040816326500e+11 2.142042809793915e-01 -2.855869292497041e-02
1.482448979591800e+11 2.141993113550215e-01 -2.856737650512079e-02
1.482857142857100e+11 2.141931464676566e-01 -2.857921224023958e-02
1.483265306122400e+11 2.141858206391082e-01 -2.859425672378127e-02
1.483673469387800e+11 2.141773700406603e-01 -2.861256571884814e-02
1.484081632653100e+11 2.141678326679875e-01 -2.863419420503506e-02
1.484489795918400e+11 2.141572483525691e-01 -2.865919639770459e-02
1.484897959183700e+11 2.141456588295308e-01 -2.868762557636341e-02
1.485306122449000e+11 2.141331078579128e-01 -2.871953395817836e-02
1.485714285714300e+11 2.141196412197638e-01 -2.875497258536681e-02
1.486122448979600e+11 2.141053067007818e-01 -2.879399118453530e-02
1.486530612244900e+11 2.140901540411596e-01 -2.883663808896297e-02
1.486938775510200e+11 2.140742349636532e-01 -2.888296006750847e-02
1.487346938775500e+11 2.140576031851473e-01 -2.893300206978540e-02
1.487755102040800e+11 2.140403144667246e-01 -2.898680703292012e-02
1.488163265306100e+11 2.140224265108277e-01 -2.904441576477746e-02
1.488571428571400e+11 2.140039987974813e-01 -2.910586682272551e-02
1.488979591836700e+11 2.139850925230398e-01 -2.917119632261243e-02
1.489387755102000e+11 2.139657705454069e-01 -2.924043781080167e-02
1.489795918367300e+11 2.139460973012478e-01 -2.931362209848635e-02
1.490204081632700e+11 2.139261387323291e-01 -2.939077710243456e-02
1.490612244898000e+11 2.139059621343938e-01 -2.947192780406396e-02
1.491020408163300e+11 2.138856360231067e-01 -2.955709626141525e-02
1.491428571428600e+11 2.138652299387296e-01 -2.964630163675408e-02
1.491836734693900e+11 2.138448143011939e-01 -2.973956018158050e-02
1.492244897959200e+11 2.138244603188290e-01 -2.983688516181548e-02
1.492653061224500e+11 2.138042399266870e-01 -2.993828687785048e-02
1.493061224489800e+11 2.137842256218518e-01 -3.004377290108591e-02
1.493469387755100e+11 2.137644902348051e-01 -3.015334820475229e-02
1.493877551020400e+11 2.137451066922904e-01 -3.026701529092225e-02
1.494285714285700e+11 2.137261478637448e-01 -3.038477417504981e-02
1.494693877551000e+11 2.137076864573091e-01 -3.050662250589941e-02
1.495102040816300e+11 2.136897949270508e-01 -3.063255577575243e-02
1.495510204081600e+11 2.136725452982411e-01 -3.076256753826359e-02
1.495918367346900e+11 2.136560090966059e-01 -3.089664945699323e-02
1.496326530612200e+11 2.136402572762332e-01 -3.103479133420536e-02
1.496734693877600e+11 2.136253602924026e-01 -3.117698111383201e-02
1.497142857142900e+11 2.136113881557829e-01 -3.132320507931569e-02
1.497551020408200e+11 2.135984104330846e-01 -3.147344809265609e-02
1.497959183673500e+11 2.135864961775359e-01 -3.162769373271788e-02
1.498367346938800e+11 2.135757140211191e-01 -3.178592430288123e-02
1.498775510204100e+11 2.135661322358686e-01 -3.194812078722332e-02
1.499183673469400e+11 2.135578188484880e-01 -3.211426286679841e-02
1.499591836734700e+11 2.135508417376947e-01 -3.228432890720258e-02
1.500000000000000e+11 2.135452687791810e-01 -3.245829595722555e-02
1.500408163265300e+11 2.135411679234654e-01 -3.263613968062823e-02
1.500816326530600e+11 2.135386072748403e-01 -3.281783429107025e-02
1.501224489795900e+11 2.135376550691692e-01 -3.300335241820647e-02
1.501632653061200e+11 2.135383796770873e-01 -3.319266502585620e-02
1.502040816326500e+11 2.135408496610878e-01 -3.338574131434399e-02
1.502448979591800e+11 2.135451338328179e-01 -3.358254856299015e-02
1.502857142857100e+11 2.135513010958470e-01 -3.378305197191443e-02
1.503265306122400e+11 2.135594202835648e-01 -3.398721449270061e-02
1.503673469387800e+11 2.135695600280557e-01 -3.419499671463016e-02
1.504081632653100e+11 2.135817886675377e-01 -3.440635675749613e-02
1.504489795918400e+11 2.135961741199504e-01 -3.462125010372889e-02
1.504897959183700e+11 2.136127837654085e-01 -3.483962936991773e-02
1.505306122449000e+11 2.136316842843194e-01 -3.506144416154885e-02
1.505714285714300e+11 2.136529415707119e-01 -3.528664102728950e-02
1.506122448979600e+11 2.136766206648196e-01 -3.551516349149755e-02
1.506530612244900e+11 2.137027856403144e-01 -3.574695213384350e-02
1.506938775510200e+11 2.137314993756010e-01 -3.598194470256198e-02
1.507346938775500e+11 2.137628234724044e-01 -3.622007608881647e-02
1.507755102040800e+11 2.137968182011405e-01 -3.646127830740978e-02
1.508163265306100e+11 2.138335423884103e-01 -3.670548058991384e-02
1.508571428571400e+11 2.138730533712455e-01 -3.695260947939380e-02
1.508979591836700e+11 2.139154068534734e-01 -3.720258903216807e-02
1.509387755102000e+11 2.139606567863205e-01 -3.745534100879046e-02
1.509795918367300e+11 2.140088553711129e-01 -3.771078499018168e-02
1.510204081632700e+11 2.140600530587716e-01 -3.796883854388198e-02
1.510612244898000e+11 2.141142984305069e-01 -3.822941746950779e-02
1.511020408163300e+11 2.141716380286683e-01 -3.849243592238195e-02
1.511428571428600e+11 2.142321162625924e-01 -3.875780649885333e-02
1.511836734693900e+11 2.142957753747060e-01 -3.902544028453982e-02
1.512244897959200e+11 2.143626554800663e-01 -3.929524699390739e-02
1.512653061224500e+11 2.144327945575705e-01 -3.956713515503896e-02
1.513061224489800e+11 2.145062283884540e-01 -3.984101225420594e-02
1.513469387755100e+11 2.145829905370857e-01 -4.011678470312108e-02
1.513877551020400e+11 2.146631123366158e-01 -4.039435792865313e-02
1.514285714285700e+11 2.147466230299146e-01 -4.067363644257042e-02
1.514693877551000e+11 2.148335498783012e-01 -4.095452394655742e-02
1.515102040816300e+11 2.149239182736898e-01 -4.123692348948100e-02
1.515510204081600e+11 2.150177517375032e-01 -4.152073750063779e-02
1.515918367346900e+11 2.151150719869453e-01 -4.180586787085686e-02
1.516326530612200e+11 2.152158989463067e-01 -4.209221603606487e-02
1.516734693877600e+11 2.153202507959318e-01 -4.237968312328828e-02
1.517142857142900e+11 2.154281440081371e-01 -4.266816998883935e-02
1.517551020408200e+11 2.155395933571701e-01 -4.295757722022114e-02
1.517959183673500e+11 2.156546118776984e-01 -4.324780513959094e-02
1.518367346938800e+11 2.157732108669889e-01 -4.353875380847491e-02
1.518775510204100e+11 2.158953999421978e-01 -4.383032301336099e-02
1.519183673469400e+11 2.160211869969867e-01 -4.412241230783658e-02
1.519591836734700e+11 2.161505781126779e-01 -4.441492100962890e-02
1.520000000000000e+11 2.162835774452435e-01 -4.470774828046974e-02
1.520408163265300e+11 2.164201872016286e-01 -4.500079314549325e-02
1.520816326530600e+11 2.165604075907985e-01 -4.529395450748604e-02
1.521224489795900e+11 2.167042368062581e-01 -4.558713104627395e-02
1.521632653061200e+11 2.168516709250995e-01 -4.588022125860080e-02
1.522040816326500e+11 2.170027038671956e-01 -4.617312355986020e-02
1.522448979591800e+11 2.171573273498118e-01 -4.646573637840570e-02
1.522857142857100e+11 2.173155308408014e-01 -4.675795818542335e-02
1.523265306122400e+11 2.174773014833368e-01 -4.704968750115556e-02
1.523673469387800e+11 2.176426240320608e-01 -4.734082295808429e-02
1.524081632653100e+11 2.178114808870431e-01 -4.763126332598602e-02
1.524489795918400e+11 2.179838521439992e-01 -4.792090758341562e-02
1.524897959183700e+11 2.181597156045457e-01 -4.820965493926725e-02
1.525306122449000e+11 2.183390466644355e-01 -4.849740486372970e-02
1.525714285714300e+11 2.185218181722302e-01 -4.878405711891293e-02
1.526122448979600e+11 2.187080003240771e-01 -4.906951184377231e-02
1.526530612244900e+11 2.188975605926848e-01 -4.935366959220932e-02
1.526938775510200e+11 2.190904636556016e-01 -4.963643137886611e-02
1.527346938775500e+11 2.192866713163849e-01 -4.991769865611091e-02
1.527755102040800e+11 2.194861423623639e-01 -5.019737337013890e-02
1.528163265306100e+11 2.196888324168426e-01 -5.047535797879374e-02
1.528571428571400e+11 2.198946939064113e-01 -5.075155543376076e-02
1.528979591836700e+11 2.201036759543403e-01 -5.102586926269327e-02
1.529387755102000e+11 2.203157243717948e-01 -5.129820372631277e-02
1.529795918367300e+11 2.205307815207763e-01 -5.156846410043418e-02
1.530204081632700e+11 2.207487862450577e-01 -5.183655680461401e-02
1.530612244898000e+11 2.209696737781321e-01 -5.210238962045457e-02
1.531020408163300e+11 2.211933758076841e-01 -5.236587186479365e-02
1.531428571428600e+11 2.214198206213447e-01 -5.262691453893097e-02
1.531836734693900e+11 2.216489330593549e-01 -5.288543052229818e-02
1.532244897959200e+11 2.218806344963549e-01 -5.314133481554330e-02
1.532653061224500e+11 2.221148429284219e-01 -5.339454480210101e-02
1.533061224489800e+11 2.223514732483533e-01 -5.364498031381919e-02
1.533469387755100e+11 2.225904374315545e-01 -5.389256377251786e-02
1.533877551020400e+11 2.228316445742852e-01 -5.413722035193520e-02
1.534285714285700e+11 2.230750010005612e-01 -5.437887811313006e-02
1.534693877551000e+11 2.233204104991971e-01 -5.461746802153013e-02
1.535102040816300e+11 2.235677746020422e-01 -5.485292391540025e-02
1.535510204081600e+11 2.238169927749233e-01 -5.508518253564579e-02
1.535918367346900e+11 2.240679625579949e-01 -5.531418354946270e-02
1.536326530612200e+11 2.243205797188788e-01 -5.553986949163491e-02
1.536734693877600e+11 2.245747384800212e-01 -5.576218581940851e-02
1.537142857142900e+11 2.248303317599472e-01 -5.598108085059276e-02
1.537551020408200e+11 2.250872511936251e-01 -5.619650562863623e-02
1.537959183673500e+11 2.253453872537870e-01 -5.640841373932505e-02
1.538367346938800e+11 2.256046293906294e-01 -5.661676126551964e-02
1.538775510204100e+11 2.258648661445165e-01 -5.682150669856537e-02
1.539183673469400e+11 2.261259852290527e-01 -5.702261088798687e-02
1.539591836734700e+11 2.263878735252988e-01 -5.722003686016618e-02
1.540000000000000e+11 2.266504170805238e-01 -5.741374968680452e-02
1.540408163265300e+11 2.269135010119090e-01 -5.760371648644920e-02
1.540816326530600e+11 2.271770094641387e-01 -5.778990635685136e-02
1.541224489795900e+11 2.274408255937078e-01 -5.797229032102744e-02
1.541632653061200e+11 2.277048315728891e-01 -5.815084138994962e-02
1.542040816326500e+11 2.279689085124542e-01 -5.832553448986113e-02
1.542448979591800e+11 2.282329362852419e-01 -5.849634659702990e-02
1.542857142857100e+11 2.284967934238528e-01 -5.866325677760104e-02
1.543265306122400e+11 2.287603571404970e-01 -5.882624620806481e-02
1.543673469387800e+11 2.290235033273114e-01 -5.898529826116355e-02
1.544081632653100e+11 2.292861064516199e-01 -5.914039870517898e-02
1.544489795918400e+11 2.295480395404342e-01 -5.929153587850170e-02
1.544897959183700e+11 2.298091741893685e-01 -5.943870089264371e-02
1.545306122449000e+11 2.300693807424591e-01 -5.958188783985029e-02
1.545714285714300e+11 2.303285283076137e-01 -5.972109404418053e-02
1.546122448979600e+11 2.305864848146427e-01 -5.985632022754912e-02
1.546530612244900e+11 2.308431171829351e-01 -5.998757061890370e-02
1.546938775510200e+11 2.310982915116943e-01 -6.011485314589121e-02
1.547346938775500e+11 2.313518732726215e-01 -6.023817952200169e-02
1.547755102040800e+11 2.316037275591001e-01 -6.035756532971452e-02
1.548163265306100e+11 2.318537193268272e-01 -6.047302991220109e-02
1.548571428571400e+11 2.321017136149364e-01 -6.058459644426088e-02
1.548979591836700e+11 2.323475756502680e-01 -6.069229215616936e-02
1.549387755102000e+11 2.325911710768647e-01 -6.079614836642681e-02
1.549795918367300e+11 2.328323662342454e-01 -6.089620023303623e-02
1.550204081632700e+11 2.330710283060909e-01 -6.099248640802851e-02
1.550612244898000e+11 2.333070256152432e-01 -6.108504891849125e-02
1.551020408163300e+11 2.335402285407834e-01 -6.117393464454793e-02
1.551428571428600e+11 2.337705101169962e-01 -6.125919503146800e-02
1.551836734693900e+11 2.339977461442788e-01 -6.134088618837621e-02
1.552244897959200e+11 2.342218151417361e-01 -6.141906913132470e-02
1.552653061224500e+11 2.344425983658962e-01 -6.149380963219706e-02
1.553061224489800e+11 2.346599799203330e-01 -6.156517805914634e-02
1.553469387755100e+11 2.348738469233373e-01 -6.163324914108526e-02
1.553877551020400e+11 2.350840895188810e-01 -6.169810198821140e-02
1.554285714285700e+11 2.352906007538851e-01 -6.175982003075130e-02
1.554693877551000e+11 2.354932765978501e-01 -6.181849082948931e-02
1.555102040816300e+11 2.356920159668280e-01 -6.187420592154136e-02
1.555510204081600e+11 2.358867207577801e-01 -6.192706080016418e-02
1.555918367346900e+11 2.360772957565090e-01 -6.197715505337909e-02
1.556326530612200e+11 2.362636485995449e-01 -6.202459234165721e-02
1.556734693877600e+11 2.364456898091619e-01 -6.206948031849911e-02
1.557142857142900e+11 2.366233328038514e-01 -6.211193056164924e-02
1.557551020408200e+11 2.367964939225334e-01 -6.215205868005517e-02
1.557959183673500e+11 2.369650923997126e-01 -6.218998434124443e-02
1.558367346938800e+11 2.371290504426692e-01 -6.222583127878287e-02
1.558775510204100e+11 2.372882933411106e-01 -6.225972717443574e-02
1.559183673469400e+11 2.374427496164650e-01 -6.229180369040984e-02
1.559591836734700e+11 2.375923511091370e-01 -6.232219633556356e-02
1.560000000000000e+11 2.377370330745013e-01 -6.235104447968728e-02
1.560408163265300e+11 2.378767342467117e-01 -6.237849138172060e-02
1.560816326530600e+11 2.380113970799173e-01 -6.240468405158101e-02
1.561224489795900e+11 2.381409679161577e-01 -6.242977304933051e-02
1.561632653061200e+11 2.382653970831428e-01 -6.245391232970896e-02
1.562040816326500e+11 2.383846388584119e-01 -6.247725923167495e-02
1.562448979591800e+11 2.384986516057539e-01 -6.249997445453694e-02
1.562857142857100e+11 2.386073980077733e-01 -6.252222170194063e-02
1.563265306122400e+11 2.387108451936450e-01 -6.254416747492310e-02
1.563673469387800e+11 2.388089647508475e-01 -6.256598089759520e-02
1.564081632653100e+11 2.389017326867225e-01 -6.258783358897266e-02
1.564489795918400e+11 2.389891294436578e-01 -6.260989943573357e-02
1.564897959183700e+11 2.390711399546741e-01 -6.263235426948838e-02
1.565306122449000e+11 2.391477536213136e-01 -6.265537570358660e-02
1.565714285714300e+11 2.392189642323456e-01 -6.267914289506987e-02
1.566122448979600e+11 2.392847698527963e-01 -6.270383638585750e-02
1.566530612244900e+11 2.393451728319616e-01 -6.272963785417913e-02
1.566938775510200e+11 2.394001798353177e-01 -6.275672984992647e-02
1.567346938775500e+11 2.394498017200656e-01 -6.278529567139510e-02
1.567755102040800e+11 2.394940533725144e-01 -6.281551913830359e-02
1.568163265306100e+11 2.395329537084235e-01 -6.284758437588057e-02
1.568571428571400e+11 2.395665257289493e-01 -6.288167563892359e-02
1.568979591836700e+11 2.395947965153533e-01 -6.291797721659846e-02
1.569387755102000e+11 2.396177971073214e-01 -6.295667338580647e-02
1.569795918367300e+11 2.396355624131224e-01 -6.299794833183250e-02
1.570204081632700e+11 2.396481311928141e-01 -6.304198605675795e-02
1.570612244898000e+11 2.396555460544017e-01 -6.308897045269260e-02
1.571020408163300e+11 2.396578535418336e-01 -6.313908532598309e-02
1.571428571428600e+11 2.396551041302109e-01 -6.319251435509164e-02
1.571836734693900e+11 2.396473522187007e-01 -6.324944087734735e-02
1.572244897959200e+11 2.396346560753086e-01 -6.331004765449597e-02
1.572653061224500e+11 2.396170777964942e-01 -6.337451687766806e-02
1.573061224489800e+11 2.395946833824668e-01 -6.344303012115565e-02
1.573469387755100e+11 2.395675427843303e-01 -6.351576828423366e-02
1.573877551020400e+11 2.395357299005507e-01 -6.359291130178958e-02
1.574285714285700e+11 2.394993225977009e-01 -6.367463783905992e-02
1.574693877551000e+11 2.394584027046034e-01 -6.376112516790536e-02
1.575102040816300e+11 2.394130560199438e-01 -6.385254907241759e-02
1.575510204081600e+11 2.393633723446296e-01 -6.394908354756727e-02
1.575918367346900e+11 2.393094454836819e-01 -6.405090041032177e-02
1.576326530612200e+11 2.392513732927919e-01 -6.415816905630867e-02
1.576734693877600e+11 2.391892576557158e-01 -6.427105626772225e-02
1.577142857142900e+11 2.391232044756734e-01 -6.438972603819226e-02
1.577551020408200e+11 2.390533236502806e-01 -6.451433922577030e-02
1.577959183673500e+11 2.389797290963433e-01 -6.464505325829237e-02
1.578367346938800e+11 2.389025388155739e-01 -6.478202197298438e-02
1.578775510204100e+11 2.388218747741344e-01 -6.492539556515357e-02
1.579183673469400e+11 2.387378627260022e-01 -6.507532046695751e-02
1.579591836734700e+11 2.386506321253271e-01 -6.523193912653118e-02
1.580000000000000e+11 2.385603160138342e-01 -6.539538980137395e-02
1.580408163265300e+11 2.384670509068256e-01 -6.556580643360879e-02
1.580816326530600e+11 2.383709765586299e-01 -6.574331857993382e-02
1.581224489795900e+11 2.382722358034363e-01 -6.592805135375704e-02
1.581632653061200e+11 2.381709744931226e-01 -6.612012518906790e-02
1.582040816326500e+11 2.380673413598994e-01 -6.631965562733183e-02
1.582448979591800e+11 2.379614878250409e-01 -6.652675327881885e-02
1.582857142857100e+11 2.378535677306252e-01 -6.674152398059227e-02
1.583265306122400e+11 2.377437372036272e-01 -6.696406871597910e-02
1.583673469387800e+11 2.376321546023566e-01 -6.719448340531387e-02
1.584081632653100e+11 2.375189804706765e-01 -6.743285878714025e-02
1.584489795918400e+11 2.374043774936332e-01 -6.767928041617505e-02
1.584897959183700e+11 2.372885104371396e-01 -6.793382868042991e-02
1.585306122449000e+11 2.371715461379950e-01 -6.819657865255256e-02
1.585714285714300e+11 2.370536533662311e-01 -6.846759994898292e-02
1.586122448979600e+11 2.369350027509070e-01 -6.874695657524710e-02
1.586530612244900e+11 2.368157667995539e-01 -6.903470680669715e-02
1.586938775510200e+11 2.366961198498278e-01 -6.933090316294289e-02
1.587346938775500e+11 2.365762380020338e-01 -6.963559226488683e-02
1.587755102040800e+11 2.364562990444452e-01 -6.994881454936820e-02
1.588163265306100e+11 2.363364823213068e-01 -7.027060422513419e-02
1.588571428571400e+11 2.362169686244337e-01 -7.060098912123593e-02
1.588979591836700e+11 2.360979400190627e-01 -7.093999061583899e-02
1.589387755102000e+11 2.359795795842294e-01 -7.128762363959419e-02
1.589795918367300e+11 2.358620712217057e-01 -7.164389654627608e-02
1.590204081632700e+11 2.357455994226743e-01 -7.200881096993784e-02
1.590612244898000e+11 2.356303490976999e-01 -7.238236171828122e-02
1.591020408163300e+11 2.355165053998493e-01 -7.276453668488578e-02
1.591428571428600e+11 2.354042534998055e-01 -7.315531674457817e-02
1.591836734693900e+11 2.352937784033554e-01 -7.355467570838492e-02
1.592244897959200e+11 2.351852647946429e-01 -7.396258040095112e-02
1.592653061224500e+11 2.350788969120303e-01 -7.437899072698372e-02
1.593061224489800e+11 2.349748584341066e-01 -7.480385966864019e-02
1.593469387755100e+11 2.348733323414104e-01 -7.523713327603708e-02
1.593877551020400e+11 2.347745007288602e-01 -7.567875075871904e-02
1.594285714285700e+11 2.346785447376699e-01 -7.612864458465467e-02
1.594693877551000e+11 2.345856446151732e-01 -7.658674067627341e-02
1.595102040816300e+11 2.344959796127234e-01 -7.705295853596192e-02
1.595510204081600e+11 2.344097278500008e-01 -7.752721141101264e-02
1.595918367346900e+11 2.343270663163292e-01 -7.800940633261465e-02
1.596326530612200e+11 2.342481708271258e-01 -7.849944429477741e-02
1.596734693877600e+11 2.341732160100914e-01 -7.899722036358256e-02
1.597142857142900e+11 2.341023752345840e-01 -7.950262391347110e-02
1.597551020408200e+11 2.340358205499508e-01 -8.001553879517337e-02
1.597959183673500e+11 2.339737226424950e-01 -8.053584334525850e-02
1.598367346938800e+11 2.339162507100282e-01 -8.106341029180654e-02
1.598775510204100e+11 2.338635723941601e-01 -8.159810666827227e-02
1.599183673469400e+11 2.338158537715078e-01 -8.213979384613661e-02
1.599591836734700e+11 2.337732592421027e-01 -8.268832746453776e-02
1.600000000000000e+11 2.337359513895354e-01 -8.324355736306023e-02
1.600408163265300e+11 2.337040909041414e-01 -8.380532733773567e-02
1.600816326530600e+11 2.336778372290954e-01 -8.437347524202808e-02
1.601224489795900e+11 2.336573483607718e-01 -8.494783344616487e-02
1.601632653061200e+11 2.336427806779943e-01 -8.552822885219558e-02
1.602040816326500e+11 2.336342887196188e-01 -8.611448287711361e-02
1.602448979591800e+11 2.336320249725192e-01 -8.670641130751412e-02
1.602857142857100e+11 2.336361397452192e-01 -8.730382406716383e-02
1.603265306122400e+11 2.336467808505763e-01 -8.790652505966706e-02
1.603673469387800e+11 2.336640932638940e-01 -8.851431214895225e-02
1.604081632653100e+11 2.336882188181628e-01 -8.912697723349973e-02
1.604489795918400e+11 2.337192958663919e-01 -8.974430631482014e-02
1.604897959183700e+11 2.337574590426078e-01 -9.036607972656029e-02
1.605306122449000e+11 2.338028389167124e-01 -9.099207229144693e-02
1.605714285714300e+11 2.338555615702624e-01 -9.162205351524953e-02
1.606122448979600e+11 2.339157481832592e-01 -9.225578773810610e-02
1.606530612244900e+11 2.339835146652281e-01 -9.289303451558108e-02
1.606938775510200e+11 2.340589714618198e-01 -9.353354907270348e-02
1.607346938775500e+11 2.341422233529644e-01 -9.417708268995477e-02
1.607755102040800e+11 2.342333691867789e-01 -9.482338306618907e-02
1.608163265306100e+11 2.343325017499229e-01 -9.547219484770071e-02
1.608571428571400e+11 2.344397077501178e-01 -9.612325999807564e-02
1.608979591836700e+11 2.345550678395744e-01 -9.677631833091462e-02
1.609387755102000e+11 2.346786565701579e-01 -9.743110795753676e-02
1.609795918367300e+11 2.348105424121904e-01 -9.808736578194498e-02
1.610204081632700e+11 2.349507878137346e-01 -9.874482799684867e-02
1.610612244898000e+11 2.350994493830914e-01 -9.940323051368161e-02
1.611020408163300e+11 2.352565781783591e-01 -1.000623092845684e-01
1.611428571428600e+11 2.354222198537012e-01 -1.007218005652688e-01
1.611836734693900e+11 2.355964147921834e-01 -1.013814410998441e-01
1.612244897959200e+11 2.357791982846239e-01 -1.020409682106845e-01
1.612653061224500e+11 2.359706008358169e-01 -1.027001198222947e-01
1.613061224489800e+11 2.361706483780174e-01 -1.033586343904697e-01
1.613469387755100e+11 2.363793624533286e-01 -1.040162510043545e-01
1.613877551020400e+11 2.365967603775030e-01 -1.046727092867840e-01
1.614285714285700e+11 2.368228553206753e-01 -1.053277493508523e-01
1.614693877551000e+11 2.370576564570377e-01 -1.059811117565260e-01
1.615102040816300e+11 2.373011690386195e-01 -1.066325374998504e-01
1.615510204081600e+11 2.375533943833291e-01 -1.072817678289643e-01
1.615918367346900e+11 2.378143298145481e-01 -1.079285440076002e-01
1.616326530612200e+11 2.380839685852095e-01 -1.085726070916434e-01
1.616734693877600e+11 2.383622997446791e-01 -1.092136977231905e-01
1.617142857142900e+11 2.386493079815112e-01 -1.098515559592377e-01
1.617551020408200e+11 2.389449733710216e-01 -1.104859211917032e-01
1.617959183673500e+11 2.392492711636943e-01 -1.111165321313190e-01
1.618367346938800e+11 2.395621716360880e-01 -1.117431268231941e-01
1.618775510204100e+11 2.398836399030949e-01 -1.123654426761281e-01
1.619183673469400e+11 2.402136356133472e-01 -1.129832166056101e-01
1.619591836734700e+11 2.405521126844998e-01 -1.135961852343561e-01
1.620000000000000e+11 2.408990192058250e-01 -1.142040851942034e-01
1.620408163265300e+11 2.412542972554148e-01 -1.148066534288360e-01
1.620816326530600e+11 2.416178826630256e-01 -1.154036276420603e-01
1.621224489795900e+11 2.419897048522480e-01 -1.159947467663057e-01
1.621632653061200e+11 2.423696866258063e-01 -1.165797513172496e-01
1.622040816326500e+11 2.427577441681395e-01 -1.171583838739233e-01
1.622448979591800e+11 2.431537869769288e-01 -1.177303894761957e-01
1.622857142857100e+11 2.435577177785440e-01 -1.182955161440451e-01
1.623265306122400e+11 2.439694326044149e-01 -1.188535153477762e-01
1.623673469387800e+11 2.443888209187197e-01 -1.194041425221450e-01
1.624081632653100e+11 2.448157656967210e-01 -1.199471574943113e-01
1.624489795918400e+11 2.452501434494471e-01 -1.204823248472863e-01
1.624897959183700e+11 2.456918243915126e-01 -1.210094141818168e-01
1.625306122449000e+11 2.461406727536488e-01 -1.215282003431162e-01
1.625714285714300e+11 2.465965470276807e-01 -1.220384636715684e-01
1.626122448979600e+11 2.470593001313204e-01 -1.225399902115619e-01
1.626530612244900e+11 2.475287796257057e-01 -1.230325719567559e-01
1.626938775510200e+11 2.480048282601359e-01 -1.235160068663866e-01
1.627346938775500e+11 2.484872843370328e-01 -1.239900988737389e-01
1.627755102040800e+11 2.489759819645924e-01 -1.244546583034317e-01
1.628163265306100e+11 2.494707514938361e-01 -1.249095022635465e-01
1.628571428571400e+11 2.499714198785583e-01 -1.253544548442895e-01
1.628979591836700e+11 2.504778110421137e-01 -1.257893470153037e-01
1.629387755102000e+11 2.509897461480991e-01 -1.262140166157998e-01
1.629795918367300e+11 2.515070437776101e-01 -1.266283083953590e-01
1.630204081632700e+11 2.520295201194219e-01 -1.270320739207071e-01
1.630612244898000e+11 2.525569892628013e-01 -1.274251712849365e-01
1.631020408163300e+11 2.530892633301018e-01 -1.278074649954117e-01
1.631428571428600e+11 2.536261526589095e-01 -1.281788259322052e-01
1.631836734693900e+11 2.541674658876217e-01 -1.285391313415148e-01
1.632244897959200e+11 2.547130100453794e-01 -1.288882646900786e-01
1.632653061224500e+11 2.552625906388185e-01 -1.292261153780602e-01
1.633061224489800e+11 2.558160116679192e-01 -1.295525785394712e-01
1.633469387755100e+11 2.563730756606526e-01 -1.298675549239459e-01
1.633877551020400e+11 2.569335837424681e-01 -1.301709509545735e-01
1.634285714285700e+11 2.574973356869542e-01 -1.304626787234480e-01
1.634693877551000e+11 2.580641298544271e-01 -1.307426560246933e-01
1.635102040816300e+11 2.586337632630817e-01 -1.310108062772270e-01
1.635510204081600e+11 2.592060316470741e-01 -1.312670584425665e-01
1.635918367346900e+11 2.597807295667198e-01 -1.315113470010824e-01
1.636326530612200e+11 2.603576504110676e-01 -1.317436121505507e-01
1.636734693877600e+11 2.609365863155390e-01 -1.319638000192926e-01
1.637142857142900e+11 2.615173280548879e-01 -1.321718627581203e-01
1.637551020408200e+11 2.620996651032418e-01 -1.323677583868871e-01
1.637959183673500e+11 2.626833857092659e-01 -1.325514507749266e-01
1.638367346938800e+11 2.632682768844883e-01 -1.327229100106297e-01
1.638775510204100e+11 2.638541243944713e-01 -1.328821126202948e-01
1.639183673469400e+11 2.644407127585670e-01 -1.330290415307512e-01
1.639591836734700e+11 2.650278252378038e-01 -1.331636858714192e-01
1.640000000000000e+11 2.656152438774632e-01 -1.332860410209978e-01
1.640408163265300e+11 2.662027494562799e-01 -1.333961088013474e-01
1.640816326530600e+11 2.667901215403887e-01 -1.334938976206926e-01
1.641224489795900e+11 2.673771386281663e-01 -1.335794224653237e-01
1.641632653061200e+11 2.679635782976251e-01 -1.336527048769102e-01
1.642040816326500e+11 2.685492172838943e-01 -1.337137731030025e-01
1.642448979591800e+11 2.691338316643129e-01 -1.337626621673814e-01
1.642857142857100e+11 2.697171971150976e-01 -1.337994140177131e-01
1.643265306122400e+11 2.702990891437554e-01 -1.338240776814746e-01
1.643673469387800e+11 2.708792833042214e-01 -1.338367094479130e-01
1.644081632653100e+11 2.714575553947285e-01 -1.338373730334550e-01
1.644489795918400e+11 2.720336817603248e-01 -1.338261397050775e-01
1.644897959183700e+11 2.726074397123718e-01 -1.338030883839432e-01
1.645306122449000e+11 2.731786078790369e-01 -1.337683057934994e-01
1.645714285714300e+11 2.737469665477619e-01 -1.337218865798145e-01
1.646122448979600e+11 2.743122979553875e-01 -1.336639334798250e-01
1.646530612244900e+11 2.748743864974474e-01 -1.335945572034254e-01
1.646938775510200e+11 2.754330191272215e-01 -1.335138762314667e-01
1.647346938775500e+11 2.759879857779250e-01 -1.334220165177483e-01
1.647755102040800e+11 2.765390797723746e-01 -1.333191111419034e-01
1.648163265306100e+11 2.770860980705300e-01 -1.332053001773288e-01
1.648571428571400e+11 2.776288416415028e-01 -1.330807304855741e-01
1.648979591836700e+11 2.781671158418553e-01 -1.329455552788740e-01
1.649387755102000e+11 2.787007307990241e-01 -1.327999335984717e-01
1.649795918367300e+11 2.792295016799858e-01 -1.326440297307359e-01
1.650204081632700e+11 2.797532489739771e-01 -1.324780126963419e-01
1.650612244898000e+11 2.802717985954887e-01 -1.323020558277405e-01
1.651020408163300e+11 2.807849819932977e-01 -1.321163361980626e-01
1.651428571428600e+11 2.812926360498408e-01 -1.319210341038061e-01
1.651836734693900e+11 2.817946030884232e-01 -1.317163325000887e-01
1.652244897959200e+11 2.822907310021185e-01 -1.315024164326797e-01
1.652653061224500e+11 2.827808732218055e-01 -1.312794725967916e-01
1.653061224489800e+11 2.832648884170685e-01 -1.310476888419947e-01
1.653469387755100e+11 2.837426401063229e-01 -1.308072538396047e-01
1.653877551020400e+11 2.842139963773840e-01 -1.305583567605030e-01
1.654285714285700e+11 2.846788296485172e-01 -1.303011870052387e-01
1.654693877551000e+11 2.851370164503347e-01 -1.300359340023625e-01
1.655102040816300e+11 2.855884371012801e-01 -1.297627869923417e-01
1.655510204081600e+11 2.860329753009110e-01 -1.294819348120595e-01
1.655918367346900e+11 2.864705176860036e-01 -1.291935657337354e-01
1.656326530612200e+11 2.869009535670572e-01 -1.288978674432115e-01
1.656734693877600e+11 2.873241746665016e-01 -1.285950270526446e-01
1.657142857142900e+11 2.877400748182201e-01 -1.282852312787638e-01
1.657551020408200e+11 2.881485497515943e-01 -1.279686665709452e-01
1.657959183673500e+11 2.885494969427712e-01 -1.276455192383795e-01
1.658367346938800e+11 2.889428155755279e-01 -1.273159756998489e-01
1.658775510204100e+11 2.893284065241412e-01 -1.269802226789355e-01
1.659183673469400e+11 2.897061723999372e-01 -1.266384474438461e-01
1.659591836734700e+11 2.900760177657365e-01 -1.262908380622367e-01
1.660000000000000e+11 2.904378494525376e-01 -1.259375835521853e-01
1.660408163265300e+11 2.907915769151057e-01 -1.255788740236512e-01
1.660816326530600e+11 2.911371124526020e-01 -1.252149010084355e-01
1.661224489795900e+11 2.914743714306417e-01 -1.248458576475595e-01
1.661632653061200e+11 2.918032727377051e-01 -1.244719387122328e-01
1.662040816326500e+11 2.921237393624423e-01 -1.240933406191625e-01
1.662448979591800e+11 2.924356989213574e-01 -1.237102614000846e-01
1.662857142857100e+11 2.927390840252910e-01 -1.233229007230057e-01
1.663265306122400e+11 2.930338326459856e-01 -1.229314596512999e-01
1.663673469387800e+11 2.933198884555136e-01 -1.225361403212211e-01
1.664081632653100e+11 2.935972012685296e-01 -1.221371455323700e-01
1.664489795918400e+11 2.938657273826055e-01 -1.217346782608866e-01
1.664897959183700e+11 2.941254296888247e-01 -1.213289412320851e-01
1.665306122449000e+11 2.943762777607195e-01 -1.209201365082339e-01
1.665714285714300e+11 2.946182481105143e-01 -1.205084647873924e-01
1.666122448979600e+11 2.948513244710542e-01 -1.200941246812965e-01
1.666530612244900e+11 2.950754980403116e-01 -1.196773120691625e-01
1.666938775510200e+11 2.952907675632676e-01 -1.192582195464367e-01
1.667346938775500e+11 2.954971392299611e-01 -1.188370359313436e-01
1.667755102040800e+11 2.956946264735830e-01 -1.184139458117132e-01
1.668163265306100e+11 2.958832497826540e-01 -1.179891290759234e-01
1.668571428571400e+11 2.960630366824011e-01 -1.175627604847618e-01
1.668979591836700e+11 2.962340217179653e-01 -1.171350091812121e-01
1.669387755102000e+11 2.963962462248740e-01 -1.167060384902551e-01
1.669795918367300e+11 2.965497579977286e-01 -1.162760057505190e-01
1.670204081632700e+11 2.966946109783862e-01 -1.158450621833891e-01
1.670612244898000e+11 2.968308649704570e-01 -1.154133526900365e-01
1.671020408163300e+11 2.969585852634827e-01 -1.149810156438002e-01
1.671428571428600e+11 2.970778422370016e-01 -1.145481829804651e-01
1.671836734693900e+11 2.971887110702535e-01 -1.141149804497252e-01
1.672244897959200e+11 2.972912715136761e-01 -1.136815277539952e-01
1.672653061224500e+11 2.973856075631204e-01 -1.132479385135080e-01
1.673061224489800e+11 2.974718071346142e-01 -1.128143202155234e-01
1.673469387755100e+11 2.975499618244415e-01 -1.123807743396589e-01
1.673877551020400e+11 2.976201668117252e-01 -1.119473967214632e-01
1.674285714285700e+11 2.976825206900789e-01 -1.115142777391231e-01
1.674693877551000e+11 2.977371252442088e-01 -1.110815024387784e-01
1.675102040816300e+11 2.977840852707789e-01 -1.106491505963790e-01
1.675510204081600e+11 2.978235085582547e-01 -1.102172968227794e-01
1.675918367346900e+11 2.978555058309015e-01 -1.097860107923697e-01
1.676326530612200e+11 2.978801906770594e-01 -1.093553574752486e-01
1.676734693877600e+11 2.978976795288124e-01 -1.089253972531355e-01
1.677142857142900e+11 2.979080915676238e-01 -1.084961860456252e-01
1.677551020408200e+11 2.979115485920834e-01 -1.080677754916392e-01
1.677959183673500e+11 2.979081750644552e-01 -1.076402131119517e-01
1.678367346938800e+11 2.978980980776314e-01 -1.072135426702031e-01
1.678775510204100e+11 2.978814473453260e-01 -1.067878044577013e-01
1.679183673469400e+11 2.978583551453134e-01 -1.063630354444433e-01
1.679591836734700e+11 2.978289562192108e-01 -1.059392695620054e-01
1.680000000000000e+11 2.977933876003390e-01 -1.055165378828578e-01
1.680408163265300e+11 2.977517884242664e-01 -1.050948686791125e-01
1.680816326530600e+11 2.977042996659505e-01 -1.046742876387064e-01
1.681224489795900e+11 2.976510639873276e-01 -1.042548179825692e-01
1.681632653061200e+11 2.975922255214677e-01 -1.038364807893418e-01
1.682040816326500e+11 2.975279298085747e-01 -1.034192949351013e-01
1.682448979591800e+11 2.974583236868529e-01 -1.030032770992879e-01
1.682857142857100e+11 2.973835551697309e-01 -1.025884418716789e-01
1.683265306122400e+11 2.973037733867165e-01 -1.021748020851970e-01
1.683673469387800e+11 2.972191286180514e-01 -1.017623690653875e-01
1.684081632653100e+11 2.971297723522286e-01 -1.013511526224260e-01
1.684489795918400e+11 2.970358573587030e-01 -1.009411609166750e-01
1.684897959183700e+11 2.969375377332088e-01 -1.005324004901767e-01
1.685306122449000e+11 2.968349689103502e-01 -1.001248763348869e-01
1.685714285714300e+11 2.967283076511648e-01 -9.971859169846305e-02
1.686122448979600e+11 2.966177119852222e-01 -9.931354792702866e-02
1.686530612244900e+11 2.965033411117043e-01 -9.890974448234870e-02
1.686938775510200e+11 2.963853554006017e-01 -9.850717892654083e-02
1.687346938775500e+11 2.962639162447824e-01 -9.810584669077088e-02
1.687755102040800e+11 2.961391858043537e-01 -9.770574068863669e-02
1.688163265306100e+11 2.960113266775792e-01 -9.730685100419002e-02
1.688571428571400e+11 2.958805016370008e-01 -9.690916477408286e-02
1.688979591836700e+11 2.957468734249257e-01 -9.651266600200634e-02
1.689387755102000e+11 2.956106043997999e-01 -9.611733526553480e-02
1.689795918367300e+11 2.954718559734991e-01 -9.572314950930433e-02
1.690204081632700e+11 2.953307880800958e-01 -9.533008184599488e-02
1.690612244898000e+11 2.951875588046502e-01 -9.493810141005596e-02
1.691020408163300e+11 2.950423239323202e-01 -9.454717341742347e-02
1.691428571428600e+11 2.948952363885852e-01 -9.415725914457405e-02
1.691836734693900e+11 2.947464457460328e-01 -9.376831607364143e-02
1.692244897959200e+11 2.945960976062522e-01 -9.338029806503144e-02
1.692653061224500e+11 2.944443331443815e-01 -9.299315560276016e-02
1.693061224489800e+11 2.942912887028080e-01 -9.260683614915159e-02
1.693469387755100e+11 2.941370952140285e-01 -9.222128440529480e-02
1.693877551020400e+11 2.939818777371157e-01 -9.183644276344954e-02
1.694285714285700e+11 2.938257550725744e-01 -9.145225190303929e-02
1.694693877551000e+11 2.936688394590162e-01 -9.106865145831665e-02
1.695102040816300e+11 2.935112363641846e-01 -9.068558061055552e-02
1.695510204081600e+11 2.933530441945643e-01 -9.030297870168602e-02
1.695918367346900e+11 2.931943540558330e-01 -8.992078586432059e-02
1.696326530612200e+11 2.930352496278296e-01 -8.953894376075662e-02
1.696734693877600e+11 2.928758069987035e-01 -8.915739633408819e-02
1.697142857142900e+11 2.927160946004534e-01 -8.877609054167730e-02
1.697551020408200e+11 2.925561731674216e-01 -8.839497708527812e-02
1.697959183673500e+11 2.923960956547963e-01 -8.801401106402576e-02
1.698367346938800e+11 2.922359072316525e-01 -8.763315253175186e-02
1.698775510204100e+11 2.920756452866937e-01 -8.725236703502054e-02
1.699183673469400e+11 2.919153394864448e-01 -8.687162612303874e-02
1.699591836734700e+11 2.917550118863847e-01 -8.649090788008727e-02
1.700000000000000e+11 2.915946770777043e-01 -8.611019730654931e-02
