! Generated by Phase I extraction
# Hz S RI R 50
1.100000000000000e+11 -1.021356817114766e+00 -2.751437027790532e-02
1.100408163265300e+11 -1.021476748987516e+00 -2.698524038357167e-02
1.100816326530600e+11 -1.021596697687273e+00 -2.645318407980999e-02
1.101224489795900e+11 -1.021716546299604e+00 -2.591885792359271e-02
1.101632653061200e+11 -1.021836177817923e+00 -2.538290338834293e-02
1.102040816326500e+11 -1.021955474555091e+00 -2.484594260139130e-02
1.102448979591800e+11 -1.022014960248691e+00 -2.457727188809252e-02
1.102857142857100e+11 -1.022133532443190e+00 -2.403989546579092e-02
1.103265306122400e+11 -1.022251475859852e+00 -2.350289487011067e-02
1.103673469387800e+11 -1.022368677469405e+00 -2.296675508444511e-02
1.104081632653100e+11 -1.022485028086102e+00 -2.243193178204066e-02
1.104489795918400e+11 -1.022600422487805e+00 -2.189885065663011e-02
1.104897959183700e+11 -1.022714760096930e+00 -2.136790832584665e-02
1.105306122449000e+11 -1.022771502267830e+00 -2.110335624012212e-02
1.105714285714300e+11 -1.022884075315600e+00 -2.057629664932388e-02
1.106122448979600e+11 -1.022995359597232e+00 -2.005220273638787e-02
1.106530612244900e+11 -1.023105271531535e+00 -1.953134261686828e-02
1.106938775510200e+11 -1.023213733336932e+00 -1.901396061165370e-02
1.107346938775500e+11 -1.023320670555729e+00 -1.850028126410506e-02
1.107755102040800e+11 -1.023373544817892e+00 -1.824489599316925e-02
1.108163265306100e+11 -1.023478062073757e+00 -1.773714235211422e-02
1.108571428571400e+11 -1.023580882985508e+00 -1.723352378195844e-02
1.108979591836700e+11 -1.023681942497173e+00 -1.673416338553859e-02
1.109387755102000e+11 -1.023781176563106e+00 -1.623916872852191e-02
1.109795918367300e+11 -1.023878521588359e+00 -1.574863188446120e-02
1.110204081632700e+11 -1.023973914373482e+00 -1.526263196824064e-02
1.110612244898000e+11 -1.024020859332390e+00 -1.502135554103241e-02
1.111020408163300e+11 -1.024113209531200e+00 -1.454227363177780e-02
1.111428571428600e+11 -1.024203459703003e+00 -1.406782502726148e-02
1.111836734693900e+11 -1.024291555799970e+00 -1.359800914934749e-02
1.112244897959200e+11 -1.024377447197866e+00 -1.313281652830515e-02
1.112653061224500e+11 -1.024461087890790e+00 -1.267222943016501e-02
1.113061224489800e+11 -1.024542437635212e+00 -1.221622125774719e-02
1.113469387755100e+11 -1.024582242354954e+00 -1.198992392961990e-02
1.113877551020400e+11 -1.024660092510694e+00 -1.154070223840986e-02
1.114285714285700e+11 -1.024735575416748e+00 -1.109589541052575e-02
1.114693877551000e+11 -1.024808668523448e+00 -1.065539559022845e-02
1.115102040816300e+11 -1.024879352006390e+00 -1.021908486543139e-02
1.115510204081600e+11 -1.024947608464560e+00 -9.786837540236019e-03
1.115918367346900e+11 -1.024980821834469e+00 -9.572197333080075e-03
1.116326530612200e+11 -1.025045411867201e+00 -9.145785684390194e-03
1.116734693877600e+11 -1.025107547659581e+00 -8.723046272938875e-03
1.117142857142900e+11 -1.025167226801978e+00 -8.303798774041277e-03
1.117551020408200e+11 -1.025224452326034e+00 -7.887866717384213e-03
1.117959183673500e+11 -1.025279234060086e+00 -7.475077898272450e-03
1.118367346938800e+11 -1.025331589604972e+00 -7.065264547003540e-03
1.118775510204100e+11 -1.025356865172069e+00 -6.861423640531617e-03
1.119183673469400e+11 -1.025405631374162e+00 -6.455763689480737e-03
1.119591836734700e+11 -1.025452049076966e+00 -6.052640482974558e-03
1.120000000000000e+11 -1.025496162535541e+00 -5.651875170334247e-03
1.120408163265300e+11 -1.025538022718421e+00 -5.253300357874197e-03
1.120816326530600e+11 -1.025577682658932e+00 -4.856758330442064e-03
1.121224489795900e+11 -1.025615194530717e+00 -4.462098455740951e-03
1.121632653061200e+11 -1.025633160813315e+00 -4.265429001813808e-03
1.122040816326500e+11 -1.025667545008332e+00 -3.873307700218856e-03
1.122448979591800e+11 -1.025699903564518e+00 -3.482653592442836e-03
1.122857142857100e+11 -1.025730278933970e+00 -3.093285292133162e-03
1.123265306122400e+11 -1.025758708121338e+00 -2.705026138112970e-03
1.123673469387800e+11 -1.025785223383783e+00 -2.317704161895440e-03
1.124081632653100e+11 -1.025809852815181e+00 -1.931150649491884e-03
1.124489795918400e+11 -1.025821467779255e+00 -1.738110105020247e-03
1.124897959183700e+11 -1.025843310110283e+00 -1.352380570799553e-03
1.125306122449000e+11 -1.025863314429030e+00 -9.669394226129130e-04
1.125714285714300e+11 -1.025881491681873e+00 -5.815756322370963e-04
1.126122448979600e+11 -1.025897849463414e+00 -1.960807562105378e-04
1.126530612244900e+11 -1.025912392515635e+00 1.897479127122421e-04
1.126938775510200e+11 -1.025918984433426e+00 3.828480571172029e-04
1.127346938775500e+11 -1.025930809372682e+00 7.695544614837497e-04
1.127755102040800e+11 -1.025940822348794e+00 1.157130156811952e-03
1.128163265306100e+11 -1.025949025485423e+00 1.545797795048780e-03
1.128571428571400e+11 -1.025955423989303e+00 1.935772628018090e-03
1.128979591836700e+11 -1.025960025717074e+00 2.327262988744794e-03
1.129387755102000e+11 -1.025962840138513e+00 2.720467398070611e-03
1.129795918367300e+11 -1.025963580231384e+00 2.917770544285207e-03
1.130204081632700e+11 -1.025963730887573e+00 3.313906748726290e-03
1.130612244898000e+11 -1.025962113763391e+00 3.712264775994716e-03
1.131020408163300e+11 -1.025958734916355e+00 4.113046680625315e-03
1.131428571428600e+11 -1.025953601105845e+00 4.516435851714280e-03
1.131836734693900e+11 -1.025946721106015e+00 4.922596084898872e-03
1.132244897959200e+11 -1.025938106153010e+00 5.331672202302985e-03
1.132653061224500e+11 -1.025933152654126e+00 5.537343043367994e-03
1.133061224489800e+11 -1.025921962841119e+00 5.951037488008929e-03
1.133469387755100e+11 -1.025909075867639e+00 6.367994537652927e-03
1.133877551020400e+11 -1.025894512006267e+00 6.788347120726783e-03
1.134285714285700e+11 -1.025878296409857e+00 7.212208394694665e-03
1.134693877551000e+11 -1.025860459691518e+00 7.639670561532224e-03
1.135102040816300e+11 -1.025850944585138e+00 7.854774666052862e-03
1.135510204081600e+11 -1.025830744251381e+00 8.287779978149699e-03
1.135918367346900e+11 -1.025809015449968e+00 8.724591960844961e-03
1.136326530612200e+11 -1.025785799459886e+00 9.165281255467705e-03
1.136734693877600e+11 -1.025761139795185e+00 9.609894994688605e-03
1.137142857142900e+11 -1.025735081176136e+00 1.005845552036884e-02
1.137551020408200e+11 -1.025707668903548e+00 1.051095901082893e-02
1.137959183673500e+11 -1.025693469371536e+00 1.073868013664374e-02
1.138367346938800e+11 -1.025664110620651e+00 1.119704450809219e-02
1.138775510204100e+11 -1.025633506996513e+00 1.165928484002845e-02
1.139183673469400e+11 -1.025601700514549e+00 1.212534833517044e-02
1.139591836734700e+11 -1.025568733222174e+00 1.259515168847575e-02
1.140000000000000e+11 -1.025534647972131e+00 1.306858098577225e-02
1.140408163265300e+11 -1.025499489032676e+00 1.354549200616533e-02
1.140816326530600e+11 -1.025481521283749e+00 1.378519856271310e-02
1.141224489795900e+11 -1.025444837360416e+00 1.426700455131629e-02
1.141632653061200e+11 -1.025407191876124e+00 1.475185725335702e-02
1.142040816326500e+11 -1.025368629994474e+00 1.523955293898402e-02
1.142448979591800e+11 -1.025329198730928e+00 1.572985517629230e-02
1.142857142857100e+11 -1.025288947110838e+00 1.622249469425861e-02
1.143265306122400e+11 -1.025268529596673e+00 1.646959622808706e-02
1.143673469387800e+11 -1.025227142308139e+00 1.696517255389262e-02
1.144081632653100e+11 -1.025185059003128e+00 1.746232500308713e-02
1.144489795918400e+11 -1.025142329551956e+00 1.796071243908755e-02
1.144897959183700e+11 -1.025099004939674e+00 1.845995609723814e-02
1.145306122449000e+11 -1.025055137190194e+00 1.895963906675735e-02
1.145714285714300e+11 -1.025010779539065e+00 1.945930458950949e-02
1.146122448979600e+11 -1.024988433994278e+00 1.970897583974392e-02
1.146530612244900e+11 -1.024943443437280e+00 2.020768158243925e-02
1.146938775510200e+11 -1.024898099342288e+00 2.070511406947665e-02
1.147346938775500e+11 -1.024852458266981e+00 2.120072358198782e-02
1.147755102040800e+11 -1.024806578272592e+00 2.169391635730966e-02
1.148163265306100e+11 -1.024760518813657e+00 2.218405357813444e-02
1.148571428571400e+11 -1.024714340826537e+00 2.267044985779726e-02
1.148979591836700e+11 -1.024691226898356e+00 2.291201684898851e-02
1.149387755102000e+11 -1.024644988110627e+00 2.339142397966610e-02
1.149795918367300e+11 -1.024598786353806e+00 2.386523161773759e-02
1.150204081632700e+11 -1.024552684978202e+00 2.433263616675673e-02
1.150612244898000e+11 -1.024529692171892e+00 2.456367127691969e-02
1.151020408163300e+11 -1.024506748699779e+00 2.479278271470361e-02
1.151428571428600e+11 -1.024483862185265e+00 2.501986582876124e-02
1.151836734693900e+11 -1.024461039872273e+00 2.524481965066757e-02
1.152244897959200e+11 -1.024438288594388e+00 2.546754695124492e-02
1.152653061224500e+11 -1.024415614766415e+00 2.568795423246777e-02
1.153061224489800e+11 -1.024393024428508e+00 2.590595180098344e-02
1.153469387755100e+11 -1.024370523279923e+00 2.612145383103475e-02
1.153877551020400e+11 -1.024348116742147e+00 2.633437836598998e-02
1.154285714285700e+11 -1.024325810018817e+00 2.654464733989391e-02
1.154693877551000e+11 -1.024303608104374e+00 2.675218657040224e-02
1.155102040816300e+11 -1.024281515802588e+00 2.695692575255795e-02
1.155510204081600e+11 -1.024259537730335e+00 2.715879836048339e-02
1.155918367346900e+11 -1.024237678314407e+00 2.735774147750806e-02
1.156326530612200e+11 -1.024215941805660e+00 2.755369567833493e-02
1.156734693877600e+11 -1.024194332322756e+00 2.774660494730908e-02
1.157142857142900e+11 -1.024172853854289e+00 2.793641653108396e-02
1.157551020408200e+11 -1.024151510244247e+00 2.812308077425328e-02
1.157959183673500e+11 -1.024130305202442e+00 2.830655109033849e-02
1.158367346938800e+11 -1.024109242291785e+00 2.848678387135222e-02
1.158775510204100e+11 -1.024088324913281e+00 2.866373846951030e-02
1.159183673469400e+11 -1.024067556330730e+00 2.883737721117697e-02
1.159591836734700e+11 -1.024046939666272e+00 2.900766543792346e-02
1.160000000000000e+11 -1.024026477916504e+00 2.917457151295793e-02
1.160408163265300e+11 -1.024006173954059e+00 2.933806684295031e-02
1.160816326530600e+11 -1.023986030528215e+00 2.949812585621669e-02
1.161224489795900e+11 -1.023966050270461e+00 2.965472598119550e-02
1.161632653061200e+11 -1.023946235718878e+00 2.980784766274243e-02
1.162040816326500e+11 -1.023926589322217e+00 2.995747428585463e-02
1.162448979591800e+11 -1.023907113469926e+00 3.010359210883952e-02
1.162857142857100e+11 -1.023887810487930e+00 3.024619019055912e-02
1.163265306122400e+11 -1.023868682655265e+00 3.038526026233449e-02
1.163673469387800e+11 -1.023849732236711e+00 3.052079664196876e-02
1.164081632653100e+11 -1.023830961507722e+00 3.065279609489594e-02
1.164489795918400e+11 -1.023812372717814e+00 3.078125769284365e-02
1.164897959183700e+11 -1.023793968119675e+00 3.090618262152536e-02
1.165306122449000e+11 -1.023775749965917e+00 3.102757404648758e-02
1.165714285714300e+11 -1.023757720517182e+00 3.114543698079211e-02
1.166122448979600e+11 -1.023739882023249e+00 3.125977814708508e-02
1.166530612244900e+11 -1.023722236718855e+00 3.137060586225784e-02
1.166938775510200e+11 -1.023704786782773e+00 3.147792991133740e-02
1.167346938775500e+11 -1.023687534328602e+00 3.158176143811677e-02
1.167755102040800e+11 -1.023670481388472e+00 3.168211290800572e-02
1.168163265306100e+11 -1.023653629884757e+00 3.177899808916568e-02
1.168571428571400e+11 -1.023636981578910e+00 3.187243190651301e-02
1.168979591836700e+11 -1.023620538049388e+00 3.196243047090613e-02
1.169387755102000e+11 -1.023604300657828e+00 3.204901104131070e-02
1.169795918367300e+11 -1.023588270545117e+00 3.213219204240528e-02
1.170204081632700e+11 -1.023572448619044e+00 3.221199307687291e-02
1.170612244898000e+11 -1.023556835548266e+00 3.228843488496678e-02
1.171020408163300e+11 -1.023541431774853e+00 3.236153939569637e-02
1.171428571428600e+11 -1.023526237566978e+00 3.243132980126649e-02
1.171836734693900e+11 -1.023511253009866e+00 3.249783063860370e-02
1.172244897959200e+11 -1.023496478022640e+00 3.256106780015992e-02
1.172653061224500e+11 -1.023481912374499e+00 3.262106848739904e-02
1.173061224489800e+11 -1.023467555707588e+00 3.267786122296398e-02
1.173469387755100e+11 -1.023453407550249e+00 3.273147583243487e-02
1.173877551020400e+11 -1.023439467337083e+00 3.278194341705608e-02
1.174285714285700e+11 -1.023425734406989e+00 3.282929631546966e-02
1.174693877551000e+11 -1.023412207998491e+00 3.287356803301857e-02
1.175102040816300e+11 -1.023398887239374e+00 3.291479315920222e-02
1.175510204081600e+11 -1.023385771140014e+00 3.295300727734100e-02
1.175918367346900e+11 -1.023372858591397e+00 3.298824691179969e-02
1.176326530612200e+11 -1.023360148367414e+00 3.302054948205707e-02
1.176734693877600e+11 -1.023347639157863e+00 3.304995326631308e-02
1.177142857142900e+11 -1.023335329560999e+00 3.307649734820192e-02
1.177551020408200e+11 -1.023323218074501e+00 3.310022161204107e-02
1.177959183673500e+11 -1.023311303070211e+00 3.312116681906083e-02
1.178367346938800e+11 -1.023299582747154e+00 3.313937447105487e-02
1.178775510204100e+11 -1.023288055155390e+00 3.315488670783995e-02
1.179183673469400e+11 -1.023276718181652e+00 3.316774623758951e-02
1.179591836734700e+11 -1.023265569563769e+00 3.317799637446393e-02
1.180000000000000e+11 -1.023254606902193e+00 3.318568108724677e-02
1.180408163265300e+11 -1.023243827643770e+00 3.319084500588110e-02
1.180816326530600e+11 -1.023233229099107e+00 3.319353337505710e-02
1.181224489795900e+11 -1.023222808586910e+00 3.319379123895890e-02
1.181632653061200e+11 -1.023212563453641e+00 3.319166341540185e-02
1.182040816326500e+11 -1.023202491081888e+00 3.318719448700273e-02
1.182448979591800e+11 -1.023192588873123e+00 3.318042873846155e-02
1.182857142857100e+11 -1.023182854290315e+00 3.317141011334779e-02
1.183265306122400e+11 -1.023173284844727e+00 3.316018222442595e-02
1.183673469387800e+11 -1.023163878091083e+00 3.314678837353226e-02
1.184081632653100e+11 -1.023154631636656e+00 3.313127145960981e-02
1.184489795918400e+11 -1.023145543162298e+00 3.311367393429685e-02
1.184897959183700e+11 -1.023136610413725e+00 3.309403778250843e-02
1.185306122449000e+11 -1.023127831222353e+00 3.307240453722939e-02
1.185714285714300e+11 -1.023119203509829e+00 3.304881528141089e-02
1.186122448979600e+11 -1.023110725267832e+00 3.302331062947914e-02
1.186530612244900e+11 -1.023102394562822e+00 3.299593071560442e-02
1.186938775510200e+11 -1.023094209547780e+00 3.296671521007562e-02
1.187346938775500e+11 -1.023086168465201e+00 3.293570331452535e-02
1.187755102040800e+11 -1.023078269655617e+00 3.290293371606738e-02
1.188163265306100e+11 -1.023070511515132e+00 3.286844458911566e-02
1.188571428571400e+11 -1.023062892482360e+00 3.283227360343399e-02
1.188979591836700e+11 -1.023055411062430e+00 3.279445797983498e-02
1.189387755102000e+11 -1.023048065850195e+00 3.275503445718635e-02
1.189795918367300e+11 -1.023040855546145e+00 3.271403933316371e-02
1.190204081632700e+11 -1.023033778933861e+00 3.267150852230028e-02
1.190612244898000e+11 -1.023026834875507e+00 3.262747757456860e-02
1.191020408163300e+11 -1.023020022328271e+00 3.258198175218061e-02
1.191428571428600e+11 -1.023013340346034e+00 3.253505606251280e-02
1.191836734693900e+11 -1.023006788071569e+00 3.248673523225565e-02
1.192244897959200e+11 -1.023000364736984e+00 3.243705368054450e-02
1.192653061224500e+11 -1.022994069633590e+00 3.238604554270524e-02
1.193061224489800e+11 -1.022987902146830e+00 3.233374467954775e-02
1.193469387755100e+11 -1.022981861725226e+00 3.228018461304677e-02
1.193877551020400e+11 -1.022975947875271e+00 3.222539846206157e-02
1.194285714285700e+11 -1.022970160157253e+00 3.216941889031076e-02
1.194693877551000e+11 -1.022964498190271e+00 3.211227803709810e-02
1.195102040816300e+11 -1.022958961671571e+00 3.205400749928012e-02
1.195510204081600e+11 -1.022953550374360e+00 3.199463832246503e-02
1.195918367346900e+11 -1.022948264134061e+00 3.193420092394667e-02
1.196326530612200e+11 -1.022943102851398e+00 3.187272511033056e-02
1.196734693877600e+11 -1.022938066459593e+00 3.181024005468130e-02
1.197142857142900e+11 -1.022933154930904e+00 3.174677434382328e-02
1.197551020408200e+11 -1.022928368255559e+00 3.168235600300440e-02
1.197959183673500e+11 -1.022923706430490e+00 3.161701250537644e-02
1.198367346938800e+11 -1.022919169458818e+00 3.155077076844692e-02
1.198775510204100e+11 -1.022914757299075e+00 3.148365711619099e-02
1.199183673469400e+11 -1.022910469872186e+00 3.141569733779039e-02
1.199591836734700e+11 -1.022906307058338e+00 3.134691677570319e-02
1.200000000000000e+11 -1.022902268689211e+00 3.127734029494887e-02
1.200408163265300e+11 -1.022898354545418e+00 3.120699234010944e-02
1.200816326530600e+11 -1.022894564356750e+00 3.113589694645483e-02
1.201224489795900e+11 -1.022890897807348e+00 3.106407772578081e-02
1.201632653061200e+11 -1.022887354542716e+00 3.099155788572037e-02
1.202040816326500e+11 -1.022883934180973e+00 3.091836023599795e-02
1.202448979591800e+11 -1.022880636347089e+00 3.084450726347222e-02
1.202857142857100e+11 -1.022877460672359e+00 3.077002117257284e-02
1.203265306122400e+11 -1.022874406809778e+00 3.069492386109888e-02
1.203673469387800e+11 -1.022871474462161e+00 3.061923697329518e-02
1.204081632653100e+11 -1.022868663423627e+00 3.054298190833835e-02
1.204489795918400e+11 -1.022865973555676e+00 3.046618005874667e-02
1.204897959183700e+11 -1.022863404732221e+00 3.038885270335596e-02
1.205306122449000e+11 -1.022860956803399e+00 3.031102077351396e-02
1.205714285714300e+11 -1.022858629619148e+00 3.023270466945988e-02
1.206122448979600e+11 -1.022856423101216e+00 3.015392415326695e-02
1.206530612244900e+11 -1.022854337254689e+00 3.007469844758275e-02
1.206938775510200e+11 -1.022852372132792e+00 2.999504622294582e-02
1.207346938775500e+11 -1.022850527802214e+00 2.991498543774924e-02
1.207755102040800e+11 -1.022848804325092e+00 2.983453321583454e-02
1.208163265306100e+11 -1.022847201788893e+00 2.975370581203357e-02
1.208571428571400e+11 -1.022845720259661e+00 2.967251862827451e-02
1.208979591836700e+11 -1.022844359753950e+00 2.959098614291791e-02
1.209387755102000e+11 -1.022843120222130e+00 2.950912182351318e-02
1.209795918367300e+11 -1.022842001536470e+00 2.942693821816111e-02
1.210204081632700e+11 -1.022841003498596e+00 2.934444702566475e-02
1.210612244898000e+11 -1.022840125817507e+00 2.926165913748752e-02
1.211020408163300e+11 -1.022839368119105e+00 2.917858474820603e-02
1.211428571428600e+11 -1.022838729928534e+00 2.909523349054952e-02
1.211836734693900e+11 -1.022838210652471e+00 2.901161452771782e-02
1.212244897959200e+11 -1.022837809545916e+00 2.892773657636784e-02
1.212653061224500e+11 -1.022837525677388e+00 2.884360794667654e-02
1.213061224489800e+11 -1.022837357938166e+00 2.875923652206109e-02
1.213469387755100e+11 -1.022837305020584e+00 2.867462970503889e-02
1.213877551020400e+11 -1.022837365432776e+00 2.858979438888960e-02
1.214285714285700e+11 -1.022837537474723e+00 2.850473691286225e-02
1.214693877551000e+11 -1.022837819288730e+00 2.841946299357673e-02
1.215102040816300e+11 -1.022838208927121e+00 2.833397763862744e-02
1.215510204081600e+11 -1.022838704281548e+00 2.824828523899494e-02
1.215918367346900e+11 -1.022839303081254e+00 2.816238965339486e-02
1.216326530612200e+11 -1.022840002991305e+00 2.807629418159325e-02
1.216734693877600e+11 -1.022840801626247e+00 2.799000151455132e-02
1.217142857142900e+11 -1.022841696569694e+00 2.790351385275983e-02
1.217551020408200e+11 -1.022842685379929e+00 2.781683296352818e-02
1.217959183673500e+11 -1.022843765601661e+00 2.772996022122916e-02
1.218367346938800e+11 -1.022844934738835e+00 2.764289665260221e-02
1.218775510204100e+11 -1.022846190200421e+00 2.755564297808792e-02
1.219183673469400e+11 -1.022847529297570e+00 2.746819956622085e-02
1.219591836734700e+11 -1.022848949245521e+00 2.738056645172442e-02
1.220000000000000e+11 -1.022850447123177e+00 2.729274335647683e-02
1.220408163265300e+11 -1.022852019873759e+00 2.720472969323694e-02
1.220816326530600e+11 -1.022853664291162e+00 2.711652454488706e-02
1.221224489795900e+11 -1.022855377038689e+00 2.702812667377970e-02
1.221632653061200e+11 -1.022857154676954e+00 2.693953446040029e-02
1.222040816326500e+11 -1.022858993658223e+00 2.685074593294961e-02
1.222448979591800e+11 -1.022860890297151e+00 2.676175876825539e-02
1.222857142857100e+11 -1.022862840820192e+00 2.667257031189537e-02
1.223265306122400e+11 -1.022864841385468e+00 2.658317757594470e-02
1.223673469387800e+11 -1.022866888093877e+00 2.649357722037103e-02
1.224081632653100e+11 -1.022868977031556e+00 2.640376556055142e-02
1.224489795918400e+11 -1.022871104324192e+00 2.631373866524421e-02
1.224897959183700e+11 -1.022873266132976e+00 2.622349246159254e-02
1.225306122449000e+11 -1.022875458639939e+00 2.613302269695465e-02
1.225714285714300e+11 -1.022877678058725e+00 2.604232497611781e-02
1.226122448979600e+11 -1.022879920577665e+00 2.595139473667168e-02
1.226530612244900e+11 -1.022882182364251e+00 2.586022713666953e-02
1.226938775510200e+11 -1.022884459547189e+00 2.576881702340795e-02
1.227346938775500e+11 -1.022886748225769e+00 2.567715887414858e-02
1.227755102040800e+11 -1.022889044434488e+00 2.558524675225371e-02
1.228163265306100e+11 -1.022891344152072e+00 2.549307427278211e-02
1.228571428571400e+11 -1.022893643271292e+00 2.540063455971744e-02
1.228979591836700e+11 -1.022895937643063e+00 2.530792028256846e-02
1.229387755102000e+11 -1.022898223096024e+00 2.521492375593322e-02
1.229795918367300e+11 -1.022900495449703e+00 2.512163701703860e-02
1.230204081632700e+11 -1.022902750576325e+00 2.502805197148024e-02
1.230612244898000e+11 -1.022904984260267e+00 2.493416071527708e-02
1.231020408163300e+11 -1.022907192146164e+00 2.483995534690354e-02
1.231428571428600e+11 -1.022909369844657e+00 2.474542787185320e-02
1.231836734693900e+11 -1.022911512967855e+00 2.465057037039036e-02
1.232244897959200e+11 -1.022913617092365e+00 2.455537501377979e-02
1.232653061224500e+11 -1.022915677781091e+00 2.445983409410161e-02
1.233061224489800e+11 -1.022917690603204e+00 2.436394005191125e-02
1.233469387755100e+11 -1.022919651137940e+00 2.426768555494106e-02
1.233877551020400e+11 -1.022921554976465e+00 2.417106343842271e-02
1.234285714285700e+11 -1.022923397721366e+00 2.407406669291208e-02
1.234693877551000e+11 -1.022925174988653e+00 2.397668840026414e-02
1.235102040816300e+11 -1.022926882428710e+00 2.387892170601899e-02
1.235510204081600e+11 -1.022928515747692e+00 2.378075979629517e-02
1.235918367346900e+11 -1.022930070722766e+00 2.368219585806081e-02
1.236326530612200e+11 -1.022931543237035e+00 2.358322310537019e-02
1.236734693877600e+11 -1.022932929262119e+00 2.348383472544884e-02
1.237142857142900e+11 -1.022934224892164e+00 2.338402392432370e-02
1.237551020408200e+11 -1.022935426333849e+00 2.328378391923292e-02
1.237959183673500e+11 -1.022936529925632e+00 2.318310788439198e-02
1.238367346938800e+11 -1.022937532132052e+00 2.308198902895978e-02
1.238775510204100e+11 -1.022938429526979e+00 2.298042069634917e-02
1.239183673469400e+11 -1.022939218795883e+00 2.287839646958837e-02
1.239591836734700e+11 -1.022939896686057e+00 2.277591028579769e-02
1.240000000000000e+11 -1.022940459975002e+00 2.267295633852309e-02
1.240408163265300e+11 -1.022940905456011e+00 2.256952900502961e-02
1.240816326530600e+11 -1.022941229926784e+00 2.246562284196351e-02
1.241224489795900e+11 -1.022941430180969e+00 2.236123261685856e-02
1.241632653061200e+11 -1.022941502988279e+00 2.225635336810209e-02
1.242040816326500e+11 -1.022941445109897e+00 2.215098051126027e-02
1.242448979591800e+11 -1.022941253322632e+00 2.204510986214384e-02
1.242857142857100e+11 -1.022940924434860e+00 2.193873772689638e-02
1.243265306122400e+11 -1.022940455286958e+00 2.183186085301718e-02
1.243673469387800e+11 -1.022939842724604e+00 2.172447651926698e-02
1.244081632653100e+11 -1.022939083637743e+00 2.161658254786435e-02
1.244489795918400e+11 -1.022938174992872e+00 2.150817739649255e-02
1.244897959183700e+11 -1.022937113851468e+00 2.139926020588851e-02
1.245306122449000e+11 -1.022935897355349e+00 2.128983078007621e-02
1.245714285714300e+11 -1.022934522740177e+00 2.117988960818715e-02
1.246122448979600e+11 -1.022932987331582e+00 2.106943790080455e-02
1.246530612244900e+11 -1.022931288544041e+00 2.095847754563377e-02
1.246938775510200e+11 -1.022929423890689e+00 2.084701104841354e-02
1.247346938775500e+11 -1.022927390948477e+00 2.073504142973633e-02
1.247755102040800e+11 -1.022925187356544e+00 2.062257218159353e-02
1.248163265306100e+11 -1.022922810815434e+00 2.050960720341895e-02
1.248571428571400e+11 -1.022920259108882e+00 2.039615074826620e-02
1.248979591836700e+11 -1.022917530077977e+00 2.028220740310055e-02
1.249387755102000e+11 -1.022914621633102e+00 2.016778212274096e-02
1.249795918367300e+11 -1.022911531775331e+00 2.005288022053063e-02
1.250204081632700e+11 -1.022908258599305e+00 1.993750723630784e-02
1.250612244898000e+11 -1.022904800238440e+00 1.982166887105117e-02
1.251020408163300e+11 -1.022901154854925e+00 1.970537105413492e-02
1.251428571428600e+11 -1.022897320667956e+00 1.958862006462842e-02
1.251836734693900e+11 -1.022893295949033e+00 1.947142254989139e-02
1.252244897959200e+11 -1.022889079043378e+00 1.935378550429217e-02
1.252653061224500e+11 -1.022884668340342e+00 1.923571634795870e-02
1.253061224489800e+11 -1.022880062327928e+00 1.911722295846223e-02
1.253469387755100e+11 -1.022875259593221e+00 1.899831378139425e-02
1.253877551020400e+11 -1.022870258832480e+00 1.887899782451546e-02
1.254285714285700e+11 -1.022865058851386e+00 1.875928468539777e-02
1.254693877551000e+11 -1.022859658565518e+00 1.863918459677838e-02
1.255102040816300e+11 -1.022854056983103e+00 1.851870847480616e-02
1.255510204081600e+11 -1.022848253200243e+00 1.839786784679616e-02
1.255918367346900e+11 -1.022842246408265e+00 1.827667472023649e-02
1.256326530612200e+11 -1.022836035889362e+00 1.815514149943529e-02
1.256734693877600e+11 -1.022829621042500e+00 1.803328100357424e-02
1.257142857142900e+11 -1.022823001410753e+00 1.791110645677054e-02
1.257551020408200e+11 -1.022816176700818e+00 1.778863155057818e-02
1.257959183673500e+11 -1.022809146775870e+00 1.766587041609603e-02
1.258367346938800e+11 -1.022801911628905e+00 1.754283755499408e-02
1.258775510204100e+11 -1.022794471379419e+00 1.741954781319969e-02
1.259183673469400e+11 -1.022786826280056e+00 1.729601635126004e-02
1.259591836734700e+11 -1.022778976727097e+00 1.717225868409899e-02
1.260000000000000e+11 -1.022770923249422e+00 1.704829064534529e-02
1.260408163265300e+11 -1.022762666474097e+00 1.692412833276694e-02
1.260816326530600e+11 -1.022754207129551e+00 1.679978810566505e-02
1.261224489795900e+11 -1.022745546015708e+00 1.667528659088614e-02
1.261632653061200e+11 -1.022736684006230e+00 1.655064070627546e-02
1.262040816326500e+11 -1.022727622019101e+00 1.642586765452243e-02
1.262448979591800e+11 -1.022718361004387e+00 1.630098493573540e-02
1.262857142857100e+11 -1.022708901942497e+00 1.617601031751524e-02
1.263265306122400e+11 -1.022699245828264e+00 1.605096189221455e-02
1.263673469387800e+11 -1.022689393705208e+00 1.592585810284182e-02
1.264081632653100e+11 -1.022679346645133e+00 1.580071771789921e-02
1.264489795918400e+11 -1.022669105774778e+00 1.567555984442244e-02
1.264897959183700e+11 -1.022658672272259e+00 1.555040396043949e-02
1.265306122449000e+11 -1.022648047375210e+00 1.542526991547167e-02
1.265714285714300e+11 -1.022637232404871e+00 1.530017794165088e-02
1.266122448979600e+11 -1.022626228788817e+00 1.517514863313956e-02
1.266530612244900e+11 -1.022615038088474e+00 1.505020298359053e-02
1.266938775510200e+11 -1.022603662009773e+00 1.492536234714717e-02
1.267346938775500e+11 -1.022592102414620e+00 1.480064848668330e-02
1.267755102040800e+11 -1.022580361318617e+00 1.467608348879614e-02
1.268163265306100e+11 -1.022568440906702e+00 1.455168976458424e-02
1.268571428571400e+11 -1.022556343534538e+00 1.442748998210485e-02
1.268979591836700e+11 -1.022544071713135e+00 1.430350698312633e-02
1.269387755102000e+11 -1.022531628104110e+00 1.417976373014175e-02
1.269795918367300e+11 -1.022519015499026e+00 1.405628331658689e-02
1.270204081632700e+11 -1.022506236798139e+00 1.393308892929308e-02
1.270612244898000e+11 -1.022493295019960e+00 1.381020375734846e-02
1.271020408163300e+11 -1.022480193303326e+00 1.368765090054239e-02
1.271428571428600e+11 -1.022466934869402e+00 1.356545335678078e-02
1.271836734693900e+11 -1.022453523036831e+00 1.344363399214498e-02
1.272244897959200e+11 -1.022439961199050e+00 1.332221556204573e-02
1.272653061224500e+11 -1.022426252834625e+00 1.320122071095703e-02
1.273061224489800e+11 -1.022412401481701e+00 1.308067196078397e-02
1.273469387755100e+11 -1.022398410744120e+00 1.296059169241034e-02
1.273877551020400e+11 -1.022384284282482e+00 1.284100215513506e-02
1.274285714285700e+11 -1.022370025842995e+00 1.272192552004356e-02
1.274693877551000e+11 -1.022355639222315e+00 1.260338382429812e-02
1.275102040816300e+11 -1.022341128265962e+00 1.248539899957153e-02
1.275510204081600e+11 -1.022326496853423e+00 1.236799285236502e-02
1.275918367346900e+11 -1.022311748908821e+00 1.225118706371301e-02
1.276326530612200e+11 -1.022296888402233e+00 1.213500320543476e-02
1.276734693877600e+11 -1.022281919347751e+00 1.201946273099090e-02
1.277142857142900e+11 -1.022266845803638e+00 1.190458706046810e-02
1.277551020408200e+11 -1.022251671891586e+00 1.179039751939530e-02
1.277959183673500e+11 -1.022236401791931e+00 1.167691533594411e-02
1.278367346938800e+11 -1.022221039743984e+00 1.156416163506838e-02
1.278775510204100e+11 -1.022205590060895e+00 1.145215747137777e-02
1.279183673469400e+11 -1.022190057113563e+00 1.134092379891158e-02
1.279591836734700e+11 -1.022174445323244e+00 1.123048144823358e-02
1.280000000000000e+11 -1.022158759161572e+00 1.112085107134034e-02
1.280408163265300e+11 -1.022143003155577e+00 1.101205314414249e-02
1.280816326530600e+11 -1.022127181849001e+00 1.090410791949777e-02
1.281224489795900e+11 -1.022111299807200e+00 1.079703538890445e-02
1.281632653061200e+11 -1.022095361614014e+00 1.069085520355153e-02
1.282040816326500e+11 -1.022079371878029e+00 1.058558671611513e-02
1.282448979591800e+11 -1.022063335222369e+00 1.048124894014758e-02
1.282857142857100e+11 -1.022047256272179e+00 1.037786050242857e-02
1.283265306122400e+11 -1.022031139671611e+00 1.027543963601141e-02
1.283673469387800e+11 -1.022014990065416e+00 1.017400420328749e-02
1.284081632653100e+11 -1.021998812134898e+00 1.007357173525041e-02
1.284489795918400e+11 -1.021982610575108e+00 9.974159494250994e-03
1.284897959183700e+11 -1.021966390096443e+00 9.875784515072610e-03
1.285306122449000e+11 -1.021950155435410e+00 9.778463614941175e-03
1.285714285714300e+11 -1.021933911361629e+00 9.682213391477889e-03
1.286122448979600e+11 -1.021917662680959e+00 9.587050249994690e-03
1.286530612244900e+11 -1.021901414238258e+00 9.492990393269778e-03
1.286938775510200e+11 -1.021885170911955e+00 9.400049762828632e-03
1.287346938775500e+11 -1.021868937644813e+00 9.308244007828396e-03
1.287755102040800e+11 -1.021852719454943e+00 9.217588381498719e-03
1.288163265306100e+11 -1.021836521444729e+00 9.128097686788392e-03
1.288571428571400e+11 -1.021820348835550e+00 9.039786200714189e-03
1.288979591836700e+11 -1.021804206979679e+00 8.952667601858463e-03
1.289387755102000e+11 -1.021788101355655e+00 8.866754867007678e-03
1.289795918367300e+11 -1.021772037530622e+00 8.782060209281167e-03
1.290204081632700e+11 -1.021756021167616e+00 8.698594977067408e-03
1.290612244898000e+11 -1.021740057931932e+00 8.616369508639763e-03
1.291020408163300e+11 -1.021724153538470e+00 8.535393085868015e-03
1.291428571428600e+11 -1.021708313755642e+00 8.455673887912444e-03
1.291836734693900e+11 -1.021692544364147e+00 8.377218902547601e-03
1.292244897959200e+11 -1.021676851114373e+00 8.300033862220458e-03
1.292653061224500e+11 -1.021661239698890e+00 8.224123255587697e-03
1.293061224489800e+11 -1.021645715696013e+00 8.149490332378594e-03
1.293469387755100e+11 -1.021630284561917e+00 8.076137089698563e-03
1.293877551020400e+11 -1.021614951647644e+00 8.004064309626793e-03
1.294285714285700e+11 -1.021599722172050e+00 7.933271609156930e-03
1.294693877551000e+11 -1.021584601157610e+00 7.863757516165264e-03
1.295102040816300e+11 -1.021569593397007e+00 7.795519491719752e-03
1.295510204081600e+11 -1.021554703477606e+00 7.728553961270290e-03
1.295918367346900e+11 -1.021539935769555e+00 7.662856364538946e-03
1.296326530612200e+11 -1.021525294461678e+00 7.598421297185061e-03
1.296734693877600e+11 -1.021510783532612e+00 7.535242600817562e-03
1.297142857142900e+11 -1.021496406780426e+00 7.473313408687936e-03
1.297551020408200e+11 -1.021482167847900e+00 7.412626268277120e-03
1.297959183673500e+11 -1.021468070234537e+00 7.353173210263616e-03
1.298367346938800e+11 -1.021454117304985e+00 7.294945831331948e-03
1.298775510204100e+11 -1.021440312321520e+00 7.237935294133273e-03
1.299183673469400e+11 -1.021426658455269e+00 7.182132390432870e-03
1.299591836734700e+11 -1.021413158828048e+00 7.127527512378219e-03
1.300000000000000e+11 -1.021399816569503e+00 7.074110647157288e-03
1.300408163265300e+11 -1.021386634818075e+00 7.021871429614124e-03
1.300816326530600e+11 -1.021373616715049e+00 6.970799132778746e-03
1.301224489795900e+11 -1.021360765413349e+00 6.920882638569371e-03
1.301632653061200e+11 -1.021348084071686e+00 6.872110353402438e-03
1.302040816326500e+11 -1.021335575839553e+00 6.824470119174568e-03
1.302448979591800e+11 -1.021323243844424e+00 6.777949156180098e-03
1.302857142857100e+11 -1.021311091179216e+00 6.732533907266501e-03
1.303265306122400e+11 -1.021299120866963e+00 6.688209854733582e-03
1.303673469387800e+11 -1.021287335864563e+00 6.644961518541338e-03
1.304081632653100e+11 -1.021275739000149e+00 6.602772521610562e-03
1.304489795918400e+11 -1.021264332957249e+00 6.561625501930938e-03
1.304897959183700e+11 -1.021253120303179e+00 6.521502141639514e-03
1.305306122449000e+11 -1.021242103483397e+00 6.482383194297153e-03
1.305714285714300e+11 -1.021231284805902e+00 6.444248515503465e-03
1.306122448979600e+11 -1.021220666412287e+00 6.407077101333499e-03
1.306530612244900e+11 -1.021210250263514e+00 6.370847107365052e-03
1.306938775510200e+11 -1.021200038134223e+00 6.335535900328035e-03
1.307346938775500e+11 -1.021190031593450e+00 6.301120045092905e-03
1.307755102040800e+11 -1.021180231986542e+00 6.267575349802170e-03
1.308163265306100e+11 -1.021170640442481e+00 6.234876941701622e-03
1.308571428571400e+11 -1.021161257878378e+00 6.202999316842203e-03
1.308979591836700e+11 -1.021152085001998e+00 6.171916374280459e-03
1.309387755102000e+11 -1.021143122311334e+00 6.141601379584655e-03
1.309795918367300e+11 -1.021134370088045e+00 6.112027007847117e-03
1.310204081632700e+11 -1.021125828412397e+00 6.083165349466978e-03
1.310612244898000e+11 -1.021117497116950e+00 6.054987813572802e-03
1.311020408163300e+11 -1.021109375789810e+00 6.027465273612046e-03
1.311428571428600e+11 -1.021101463813456e+00 6.000568193943534e-03
1.311836734693900e+11 -1.021093760381804e+00 5.974266780042198e-03
1.312244897959200e+11 -1.021086264503912e+00 5.948530955280731e-03
1.312653061224500e+11 -1.021078975011663e+00 5.923330367332520e-03
1.313061224489800e+11 -1.021071890558326e+00 5.898634381226829e-03
1.313469387755100e+11 -1.021065009626476e+00 5.874412113226250e-03
1.313877551020400e+11 -1.021058330474359e+00 5.850632478757051e-03
1.314285714285700e+11 -1.021051851154883e+00 5.827264178596888e-03
1.314693877551000e+11 -1.021045569538815e+00 5.804275667410772e-03
1.315102040816300e+11 -1.021039483303788e+00 5.781635072543615e-03
1.315510204081600e+11 -1.021033589946174e+00 5.759310202678100e-03
1.315918367346900e+11 -1.021027886759729e+00 5.737268589435458e-03
1.316326530612200e+11 -1.021022370846437e+00 5.715477503950656e-03
1.316734693877600e+11 -1.021017039129097e+00 5.693903960321216e-03
1.317142857142900e+11 -1.021011888369577e+00 5.672514690493878e-03
1.317551020408200e+11 -1.021006915195291e+00 5.651276161768113e-03
1.317959183673500e+11 -1.021002116107094e+00 5.630154606738224e-03
1.318367346938800e+11 -1.020997487467338e+00 5.609116125370683e-03
1.318775510204100e+11 -1.020993025547221e+00 5.588126723710925e-03
1.319183673469400e+11 -1.020988726503380e+00 5.567152255310018e-03
1.319591836734700e+11 -1.020984586425929e+00 5.546158511554876e-03
1.320000000000000e+11 -1.020980601255521e+00 5.525111099253432e-03
1.320408163265300e+11 -1.020976766851335e+00 5.503975658510836e-03
1.320816326530600e+11 -1.020973079005009e+00 5.482717983925488e-03
1.321224489795900e+11 -1.020969533422442e+00 5.461303826944438e-03
1.321632653061200e+11 -1.020966125733279e+00 5.439699031382694e-03
1.322040816326500e+11 -1.020962851495349e+00 5.417869497373600e-03
1.322448979591800e+11 -1.020959706197467e+00 5.395781195180091e-03
1.322857142857100e+11 -1.020956685301303e+00 5.373400227833221e-03
1.323265306122400e+11 -1.020953784205159e+00 5.350692779117673e-03
1.323673469387800e+11 -1.020950998252634e+00 5.327625170362146e-03
1.324081632653100e+11 -1.020948322716491e+00 5.304163725891507e-03
1.324489795918400e+11 -1.020945752726413e+00 5.280274712730042e-03
1.324897959183700e+11 -1.020943283334550e+00 5.255924209196901e-03
1.325306122449000e+11 -1.020940909483114e+00 5.231078216843681e-03
1.325714285714300e+11 -1.020938625990476e+00 5.205702821768862e-03
1.326122448979600e+11 -1.020936427520923e+00 5.179764103158158e-03
1.326530612244900e+11 -1.020934308614029e+00 5.153228237404559e-03
1.326938775510200e+11 -1.020932263688127e+00 5.126061471676877e-03
1.327346938775500e+11 -1.020930286969881e+00 5.098230256762473e-03
1.327755102040800e+11 -1.020928372513447e+00 5.069701299666063e-03
1.328163265306100e+11 -1.020926514103912e+00 5.040441426283459e-03
1.328571428571400e+11 -1.020924705352454e+00 5.010417821633003e-03
1.328979591836700e+11 -1.020922939676292e+00 4.979597948433901e-03
1.329387755102000e+11 -1.020921210321124e+00 4.947949767860477e-03
1.329795918367300e+11 -1.020919510375718e+00 4.915441940543858e-03
1.330204081632700e+11 -1.020917832793571e+00 4.882043914081127e-03
1.330612244898000e+11 -1.020916170428008e+00 4.847725871981521e-03
1.331020408163300e+11 -1.020914516030612e+00 4.812458809116007e-03
1.331428571428600e+11 -1.020912862287003e+00 4.776214520993373e-03
1.331836734693900e+11 -1.020911201845358e+00 4.738965579989201e-03
1.332244897959200e+11 -1.020909527333124e+00 4.700685457058164e-03
1.332653061224500e+11 -1.020907831354366e+00 4.661348605998298e-03
1.333061224489800e+11 -1.020906106512160e+00 4.620930508634191e-03
1.333469387755100e+11 -1.020904345439788e+00 4.579407652354962e-03
1.333877551020400e+11 -1.020902540851928e+00 4.536757458869606e-03
1.334285714285700e+11 -1.020900685534745e+00 4.492958207180844e-03
1.334693877551000e+11 -1.020898772389626e+00 4.447989046483169e-03
1.335102040816300e+11 -1.020896794433374e+00 4.401829885580721e-03
1.335510204081600e+11 -1.020894744760953e+00 4.354461355220847e-03
1.335918367346900e+11 -1.020892616560449e+00 4.305864818700962e-03
1.336326530612200e+11 -1.020890403082279e+00 4.256022357719847e-03
1.336734693877600e+11 -1.020888097644759e+00 4.204916696495285e-03
1.337142857142900e+11 -1.020885693637258e+00 4.152531222988005e-03
1.337551020408200e+11 -1.020883184501906e+00 4.098849981975624e-03
1.337959183673500e+11 -1.020880563720871e+00 4.043857586697308e-03
1.338367346938800e+11 -1.020877824793571e+00 3.987539193175463e-03
1.338775510204100e+11 -1.020874961227958e+00 3.929880481604036e-03
1.339183673469400e+11 -1.020871966503285e+00 3.870867632120935e-03
1.339591836734700e+11 -1.020868834063709e+00 3.810487439835676e-03
1.340000000000000e+11 -1.020865557289045e+00 3.748727430407673e-03
1.340408163265300e+11 -1.020862129493687e+00 3.685575836860549e-03
1.340816326530600e+11 -1.020858543900788e+00 3.621021679426576e-03
1.341224489795900e+11 -1.020854793629379e+00 3.555054825673172e-03
1.341632653061200e+11 -1.020850871669413e+00 3.487666120269650e-03
1.342040816326500e+11 -1.020846770890393e+00 3.418847420889992e-03
1.342448979591800e+11 -1.020842484059962e+00 3.348591675554043e-03
1.342857142857100e+11 -1.020838003874846e+00 3.276892943682832e-03
1.343265306122400e+11 -1.020833322966232e+00 3.203746505507198e-03
1.343673469387800e+11 -1.020828433936691e+00 3.129148960444266e-03
1.344081632653100e+11 -1.020823329374062e+00 3.053098198547924e-03
1.344489795918400e+11 -1.020818001880883e+00 2.975593345830421e-03
1.344897959183700e+11 -1.020812444093836e+00 2.896634768455970e-03
1.345306122449000e+11 -1.020806648722448e+00 2.816224160915931e-03
1.345714285714300e+11 -1.020800608575406e+00 2.734364588106741e-03
1.346122448979600e+11 -1.020794316578967e+00 2.651060451197977e-03
1.346530612244900e+11 -1.020787765783481e+00 2.566317420315121e-03
1.346938775510200e+11 -1.020780949372790e+00 2.480142310299068e-03
1.347346938775500e+11 -1.020773860649660e+00 2.392542992907497e-03
1.347755102040800e+11 -1.020766493014666e+00 2.303528310389725e-03
1.348163265306100e+11 -1.020758839969448e+00 2.213108048100245e-03
1.348571428571400e+11 -1.020750895117639e+00 2.121292912206655e-03
1.348979591836700e+11 -1.020742652180428e+00 2.028094530597435e-03
1.349387755102000e+11 -1.020734104973295e+00 1.933525421225937e-03
1.349795918367300e+11 -1.020725247410851e+00 1.837598981084127e-03
1.350204081632700e+11 -1.020716073510243e+00 1.740329470242210e-03
1.350612244898000e+11 -1.020706577397241e+00 1.641731962231731e-03
1.351020408163300e+11 -1.020696753298872e+00 1.541822325661716e-03
1.351428571428600e+11 -1.020686595572355e+00 1.440617268502735e-03
1.351836734693900e+11 -1.020676098716998e+00 1.338134339686227e-03
1.352244897959200e+11 -1.020665257365925e+00 1.234391900590451e-03
1.352653061224500e+11 -1.020654066312277e+00 1.129409101852792e-03
1.353061224489800e+11 -1.020642520532165e+00 1.023205880310293e-03
1.353469387755100e+11 -1.020630615214285e+00 9.158028922108466e-04
1.353877551020400e+11 -1.020618345768247e+00 8.072213559304697e-04
1.354285714285700e+11 -1.020605707852623e+00 6.974831375200117e-04
1.354693877551000e+11 -1.020592697415410e+00 5.866106722776304e-04
1.355102040816300e+11 -1.020579310683826e+00 4.746269109952886e-04
1.355510204081600e+11 -1.020565544169875e+00 3.615552868634512e-04
1.355918367346900e+11 -1.020551394675204e+00 2.474196398444196e-04
1.356326530612200e+11 -1.020536859306731e+00 1.322442124314020e-04
1.356734693877600e+11 -1.020521935493543e+00 1.605358054459096e-05
1.357142857142900e+11 -1.020506620977232e+00 -1.011273634631470e-04
1.357551020408200e+11 -1.020490913798506e+00 -2.192734118515201e-04
1.357959183673500e+11 -1.020474812286494e+00 -3.383590091308547e-04
1.358367346938800e+11 -1.020458315075197e+00 -4.583583451135240e-04
1.358775510204100e+11 -1.020441421105739e+00 -5.792454381232469e-04
1.359183673469400e+11 -1.020424129609075e+00 -7.009942415451290e-04
1.359591836734700e+11 -1.020406440091199e+00 -8.235786500334014e-04
1.360000000000000e+11 -1.020388352306010e+00 -9.469724569183976e-04
1.360408163265300e+11 -1.020369866229224e+00 -1.071149428448827e-03
1.360816326530600e+11 -1.020350982062549e+00 -1.196083380547113e-03
1.361224489795900e+11 -1.020331700237427e+00 -1.321748266354223e-03
1.361632653061200e+11 -1.020312021410382e+00 -1.448118205567223e-03
1.362040816326500e+11 -1.020291946453258e+00 -1.575167340727015e-03
1.362448979591800e+11 -1.020271476429077e+00 -1.702869873314914e-03
1.362857142857100e+11 -1.020250612594333e+00 -1.831200079803334e-03
1.363265306122400e+11 -1.020229356398109e+00 -1.960132271525571e-03
1.363673469387800e+11 -1.020207709455123e+00 -2.089640790057462e-03
1.364081632653100e+11 -1.020185673524002e+00 -2.219699999442483e-03
1.364489795918400e+11 -1.020163250491511e+00 -2.350284228545595e-03
1.364897959183700e+11 -1.020140442388362e+00 -2.481367722807386e-03
1.365306122449000e+11 -1.020117251377808e+00 -2.612924587919025e-03
1.365714285714300e+11 -1.020093679757078e+00 -2.744928864646714e-03
1.366122448979600e+11 -1.020069729965367e+00 -2.877354500539177e-03
1.366530612244900e+11 -1.020045404597886e+00 -3.010175308678891e-03
1.366938775510200e+11 -1.020020706412829e+00 -3.143364989975228e-03
1.367346938775500e+11 -1.019995638363345e+00 -3.276897134950661e-03
1.367755102040800e+11 -1.019970203581341e+00 -3.410745353930531e-03
1.368163265306100e+11 -1.019944405400232e+00 -3.544883265176302e-03
1.368571428571400e+11 -1.019918247358984e+00 -3.679284531615386e-03
1.368979591836700e+11 -1.019891733240106e+00 -3.813923011027510e-03
1.369387755102000e+11 -1.019864867075400e+00 -3.948772753120870e-03
1.369795918367300e+11 -1.019837653137211e+00 -4.083808051161092e-03
1.370204081632700e+11 -1.019810095936662e+00 -4.219003518761688e-03
1.370612244898000e+11 -1.019782200227862e+00 -4.354334113500790e-03
1.371020408163300e+11 -1.019753970989891e+00 -4.489775137059294e-03
1.371428571428600e+11 -1.019725413382242e+00 -4.625302331174571e-03
1.371836734693900e+11 -1.019696532716801e+00 -4.760891885836835e-03
1.372244897959200e+11 -1.019667334457148e+00 -4.896520465663187e-03
1.372653061224500e+11 -1.019637824209585e+00 -5.032165234039194e-03
1.373061224489800e+11 -1.019608007690611e+00 -5.167803967240759e-03
1.373469387755100e+11 -1.019577890705074e+00 -5.303415114787456e-03
1.373877551020400e+11 -1.019547479154612e+00 -5.438977739806029e-03
1.374285714285700e+11 -1.019516779057906e+00 -5.574471427957306e-03
1.374693877551000e+11 -1.019485796562931e+00 -5.709876350307469e-03
1.375102040816300e+11 -1.019454537943212e+00 -5.845173291607606e-03
1.375510204081600e+11 -1.019423009573414e+00 -5.980343588233520e-03
1.375918367346900e+11 -1.019391217951826e+00 -6.115369031338638e-03
1.376326530612200e+11 -1.019359169692462e+00 -6.250231912507478e-03
1.376734693877600e+11 -1.019326871538215e+00 -6.384915100942105e-03
1.377142857142900e+11 -1.019294330375878e+00 -6.519402050346787e-03
1.377551020408200e+11 -1.019261553229718e+00 -6.653676660825269e-03
1.377959183673500e+11 -1.019228547231197e+00 -6.787723318457358e-03
1.378367346938800e+11 -1.019195319608486e+00 -6.921526962868815e-03
1.378775510204100e+11 -1.019161877690235e+00 -7.055073091682607e-03
1.379183673469400e+11 -1.019128228858745e+00 -7.188347798302990e-03
1.379591836734700e+11 -1.019094380527103e+00 -7.321337794557571e-03
1.380000000000000e+11 -1.019060340094696e+00 -7.454030487224299e-03
1.380408163265300e+11 -1.019026114967624e+00 -7.586413992098771e-03
1.380816326530600e+11 -1.018991712509676e+00 -7.718477105210828e-03
1.381224489795900e+11 -1.018957139997963e+00 -7.850209381248788e-03
1.381632653061200e+11 -1.018922404652777e+00 -7.981601122497413e-03
1.382040816326500e+11 -1.018887513613897e+00 -8.112643385711998e-03
1.382448979591800e+11 -1.018852473954824e+00 -8.243327959833915e-03
1.382857142857100e+11 -1.018817292663629e+00 -8.373647254254381e-03
1.383265306122400e+11 -1.018781976660671e+00 -8.503594333379398e-03
1.383673469387800e+11 -1.018746532786411e+00 -8.633162889043425e-03
1.384081632653100e+11 -1.018710967817830e+00 -8.762347213736421e-03
1.384489795918400e+11 -1.018675288457595e+00 -8.891142178860134e-03
1.384897959183700e+11 -1.018639501358510e+00 -9.019543292358580e-03
1.385306122449000e+11 -1.018603613149904e+00 -9.147546643381696e-03
1.385714285714300e+11 -1.018567630415331e+00 -9.275148888828811e-03
1.386122448979600e+11 -1.018531559676181e+00 -9.402347224658734e-03
1.386530612244900e+11 -1.018495407370247e+00 -9.529139279453869e-03
1.386938775510200e+11 -1.018459179843009e+00 -9.655523200174069e-03
1.387346938775500e+11 -1.018422883323846e+00 -9.781497635456743e-03
1.387755102040800e+11 -1.018386523928041e+00 -9.907061660999831e-03
1.388163265306100e+11 -1.018350107623281e+00 -1.003221481585286e-02
1.388571428571400e+11 -1.018313640230316e+00 -1.015695716207901e-02
1.388979591836700e+11 -1.018277127422306e+00 -1.028128926001298e-02
1.389387755102000e+11 -1.018240574741139e+00 -1.040521215142223e-02
1.389795918367300e+11 -1.018203987627227e+00 -1.052872736775817e-02
1.390204081632700e+11 -1.018167371446976e+00 -1.065183703025687e-02
1.390612244898000e+11 -1.018130731523413e+00 -1.077454383303354e-02
1.391020408163300e+11 -1.018094073118600e+00 -1.089685104239367e-02
1.391428571428600e+11 -1.018057401480157e+00 -1.101876253295804e-02
1.391836734693900e+11 -1.018020721854349e+00 -1.114028264658650e-02
1.392244897959200e+11 -1.017984039481067e+00 -1.126141612805241e-02
1.392653061224500e+11 -1.017947359564652e+00 -1.138216820918029e-02
1.393061224489800e+11 -1.017910687240859e+00 -1.150254474421432e-02
1.393469387755100e+11 -1.017874027551767e+00 -1.162255221914659e-02
1.393877551020400e+11 -1.017837385406798e+00 -1.174219774814514e-02
1.394285714285700e+11 -1.017800765543583e+00 -1.186148912007921e-02
1.394693877551000e+11 -1.017764172492176e+00 -1.198043480515391e-02
1.395102040816300e+11 -1.017727610525023e+00 -1.209904394302507e-02
1.395510204081600e+11 -1.017691083586080e+00 -1.221732632608597e-02
1.395918367346900e+11 -1.017654595294097e+00 -1.233529226006179e-02
1.396326530612200e+11 -1.017618148917124e+00 -1.245295252018631e-02
1.396734693877600e+11 -1.017581747327236e+00 -1.257031836455360e-02
1.397142857142900e+11 -1.017545392997776e+00 -1.268740160077151e-02
1.397551020408200e+11 -1.017509088024733e+00 -1.280421466593014e-02
1.397959183673500e+11 -1.017472834130070e+00 -1.292077042621254e-02
1.398367346938800e+11 -1.017436632641485e+00 -1.303708207113596e-02
1.398775510204100e+11 -1.017400484551421e+00 -1.315316318159819e-02
1.399183673469400e+11 -1.017364390432982e+00 -1.326902755762549e-02
1.399591836734700e+11 -1.017328350528098e+00 -1.338468952955687e-02
1.400000000000000e+11 -1.017292364800857e+00 -1.350016372560139e-02
1.400408163265300e+11 -1.017256432962894e+00 -1.361546495124476e-02
1.400816326530600e+11 -1.017220554457418e+00 -1.373060816254364e-02
1.401224489795900e+11 -1.017184728480251e+00 -1.384560842783406e-02
1.401632653061200e+11 -1.017148953978998e+00 -1.396048089608953e-02
1.402040816326500e+11 -1.017113229623666e+00 -1.407524067511208e-02
1.402448979591800e+11 -1.017077553801354e+00 -1.418990281049138e-02
1.402857142857100e+11 -1.017041924603683e+00 -1.430448227417431e-02
1.403265306122400e+11 -1.017006339833985e+00 -1.441899405751240e-02
1.403673469387800e+11 -1.016970796989041e+00 -1.453345313058298e-02
1.404081632653100e+11 -1.016935293261982e+00 -1.464787441040463e-02
1.404489795918400e+11 -1.016899825572072e+00 -1.476227287311252e-02
1.404897959183700e+11 -1.016864390581176e+00 -1.487666352568942e-02
1.405306122449000e+11 -1.016828984697150e+00 -1.499106134337495e-02
1.405714285714300e+11 -1.016793604085098e+00 -1.510548143359404e-02
1.406122448979600e+11 -1.016758244713937e+00 -1.521993903104726e-02
1.406530612244900e+11 -1.016722902346653e+00 -1.533444940347135e-02
1.406938775510200e+11 -1.016687572586851e+00 -1.544902787609074e-02
1.407346938775500e+11 -1.016652250855121e+00 -1.556368986324670e-02
1.407755102040800e+11 -1.016616932435753e+00 -1.567845090494139e-02
1.408163265306100e+11 -1.016581612477275e+00 -1.579332655438898e-02
1.408571428571400e+11 -1.016546285971317e+00 -1.590833243623894e-02
1.408979591836700e+11 -1.016510947763223e+00 -1.602348414230169e-02
1.409387755102000e+11 -1.016475592513958e+00 -1.613879724818858e-02
1.409795918367300e+11 -1.016440214661982e+00 -1.625428714961057e-02
1.410204081632700e+11 -1.016404808420684e+00 -1.636996909244956e-02
1.410612244898000e+11 -1.016369367766523e+00 -1.648585828574130e-02
1.411020408163300e+11 -1.016333886440875e+00 -1.660196991792609e-02
1.411428571428600e+11 -1.016298357893690e+00 -1.671831905332837e-02
1.411836734693900e+11 -1.016262775262820e+00 -1.683492068109475e-02
1.412244897959200e+11 -1.016227131412667e+00 -1.695178979915688e-02
1.412653061224500e+11 -1.016191418983400e+00 -1.706894144863147e-02
1.413061224489800e+11 -1.016155630391435e+00 -1.718639073755010e-02
1.413469387755100e+11 -1.016119757814016e+00 -1.730415266566120e-02
1.413877551020400e+11 -1.016083793180173e+00 -1.742224219374588e-02
1.414285714285700e+11 -1.016047728200215e+00 -1.754067411277956e-02
1.414693877551000e+11 -1.016011554326842e+00 -1.765946311146274e-02
1.415102040816300e+11 -1.015975262782106e+00 -1.777862374826141e-02
1.415510204081600e+11 -1.015938844538262e+00 -1.789817049093352e-02
1.415918367346900e+11 -1.015902290310431e+00 -1.801811765801786e-02
1.416326530612200e+11 -1.015865590554218e+00 -1.813847937738395e-02
1.416734693877600e+11 -1.015828735450425e+00 -1.825926965200590e-02
1.417142857142900e+11 -1.015791714904276e+00 -1.838050231018853e-02
1.417551020408200e+11 -1.015754518559299e+00 -1.850219098907668e-02
1.417959183673500e+11 -1.015717135757608e+00 -1.862434908294405e-02
1.418367346938800e+11 -1.015679555549718e+00 -1.874698962279128e-02
1.418775510204100e+11 -1.015641766661018e+00 -1.887012537990030e-02
1.419183673469400e+11 -1.015603757470531e+00 -1.899376886262069e-02
1.419591836734700e+11 -1.015565516063669e+00 -1.911793225414065e-02
1.420000000000000e+11 -1.015527030177366e+00 -1.924262742587973e-02
1.420408163265300e+11 -1.015488287213544e+00 -1.936786589592216e-02
1.420816326530600e+11 -1.015449274257582e+00 -1.949365884618871e-02
1.421224489795900e+11 -1.015409978112314e+00 -1.962001713917557e-02
1.421632653061200e+11 -1.015370385344505e+00 -1.974695130325370e-02
1.422040816326500e+11 -1.015330482298633e+00 -1.987447145248366e-02
1.422448979591800e+11 -1.015290255123235e+00 -2.000258717210266e-02
1.422857142857100e+11 -1.015249689798210e+00 -2.013130747430244e-02
1.423265306122400e+11 -1.015208772162976e+00 -2.026064083293415e-02
1.423673469387800e+11 -1.015167487952326e+00 -2.039059519033635e-02
1.424081632653100e+11 -1.015125822826197e+00 -2.052117787330894e-02
1.424489795918400e+11 -1.015083762382268e+00 -2.065239553189964e-02
1.424897959183700e+11 -1.015041292162521e+00 -2.078425422598893e-02
1.425306122449000e+11 -1.014998397673169e+00 -2.091675941494774e-02
1.425714285714300e+11 -1.014955064412159e+00 -2.104991589421150e-02
1.426122448979600e+11 -1.014911277894433e+00 -2.118372787069002e-02
1.426530612244900e+11 -1.014867023690248e+00 -2.131819898483759e-02
1.426938775510200e+11 -1.014822287442876e+00 -2.145333232380378e-02
1.427346938775500e+11 -1.014777054890075e+00 -2.158913040066412e-02
1.427755102040800e+11 -1.014731311895152e+00 -2.172559512406078e-02
1.428163265306100e+11 -1.014685044454237e+00 -2.186272787236462e-02
1.428571428571400e+11 -1.014638238695892e+00 -2.200052958243314e-02
1.428979591836700e+11 -1.014590880883596e+00 -2.213900082502210e-02
1.429387755102000e+11 -1.014542957449926e+00 -2.227814178378997e-02
1.429795918367300e+11 -1.014494455015721e+00 -2.241795231486471e-02
1.430204081632700e+11 -1.014445360399924e+00 -2.255843196475405e-02
1.430612244898000e+11 -1.014395660593228e+00 -2.269957991921788e-02
1.431020408163300e+11 -1.014345342746583e+00 -2.284139503547008e-02
1.431428571428600e+11 -1.014294394166170e+00 -2.298387584235331e-02
1.431836734693900e+11 -1.014242802310757e+00 -2.312702050195952e-02
1.432244897959200e+11 -1.014190554758524e+00 -2.327082671644332e-02
1.432653061224500e+11 -1.014137639201378e+00 -2.341529168301848e-02
1.433061224489800e+11 -1.014084043439735e+00 -2.356041221340194e-02
1.433469387755100e+11 -1.014029755379825e+00 -2.370618484237725e-02
1.433877551020400e+11 -1.013974763010197e+00 -2.385260585482533e-02
1.434285714285700e+11 -1.013919054425702e+00 -2.399967123489057e-02
1.434693877551000e+11 -1.013862617846718e+00 -2.414737662120310e-02
1.435102040816300e+11 -1.013805441633929e+00 -2.429571725289708e-02
1.435510204081600e+11 -1.013747514287082e+00 -2.444468822788178e-02
1.435918367346900e+11 -1.013688824539549e+00 -2.459428433508717e-02
1.436326530612200e+11 -1.013629361356070e+00 -2.474450010571547e-02
1.436734693877600e+11 -1.013569113952654e+00 -2.489532975783022e-02
1.437142857142900e+11 -1.013508071808836e+00 -2.504676724577257e-02
1.437551020408200e+11 -1.013446224691478e+00 -2.519880624201190e-02
1.437959183673500e+11 -1.013383562700708e+00 -2.535144021852985e-02
1.438367346938800e+11 -1.013320076238398e+00 -2.550466240953331e-02
1.438775510204100e+11 -1.013255755991067e+00 -2.565846575498060e-02
1.439183673469400e+11 -1.013190592876472e+00 -2.581284285805121e-02
1.439591836734700e+11 -1.013124578075741e+00 -2.596778592777346e-02
1.440000000000000e+11 -1.013057703058861e+00 -2.612328678151445e-02
1.440408163265300e+11 -1.012989959552505e+00 -2.627933678984353e-02
1.440816326530600e+11 -1.012921339534442e+00 -2.643592689005887e-02
1.441224489795900e+11 -1.012851835254113e+00 -2.659304769756040e-02
1.441632653061200e+11 -1.012781439228203e+00 -2.675068943070862e-02
1.442040816326500e+11 -1.012710144254494e+00 -2.690884193211726e-02
1.442448979591800e+11 -1.012637943411469e+00 -2.706749472031944e-02
1.442857142857100e+11 -1.012564830126329e+00 -2.722663700020598e-02
1.443265306122400e+11 -1.012490798168348e+00 -2.738625764758675e-02
1.443673469387800e+11 -1.012415841668717e+00 -2.754634526278599e-02
1.444081632653100e+11 -1.012339955152671e+00 -2.770688813928091e-02
1.444489795918400e+11 -1.012263133562399e+00 -2.786787416820280e-02
1.444897959183700e+11 -1.012185372271287e+00 -2.802929087794584e-02
1.445306122449000e+11 -1.012106667063533e+00 -2.819112537801450e-02
1.445714285714300e+11 -1.012027014145972e+00 -2.835336433294977e-02
1.446122448979600e+11 -1.011946410129456e+00 -2.851599396590104e-02
1.446530612244900e+11 -1.011864852033340e+00 -2.867900004354199e-02
1.446938775510200e+11 -1.011782337263663e+00 -2.884236782825272e-02
1.447346938775500e+11 -1.011698863608130e+00 -2.900608204411916e-02
1.447755102040800e+11 -1.011614429260185e+00 -2.917012673137028e-02
1.448163265306100e+11 -1.011529032824844e+00 -2.933448530205956e-02
1.448571428571400e+11 -1.011442673305222e+00 -2.949914052632461e-02
1.448979591836700e+11 -1.011355350103119e+00 -2.966407461869194e-02
1.449387755102000e+11 -1.011267063030904e+00 -2.982926923189834e-02
1.449795918367300e+11 -1.011177812353723e+00 -2.999470538008605e-02
1.450204081632700e+11 -1.011087598801236e+00 -3.016036347285290e-02
1.450612244898000e+11 -1.010996423610430e+00 -3.032622341775833e-02
1.451020408163300e+11 -1.010904288530520e+00 -3.049226463141790e-02
1.451428571428600e+11 -1.010811195825881e+00 -3.065846607230678e-02
1.451836734693900e+11 -1.010717148283309e+00 -3.082480635071251e-02
1.452244897959200e+11 -1.010622149202825e+00 -3.099126375221124e-02
1.452653061224500e+11 -1.010526202404263e+00 -3.115781626547683e-02
1.453061224489800e+11 -1.010429312239996e+00 -3.132444147020291e-02
1.453469387755100e+11 -1.010331483609534e+00 -3.149111652510280e-02
1.453877551020400e+11 -1.010232721942863e+00 -3.165781828163773e-02
1.454285714285700e+11 -1.010133033163014e+00 -3.182452336982267e-02
1.454693877551000e+11 -1.010032423656262e+00 -3.199120816491044e-02
1.455102040816300e+11 -1.009930900233084e+00 -3.215784880296223e-02
1.455510204081600e+11 -1.009828470112793e+00 -3.232442116027615e-02
1.455918367346900e+11 -1.009725140937332e+00 -3.249090084937143e-02
1.456326530612200e+11 -1.009620920785357e+00 -3.265726318786792e-02
1.456734693877600e+11 -1.009515818168272e+00 -3.282348316723121e-02
1.457142857142900e+11 -1.009409842023679e+00 -3.298953548694791e-02
1.457551020408200e+11 -1.009303001734032e+00 -3.315539460877918e-02
1.457959183673500e+11 -1.009195307149837e+00 -3.332103464369566e-02
1.458367346938800e+11 -1.009086768612436e+00 -3.348642930555232e-02
1.458775510204100e+11 -1.008977396969255e+00 -3.365155190720728e-02
1.459183673469400e+11 -1.008867203585498e+00 -3.381637530718686e-02
1.459591836734700e+11 -1.008756200360710e+00 -3.398087198765300e-02
1.460000000000000e+11 -1.008644399757297e+00 -3.414501404224080e-02
1.460408163265300e+11 -1.008531814823290e+00 -3.430877316937491e-02
1.460816326530600e+11 -1.008418459180574e+00 -3.447212067651763e-02
1.461224489795900e+11 -1.008304347007535e+00 -3.463502745726722e-02
1.461632653061200e+11 -1.008189492981655e+00 -3.479746408247728e-02
1.462040816326500e+11 -1.008073912349230e+00 -3.495940082678249e-02
1.462448979591800e+11 -1.007957620932481e+00 -3.512080773260998e-02
1.462857142857100e+11 -1.007840635105888e+00 -3.528165457882900e-02
1.463265306122400e+11 -1.007722971794361e+00 -3.544191093663507e-02
1.463673469387800e+11 -1.007604648471654e+00 -3.560154619519945e-02
1.464081632653100e+11 -1.007485683176860e+00 -3.576052954142663e-02
1.464489795918400e+11 -1.007366094377652e+00 -3.591883003768925e-02
1.464897959183700e+11 -1.007245900961651e+00 -3.607641680622779e-02
1.465306122449000e+11 -1.007125122223541e+00 -3.623325908569166e-02
1.465714285714300e+11 -1.007003777955676e+00 -3.638932625484213e-02
1.466122448979600e+11 -1.006881888481539e+00 -3.654458763097476e-02
1.466530612244900e+11 -1.006759474668419e+00 -3.669901250785871e-02
1.466938775510200e+11 -1.006636557906479e+00 -3.685257020933092e-02
1.467346938775500e+11 -1.006513160089785e+00 -3.700523023111245e-02
1.467755102040800e+11 -1.006389303633484e+00 -3.715696226591600e-02
1.468163265306100e+11 -1.006265011358071e+00 -3.730773623355026e-02
1.468571428571400e+11 -1.006140306489233e+00 -3.745752246759217e-02
1.468979591836700e+11 -1.006015212605833e+00 -3.760629170904863e-02
1.469387755102000e+11 -1.005889753556534e+00 -3.775401523557346e-02
1.469795918367300e+11 -1.005763953471319e+00 -3.790066491292578e-02
1.470204081632700e+11 -1.005637836650387e+00 -3.804621326738588e-02
1.470612244898000e+11 -1.005511427568629e+00 -3.819063345632922e-02
1.471020408163300e+11 -1.005384750793342e+00 -3.833389922885077e-02
1.471428571428600e+11 -1.005257830905363e+00 -3.847598513706173e-02
1.471836734693900e+11 -1.005130692523583e+00 -3.861686658976511e-02
1.472244897959200e+11 -1.005003360329898e+00 -3.875651976952633e-02
1.472653061224500e+11 -1.004875859018189e+00 -3.889492154944862e-02
1.473061224489800e+11 -1.004748213298311e+00 -3.903204959871114e-02
1.473469387755100e+11 -1.004620447875012e+00 -3.916788249445064e-02
1.473877551020400e+11 -1.004492587457634e+00 -3.930239965098180e-02
1.474285714285700e+11 -1.004364656779470e+00 -3.943558137954363e-02
1.474693877551000e+11 -1.004236680554032e+00 -3.956740893278762e-02
1.475102040816300e+11 -1.004108683482079e+00 -3.969786455493505e-02
1.475510204081600e+11 -1.003980690276600e+00 -3.982693150255761e-02
1.475918367346900e+11 -1.003852725629286e+00 -3.995459415647573e-02
1.476326530612200e+11 -1.003724814073019e+00 -4.008083809419070e-02
1.476734693877600e+11 -1.003596979932513e+00 -4.020565008632598e-02
1.477142857142900e+11 -1.003469247332295e+00 -4.032901815180159e-02
1.477551020408200e+11 -1.003341640147152e+00 -4.045093164053146e-02
1.477959183673500e+11 -1.003214181930925e+00 -4.057138133013671e-02
1.478367346938800e+11 -1.003086895722072e+00 -4.069035953291449e-02
1.478775510204100e+11 -1.002959803885795e+00 -4.080785998956025e-02
1.479183673469400e+11 -1.002832928246101e+00 -4.092387776145350e-02
1.479591836734700e+11 -1.002706289992932e+00 -4.103840929091229e-02
1.480000000000000e+11 -1.002579909716346e+00 -4.115145246478959e-02
1.480408163265300e+11 -1.002453807394119e+00 -4.126300659249940e-02
1.480816326530600e+11 -1.002328002471875e+00 -4.137307233663295e-02
1.481224489795900e+11 -1.002202513921685e+00 -4.148165157635188e-02
1.481632653061200e+11 -1.002077360288170e+00 -4.158874738500536e-02
1.482040816326500e+11 -1.001952559687702e+00 -4.169436392919668e-02
1.482448979591800e+11 -1.001828129835727e+00 -4.179850658631122e-02
1.482857142857100e+11 -1.001704088128736e+00 -4.190118185257129e-02
1.483265306122400e+11 -1.001580451654867e+00 -4.200239738211923e-02
1.483673469387800e+11 -1.001457237172936e+00 -4.210216218120827e-02
1.484081632653100e+11 -1.001334461145663e+00 -4.220048665037333e-02
1.484489795918400e+11 -1.001212139746426e+00 -4.229738259682304e-02
1.484897959183700e+11 -1.001090288782576e+00 -4.239286333350561e-02
1.485306122449000e+11 -1.000968923599390e+00 -4.248694370265312e-02
1.485714285714300e+11 -1.000848059027495e+00 -4.257964017842256e-02
1.486122448979600e+11 -1.000727709281329e+00 -4.267097105473962e-02
1.486530612244900e+11 -1.000607887882469e+00 -4.276095664691353e-02
1.486938775510200e+11 -1.000488607436217e+00 -4.284961935073958e-02
1.487346938775500e+11 -1.000369879554550e+00 -4.293698372567743e-02
1.487755102040800e+11 -1.000251714765623e+00 -4.302307656946885e-02
1.488163265306100e+11 -1.000134122468396e+00 -4.310792675451388e-02
1.488571428571400e+11 -1.000017110867519e+00 -4.319156527375310e-02
1.488979591836700e+11 -9.999006869686491e-01 -4.327402532469571e-02
1.489387755102000e+11 -9.997848565336029e-01 -4.335534239501453e-02
1.489795918367300e+11 -9.996696240847809e-01 -4.343555422640305e-02
1.490204081632700e+11 -9.995549928963305e-01 -4.351470073032195e-02
1.490612244898000e+11 -9.994409650056441e-01 -4.359282389607836e-02
1.491020408163300e+11 -9.993275412277615e-01 -4.366996784048026e-02
1.491428571428600e+11 -9.992147211793170e-01 -4.374617888898460e-02
1.491836734693900e+11 -9.991025032609876e-01 -4.382150543067563e-02
1.492244897959200e+11 -9.989908846856309e-01 -4.389599775645762e-02
1.492653061224500e+11 -9.988798614092862e-01 -4.396970778070609e-02
1.493061224489800e+11 -9.987694282091950e-01 -4.404268892244965e-02
1.493469387755100e+11 -9.986595786692708e-01 -4.411499618859695e-02
1.493877551020400e+11 -9.985503051759566e-01 -4.418668617067310e-02
1.494285714285700e+11 -9.984415989007618e-01 -4.425781688122513e-02
1.494693877551000e+11 -9.983334497933496e-01 -4.432844762309563e-02
1.495102040816300e+11 -9.982258466100324e-01 -4.439863893015753e-02
1.495510204081600e+11 -9.981187769823581e-01 -4.446845229282240e-02
1.495918367346900e+11 -9.980122274509392e-01 -4.453795002594688e-02
1.496326530612200e+11 -9.979061835498443e-01 -4.460719511492112e-02
1.496734693877600e+11 -9.978006298959297e-01 -4.467625123741909e-02
1.497142857142900e+11 -9.976955502480452e-01 -4.474518271374155e-02
1.497551020408200e+11 -9.975909275724528e-01 -4.481405457564302e-02
1.497959183673500e+11 -9.974867441007117e-01 -4.488293246517926e-02
1.498367346938800e+11 -9.973829814622923e-01 -4.495188254856615e-02
1.498775510204100e+11 -9.972796207277720e-01 -4.502097140715552e-02
1.499183673469400e+11 -9.971766424567718e-01 -4.509026606923351e-02
1.499591836734700e+11 -9.970740267299447e-01 -4.515983407730022e-02
1.500000000000000e+11 -9.969717531575359e-01 -4.522974349862421e-02
1.500408163265300e+11 -9.968698008831218e-01 -4.530006302250184e-02
1.500816326530600e+11 -9.967681485327294e-01 -4.537086220393423e-02
1.501224489795900e+11 -9.966667741654783e-01 -4.544221144361651e-02
1.501632653061200e+11 -9.965656551856149e-01 -4.551418199495599e-02
1.502040816326500e+11 -9.964647683338576e-01 -4.558684588842187e-02
1.502448979591800e+11 -9.963640896821662e-01 -4.566027594410248e-02
1.502857142857100e+11 -9.962635945493141e-01 -4.573454579618764e-02
1.503265306122400e+11 -9.961632573992255e-01 -4.580972988308585e-02
1.503673469387800e+11 -9.960630517233634e-01 -4.588590350869872e-02
1.504081632653100e+11 -9.959629499878114e-01 -4.596314290121137e-02
1.504489795918400e+11 -9.958629235692849e-01 -4.604152503180473e-02
1.504897959183700e+11 -9.957629427497986e-01 -4.612112752624513e-02
1.505306122449000e+11 -9.956629766308834e-01 -4.620202848466438e-02
1.505714285714300e+11 -9.955629930759493e-01 -4.628430641116030e-02
1.506122448979600e+11 -9.954629586892466e-01 -4.636804007405080e-02
1.506530612244900e+11 -9.953628387829835e-01 -4.645330867536570e-02
1.506938775510200e+11 -9.952625973587427e-01 -4.654019173054812e-02
1.507346938775500e+11 -9.951621972224578e-01 -4.662876897754240e-02
1.507755102040800e+11 -9.950616001083301e-01 -4.671912004990091e-02
1.508163265306100e+11 -9.949607667186198e-01 -4.681132412503400e-02
1.508571428571400e+11 -9.948596567397480e-01 -4.690545997081292e-02
1.508979591836700e+11 -9.947582287793236e-01 -4.700160621106531e-02
1.509387755102000e+11 -9.946564403984087e-01 -4.709984105158644e-02
1.509795918367300e+11 -9.945542482052639e-01 -4.720024196424001e-02
1.510204081632700e+11 -9.944516079691873e-01 -4.730288545916987e-02
1.510612244898000e+11 -9.943484746084245e-01 -4.740784727637200e-02
1.511020408163300e+11 -9.942448022064577e-01 -4.751520251438410e-02
1.511428571428600e+11 -9.941405440780963e-01 -4.762502541358086e-02
1.511836734693900e+11 -9.940356528768443e-01 -4.773738894856371e-02
1.512244897959200e+11 -9.939300806299878e-01 -4.785236462530595e-02
1.512653061224500e+11 -9.938237787777167e-01 -4.797002261617958e-02
1.513061224489800e+11 -9.937166981747582e-01 -4.809043180841243e-02
1.513469387755100e+11 -9.936087891825854e-01 -4.821365988076629e-02
1.513877551020400e+11 -9.935000017762114e-01 -4.833977303797560e-02
1.514285714285700e+11 -9.933902855766147e-01 -4.846883589736531e-02
1.514693877551000e+11 -9.932795899100705e-01 -4.860091150751936e-02
1.515102040816300e+11 -9.931678638832958e-01 -4.873606149237167e-02
1.515510204081600e+11 -9.930550564277523e-01 -4.887434614877157e-02
1.515918367346900e+11 -9.929411163257520e-01 -4.901582457071890e-02
1.516326530612200e+11 -9.928259922651932e-01 -4.916055449278289e-02
1.516734693877600e+11 -9.927096328873291e-01 -4.930859213731920e-02
1.517142857142900e+11 -9.925919868073736e-01 -4.945999217041363e-02
1.517551020408200e+11 -9.924730026057567e-01 -4.961480788710499e-02
1.517959183673500e+11 -9.923526288236117e-01 -4.977309126909921e-02
1.518367346938800e+11 -9.922308139869370e-01 -4.993489299953720e-02
1.518775510204100e+11 -9.921075065520564e-01 -5.010026226801435e-02
1.519183673469400e+11 -9.919826549164318e-01 -5.026924668762782e-02
1.519591836734700e+11 -9.918562074423265e-01 -5.044189230530531e-02
1.520000000000000e+11 -9.917281124757893e-01 -5.061824361596871e-02
1.520408163265300e+11 -9.915983183484133e-01 -5.079834349503640e-02
1.520816326530600e+11 -9.914667734060504e-01 -5.098223300981933e-02
1.521224489795900e+11 -9.913334260360311e-01 -5.116995124332360e-02
1.521632653061200e+11 -9.911982246939611e-01 -5.136153523422859e-02
1.522040816326500e+11 -9.910611179843762e-01 -5.155702004479414e-02
1.522448979591800e+11 -9.909220547176717e-01 -5.175643862477283e-02
1.522857142857100e+11 -9.907809839057869e-01 -5.195982186929089e-02
1.523265306122400e+11 -9.906378548201209e-01 -5.216719857370991e-02
1.523673469387800e+11 -9.904926170644535e-01 -5.237859541085411e-02
1.524081632653100e+11 -9.903452206310408e-01 -5.259403693661509e-02
1.524489795918400e+11 -9.901956159031103e-01 -5.281354557427867e-02
1.524897959183700e+11 -9.900437536334631e-01 -5.303714161439389e-02
1.525306122449000e+11 -9.898895849339846e-01 -5.326484329575036e-02
1.525714285714300e+11 -9.897330612881914e-01 -5.349666670548572e-02
1.526122448979600e+11 -9.895741345916175e-01 -5.373262563800453e-02
1.526530612244900e+11 -9.894127572366754e-01 -5.397273149661767e-02
1.526938775510200e+11 -9.892488821062028e-01 -5.421699325710148e-02
1.527346938775500e+11 -9.890824625135389e-01 -5.446541749137369e-02
1.527755102040800e+11 -9.889134522362478e-01 -5.471800825008288e-02
1.528163265306100e+11 -9.887418055836553e-01 -5.497476677896680e-02
1.528571428571400e+11 -9.885674775006356e-01 -5.523569130767300e-02
1.528979591836700e+11 -9.883904236411200e-01 -5.550077700699074e-02
1.529387755102000e+11 -9.882106003519889e-01 -5.577001605308482e-02
1.529795918367300e+11 -9.880279647574365e-01 -5.604339751163646e-02
1.530204081632700e+11 -9.878424748550479e-01 -5.632090714754395e-02
1.530612244898000e+11 -9.876540897009952e-01 -5.660252728636761e-02
1.531020408163300e+11 -9.874627694995524e-01 -5.688823683477273e-02
1.531428571428600e+11 -9.872684756928009e-01 -5.717801126108547e-02
1.531836734693900e+11 -9.870711710882466e-01 -5.747182244486254e-02
1.532244897959200e+11 -9.868708200045065e-01 -5.776963857749708e-02
1.532653061224500e+11 -9.866673884301724e-01 -5.807142428266552e-02
1.533061224489800e+11 -9.864608440237924e-01 -5.837714055981743e-02
1.533469387755100e+11 -9.862511562254661e-01 -5.868674480414871e-02
1.533877551020400e+11 -9.860382963797261e-01 -5.900019093690783e-02
1.534285714285700e+11 -9.858222378621599e-01 -5.931742945089376e-02
1.534693877551000e+11 -9.856029561547391e-01 -5.963840742575972e-02
1.535102040816300e+11 -9.853804288691098e-01 -5.996306853117397e-02
1.535510204081600e+11 -9.851546358354147e-01 -6.029135310797861e-02
1.535918367346900e+11 -9.849255591540423e-01 -6.062319824712483e-02
1.536326530612200e+11 -9.846931833304224e-01 -6.095853796058948e-02
1.536734693877600e+11 -9.844574952621611e-01 -6.129730332218263e-02
1.537142857142900e+11 -9.842184842673133e-01 -6.163942253694923e-02
1.537551020408200e+11 -9.839761421137684e-01 -6.198482109461419e-02
1.537959183673500e+11 -9.837304630103889e-01 -6.233342178175440e-02
1.538367346938800e+11 -9.834814435853532e-01 -6.268514492762094e-02
1.538775510204100e+11 -9.832290828031702e-01 -6.303990847534363e-02
1.539183673469400e+11 -9.829733819038827e-01 -6.339762808711628e-02
1.539591836734700e+11 -9.827143443612338e-01 -6.375821707662134e-02
1.540000000000000e+11 -9.824519758843924e-01 -6.412158661000439e-02
1.540408163265300e+11 -9.821862844431162e-01 -6.448764562195033e-02
1.540816326530600e+11 -9.819172801939550e-01 -6.485630080878910e-02
1.541224489795900e+11 -9.816449753922211e-01 -6.522745661946350e-02
1.541632653061200e+11 -9.813693843556308e-01 -6.560101520779917e-02
1.542040816326500e+11 -9.810905235471280e-01 -6.597687637406907e-02
1.542448979591800e+11 -9.808084115890060e-01 -6.635493742838740e-02
1.542857142857100e+11 -9.805230693310938e-01 -6.673509314421699e-02
1.543265306122400e+11 -9.802345198870174e-01 -6.711723572096720e-02
1.543673469387800e+11 -9.799427887393668e-01 -6.750125461475297e-02
1.544081632653100e+11 -9.796479038361662e-01 -6.788703637618329e-02
1.544489795918400e+11 -9.793498956930616e-01 -6.827446468097292e-02
1.544897959183700e+11 -9.790487975545721e-01 -6.866342021337829e-02
1.545306122449000e+11 -9.787446454754549e-01 -6.905378059199749e-02
1.545714285714300e+11 -9.784374784921633e-01 -6.944542031580907e-02
1.546122448979600e+11 -9.781273387459758e-01 -6.983821086999549e-02
1.546530612244900e+11 -9.778142716035189e-01 -7.023202082515606e-02
1.546938775510200e+11 -9.774983256581534e-01 -7.062671609965597e-02
1.547346938775500e+11 -9.771795528571371e-01 -7.102215996516388e-02
1.547755102040800e+11 -9.768580085639100e-01 -7.141821314242260e-02
1.548163265306100e+11 -9.765337516227403e-01 -7.181473395440519e-02
1.548571428571400e+11 -9.762068443537419e-01 -7.221157847586746e-02
1.548979591836700e+11 -9.758773525481537e-01 -7.260860083760946e-02
1.549387755102000e+11 -9.755453454275113e-01 -7.300565343508843e-02
1.549795918367300e+11 -9.752108955641280e-01 -7.340258709160818e-02
1.550204081632700e+11 -9.748740789222955e-01 -7.379925119069521e-02
1.550612244898000e+11 -9.745349747306059e-01 -7.419549403152702e-02
1.551020408163300e+11 -9.741936639698909e-01 -7.459116536331063e-02
1.551428571428600e+11 -9.738502289200411e-01 -7.498611596942675e-02
1.551836734693900e+11 -9.735047530327746e-01 -7.538019840935309e-02
1.552244897959200e+11 -9.731573209533902e-01 -7.577326755397915e-02
1.552653061224500e+11 -9.728080184617675e-01 -7.616518058419258e-02
1.553061224489800e+11 -9.724569323365635e-01 -7.655579712011067e-02
1.553469387755100e+11 -9.721041502145744e-01 -7.694497947401344e-02
1.553877551020400e+11 -9.717497605089063e-01 -7.733259262011925e-02
1.554285714285700e+11 -9.713938524257041e-01 -7.771850421399085e-02
1.554693877551000e+11 -9.710365158645881e-01 -7.810258461946461e-02
1.555102040816300e+11 -9.706778414305230e-01 -7.848470690117490e-02
1.555510204081600e+11 -9.703179203037010e-01 -7.886474683648868e-02
1.555918367346900e+11 -9.699568442209794e-01 -7.924258278634322e-02
1.556326530612200e+11 -9.695947055483443e-01 -7.961809562658659e-02
1.556734693877600e+11 -9.692315972415517e-01 -7.999116882978496e-02
1.557142857142900e+11 -9.688676129238570e-01 -8.036168844758618e-02
1.557551020408200e+11 -9.685028468062089e-01 -8.072954304813369e-02
1.557959183673500e+11 -9.681373937925661e-01 -8.109462372752516e-02
1.558367346938800e+11 -9.677713494665657e-01 -8.145682419748346e-02
1.558775510204100e+11 -9.674048101725118e-01 -8.181604075849237e-02
1.559183673469400e+11 -9.670378730164718e-01 -8.217217251626031e-02
1.559591836734700e+11 -9.666706359634384e-01 -8.252512139001329e-02
1.560000000000000e+11 -9.663031978547305e-01 -8.287479212315399e-02
1.560408163265300e+11 -9.659356584360154e-01 -8.322109233829079e-02
1.560816326530600e+11 -9.655681182630984e-01 -8.356393274220116e-02
1.561224489795900e+11 -9.652006787023426e-01 -8.390322721326458e-02
1.561632653061200e+11 -9.648334417121052e-01 -8.423889304113631e-02
1.562040816326500e+11 -9.644665099475326e-01 -8.457085087143840e-02
1.562448979591800e+11 -9.640999867110661e-01 -8.489902507114140e-02
1.562857142857100e+11 -9.637339758971426e-01 -8.522334409036045e-02
1.563265306122400e+11 -9.633685819997212e-01 -8.554374057614898e-02
1.563673469387800e+11 -9.630039100525477e-01 -8.586015126283265e-02
1.564081632653100e+11 -9.626400653720131e-01 -8.617251682330364e-02
1.564489795918400e+11 -9.622771533062764e-01 -8.648078205171109e-02
1.564897959183700e+11 -9.619152789909210e-01 -8.678489597723088e-02
1.565306122449000e+11 -9.615545471919461e-01 -8.708481201190403e-02
1.565714285714300e+11 -9.611950623169231e-01 -8.738048798696425e-02
1.566122448979600e+11 -9.608369282495971e-01 -8.767188614294533e-02
1.566530612244900e+11 -9.604802481556926e-01 -8.795897301331633e-02
1.566938775510200e+11 -9.601251242426148e-01 -8.824171931695540e-02
1.567346938775500e+11 -9.597716576317886e-01 -8.852009988552872e-02
1.567755102040800e+11 -9.594199483707154e-01 -8.879409362611956e-02
1.568163265306100e+11 -9.590700953238008e-01 -8.906368345105233e-02
1.568571428571400e+11 -9.587221961500246e-01 -8.932885621590499e-02
1.568979591836700e+11 -9.583763473341644e-01 -8.958960258530708e-02
1.569387755102000e+11 -9.580326442638877e-01 -8.984591709899691e-02
1.569795918367300e+11 -9.576911813030535e-01 -9.009779835387424e-02
1.570204081632700e+11 -9.573520518244550e-01 -9.034524885242767e-02
1.570612244898000e+11 -9.570153481969110e-01 -9.058827486925798e-02
1.571020408163300e+11 -9.566811616872054e-01 -9.082688623282449e-02
1.571428571428600e+11 -9.563495824981363e-01 -9.106109630684854e-02
1.571836734693900e+11 -9.560206996880071e-01 -9.129092211432553e-02
1.572244897959200e+11 -9.556946010254529e-01 -9.151638450958224e-02
1.572653061224500e+11 -9.553713729227178e-01 -9.173750812344048e-02
1.573061224489800e+11 -9.550511002813267e-01 -9.195432135010495e-02
1.573469387755100e+11 -9.547338664033835e-01 -9.216685634440469e-02
1.573877551020400e+11 -9.544197529067630e-01 -9.237514907612937e-02
1.574285714285700e+11 -9.541088396311630e-01 -9.257923932540180e-02
1.574693877551000e+11 -9.538012046516258e-01 -9.277917058898583e-02
1.575102040816300e+11 -9.534969241684934e-01 -9.297499006571176e-02
1.575510204081600e+11 -9.531960723996579e-01 -9.316674851973565e-02
1.575918367346900e+11 -9.528987215173068e-01 -9.335450037924614e-02
1.576326530612200e+11 -9.526049416486370e-01 -9.353830372172801e-02
1.576734693877600e+11 -9.523148008792601e-01 -9.371822026602594e-02
1.577142857142900e+11 -9.520283652016897e-01 -9.389431524059841e-02
1.577551020408200e+11 -9.517456984744540e-01 -9.406665762769237e-02
1.577959183673500e+11 -9.514668623748403e-01 -9.423532006037195e-02
1.578367346938800e+11 -9.511919163070314e-01 -9.440037873608431e-02
1.578775510204100e+11 -9.509209173998420e-01 -9.456191331087677e-02
1.579183673469400e+11 -9.506539204300005e-01 -9.472000686484894e-02
1.579591836734700e+11 -9.503909777482592e-01 -9.487474582639747e-02
1.580000000000000e+11 -9.501321391920496e-01 -9.502621983107862e-02
1.580408163265300e+11 -9.498774520523543e-01 -9.517452179402838e-02
1.580816326530600e+11 -9.496269609136074e-01 -9.531974799453578e-02
1.581224489795900e+11 -9.493807075087826e-01 -9.546199788549790e-02
1.581632653061200e+11 -9.491387305772905e-01 -9.560137391950754e-02
1.582040816326500e+11 -9.489010657813106e-01 -9.573798124188120e-02
1.582448979591800e+11 -9.486677456511925e-01 -9.587192785752910e-02
1.582857142857100e+11 -9.484387996574872e-01 -9.600332429069046e-02
1.583265306122400e+11 -9.482142542936902e-01 -9.613228332496766e-02
1.583673469387800e+11 -9.479941330883799e-01 -9.625892006431219e-02
1.584081632653100e+11 -9.477784565363510e-01 -9.638335190847426e-02
1.584489795918400e+11 -9.475672421111144e-01 -9.650569833864103e-02
1.584897959183700e+11 -9.473605042756746e-01 -9.662608088797688e-02
1.585306122449000e+11 -9.471582544874398e-01 -9.674462316992009e-02
1.585714285714300e+11 -9.469605011053669e-01 -9.686145094130023e-02
1.586122448979600e+11 -9.467672494043960e-01 -9.697669209541386e-02
1.586530612244900e+11 -9.465785016111316e-01 -9.709047641468181e-02
1.586938775510200e+11 -9.463942568671232e-01 -9.720293552283206e-02
1.587346938775500e+11 -9.462145111655547e-01 -9.731420295333654e-02
1.587755102040800e+11 -9.460392572438823e-01 -9.742441413167324e-02
1.588163265306100e+11 -9.458684845354798e-01 -9.753370620050852e-02
1.588571428571400e+11 -9.457021791023402e-01 -9.764221780739567e-02
1.588979591836700e+11 -9.455403235514361e-01 -9.775008902218603e-02
1.589387755102000e+11 -9.453828970294771e-01 -9.785746126949815e-02
1.589795918367300e+11 -9.452298751412050e-01 -9.796447729628516e-02
1.590204081632700e+11 -9.450812298574688e-01 -9.807128084406588e-02
1.590612244898000e+11 -9.449369294482890e-01 -9.817801638279700e-02
1.591020408163300e+11 -9.447969385246452e-01 -9.828482865390958e-02
1.591428571428600e+11 -9.446612181074294e-01 -9.839186243257955e-02
1.591836734693900e+11 -9.445297256945113e-01 -9.849926240073187e-02
1.592244897959200e+11 -9.444024152729777e-01 -9.860717321850478e-02
1.592653061224500e+11 -9.442792373090642e-01 -9.871573934929331e-02
1.593061224489800e+11 -9.441601388347606e-01 -9.882510490914700e-02
1.593469387755100e+11 -9.440450635871620e-01 -9.893541344035053e-02
1.593877551020400e+11 -9.439339521968000e-01 -9.904680777750073e-02
1.594285714285700e+11 -9.438267423754158e-01 -9.915943001322282e-02
1.594693877551000e+11 -9.437233689140057e-01 -9.927342123032953e-02
1.595102040816300e+11 -9.436237638531147e-01 -9.938892141321028e-02
1.595510204081600e+11 -9.435278566219155e-01 -9.950606952823569e-02
1.595918367346900e+11 -9.434355741329364e-01 -9.962500344440707e-02
1.596326530612200e+11 -9.433468408676059e-01 -9.974585988143235e-02
1.596734693877600e+11 -9.432615788787355e-01 -9.986877426582177e-02
1.597142857142900e+11 -9.431797078740681e-01 -9.999388070658724e-02
1.597551020408200e+11 -9.431011452600946e-01 -1.001213120100855e-01
1.597959183673500e+11 -9.430258060493769e-01 -1.002511997370325e-01
1.598367346938800e+11 -9.429536028676609e-01 -1.003836742054235e-01
1.598775510204100e+11 -9.428844459592082e-01 -1.005188642730655e-01
1.599183673469400e+11 -9.428182431882081e-01 -1.006568973261610e-01
1.599591836734700e+11 -9.427548999905684e-01 -1.007978993324765e-01
1.600000000000000e+11 -9.426943193011906e-01 -1.009419948180745e-01
1.600408163265300e+11 -9.426364014851367e-01 -1.010893066763041e-01
1.600816326530600e+11 -9.425810434793730e-01 -1.012399567007546e-01
1.601224489795900e+11 -9.425281387537816e-01 -1.013940661461913e-01
1.601632653061200e+11 -9.424775773735756e-01 -1.015517559708399e-01
1.602040816326500e+11 -9.424292460103848e-01 -1.017131467271237e-01
1.602448979591800e+11 -9.423830279188027e-01 -1.018783583681701e-01
1.602857142857100e+11 -9.423388028733044e-01 -1.020475099113436e-01
1.603265306122400e+11 -9.422964472462975e-01 -1.022207191813289e-01
1.603673469387800e+11 -9.422558340431380e-01 -1.023981025669380e-01
1.604081632653100e+11 -9.422168329791898e-01 -1.025797747947105e-01
1.604489795918400e+11 -9.421793104980305e-01 -1.027658486043017e-01
1.604897959183700e+11 -9.421431297596682e-01 -1.029564344576575e-01
1.605306122449000e+11 -9.421081506918795e-01 -1.031516402340183e-01
1.605714285714300e+11 -9.420742300518989e-01 -1.033515709886941e-01
1.606122448979600e+11 -9.420412215676537e-01 -1.035563285196818e-01
1.606530612244900e+11 -9.420089761346119e-01 -1.037660109338062e-01
1.606938775510200e+11 -9.419773419321190e-01 -1.039807124112352e-01
1.607346938775500e+11 -9.419461645261910e-01 -1.042005230925847e-01
1.607755102040800e+11 -9.419152870762220e-01 -1.044255288135832e-01
1.608163265306100e+11 -9.418845506090435e-01 -1.046558110352592e-01
1.608571428571400e+11 -9.418537943016052e-01 -1.048914465113916e-01
1.608979591836700e+11 -9.418228558069871e-01 -1.051325074672576e-01
1.609387755102000e+11 -9.417915714559071e-01 -1.053790616509019e-01
1.609795918367300e+11 -9.417597765632272e-01 -1.056311723758157e-01
1.610204081632700e+11 -9.417273057580011e-01 -1.058888984731843e-01
1.610612244898000e+11 -9.416939933210564e-01 -1.061522943124261e-01
1.611020408163300e+11 -9.416596734261942e-01 -1.064214099161166e-01
1.611428571428600e+11 -9.416241804743803e-01 -1.066962911386000e-01
1.611836734693900e+11 -9.415873493487508e-01 -1.069769796859984e-01
1.612244897959200e+11 -9.415490155455127e-01 -1.072635131618670e-01
1.612653061224500e+11 -9.415090152880410e-01 -1.075559250719642e-01
1.613061224489800e+11 -9.414671856408215e-01 -1.078542450205326e-01
1.613469387755100e+11 -9.414233644266873e-01 -1.081584988727476e-01
1.613877551020400e+11 -9.413773901246463e-01 -1.084687091159928e-01
1.614285714285700e+11 -9.413291017405540e-01 -1.087848949970255e-01
1.614693877551000e+11 -9.412783387283800e-01 -1.091070725973645e-01
1.615102040816300e+11 -9.412249408820420e-01 -1.094352552897036e-01
1.615510204081600e+11 -9.411687482300241e-01 -1.097694537693000e-01
1.615918367346900e+11 -9.411096009167604e-01 -1.101096759625474e-01
1.616326530612200e+11 -9.410473391332589e-01 -1.104559270138949e-01
1.616734693877600e+11 -9.409818030766947e-01 -1.108082092236938e-01
1.617142857142900e+11 -9.409128329125068e-01 -1.111665218932797e-01
1.617551020408200e+11 -9.408402687961673e-01 -1.115308610960148e-01
1.617959183673500e+11 -9.407639509016684e-01 -1.119012194046131e-01
1.618367346938800e+11 -9.406837194351296e-01 -1.122775858977229e-01
1.618775510204100e+11 -9.405994147409151e-01 -1.126599460664546e-01
1.619183673469400e+11 -9.405108773777452e-01 -1.130482815556153e-01
1.619591836734700e+11 -9.404179482273716e-01 -1.134425699541229e-01
1.620000000000000e+11 -9.403204685635659e-01 -1.138427847109221e-01
1.620408163265300e+11 -9.402182802342208e-01 -1.142488948919838e-01
1.620816326530600e+11 -9.401112258845341e-01 -1.146608650974273e-01
1.621224489795900e+11 -9.399991490323029e-01 -1.150786553616594e-01
1.621632653061200e+11 -9.398818943090562e-01 -1.155022208197798e-01
1.622040816326500e+11 -9.397593075797719e-01 -1.159315115237548e-01
1.622448979591800e+11 -9.396312361482800e-01 -1.163664723361538e-01
1.622857142857100e+11 -9.394975290028954e-01 -1.168070429394685e-01
1.623265306122400e+11 -9.393580370895233e-01 -1.172531578643437e-01
1.623673469387800e+11 -9.392126136010462e-01 -1.177047464452334e-01
1.624081632653100e+11 -9.390611143058101e-01 -1.181617326940249e-01
1.624489795918400e+11 -9.389033978369732e-01 -1.186240351908098e-01
1.624897959183700e+11 -9.387393259640598e-01 -1.190915669777030e-01
1.625306122449000e+11 -9.385687639208619e-01 -1.195642356440222e-01
1.625714285714300e+11 -9.383915807464718e-01 -1.200419433557786e-01
1.626122448979600e+11 -9.382076496268679e-01 -1.205245869035433e-01
1.626530612244900e+11 -9.380168481016359e-01 -1.210120578023436e-01
1.626938775510200e+11 -9.378190581492706e-01 -1.215042424858571e-01
1.627346938775500e+11 -9.376141664807928e-01 -1.220010223342976e-01
1.627755102040800e+11 -9.374020645675470e-01 -1.225022744518528e-01
1.628163265306100e+11 -9.371826484449315e-01 -1.230078721558479e-01
1.628571428571400e+11 -9.369558185666439e-01 -1.235176854698493e-01
1.628979591836700e+11 -9.367214797630613e-01 -1.240315813889983e-01
1.629387755102000e+11 -9.364795410889484e-01 -1.245494241856113e-01
1.629795918367300e+11 -9.362299158386133e-01 -1.250710757864514e-01
1.630204081632700e+11 -9.359725215077248e-01 -1.255963959500281e-01
1.630612244898000e+11 -9.357072797318097e-01 -1.261252423556175e-01
1.631020408163300e+11 -9.354341161556442e-01 -1.266574706867116e-01
1.631428571428600e+11 -9.351529603006937e-01 -1.271929349065064e-01
1.631836734693900e+11 -9.348637454668165e-01 -1.277314875056117e-01
1.632244897959200e+11 -9.345664087430375e-01 -1.282729796533519e-01
1.632653061224500e+11 -9.342608910172280e-01 -1.288172611526147e-01
1.633061224489800e+11 -9.339471370251128e-01 -1.293641804061829e-01
1.633469387755100e+11 -9.336250953570651e-01 -1.299135844946718e-01
1.633877551020400e+11 -9.332947183620094e-01 -1.304653194490482e-01
1.634285714285700e+11 -9.329559621249059e-01 -1.310192302345703e-01
1.634693877551000e+11 -9.326087865581156e-01 -1.315751608628913e-01
1.635102040816300e+11 -9.322531553994416e-01 -1.321329543957968e-01
1.635510204081600e+11 -9.318890361816651e-01 -1.326924529393190e-01
1.635918367346900e+11 -9.315164001028399e-01 -1.332534978550955e-01
1.636326530612200e+11 -9.311352220309066e-01 -1.338159299064745e-01
1.636734693877600e+11 -9.307454806074207e-01 -1.343795893933022e-01
1.637142857142900e+11 -9.303471583012632e-01 -1.349443162661332e-01
1.637551020408200e+11 -9.299402413235754e-01 -1.355099501014433e-01
1.637959183673500e+11 -9.295247195165770e-01 -1.360763302416909e-01
1.638367346938800e+11 -9.291005863798099e-01 -1.366432957943206e-01
1.638775510204100e+11 -9.286678389768106e-01 -1.372106856623338e-01
1.639183673469400e+11 -9.282264779026946e-01 -1.377783385305297e-01
1.639591836734700e+11 -9.277765073804559e-01 -1.383460926893132e-01
1.640000000000000e+11 -9.273179351718379e-01 -1.389137861196104e-01
1.640408163265300e+11 -9.268507726962952e-01 -1.394812564691185e-01
1.640816326530600e+11 -9.263750351007075e-01 -1.400483410503770e-01
1.641224489795900e+11 -9.258907413290669e-01 -1.406148768521169e-01
1.641632653061200e+11 -9.253979142256415e-01 -1.411807004853642e-01
1.642040816326500e+11 -9.248965807914845e-01 -1.417456480107274e-01
1.642448979591800e+11 -9.243867723600934e-01 -1.423095548374456e-01
1.642857142857100e+11 -9.238685246787997e-01 -1.428722558134465e-01
1.643265306122400e+11 -9.233418780050748e-01 -1.434335852897219e-01
1.643673469387800e+11 -9.228068772441795e-01 -1.439933773548614e-01
1.644081632653100e+11 -9.222635720353345e-01 -1.445514660007463e-01
1.644489795918400e+11 -9.217120168048843e-01 -1.451076853276093e-01
1.644897959183700e+11 -9.211522707490948e-01 -1.456618697271336e-01
1.645306122449000e+11 -9.205843978085400e-01 -1.462138542103501e-01
1.645714285714300e+11 -9.200084666979989e-01 -1.467634745865420e-01
1.646122448979600e+11 -9.194245508365693e-01 -1.473105676338275e-01
1.646530612244900e+11 -9.188327284429154e-01 -1.478549713996377e-01
1.646938775510200e+11 -9.182330825518226e-01 -1.483965254045280e-01
1.647346938775500e+11 -9.176257009685183e-01 -1.489350709211989e-01
1.647755102040800e+11 -9.170106761351960e-01 -1.494704513254197e-01
1.648163265306100e+11 -9.163881049485003e-01 -1.500025125129907e-01
1.648571428571400e+11 -9.157580884565064e-01 -1.505311032292896e-01
1.648979591836700e+11 -9.151207318410348e-01 -1.510560754055469e-01
1.649387755102000e+11 -9.144761441621032e-01 -1.515772842354039e-01
1.649795918367300e+11 -9.138244383838187e-01 -1.520945886793351e-01
1.650204081632700e+11 -9.131657310548291e-01 -1.526078516815906e-01
1.650612244898000e+11 -9.125001420581841e-01 -1.531169404279705e-01
1.651020408163300e+11 -9.118277942737022e-01 -1.536217264586707e-01
1.651428571428600e+11 -9.111488134814368e-01 -1.541220858952894e-01
1.651836734693900e+11 -9.104633280040515e-01 -1.546178994980432e-01
1.652244897959200e+11 -9.097714683746545e-01 -1.551090526165230e-01
1.652653061224500e+11 -9.090733671028993e-01 -1.555954352697044e-01
1.653061224489800e+11 -9.083691584268047e-01 -1.560769421489241e-01
1.653469387755100e+11 -9.076589780347036e-01 -1.565534723622735e-01
1.653877551020400e+11 -9.069429627483984e-01 -1.570249293423942e-01
1.654285714285700e+11 -9.062212503916174e-01 -1.574912206251866e-01
1.654693877551000e+11 -9.054939794890373e-01 -1.579522575427358e-01
1.655102040816300e+11 -9.047612889896003e-01 -1.584079551088124e-01
1.655510204081600e+11 -9.040233182001653e-01 -1.588582317650753e-01
1.655918367346900e+11 -9.032802068523553e-01 -1.593030091380711e-01
1.656326530612200e+11 -9.025320950426859e-01 -1.597422117533459e-01
1.656734693877600e+11 -9.017791232715232e-01 -1.601757667939085e-01
1.657142857142900e+11 -9.010214324617170e-01 -1.606036036711826e-01
1.657551020408200e+11 -9.002591640480381e-01 -1.610256539070505e-01
1.657959183673500e+11 -8.994924602006726e-01 -1.614418508728591e-01
1.658367346938800e+11 -8.987214639178691e-01 -1.618521297956723e-01
1.658775510204100e+11 -8.979463191244652e-01 -1.622564277438983e-01
1.659183673469400e+11 -8.971671708330540e-01 -1.626546835555329e-01
1.659591836734700e+11 -8.963841651826978e-01 -1.630468378334508e-01
1.660000000000000e+11 -8.955974495505191e-01 -1.634328331731093e-01
1.660408163265300e+11 -8.948071726679782e-01 -1.638126144335719e-01
1.660816326530600e+11 -8.940134846619127e-01 -1.641861289318008e-01
1.661224489795900e+11 -8.932165371330654e-01 -1.645533268099083e-01
1.661632653061200e+11 -8.924164830673889e-01 -1.649141611912862e-01
1.662040816326500e+11 -8.916134765145884e-01 -1.652685883157783e-01
1.662448979591800e+11 -8.908076723285537e-01 -1.656165679377388e-01
1.662857142857100e+11 -8.899992259636511e-01 -1.659580634151273e-01
1.663265306122400e+11 -8.891882932428121e-01 -1.662930421571438e-01
1.663673469387800e+11 -8.883750301846339e-01 -1.666214757740140e-01
1.664081632653100e+11 -8.875595926214529e-01 -1.669433403100215e-01
1.664489795918400e+11 -8.867421358766024e-01 -1.672586164441486e-01
1.664897959183700e+11 -8.859228145817789e-01 -1.675672896288893e-01
1.665306122449000e+11 -8.851017825175194e-01 -1.678693501429656e-01
1.665714285714300e+11 -8.842791922351348e-01 -1.681647932254222e-01
1.666122448979600e+11 -8.834551945875663e-01 -1.684536191337106e-01
1.666530612244900e+11 -8.826299382693806e-01 -1.687358331132443e-01
1.666938775510200e+11 -8.818035695412189e-01 -1.690114454159709e-01
1.667346938775500e+11 -8.809762320585637e-01 -1.692804713995259e-01
1.667755102040800e+11 -8.801480666934034e-01 -1.695429315866603e-01
1.668163265306100e+11 -8.793192113498037e-01 -1.697988513300524e-01
1.668571428571400e+11 -8.784898007247569e-01 -1.700482608160833e-01
1.668979591836700e+11 -8.776599659731771e-01 -1.702911950320817e-01
1.669387755102000e+11 -8.768298345470930e-01 -1.705276935450508e-01
1.669795918367300e+11 -8.759995300863729e-01 -1.707578002733672e-01
1.670204081632700e+11 -8.751691724440001e-01 -1.709815630419915e-01
1.670612244898000e+11 -8.743388776224613e-01 -1.711990333542541e-01
1.671020408163300e+11 -8.735087576799857e-01 -1.714102663573907e-01
1.671428571428600e+11 -8.726789206883793e-01 -1.716153205535108e-01
1.671836734693900e+11 -8.718494707036683e-01 -1.718142576725599e-01
1.672244897959200e+11 -8.710205077095421e-01 -1.720071423218512e-01
1.672653061224500e+11 -8.701921276354460e-01 -1.721940419841006e-01
1.673061224489800e+11 -8.693644224652528e-01 -1.723750269449988e-01
1.673469387755100e+11 -8.685374803059402e-01 -1.725501701110227e-01
1.673877551020400e+11 -8.677113853165330e-01 -1.727195468452361e-01
1.674285714285700e+11 -8.668862176903009e-01 -1.728832350302814e-01
1.674693877551000e+11 -8.660620537545222e-01 -1.730413151830708e-01
1.675102040816300e+11 -8.652389660499358e-01 -1.731938704954958e-01
1.675510204081600e+11 -8.644170232399693e-01 -1.733409867706502e-01
1.675918367346900e+11 -8.635962900364215e-01 -1.734827524346356e-01
1.676326530612200e+11 -8.627768270461833e-01 -1.736192584302380e-01
1.676734693877600e+11 -8.619586907099622e-01 -1.737505982168110e-01
1.677142857142900e+11 -8.611419333240244e-01 -1.738768678357568e-01
1.677551020408200e+11 -8.603266030120174e-01 -1.739981660857277e-01
1.677959183673500e+11 -8.595127435439361e-01 -1.741145943669186e-01
1.678367346938800e+11 -8.587003941633229e-01 -1.742262565031453e-01
1.678775510204100e+11 -8.578895894683731e-01 -1.743332585592730e-01
1.679183673469400e+11 -8.570803594076981e-01 -1.744357087265200e-01
1.679591836734700e+11 -8.562727291596119e-01 -1.745337174800084e-01
1.680000000000000e+11 -8.554667191034138e-01 -1.746273974056086e-01
1.680408163265300e+11 -8.546623449151225e-01 -1.747168627591047e-01
1.680816326530600e+11 -8.538596176664315e-01 -1.748022291585438e-01
1.681224489795900e+11 -8.530585440024314e-01 -1.748836132783912e-01
1.681632653061200e+11 -8.522591263175209e-01 -1.749611326028074e-01
1.682040816326500e+11 -8.514613629570066e-01 -1.750349048879545e-01
1.682448979591800e+11 -8.506652483454744e-01 -1.751050479803344e-01
1.682857142857100e+11 -8.498707731756144e-01 -1.751716799588361e-01
1.683265306122400e+11 -8.490779246688065e-01 -1.752349191169611e-01
1.683673469387800e+11 -8.482866868073249e-01 -1.752948837881669e-01
1.684081632653100e+11 -8.474970405147553e-01 -1.753516921783207e-01
1.684489795918400e+11 -8.467089638317351e-01 -1.754054622112463e-01
1.684897959183700e+11 -8.459224321098129e-01 -1.754563114538364e-01
1.685306122449000e+11 -8.451374182088169e-01 -1.755043571023420e-01
1.685714285714300e+11 -8.443538926324956e-01 -1.755497160762464e-01
1.686122448979600e+11 -8.435718237058849e-01 -1.755925049055744e-01
1.686530612244900e+11 -8.427911776493140e-01 -1.756328396661841e-01
1.686938775510200e+11 -8.420119185656092e-01 -1.756708358005294e-01
1.687346938775500e+11 -8.412340084552803e-01 -1.757066079249178e-01
1.687755102040800e+11 -8.404574073069668e-01 -1.757402699520364e-01
1.688163265306100e+11 -8.396820732015174e-01 -1.757719349897306e-01
1.688571428571400e+11 -8.389079623739549e-01 -1.758017149348365e-01
1.688979591836700e+11 -8.381350291626906e-01 -1.758297201267455e-01
1.689387755102000e+11 -8.373632260884823e-01 -1.758560593268612e-01
1.689795918367300e+11 -8.365925040609868e-01 -1.758808395806080e-01
1.690204081632700e+11 -8.358228125455363e-01 -1.759041660611499e-01
1.690612244898000e+11 -8.350540996303211e-01 -1.759261417825346e-01
1.691020408163300e+11 -8.342863122007846e-01 -1.759468672932988e-01
1.691428571428600e+11 -8.335193961639227e-01 -1.759664405355609e-01
1.691836734693900e+11 -8.327532966593288e-01 -1.759849566361508e-01
1.692244897959200e+11 -8.319879583928798e-01 -1.760025075755573e-01
1.692653061224500e+11 -8.312233258718983e-01 -1.760191819436277e-01
1.693061224489800e+11 -8.304593436037676e-01 -1.760350648454615e-01
1.693469387755100e+11 -8.296959564232554e-01 -1.760502376436153e-01
1.693877551020400e+11 -8.289331098731718e-01 -1.760647778596633e-01
1.694285714285700e+11 -8.281707504831899e-01 -1.760787589357626e-01
1.694693877551000e+11 -8.274088260836790e-01 -1.760922500327879e-01
1.695102040816300e+11 -8.266472860660786e-01 -1.761053159305217e-01
1.695510204081600e+11 -8.258860816921934e-01 -1.761180169554318e-01
1.695918367346900e+11 -8.251251664314442e-01 -1.761304089785671e-01
1.696326530612200e+11 -8.243644962693985e-01 -1.761425433065439e-01
1.696734693877600e+11 -8.236040299606023e-01 -1.761544666507499e-01
1.697142857142900e+11 -8.228437293352199e-01 -1.761662210289209e-01
1.697551020408200e+11 -8.220835595478164e-01 -1.761778438506031e-01
1.697959183673500e+11 -8.213234893050212e-01 -1.761893679567150e-01
1.698367346938800e+11 -8.205634911285030e-01 -1.762008215881031e-01
1.698775510204100e+11 -8.198035416168873e-01 -1.762122282184521e-01
1.699183673469400e+11 -8.190436216570212e-01 -1.762236065386166e-01
1.699591836734700e+11 -8.182837166252519e-01 -1.762349705775149e-01
1.700000000000000e+11 -8.175238166097452e-01 -1.762463298240292e-01
