! Generated by Phase I extraction
# Hz S RI R 50
6.700000000000000e+10 1.570532138644359e-01 -6.739602837702910e-02
6.704800000000000e+10 1.575763561034845e-01 -6.764074647048859e-02
6.709600000000000e+10 1.580985992597815e-01 -6.788467041827440e-02
6.714400000000000e+10 1.586197874704014e-01 -6.812773048007932e-02
6.719200000000000e+10 1.591397710121757e-01 -6.836985863944785e-02
6.724000000000000e+10 1.596584052529931e-01 -6.861098944577310e-02
6.728800000000000e+10 1.601755502395625e-01 -6.885105970351707e-02
6.733600000000000e+10 1.606910705760563e-01 -6.909000837119873e-02
6.738400000000000e+10 1.612048353169943e-01 -6.932777656694705e-02
6.743200000000000e+10 1.617167180089173e-01 -6.956430751546315e-02
6.748000000000000e+10 1.622265967455305e-01 -6.979954656096189e-02
6.752800000000000e+10 1.627343542149601e-01 -7.003344115965095e-02
6.757600000000000e+10 1.632398776929820e-01 -7.026594083251647e-02
6.762400000000000e+10 1.637430589178780e-01 -7.049699703851978e-02
6.767200000000000e+10 1.642437938860910e-01 -7.072656315003792e-02
6.772000000000000e+10 1.647419826192069e-01 -7.095459434145047e-02
6.776800000000000e+10 1.652375290188800e-01 -7.118104750846967e-02
6.781600000000000e+10 1.657303407481168e-01 -7.140588116570654e-02
6.786400000000000e+10 1.662203291269066e-01 -7.162905544614429e-02
6.791200000000000e+10 1.667074091144739e-01 -7.185053209942181e-02
6.796000000000000e+10 1.671914991995885e-01 -7.207027449352693e-02
6.800800000000000e+10 1.676725214419305e-01 -7.228824767783786e-02
6.805600000000000e+10 1.681504014025483e-01 -7.250441839411825e-02
6.810400000000000e+10 1.686250681765379e-01 -7.271875513275101e-02
6.815200000000000e+10 1.690964543643365e-01 -7.293122813970340e-02
6.820000000000000e+10 1.695644960122623e-01 -7.314180936916696e-02
6.824800000000000e+10 1.700291325380252e-01 -7.335047246570912e-02
6.829600000000000e+10 1.704903066139324e-01 -7.355719270760927e-02
6.834400000000000e+10 1.709479641532748e-01 -7.376194696885152e-02
6.839200000000000e+10 1.714020542658007e-01 -7.396471366845746e-02
6.844000000000000e+10 1.718525292201985e-01 -7.416547282733298e-02
6.848800000000000e+10 1.722993444612748e-01 -7.436420606689378e-02
6.853600000000000e+10 1.727424584349351e-01 -7.456089656351107e-02
6.858400000000000e+10 1.731818326478481e-01 -7.475552893569896e-02
6.863200000000000e+10 1.736174316165146e-01 -7.494808920236645e-02
6.868000000000000e+10 1.740492229092448e-01 -7.513856478763629e-02
6.872800000000000e+10 1.744771771436926e-01 -7.532694451103390e-02
6.877600000000000e+10 1.749012679351739e-01 -7.551321857587552e-02
6.882400000000000e+10 1.753214718375748e-01 -7.569737858658482e-02
6.887200000000000e+10 1.757377681502507e-01 -7.587941753777865e-02
6.892000000000000e+10 1.761501387741320e-01 -7.605932977855213e-02
6.896800000000000e+10 1.765585680449486e-01 -7.623711090656050e-02
6.901600000000000e+10 1.769630426465380e-01 -7.641275779900610e-02
6.906400000000000e+10 1.773635516808980e-01 -7.658626855959358e-02
6.911200000000000e+10 1.777600867609495e-01 -7.675764260989348e-02
6.916000000000000e+10 1.781526420033707e-01 -7.692688062828049e-02
6.920800000000000e+10 1.785412140087602e-01 -7.709398458707908e-02
6.925600000000000e+10 1.789258017047759e-01 -7.725895764478362e-02
6.930400000000000e+10 1.793064061557958e-01 -7.742180404042420e-02
6.935200000000000e+10 1.796830303573936e-01 -7.758252908204143e-02
6.940000000000000e+10 1.800556790624539e-01 -7.774113899353650e-02
6.944800000000000e+10 1.804243587581081e-01 -7.789764091388231e-02
6.949600000000000e+10 1.807890775526908e-01 -7.805204275153620e-02
6.954400000000000e+10 1.811498451523302e-01 -7.820435321762818e-02
6.959200000000000e+10 1.815066728342978e-01 -7.835458170336715e-02
6.964000000000000e+10 1.818595734285130e-01 -7.850273823974784e-02
6.968800000000000e+10 1.822085612945343e-01 -7.864883342116230e-02
6.973600000000000e+10 1.825536523448081e-01 -7.879287844676891e-02
6.978400000000000e+10 1.828948640010046e-01 -7.893488508520279e-02
6.983200000000000e+10 1.832322151096382e-01 -7.907486566186057e-02
6.988000000000000e+10 1.835657258012275e-01 -7.921283299011914e-02
6.992800000000000e+10 1.838954173465376e-01 -7.934880027273010e-02
6.997600000000000e+10 1.842213120667393e-01 -7.948278106877743e-02
7.002400000000000e+10 1.845434331873203e-01 -7.961478925613805e-02
7.007200000000000e+10 1.848618048227884e-01 -7.974483899755784e-02
7.012000000000000e+10 1.851764522367467e-01 -7.987294494837878e-02
7.016800000000000e+10 1.854874018959632e-01 -7.999912227950755e-02
7.021600000000000e+10 1.857946815459529e-01 -8.012338676971950e-02
7.026400000000000e+10 1.860983202008111e-01 -8.024575477682554e-02
7.031200000000000e+10 1.863983480754524e-01 -8.036624315658064e-02
7.036000000000000e+10 1.866947964304972e-01 -8.048486918668199e-02
7.040800000000000e+10 1.869876973821870e-01 -8.060165053560805e-02
7.045600000000000e+10 1.872770837272774e-01 -8.071660515044210e-02
7.050400000000000e+10 1.875629889185811e-01 -8.082975116945311e-02
7.055200000000000e+10 1.878454469043065e-01 -8.094110689620543e-02
7.060000000000000e+10 1.881244921734422e-01 -8.105069079063243e-02
7.064800000000000e+10 1.884001596660999e-01 -8.115852144623173e-02
7.069600000000000e+10 1.886724848419627e-01 -8.126461761068880e-02
7.074400000000000e+10 1.889415037242204e-01 -8.136899810769903e-02
7.079200000000000e+10 1.892072529099763e-01 -8.147168195558924e-02
7.084000000000000e+10 1.894697696030957e-01 -8.157268826693993e-02
7.088800000000000e+10 1.897290914785087e-01 -8.167203629775212e-02
7.093600000000000e+10 1.899852566093041e-01 -8.176974531673900e-02
7.098400000000000e+10 1.902383032196217e-01 -8.186583467765911e-02
7.103200000000000e+10 1.904882697127741e-01 -8.196032371920439e-02
7.108000000000000e+10 1.907351945100181e-01 -8.205323176158147e-02
7.112800000000000e+10 1.909791160227286e-01 -8.214457809436959e-02
7.117600000000000e+10 1.912200726579684e-01 -8.223438197670167e-02
7.122400000000000e+10 1.914581029232039e-01 -8.232266268958148e-02
7.127200000000000e+10 1.916932453654199e-01 -8.240943947156891e-02
7.132000000000000e+10 1.919255386951833e-01 -8.249473157202750e-02
7.136800000000000e+10 1.921550217174612e-01 -8.257855819272300e-02
7.141600000000000e+10 1.923817331897273e-01 -8.266093851901650e-02
7.146400000000000e+10 1.926057117006624e-01 -8.274189156334667e-02
7.151200000000000e+10 1.928269955683083e-01 -8.282143617596631e-02
7.156000000000000e+10 1.930456227814902e-01 -8.289959095094326e-02
7.160800000000000e+10 1.932616310259837e-01 -8.297637422806600e-02
7.165600000000000e+10 1.934750577205335e-01 -8.305180409495480e-02
7.170400000000000e+10 1.936859400694471e-01 -8.312589839352180e-02
7.175200000000000e+10 1.938943152199993e-01 -8.319867474039983e-02
7.180000000000000e+10 1.941002202557387e-01 -8.327015054026279e-02
7.184800000000000e+10 1.943036921165574e-01 -8.334034300141598e-02
7.189600000000000e+10 1.945047675000928e-01 -8.340926915932258e-02
7.194400000000000e+10 1.947034829404723e-01 -8.347694590760046e-02
7.199200000000000e+10 1.948998748146647e-01 -8.354338999474885e-02
7.204000000000000e+10 1.950939791569353e-01 -8.360861800275499e-02
7.208800000000000e+10 1.952858316150707e-01 -8.367264639601071e-02
7.213600000000000e+10 1.954754674161167e-01 -8.373549148325259e-02
7.218400000000000e+10 1.956629215632770e-01 -8.379716950422447e-02
7.223200000000000e+10 1.958482289050457e-01 -8.385769656096206e-02
7.228000000000000e+10 1.960314241329897e-01 -8.391708858882058e-02
7.232800000000000e+10 1.962125417225196e-01 -8.397536142911108e-02
7.237600000000000e+10 1.963916157508891e-01 -8.403253073555707e-02
7.242400000000000e+10 1.965686797890747e-01 -8.408861195840463e-02
7.247200000000000e+10 1.967437667813026e-01 -8.414362035839432e-02
7.252000000000000e+10 1.969169089200579e-01 -8.419757100107957e-02
7.256800000000000e+10 1.970881374653374e-01 -8.425047872174247e-02
7.261600000000000e+10 1.972574827151115e-01 -8.430235808793780e-02
7.266400000000000e+10 1.974249739682706e-01 -8.435322343659128e-02
7.271200000000000e+10 1.975906396440929e-01 -8.440308884185506e-02
7.276000000000000e+10 1.977545072836924e-01 -8.445196821708462e-02
7.280800000000000e+10 1.979166036170896e-01 -8.449987529293940e-02
7.285600000000000e+10 1.980769545594031e-01 -8.454682362784596e-02
7.290400000000000e+10 1.982355852899902e-01 -8.459282663965711e-02
7.295200000000000e+10 1.983925201771007e-01 -8.463789763237406e-02
7.300000000000000e+10 1.985477828287792e-01 -8.468204975506605e-02
7.304800000000000e+10 1.987013960509194e-01 -8.472529603308714e-02
7.309600000000000e+10 1.988533819187883e-01 -8.476764929945081e-02
7.314400000000000e+10 1.990037617409699e-01 -8.480912219968731e-02
7.319200000000000e+10 1.991525561205968e-01 -8.484972715825645e-02
7.324000000000000e+10 1.992997849746152e-01 -8.488947643250030e-02
7.328800000000000e+10 1.994454675134827e-01 -8.492838206210987e-02
7.333600000000000e+10 1.995896222741190e-01 -8.496645588413422e-02
7.338400000000000e+10 1.997322670923962e-01 -8.500370953791962e-02
7.343200000000000e+10 1.998734191873099e-01 -8.504015440794530e-02
7.348000000000000e+10 2.000130952134627e-01 -8.507580165884690e-02
7.352800000000000e+10 2.001513113348254e-01 -8.511066221772695e-02
7.357600000000000e+10 2.002880831697526e-01 -8.514474674979347e-02
7.362400000000000e+10 2.004234257895039e-01 -8.517806566380880e-02
7.367200000000000e+10 2.005573536988121e-01 -8.521062911585864e-02
7.372000000000000e+10 2.006898807384450e-01 -8.524244701171077e-02
7.376800000000000e+10 2.008210200602443e-01 -8.527352902698751e-02
7.381600000000000e+10 2.009507841801557e-01 -8.530388468083747e-02
7.386400000000000e+10 2.010791849905864e-01 -8.533352333886073e-02
7.391200000000000e+10 2.012062338329258e-01 -8.536245424456318e-02
7.396000000000000e+10 2.013319416032538e-01 -8.539068661351844e-02
7.400800000000000e+10 2.014563188660940e-01 -8.541822963314658e-02
7.405600000000000e+10 2.015793759323365e-01 -8.544509248850590e-02
7.410400000000000e+10 2.017011228693536e-01 -8.547128440650828e-02
7.415200000000000e+10 2.018215694757637e-01 -8.549681471963722e-02
7.420000000000000e+10 2.019407252462854e-01 -8.552169284668303e-02
7.424800000000000e+10 2.020585993700781e-01 -8.554592825825420e-02
7.429600000000000e+10 2.021752007095625e-01 -8.556953043930726e-02
7.434400000000000e+10 2.022905377752992e-01 -8.559250887507475e-02
7.439200000000000e+10 2.024046187506663e-01 -8.561487300822883e-02
7.444000000000000e+10 2.025174515250749e-01 -8.563663225030962e-02
7.448800000000000e+10 2.026290437383936e-01 -8.565779597640943e-02
7.453600000000000e+10 2.027394028114466e-01 -8.567837353240147e-02
7.458400000000000e+10 2.028485360362250e-01 -8.569837417089853e-02
7.463200000000000e+10 2.029564505793905e-01 -8.571780705313276e-02
7.468000000000000e+10 2.030631535124595e-01 -8.573668124585888e-02
7.472800000000000e+10 2.031686517910135e-01 -8.575500571831399e-02
7.477600000000000e+10 2.032729522248829e-01 -8.577278928976556e-02
7.482400000000000e+10 2.033760614613326e-01 -8.579004063325676e-02
7.487200000000000e+10 2.034779859808485e-01 -8.580676825822819e-02
7.492000000000000e+10 2.035787321328662e-01 -8.582298052659118e-02
7.496800000000000e+10 2.036783061358129e-01 -8.583868563044095e-02
7.501600000000000e+10 2.037767141578089e-01 -8.585389160976786e-02
7.506400000000000e+10 2.038739623795784e-01 -8.586860635349963e-02
7.511200000000000e+10 2.039700570870296e-01 -8.588283759608334e-02
7.516000000000000e+10 2.040650046659088e-01 -8.589659296265474e-02
7.520800000000000e+10 2.041588116483964e-01 -8.590987999794922e-02
7.525600000000000e+10 2.042514846868037e-01 -8.592270616883772e-02
7.530400000000000e+10 2.043430305720323e-01 -8.593507888399035e-02
7.535200000000000e+10 2.044334562334968e-01 -8.594700548378981e-02
7.540000000000000e+10 2.045227687066073e-01 -8.595849326331757e-02
7.544800000000000e+10 2.046109751623482e-01 -8.596954946475585e-02
7.549600000000000e+10 2.046980828990286e-01 -8.598018123305766e-02
7.554400000000000e+10 2.047840993692314e-01 -8.599039562194742e-02
7.559200000000000e+10 2.048690322347525e-01 -8.600019960555878e-02
7.564000000000000e+10 2.049528893920559e-01 -8.600960005682007e-02
7.568800000000000e+10 2.050356789489626e-01 -8.601860372921293e-02
7.573600000000000e+10 2.051174092667182e-01 -8.602721728792345e-02
7.578400000000000e+10 2.051980889112029e-01 -8.603544729833625e-02
7.583200000000000e+10 2.052777266316229e-01 -8.604330019013715e-02
7.588000000000000e+10 2.053563313726847e-01 -8.605078226232346e-02
7.592800000000000e+10 2.054339122980902e-01 -8.605789968624787e-02
7.597600000000000e+10 2.055104787686483e-01 -8.606465846619513e-02
7.602400000000000e+10 2.055860403920216e-01 -8.607106445149000e-02
7.607200000000000e+10 2.056606070320604e-01 -8.607712338633848e-02
7.612000000000000e+10 2.057341888203260e-01 -8.608284090681997e-02
7.616800000000000e+10 2.058067961606439e-01 -8.608822253211160e-02
7.621600000000000e+10 2.058784397496258e-01 -8.609327369662269e-02
7.626400000000000e+10 2.059491305662605e-01 -8.609799975772311e-02
7.631200000000000e+10 2.060188798744823e-01 -8.610240603208807e-02
7.636000000000000e+10 2.060876992386294e-01 -8.610649784463237e-02
7.640800000000000e+10 2.061556005487915e-01 -8.611028053653805e-02
7.645600000000000e+10 2.062225960041995e-01 -8.611375943018840e-02
7.650400000000000e+10 2.062886980920531e-01 -8.611693987946968e-02
7.655200000000000e+10 2.063539195945218e-01 -8.611982725909413e-02
7.660000000000000e+10 2.064182735705168e-01 -8.612242694062881e-02
7.664800000000000e+10 2.064817733204104e-01 -8.612474431068452e-02
7.669600000000000e+10 2.065444324137112e-01 -8.612678476449812e-02
7.674400000000000e+10 2.066062646771904e-01 -8.612855368010237e-02
7.679200000000000e+10 2.066672841785489e-01 -8.613005645166405e-02
7.684000000000000e+10 2.067275052330344e-01 -8.613129851677959e-02
7.688800000000000e+10 2.067869423774158e-01 -8.613228539927462e-02
7.693600000000000e+10 2.068456103009887e-01 -8.613302269767502e-02
7.698400000000000e+10 2.069035239092993e-01 -8.613351603646244e-02
7.703200000000000e+10 2.069606982558009e-01 -8.613377108914379e-02
7.708000000000000e+10 2.070171485449703e-01 -8.613379356305957e-02
7.712800000000000e+10 2.070728901057308e-01 -8.613358913364266e-02
7.717600000000000e+10 2.071279383713000e-01 -8.613316343694889e-02
7.722400000000000e+10 2.071823088293224e-01 -8.613252204363833e-02
7.727200000000000e+10 2.072360170037710e-01 -8.613167046546534e-02
7.732000000000000e+10 2.072890783966289e-01 -8.613061413912550e-02
7.736800000000000e+10 2.073415085385059e-01 -8.612935845871017e-02
7.741600000000000e+10 2.073933230016037e-01 -8.612790870132796e-02
7.746400000000000e+10 2.074445374041105e-01 -8.612627015161350e-02
7.751200000000000e+10 2.074951674113828e-01 -8.612444806842348e-02
7.756000000000000e+10 2.075452287324170e-01 -8.612244769535592e-02
7.760800000000000e+10 2.075947371468047e-01 -8.612027426589337e-02
7.765600000000000e+10 2.076437084754867e-01 -8.611793298964464e-02
7.770400000000000e+10 2.076921586074149e-01 -8.611542901108744e-02
7.775200000000000e+10 2.077401034381070e-01 -8.611276738875398e-02
7.780000000000000e+10 2.077875589247868e-01 -8.610995308075699e-02
7.784800000000000e+10 2.078345410887613e-01 -8.610699099086287e-02
7.789600000000000e+10 2.078810659592186e-01 -8.610388595796899e-02
7.794400000000000e+10 2.079271495921447e-01 -8.610064274652977e-02
7.799200000000000e+10 2.079728080639775e-01 -8.609726601382667e-02
7.804000000000000e+10 2.080180575276296e-01 -8.609376031502124e-02
7.808800000000000e+10 2.080629142365438e-01 -8.609013012326266e-02
7.813600000000000e+10 2.081073945628022e-01 -8.608637984481467e-02
7.818400000000000e+10 2.081515149620858e-01 -8.608251385028982e-02
7.823200000000000e+10 2.081952919709363e-01 -8.607853642486722e-02
7.828000000000000e+10 2.082387421800994e-01 -8.607445175624981e-02
7.832800000000000e+10 2.082818821854013e-01 -8.607026393024489e-02
7.837600000000000e+10 2.083247285521388e-01 -8.606597699524889e-02
7.842400000000000e+10 2.083672978093951e-01 -8.606159492875134e-02
7.847200000000000e+10 2.084096063939147e-01 -8.605712164140383e-02
7.852000000000000e+10 2.084516705751834e-01 -8.605256096926045e-02
7.856800000000000e+10 2.084935064585904e-01 -8.604791665322098e-02
7.861600000000000e+10 2.085351299756620e-01 -8.604319235312316e-02
7.866400000000000e+10 2.085765569006299e-01 -8.603839163426266e-02
7.871200000000000e+10 2.086178028440627e-01 -8.603351793819190e-02
7.876000000000000e+10 2.086588832665467e-01 -8.602857458703189e-02
7.880800000000000e+10 2.086998134883944e-01 -8.602356476028100e-02
7.885600000000000e+10 2.087406087581928e-01 -8.601849148450078e-02
7.890400000000000e+10 2.087812842452363e-01 -8.601335765795448e-02
7.895200000000000e+10 2.088218550282651e-01 -8.600816604106643e-02
7.900000000000000e+10 2.088623360603756e-01 -8.600291923348309e-02
7.904800000000000e+10 2.089027421378003e-01 -8.599761968112131e-02
7.909600000000000e+10 2.089430878198134e-01 -8.599226967827954e-02
7.914400000000000e+10 2.089833873741374e-01 -8.598687137400700e-02
7.919200000000000e+10 2.090236547678853e-01 -8.598142678146563e-02
7.924000000000000e+10 2.090639036218103e-01 -8.597593776121273e-02
7.928800000000000e+10 2.091041472079914e-01 -8.597040598225979e-02
7.933600000000000e+10 2.091443985162423e-01 -8.596483292300906e-02
7.938400000000000e+10 2.091846703113095e-01 -8.595921989967760e-02
7.943200000000000e+10 2.092249752151469e-01 -8.595356810289867e-02
7.948000000000000e+10 2.092653257529075e-01 -8.594787859637777e-02
7.952800000000000e+10 2.093057343641032e-01 -8.594215230242216e-02
7.957600000000000e+10 2.093462134170755e-01 -8.593638999765053e-02
7.962400000000000e+10 2.093867751763762e-01 -8.593059234541345e-02
7.967200000000000e+10 2.094274317015961e-01 -8.592475987015040e-02
7.972000000000000e+10 2.094681947526314e-01 -8.591889301398498e-02
7.976800000000000e+10 2.095090756681432e-01 -8.591299212242708e-02
7.981600000000000e+10 2.095500853058813e-01 -8.590705747838924e-02
7.986400000000000e+10 2.095912340066974e-01 -8.590108926192795e-02
7.991200000000000e+10 2.096325315864953e-01 -8.589508747458988e-02
7.996000000000000e+10 2.096739874599044e-01 -8.588905199595652e-02
8.000800000000000e+10 2.097156107142976e-01 -8.588298264326656e-02
8.005600000000000e+10 2.097574102062207e-01 -8.587687917901582e-02
8.010400000000000e+10 2.097993946340062e-01 -8.587074135332926e-02
8.015200000000000e+10 2.098415725891308e-01 -8.586456892529801e-02
8.020000000000000e+10 2.098839525801406e-01 -8.585836167436539e-02
8.024800000000000e+10 2.099265430751468e-01 -8.585211938938828e-02
8.029600000000000e+10 2.099693524327092e-01 -8.584584188521487e-02
8.034400000000000e+10 2.100123888445446e-01 -8.583952900484869e-02
8.039200000000000e+10 2.100556602927583e-01 -8.583318061056784e-02
8.044000000000000e+10 2.100991744695991e-01 -8.582679661689627e-02
8.048800000000000e+10 2.101429387939953e-01 -8.582037702215282e-02
8.053600000000000e+10 2.101869604244607e-01 -8.581392196529260e-02
8.058400000000000e+10 2.102312462996160e-01 -8.580743175376854e-02
8.063200000000000e+10 2.102758031566057e-01 -8.580090687428869e-02
8.068000000000000e+10 2.103206376497341e-01 -8.579434803180774e-02
8.072800000000000e+10 2.103657563825523e-01 -8.578775614564324e-02
8.077600000000000e+10 2.104111659598163e-01 -8.578113230948105e-02
8.082400000000000e+10 2.104568729626702e-01 -8.577447778722855e-02
8.087200000000000e+10 2.105028838515711e-01 -8.576779400537977e-02
8.092000000000000e+10 2.105492048378532e-01 -8.576108252353701e-02
8.096800000000000e+10 2.105958418207410e-01 -8.575434501185225e-02
8.101600000000000e+10 2.106428002645828e-01 -8.574758320336789e-02
8.106400000000000e+10 2.106900851442356e-01 -8.574079887910187e-02
8.111200000000000e+10 2.107377008855091e-01 -8.573399382757980e-02
8.116000000000000e+10 2.107856514654891e-01 -8.572716987561226e-02
8.120800000000000e+10 2.108339405436208e-01 -8.572032889143119e-02
8.125600000000000e+10 2.108825715403860e-01 -8.571347285947241e-02
8.130400000000000e+10 2.109315476921861e-01 -8.570660393826167e-02
8.135200000000000e+10 2.109808720987296e-01 -8.569972439469885e-02
8.140000000000000e+10 2.110305477057066e-01 -8.569283657806331e-02
8.144800000000000e+10 2.110805772603113e-01 -8.568594292500285e-02
8.149600000000000e+10 2.111309632224509e-01 -8.567904602385226e-02
8.154400000000000e+10 2.111817076069813e-01 -8.567214856478200e-02
8.159200000000000e+10 2.112328118238084e-01 -8.566525328136737e-02
8.164000000000000e+10 2.112842766973574e-01 -8.565836288659116e-02
8.168800000000000e+10 2.113361025048564e-01 -8.565148008711657e-02
8.173600000000000e+10 2.113882889483857e-01 -8.564460747598750e-02
8.178400000000000e+10 2.114408352235148e-01 -8.563774750345425e-02
8.183200000000000e+10 2.114937401519703e-01 -8.563090258785087e-02
8.188000000000000e+10 2.115470023080037e-01 -8.562407512801301e-02
8.192800000000000e+10 2.116006201062497e-01 -8.561726754303201e-02
8.197600000000000e+10 2.116545918373491e-01 -8.561048221755228e-02
8.202400000000000e+10 2.117089156748111e-01 -8.560372154812608e-02
8.207200000000000e+10 2.117635896165004e-01 -8.559698793705640e-02
8.212000000000000e+10 2.118186114339899e-01 -8.559028378033465e-02
8.216800000000000e+10 2.118739785741501e-01 -8.558361151393745e-02
8.221600000000000e+10 2.119296881393940e-01 -8.557697361597794e-02
8.226400000000000e+10 2.119857368886764e-01 -8.557037258036164e-02
8.231200000000000e+10 2.120421212756095e-01 -8.556381087525471e-02
8.236000000000000e+10 2.120988375039065e-01 -8.555729096874727e-02
8.240800000000000e+10 2.121558816097196e-01 -8.555081537389306e-02
8.245600000000000e+10 2.122132495861267e-01 -8.554438666208170e-02
8.250400000000000e+10 2.122709374279969e-01 -8.553800750658834e-02
8.255200000000000e+10 2.123289412337649e-01 -8.553168066365884e-02
8.260000000000000e+10 2.123872571721627e-01 -8.552540896789725e-02
8.264800000000000e+10 2.124458814648613e-01 -8.551919531689833e-02
8.269600000000000e+10 2.125048102269614e-01 -8.551304265028230e-02
8.274400000000000e+10 2.125640394091994e-01 -8.550695388473201e-02
8.279200000000000e+10 2.126235647192262e-01 -8.550093188020184e-02
8.284000000000000e+10 2.126833815522370e-01 -8.549497941537004e-02
8.288800000000000e+10 2.127434849773555e-01 -8.548909916171718e-02
8.293600000000000e+10 2.128038697708940e-01 -8.548329360798980e-02
8.298400000000000e+10 2.128645304924554e-01 -8.547756506791793e-02
8.303200000000000e+10 2.129254615815504e-01 -8.547191567438886e-02
8.308000000000000e+10 2.129866574248614e-01 -8.546634742082568e-02
8.312800000000000e+10 2.130481124384075e-01 -8.546086219492000e-02
8.317600000000000e+10 2.131098211180331e-01 -8.545546179350344e-02
8.322400000000000e+10 2.131717780590168e-01 -8.545014795721580e-02
8.327200000000000e+10 2.132339778964294e-01 -8.544492243764808e-02
8.332000000000000e+10 2.132964152918420e-01 -8.543978702845745e-02
8.336800000000000e+10 2.133590848586648e-01 -8.543474355253894e-02
8.341600000000000e+10 2.134219810429736e-01 -8.542979383739639e-02
8.346400000000000e+10 2.134850981928796e-01 -8.542493967911897e-02
8.351200000000000e+10 2.135484306302884e-01 -8.542018281792924e-02
8.356000000000000e+10 2.136119726718675e-01 -8.541552499720530e-02
8.360800000000000e+10 2.136757186524953e-01 -8.541096793782618e-02
8.365600000000000e+10 2.137396630212811e-01 -8.540651333262482e-02
8.370400000000000e+10 2.138038004306470e-01 -8.540216282285147e-02
8.375200000000000e+10 2.138681258450264e-01 -8.539791799943211e-02
8.380000000000000e+10 2.139326345567187e-01 -8.539378041539207e-02
8.384800000000000e+10 2.139973221801947e-01 -8.538975159979861e-02
8.389600000000000e+10 2.140621846287824e-01 -8.538583309624118e-02
8.394400000000000e+10 2.141272180316524e-01 -8.538202648696175e-02
8.399200000000000e+10 2.141924186362777e-01 -8.537833338496326e-02
8.404000000000000e+10 2.142577827501452e-01 -8.537475543318282e-02
8.408800000000000e+10 2.143233067072095e-01 -8.537129426674943e-02
8.413600000000000e+10 2.143889868493125e-01 -8.536795147271019e-02
8.418400000000000e+10 2.144548195114034e-01 -8.536472857411659e-02
8.423200000000000e+10 2.145208010345462e-01 -8.536162702557724e-02
8.428000000000000e+10 2.145869278170384e-01 -8.535864817519054e-02
8.432800000000000e+10 2.146531963631966e-01 -8.535579329157063e-02
8.437600000000000e+10 2.147196033169283e-01 -8.535306353779389e-02
8.442400000000000e+10 2.147861454964576e-01 -8.535045998901594e-02
8.447200000000000e+10 2.148528199053052e-01 -8.534798369854762e-02
8.452000000000000e+10 2.149196237222579e-01 -8.534563567227148e-02
8.456800000000000e+10 2.149865541780933e-01 -8.534341694992832e-02
8.461600000000000e+10 2.150536085128304e-01 -8.534132860908977e-02
8.466400000000000e+10 2.151207839680859e-01 -8.533937174509688e-02
8.471200000000000e+10 2.151880777173590e-01 -8.533754745448274e-02
8.476000000000000e+10 2.152554868532124e-01 -8.533585685431683e-02
8.480800000000000e+10 2.153230084696340e-01 -8.533430105737699e-02
8.485600000000000e+10 2.153906396569726e-01 -8.533288114509296e-02
8.490400000000000e+10 2.154583775865895e-01 -8.533159816830127e-02
8.495200000000000e+10 2.155262196053004e-01 -8.533045315583390e-02
8.500000000000000e+10 2.155941633206518e-01 -8.532944715387007e-02
8.504800000000000e+10 2.156622066628900e-01 -8.532858122011479e-02
8.509600000000000e+10 2.157303479231602e-01 -8.532785640991165e-02
8.514400000000000e+10 2.157985857080646e-01 -8.532727380393974e-02
8.519200000000000e+10 2.158669188658399e-01 -8.532683443750484e-02
8.524000000000000e+10 2.159353463310947e-01 -8.532653929919702e-02
8.528800000000000e+10 2.160038671656807e-01 -8.532638928391427e-02
8.533600000000000e+10 2.160724804863294e-01 -8.532638521417690e-02
8.538400000000000e+10 2.161411854512434e-01 -8.532652773629386e-02
8.543200000000000e+10 2.162099812476534e-01 -8.532681731111250e-02
8.548000000000000e+10 2.162788670539166e-01 -8.532725432395419e-02
8.552800000000000e+10 2.163478420607283e-01 -8.532783909812873e-02
8.557600000000000e+10 2.164169055773988e-01 -8.532857191235696e-02
8.562400000000000e+10 2.164860570187940e-01 -8.532945305035686e-02
8.567200000000000e+10 2.165552960042475e-01 -8.533048281296657e-02
8.572000000000000e+10 2.166246223963396e-01 -8.533166150954061e-02
8.576800000000000e+10 2.166940363073187e-01 -8.533298947309004e-02
8.581600000000000e+10 2.167635380188992e-01 -8.533446707114978e-02
8.586400000000000e+10 2.168331279070246e-01 -8.533609473380756e-02
8.591200000000000e+10 2.169028062957154e-01 -8.533787293586308e-02
8.596000000000000e+10 2.169725734375328e-01 -8.533980215738246e-02
8.600800000000000e+10 2.170424293911709e-01 -8.534188288592115e-02
8.605600000000000e+10 2.171123739932820e-01 -8.534411556810774e-02
8.610400000000000e+10 2.171824067957108e-01 -8.534650059530592e-02
8.615200000000000e+10 2.172525270547755e-01 -8.534903828859519e-02
8.620000000000000e+10 2.173227337572665e-01 -8.535172888895093e-02
8.624800000000000e+10 2.173930256840661e-01 -8.535457258602064e-02
8.629600000000000e+10 2.174634014271769e-01 -8.535756956260351e-02
8.634400000000000e+10 2.175338595050600e-01 -8.536071996783094e-02
8.639200000000000e+10 2.176043984755241e-01 -8.536402386360005e-02
8.644000000000000e+10 2.176750167865967e-01 -8.536748114776634e-02
8.648800000000000e+10 2.177457129639137e-01 -8.537109162786888e-02
8.653600000000000e+10 2.178164853900567e-01 -8.537485512542413e-02
8.658400000000000e+10 2.178873323607806e-01 -8.537877138585896e-02
8.663200000000000e+10 2.179582519926316e-01 -8.538284010838107e-02
8.668000000000000e+10 2.180292421945233e-01 -8.538706084801799e-02
8.672800000000000e+10 2.181003006451799e-01 -8.539143309015253e-02
8.677600000000000e+10 2.181714248777777e-01 -8.539595626440845e-02
8.682400000000000e+10 2.182426122854908e-01 -8.540062967026606e-02
8.687200000000000e+10 2.183138600678648e-01 -8.540545242762283e-02
8.692000000000000e+10 2.183851653441979e-01 -8.541042350129427e-02
8.696800000000000e+10 2.184565251986622e-01 -8.541554171576420e-02
8.701600000000000e+10 2.185279368136959e-01 -8.542080577498326e-02
8.706400000000000e+10 2.185993975800485e-01 -8.542621436186391e-02
8.711200000000000e+10 2.186709051853268e-01 -8.543176610227642e-02
8.716000000000000e+10 2.187424575797388e-01 -8.543745961274876e-02
8.720800000000000e+10 2.188140529323237e-01 -8.544329339791837e-02
8.725600000000000e+10 2.188856894377340e-01 -8.544926592490550e-02
8.730400000000000e+10 2.189573652008540e-01 -8.545537552317503e-02
8.735200000000000e+10 2.190290781621664e-01 -8.546162038250282e-02
8.740000000000000e+10 2.191008259602854e-01 -8.546799853736048e-02
8.744800000000000e+10 2.191726059035149e-01 -8.547450793388482e-02
8.749600000000000e+10 2.192444150168343e-01 -8.548114644654049e-02
8.754400000000000e+10 2.193162500395506e-01 -8.548791187355433e-02
8.759200000000000e+10 2.193881074749332e-01 -8.549480189967125e-02
8.764000000000000e+10 2.194599835999522e-01 -8.550181407186923e-02
8.768800000000000e+10 2.195318745153033e-01 -8.550894585081369e-02
8.773600000000000e+10 2.196037761833538e-01 -8.551619459336396e-02
8.778400000000000e+10 2.196756844497101e-01 -8.552355761589808e-02
8.783200000000000e+10 2.197475950209341e-01 -8.553103213821138e-02
8.788000000000000e+10 2.198195033770794e-01 -8.553861529194440e-02
8.792800000000000e+10 2.198914046822021e-01 -8.554630412182138e-02
8.797600000000000e+10 2.199632937493460e-01 -8.555409558038778e-02
8.802400000000000e+10 2.200351649710109e-01 -8.556198651299077e-02
8.807200000000000e+10 2.201070122779971e-01 -8.556997365452634e-02
8.812000000000000e+10 2.201788292013106e-01 -8.557805356130431e-02
8.816800000000000e+10 2.202506089264787e-01 -8.558622265464949e-02
8.821600000000000e+10 2.203223443439195e-01 -8.559447711350045e-02
8.826400000000000e+10 2.203940280896750e-01 -8.560281303710962e-02
8.831200000000000e+10 2.204656526935030e-01 -8.561122646460018e-02
8.836000000000000e+10 2.205372106481928e-01 -8.561971333914474e-02
8.840800000000000e+10 2.206086944835977e-01 -8.562826947256676e-02
8.845600000000000e+10 2.206800967616800e-01 -8.563689063032624e-02
8.850400000000000e+10 2.207514100331296e-01 -8.564557250863034e-02
8.855200000000000e+10 2.208226268110569e-01 -8.565431075729617e-02
8.860000000000000e+10 2.208937395229849e-01 -8.566310091924670e-02
8.864800000000000e+10 2.209647404910252e-01 -8.567193845557552e-02
8.869600000000000e+10 2.210356216736288e-01 -8.568081860498493e-02
8.874400000000000e+10 2.211063744707470e-01 -8.568973588433708e-02
8.879200000000000e+10 2.211769899922116e-01 -8.569868452093116e-02
8.884000000000000e+10 2.212474591256590e-01 -8.570765864675049e-02
8.888800000000000e+10 2.213177726115449e-01 -8.571665234190726e-02
8.893600000000000e+10 2.213879211595906e-01 -8.572565956249795e-02
8.898400000000000e+10 2.214578952850537e-01 -8.573467381461625e-02
8.903200000000000e+10 2.215276855629198e-01 -8.574368840226396e-02
8.908000000000000e+10 2.215972826762439e-01 -8.575269660089899e-02
8.912800000000000e+10 2.216666774243787e-01 -8.576169170238185e-02
8.917600000000000e+10 2.217358607321553e-01 -8.577066701819580e-02
8.922400000000000e+10 2.218048235816689e-01 -8.577961592225464e-02
8.927200000000000e+10 2.218735569451982e-01 -8.578853184334741e-02
8.932000000000000e+10 2.219420517852472e-01 -8.579740820707940e-02
8.936800000000000e+10 2.220102989794681e-01 -8.580623839451765e-02
8.941600000000000e+10 2.220782893171740e-01 -8.581501573752691e-02
8.946400000000000e+10 2.221460135377050e-01 -8.582373352845887e-02
8.951200000000000e+10 2.222134624545685e-01 -8.583238501900491e-02
8.956000000000000e+10 2.222806269364410e-01 -8.584096346519224e-02
8.960800000000000e+10 2.223474980021292e-01 -8.584946213660040e-02
8.965600000000000e+10 2.224140669244393e-01 -8.585787435741661e-02
8.970400000000000e+10 2.224803252518059e-01 -8.586619352711865e-02
8.975200000000000e+10 2.225462648863274e-01 -8.587441318232586e-02
8.980000000000000e+10 2.226118780318203e-01 -8.588252697792144e-02
8.984800000000000e+10 2.226771571886808e-01 -8.589052873887290e-02
8.989600000000000e+10 2.227420951311165e-01 -8.589841245335643e-02
8.994400000000000e+10 2.228066848708053e-01 -8.590617225926253e-02
8.999200000000000e+10 2.228709197126456e-01 -8.591380252813124e-02
9.004000000000000e+10 2.229347931403285e-01 -8.592129779659452e-02
9.008800000000000e+10 2.229982988448434e-01 -8.592865268981359e-02
9.013600000000000e+10 2.230614307265368e-01 -8.593586186735587e-02
9.018400000000000e+10 2.231241830648515e-01 -8.594292004323960e-02
9.023200000000000e+10 2.231865506770251e-01 -8.594982202524604e-02
9.028000000000000e+10 2.232485289487407e-01 -8.595656273767666e-02
9.032800000000000e+10 2.233101138669849e-01 -8.596313723838987e-02
9.037600000000000e+10 2.233713020344247e-01 -8.596954079505006e-02
9.042400000000000e+10 2.234320906512271e-01 -8.597576889219069e-02
9.047200000000000e+10 2.234924774902107e-01 -8.598181728001453e-02
9.052000000000000e+10 2.235524608854036e-01 -8.598768195402547e-02
9.056800000000000e+10 2.236120396877358e-01 -8.599335916452854e-02
9.061600000000000e+10 2.236712131733130e-01 -8.599884540073729e-02
9.066400000000000e+10 2.237299809233809e-01 -8.600413733093244e-02
9.071200000000000e+10 2.237883428748070e-01 -8.600923184519968e-02
9.076000000000000e+10 2.238462992548200e-01 -8.601412599022193e-02
9.080800000000000e+10 2.239038505997585e-01 -8.601881693704760e-02
9.085600000000000e+10 2.239609978273544e-01 -8.602330197183389e-02
9.090400000000000e+10 2.240177422788034e-01 -8.602757848030816e-02
9.095200000000000e+10 2.240740857422316e-01 -8.603164399158419e-02
9.100000000000000e+10 2.241300304804968e-01 -8.603549625975974e-02
9.104800000000000e+10 2.241855792306430e-01 -8.603913325928080e-02
9.109600000000000e+10 2.242407351762277e-01 -8.604255324786558e-02
9.114400000000000e+10 2.242955018984236e-01 -8.604575476311498e-02
9.119200000000000e+10 2.243498832872489e-01 -8.604873661432802e-02
9.124000000000000e+10 2.244038834498988e-01 -8.605149789727040e-02
9.128800000000000e+10 2.244575067212261e-01 -8.605403793740576e-02
9.133600000000000e+10 2.245107575384770e-01 -8.605635627615470e-02
9.138400000000000e+10 2.245636404889397e-01 -8.605845262429755e-02
9.143200000000000e+10 2.246161602713837e-01 -8.606032686066653e-02
9.148000000000000e+10 2.246683217939521e-01 -8.606197901911063e-02
9.152800000000000e+10 2.247201302435893e-01 -8.606340925716445e-02
9.157600000000000e+10 2.247715911526549e-01 -8.606461788104887e-02
9.162400000000000e+10 2.248227105087547e-01 -8.606560541287596e-02
9.167200000000000e+10 2.248734948169160e-01 -8.606637260137068e-02
9.172000000000000e+10 2.249239511400802e-01 -8.606692045528824e-02
9.176800000000000e+10 2.249740870555536e-01 -8.606725029290438e-02
9.181600000000000e+10 2.250239105607856e-01 -8.606736379140827e-02
9.186400000000000e+10 2.250734299517121e-01 -8.606726302170484e-02
9.191200000000000e+10 2.251226537505488e-01 -8.606695044839553e-02
9.196000000000000e+10 2.251715905805313e-01 -8.606642893360249e-02
9.200800000000000e+10 2.252202491234951e-01 -8.606570172305818e-02
9.205600000000000e+10 2.252686380750658e-01 -8.606477242365521e-02
9.210400000000000e+10 2.253167661504510e-01 -8.606364498654380e-02
9.215200000000000e+10 2.253646420632780e-01 -8.606232370483222e-02
9.220000000000000e+10 2.254122746302883e-01 -8.606081319254466e-02
9.224800000000000e+10 2.254596728353708e-01 -8.605911838298165e-02
9.229600000000000e+10 2.255068459187096e-01 -8.605724456336984e-02
9.234400000000000e+10 2.255538033759523e-01 -8.605519740801998e-02
9.239200000000000e+10 2.256005549939261e-01 -8.605298297640260e-02
9.244000000000000e+10 2.256471108115372e-01 -8.605060774463898e-02
9.248800000000000e+10 2.256934810993823e-01 -8.604807856573446e-02
9.253600000000000e+10 2.257396762276711e-01 -8.604540266043510e-02
9.258400000000000e+10 2.257857064857755e-01 -8.604258758370184e-02
9.263200000000000e+10 2.258315819950950e-01 -8.603964117285873e-02
9.268000000000000e+10 2.258773126107797e-01 -8.603657151819132e-02
9.272800000000000e+10 2.259229078705899e-01 -8.603338692835769e-02
9.277600000000000e+10 2.259683769436635e-01 -8.603009589892342e-02
9.282400000000000e+10 2.260137286835708e-01 -8.602670706956642e-02
9.287200000000000e+10 2.260589717186739e-01 -8.602322917481807e-02
9.292000000000000e+10 2.261041145214041e-01 -8.601967105355166e-02
9.296800000000000e+10 2.261491654563411e-01 -8.601604165007729e-02
9.301600000000000e+10 2.261941328391276e-01 -8.601235003335539e-02
9.306400000000000e+10 2.262390249508469e-01 -8.600860541354956e-02
9.311200000000000e+10 2.262838500190180e-01 -8.600481712460399e-02
9.316000000000000e+10 2.263286162541729e-01 -8.600099455180110e-02
9.320800000000000e+10 2.263733316802343e-01 -8.599714712459659e-02
9.325600000000000e+10 2.264180041216890e-01 -8.599328429162535e-02
9.330400000000000e+10 2.264626410626514e-01 -8.598941545544794e-02
9.335200000000000e+10 2.265072496030027e-01 -8.598554994362466e-02
9.340000000000000e+10 2.265518363923617e-01 -8.598169698903652e-02
9.344800000000000e+10 2.265964076436239e-01 -8.597786570531266e-02
9.349600000000000e+10 2.266409691380222e-01 -8.597406506506503e-02
9.354400000000000e+10 2.266855263226311e-01 -8.597030381616955e-02
9.359200000000000e+10 2.267300843447755e-01 -8.596659051305691e-02
9.364000000000000e+10 2.267746482226108e-01 -8.596293347739237e-02
9.368800000000000e+10 2.268192229388338e-01 -8.595934080626659e-02
9.373600000000000e+10 2.268638135006090e-01 -8.595582039197498e-02
9.378400000000000e+10 2.269084249989110e-01 -8.595237994449108e-02
9.383200000000000e+10 2.269530626133046e-01 -8.594902700797366e-02
9.388000000000000e+10 2.269977315292076e-01 -8.594576898752783e-02
9.392800000000000e+10 2.270424368949099e-01 -8.594261311560215e-02
9.397600000000000e+10 2.270871837501071e-01 -8.593956641613397e-02
9.402400000000000e+10 2.271319769705163e-01 -8.593663565061803e-02
9.407200000000000e+10 2.271768211686503e-01 -8.593382731491982e-02
9.412000000000000e+10 2.272217206776144e-01 -8.593114763647408e-02
9.416800000000000e+10 2.272666795781576e-01 -8.592860253699941e-02
9.421600000000000e+10 2.273117017408282e-01 -8.592619764454471e-02
9.426400000000000e+10 2.273567908309594e-01 -8.592393829203029e-02
9.431200000000000e+10 2.274019503397244e-01 -8.592182956617107e-02
9.436000000000000e+10 2.274471836666384e-01 -8.591987632133991e-02
9.440800000000000e+10 2.274924941348843e-01 -8.591808322980161e-02
9.445600000000000e+10 2.275378850539830e-01 -8.591645478123913e-02
9.450400000000000e+10 2.275833597432247e-01 -8.591499532552517e-02
9.455200000000000e+10 2.276289214799920e-01 -8.591370904321761e-02
9.460000000000000e+10 2.276745734218052e-01 -8.591259998245729e-02
9.464800000000000e+10 2.277203184610393e-01 -8.591167200672557e-02
9.469600000000000e+10 2.277661591720190e-01 -8.591092877766039e-02
9.474400000000000e+10 2.278120977013902e-01 -8.591037372847389e-02
9.479200000000000e+10 2.278581357280453e-01 -8.591001002182366e-02
9.484000000000000e+10 2.279042744178050e-01 -8.590984050832080e-02
9.488800000000000e+10 2.279505144357792e-01 -8.590986774513686e-02
9.493600000000000e+10 2.279968559902965e-01 -8.591009394011523e-02
9.498400000000000e+10 2.280432988790758e-01 -8.591052092767902e-02
9.503200000000000e+10 2.280898424972103e-01 -8.591115015323009e-02
9.508000000000000e+10 2.281364858985609e-01 -8.591198264958645e-02
9.512800000000000e+10 2.281832278064480e-01 -8.591301899344066e-02
9.517600000000000e+10 2.282300667099946e-01 -8.591425947583914e-02
9.522400000000000e+10 2.282770008652473e-01 -8.591570412776361e-02
9.527200000000000e+10 2.283240282210138e-01 -8.591735276354937e-02
9.532000000000000e+10 2.283711464195927e-01 -8.591920500474697e-02
9.536800000000000e+10 2.284183527678703e-01 -8.592126029145909e-02
9.541600000000000e+10 2.284656441746214e-01 -8.592351787904247e-02
9.546400000000000e+10 2.285130171106498e-01 -8.592597683562241e-02
9.551200000000000e+10 2.285604676179703e-01 -8.592863602951196e-02
9.556000000000000e+10 2.286079912989328e-01 -8.593149411018082e-02
9.560800000000000e+10 2.286555833013252e-01 -8.593454951358054e-02
9.565600000000000e+10 2.287032383651264e-01 -8.593780044963549e-02
9.570400000000000e+10 2.287509508780775e-01 -8.594124492781179e-02
9.575200000000000e+10 2.287987149196545e-01 -8.594488079686791e-02
9.580000000000000e+10 2.288465243869187e-01 -8.594870571535769e-02
9.584800000000000e+10 2.288943730651825e-01 -8.595271715895396e-02
9.589600000000000e+10 2.289422546903440e-01 -8.595691244240286e-02
9.594400000000000e+10 2.289901628990437e-01 -8.596128876860633e-02
9.599200000000000e+10 2.290380913064322e-01 -8.596584320543164e-02
9.604000000000000e+10 2.290860334648450e-01 -8.597057269386418e-02
9.608800000000000e+10 2.291339828467905e-01 -8.597547403905430e-02
9.613600000000000e+10 2.291819328498782e-01 -8.598054386975032e-02
9.618400000000000e+10 2.292298767284162e-01 -8.598577864493608e-02
9.623200000000000e+10 2.292778076398654e-01 -8.599117459557915e-02
9.628000000000000e+10 2.293257186051382e-01 -8.599672768657575e-02
9.632800000000000e+10 2.293736025164768e-01 -8.600243364578804e-02
9.637600000000000e+10 2.294214521638060e-01 -8.600828794372141e-02
9.642400000000000e+10 2.294692602953746e-01 -8.601428584318793e-02
9.647200000000000e+10 2.295170196567675e-01 -8.602042240749866e-02
9.652000000000000e+10 2.295647230617623e-01 -8.602669255475669e-02
9.656800000000000e+10 2.296123634153399e-01 -8.603309108059128e-02
9.661600000000000e+10 2.296599337477762e-01 -8.603961272434463e-02
9.666400000000000e+10 2.297074271625736e-01 -8.604625210481640e-02
9.671200000000000e+10 2.297548369851625e-01 -8.605300380182532e-02
9.676000000000000e+10 2.298021565717363e-01 -8.605986236621506e-02
9.680800000000000e+10 2.298493792596381e-01 -8.606682233384964e-02
9.685600000000000e+10 2.298964983081863e-01 -8.607387823673088e-02
9.690400000000000e+10 2.299435068693241e-01 -8.608102458878661e-02
9.695200000000000e+10 2.299903979829390e-01 -8.608825582017027e-02
9.700000000000000e+10 2.300371645530670e-01 -8.609556628140111e-02
9.704800000000000e+10 2.300837994056449e-01 -8.610295021520578e-02
9.709600000000000e+10 2.301302953509398e-01 -8.611040176927931e-02
9.714400000000000e+10 2.301766452125674e-01 -8.611791501927528e-02
9.719200000000000e+10 2.302228418723008e-01 -8.612548392478707e-02
9.724000000000000e+10 2.302688783238329e-01 -8.613310235911277e-02
9.728800000000000e+10 2.303147477421072e-01 -8.614076406355153e-02
9.733600000000000e+10 2.303604435702845e-01 -8.614846269366250e-02
9.738400000000000e+10 2.304059594424387e-01 -8.615619181460653e-02
9.743200000000000e+10 2.304512892458966e-01 -8.616394487457345e-02
9.748000000000000e+10 2.304964270884994e-01 -8.617171521446040e-02
9.752800000000000e+10 2.305413672938217e-01 -8.617949605640261e-02
9.757600000000000e+10 2.305861043616100e-01 -8.618728050075830e-02
9.762400000000000e+10 2.306306329010574e-01 -8.619506153831756e-02
9.767200000000000e+10 2.306749476720852e-01 -8.620283208392042e-02
9.772000000000000e+10 2.307190435205093e-01 -8.621058497804215e-02
9.776800000000000e+10 2.307629154192450e-01 -8.621831297302091e-02
9.781600000000000e+10 2.308065584664424e-01 -8.622600877912465e-02
9.786400000000000e+10 2.308499679286080e-01 -8.623366513711730e-02
9.791200000000000e+10 2.308931391511937e-01 -8.624127484746288e-02
9.796000000000000e+10 2.309360675822661e-01 -8.624883073499795e-02
9.800800000000000e+10 2.309787487718214e-01 -8.625632560118521e-02
9.805600000000000e+10 2.310211785016932e-01 -8.626375223546856e-02
9.810400000000000e+10 2.310633527815863e-01 -8.627110347980350e-02
9.815200000000000e+10 2.311052678246541e-01 -8.627837225199517e-02
9.820000000000000e+10 2.311469199806038e-01 -8.628555155757950e-02
9.824800000000000e+10 2.311883057314414e-01 -8.629263448761602e-02
9.829600000000000e+10 2.312294215885153e-01 -8.629961421248433e-02
9.834400000000000e+10 2.312702641279375e-01 -8.630648389212874e-02
9.839200000000000e+10 2.313108299367505e-01 -8.631323667818228e-02
9.844000000000000e+10 2.313511156418901e-01 -8.631986568229025e-02
9.848800000000000e+10 2.313911178872926e-01 -8.632636404141000e-02
9.853600000000000e+10 2.314308333378832e-01 -8.633272495366946e-02
9.858400000000000e+10 2.314702586438045e-01 -8.633894159331623e-02
9.863200000000000e+10 2.315093904217119e-01 -8.634500708111720e-02
9.868000000000000e+10 2.315482252574399e-01 -8.635091460761897e-02
9.872800000000000e+10 2.315867598387831e-01 -8.635665736507883e-02
9.877600000000000e+10 2.316249910306228e-01 -8.636222859417951e-02
9.882400000000000e+10 2.316629158859614e-01 -8.636762162061820e-02
9.887200000000000e+10 2.317005316319643e-01 -8.637282987364640e-02
9.892000000000000e+10 2.317378356937828e-01 -8.637784704511685e-02
9.896800000000000e+10 2.317748256876587e-01 -8.638266697500969e-02
9.901600000000000e+10 2.318114994596801e-01 -8.638728369579134e-02
9.906400000000000e+10 2.318478551130020e-01 -8.639169146596902e-02
9.911200000000000e+10 2.318838910231653e-01 -8.639588478528015e-02
9.916000000000000e+10 2.319196057851304e-01 -8.639985840232126e-02
9.920800000000000e+10 2.319549981503925e-01 -8.640360745789265e-02
9.925600000000000e+10 2.319900670863621e-01 -8.640712736779425e-02
9.930400000000000e+10 2.320248118486500e-01 -8.641041383707680e-02
9.935200000000000e+10 2.320592319541802e-01 -8.641346288396209e-02
9.940000000000000e+10 2.320933271952566e-01 -8.641627084993522e-02
9.944800000000000e+10 2.321270976483640e-01 -8.641883438645170e-02
9.949600000000000e+10 2.321605436703370e-01 -8.642115043127374e-02
9.954400000000000e+10 2.321936658257847e-01 -8.642321628901693e-02
9.959200000000000e+10 2.322264649038535e-01 -8.642502958312480e-02
9.964000000000000e+10 2.322589418493116e-01 -8.642658825646525e-02
9.968800000000000e+10 2.322910977425311e-01 -8.642789056682634e-02
9.973600000000000e+10 2.323229337554546e-01 -8.642893501670729e-02
9.978400000000000e+10 2.323544511421413e-01 -8.642972030389433e-02
9.983200000000000e+10 2.323856511780751e-01 -8.643024535750565e-02
9.988000000000000e+10 2.324165351812376e-01 -8.643050935141457e-02
9.992800000000000e+10 2.324471045058983e-01 -8.643051161580116e-02
9.997600000000000e+10 2.324773605386995e-01 -8.643025166075302e-02
1.000240000000000e+11 2.325073047706137e-01 -8.642972916093429e-02
1.000720000000000e+11 2.325369388227018e-01 -8.642894390762833e-02
1.001200000000000e+11 2.325662643944973e-01 -8.642789582488930e-02
1.001680000000000e+11 2.325952833208660e-01 -8.642658493294950e-02
1.002160000000000e+11 2.326239975515829e-01 -8.642501138210236e-02
1.002640000000000e+11 2.326524090559937e-01 -8.642317545466038e-02
1.003120000000000e+11 2.326805197908834e-01 -8.642107757092790e-02
1.003600000000000e+11 2.327083316820170e-01 -8.641871831851922e-02
1.004080000000000e+11 2.327358466448547e-01 -8.641609846820211e-02
1.004560000000000e+11 2.327630664633039e-01 -8.641321892089314e-02
1.005040000000000e+11 2.327899929362209e-01 -8.641008069598535e-02
1.005520000000000e+11 2.328166278660878e-01 -8.640668498679130e-02
1.006000000000000e+11 2.328429730149839e-01 -8.640303307597919e-02
1.006480000000000e+11 2.328690301238786e-01 -8.639912642728040e-02
1.006960000000000e+11 2.328948009972764e-01 -8.639496662443280e-02
1.007440000000000e+11 2.329202874986697e-01 -8.639055547406578e-02
1.007920000000000e+11 2.329454917656884e-01 -8.638589496153740e-02
1.008400000000000e+11 2.329704160425022e-01 -8.638098718492765e-02
1.008880000000000e+11 2.329950627153717e-01 -8.637583440500672e-02
1.009360000000000e+11 2.330194342936634e-01 -8.637043905134532e-02
1.009840000000000e+11 2.330435334482910e-01 -8.636480369074329e-02
1.010320000000000e+11 2.330673629158173e-01 -8.635893104264608e-02
1.010800000000000e+11 2.330909254917505e-01 -8.635282394619236e-02
1.011280000000000e+11 2.331142239576984e-01 -8.634648541601390e-02
1.011760000000000e+11 2.331372610174512e-01 -8.633991861427620e-02
1.012240000000000e+11 2.331600392506495e-01 -8.633312681840759e-02
1.012720000000000e+11 2.331825609901332e-01 -8.632611344842030e-02
1.013200000000000e+11 2.332048283980681e-01 -8.631888202470527e-02
1.013680000000000e+11 2.332268434529120e-01 -8.631143618837669e-02
1.014160000000000e+11 2.332486079785608e-01 -8.630377969366637e-02
1.014640000000000e+11 2.332701237254590e-01 -8.629591643413609e-02
1.015120000000000e+11 2.332913923263707e-01 -8.628785040271790e-02
1.015600000000000e+11 2.333124152906322e-01 -8.627958573019648e-02
1.016080000000000e+11 2.333331939591699e-01 -8.627112665966598e-02
1.016560000000000e+11 2.333537294798488e-01 -8.626247765752222e-02
1.017040000000000e+11 2.333740226672877e-01 -8.625364339793717e-02
1.017520000000000e+11 2.333940738774752e-01 -8.624462871773821e-02
1.018000000000000e+11 2.334138831200101e-01 -8.623543851728621e-02
1.018480000000000e+11 2.334334499745500e-01 -8.622607779144652e-02
1.018960000000000e+11 2.334527736336628e-01 -8.621655151089613e-02
1.019440000000000e+11 2.334718528894483e-01 -8.620686454166539e-02
1.019920000000000e+11 2.334906861413369e-01 -8.619702165831204e-02
1.020400000000000e+11 2.335092714442572e-01 -8.618702763700359e-02
1.020880000000000e+11 2.335276065364489e-01 -8.617688706571959e-02
1.021360000000000e+11 2.335456889717469e-01 -8.616660434380610e-02
1.021840000000000e+11 2.335635161443885e-01 -8.615618386518388e-02
1.022320000000000e+11 2.335810852585312e-01 -8.614562995357203e-02
1.022800000000000e+11 2.335983934093289e-01 -8.613494682669336e-02
1.023280000000000e+11 2.336154376365713e-01 -8.612413865634395e-02
1.023760000000000e+11 2.336322150558939e-01 -8.611320950372145e-02
1.024240000000000e+11 2.336487230508567e-01 -8.610216312458813e-02
1.024720000000000e+11 2.336649590551009e-01 -8.609100313840710e-02
1.025200000000000e+11 2.336809205164004e-01 -8.607973302181517e-02
1.025680000000000e+11 2.336966048812545e-01 -8.606835606639975e-02
1.026160000000000e+11 2.337120094555838e-01 -8.605687545847263e-02
1.026640000000000e+11 2.337271314842418e-01 -8.604529421092660e-02
1.027120000000000e+11 2.337419679975858e-01 -8.603361532450220e-02
1.027600000000000e+11 2.337565158724784e-01 -8.602184167942156e-02
1.028080000000000e+11 2.337707718605879e-01 -8.600997608332091e-02
1.028560000000000e+11 2.337847326400440e-01 -8.599802123857525e-02
1.029040000000000e+11 2.337983948342468e-01 -8.598597977702090e-02
1.029520000000000e+11 2.338117550609054e-01 -8.597385430216270e-02
1.030000000000000e+11 2.338248099937050e-01 -8.596164740881429e-02
1.030480000000000e+11 2.338375564470591e-01 -8.594936169274975e-02
1.030960000000000e+11 2.338499913523184e-01 -8.593699985970948e-02
1.031440000000000e+11 2.338621118024366e-01 -8.592456471969998e-02
1.031920000000000e+11 2.338739149624039e-01 -8.591205921357456e-02
1.032400000000000e+11 2.338853981419553e-01 -8.589948634548872e-02
1.032880000000000e+11 2.338965587153492e-01 -8.588684911630462e-02
1.033360000000000e+11 2.339073941618139e-01 -8.587415048730074e-02
1.033840000000000e+11 2.339179018567976e-01 -8.586139340258152e-02
1.034320000000000e+11 2.339280790627682e-01 -8.584858077466224e-02
1.034800000000000e+11 2.339379228177542e-01 -8.583571543852336e-02
1.035280000000000e+11 2.339474300431805e-01 -8.582280011092773e-02
1.035760000000000e+11 2.339565974142044e-01 -8.580983738759529e-02
1.036240000000000e+11 2.339654214534063e-01 -8.579682973188262e-02
1.036720000000000e+11 2.339738986084401e-01 -8.578377948005315e-02
1.037200000000000e+11 2.339820253167298e-01 -8.577068883277887e-02
1.037680000000000e+11 2.339897979929302e-01 -8.575756000992396e-02
1.038160000000000e+11 2.339972130740973e-01 -8.574439531745896e-02
1.038640000000000e+11 2.340042671562275e-01 -8.573119709699474e-02
1.039120000000000e+11 2.340109569349811e-01 -8.571796787609108e-02
1.039600000000000e+11 2.340172788251000e-01 -8.570471086962837e-02
1.040080000000000e+11 2.340232293866747e-01 -8.569142932438956e-02
1.040560000000000e+11 2.340288052220701e-01 -8.567812653212249e-02
1.041040000000000e+11 2.340340029158990e-01 -8.566480574868110e-02
1.041520000000000e+11 2.340388189362211e-01 -8.565147021117303e-02
1.042000000000000e+11 2.340432494758962e-01 -8.563812321414296e-02
1.042480000000000e+11 2.340472904295338e-01 -8.562476815150753e-02
1.042960000000000e+11 2.340509373532145e-01 -8.561140845301377e-02
1.043440000000000e+11 2.340541855671185e-01 -8.559804757774851e-02
1.043920000000000e+11 2.340570301986643e-01 -8.558468907770102e-02
1.044400000000000e+11 2.340594662103353e-01 -8.557133666299135e-02
1.044880000000000e+11 2.340614884947430e-01 -8.555799424187584e-02
1.045360000000000e+11 2.340630920273279e-01 -8.554466584150695e-02
1.045840000000000e+11 2.340642719174187e-01 -8.553135556458528e-02
1.046320000000000e+11 2.340650234799416e-01 -8.551806760759537e-02
1.046800000000000e+11 2.340653422551632e-01 -8.550480623277586e-02
1.047280000000000e+11 2.340652239444269e-01 -8.549157580824174e-02
1.047760000000000e+11 2.340646643926084e-01 -8.547838077493777e-02
1.048240000000000e+11 2.340636595225549e-01 -8.546522560070850e-02
1.048720000000000e+11 2.340622052702429e-01 -8.545211468610797e-02
1.049200000000000e+11 2.340602974945742e-01 -8.543905233892415e-02
1.049680000000000e+11 2.340579319904217e-01 -8.542604264814968e-02
1.050160000000000e+11 2.340551044575244e-01 -8.541308954783877e-02
1.050640000000000e+11 2.340518105692331e-01 -8.540019657546004e-02
1.051120000000000e+11 2.340480459935950e-01 -8.538736689509316e-02
1.051600000000000e+11 2.340438063679957e-01 -8.537460340172463e-02
1.052080000000000e+11 2.340390874026293e-01 -8.536190887303678e-02
1.052560000000000e+11 2.340338849668825e-01 -8.534928598607731e-02
1.053040000000000e+11 2.340281950907811e-01 -8.533673747913542e-02
1.053520000000000e+11 2.340220140847378e-01 -8.532426615626559e-02
1.054000000000000e+11 2.340153385821314e-01 -8.531187485329682e-02
1.054480000000000e+11 2.340081654610861e-01 -8.529956646538223e-02
1.054960000000000e+11 2.340004918034968e-01 -8.528734392250034e-02
1.055440000000000e+11 2.339923148794003e-01 -8.527521015626111e-02
1.055920000000000e+11 2.339836320164174e-01 -8.526316811092012e-02
1.056400000000000e+11 2.339744405086895e-01 -8.525122066097054e-02
1.056880000000000e+11 2.339647376323833e-01 -8.523937070854386e-02
1.057360000000000e+11 2.339545205557482e-01 -8.522762106129353e-02
1.057840000000000e+11 2.339437863684525e-01 -8.521597446603177e-02
1.058320000000000e+11 2.339325322095306e-01 -8.520443364171952e-02
1.058800000000000e+11 2.339207552479143e-01 -8.519300124871512e-02
1.059280000000000e+11 2.339084528587413e-01 -8.518167980413241e-02
1.059760000000000e+11 2.338956226785964e-01 -8.517047179618366e-02
1.060240000000000e+11 2.338822626666804e-01 -8.515937971101781e-02
1.060720000000000e+11 2.338683711395267e-01 -8.514840612557784e-02
1.061200000000000e+11 2.338539467833936e-01 -8.513755368528890e-02
1.061680000000000e+11 2.338389886479159e-01 -8.512682505992827e-02
1.062160000000000e+11 2.338234959853669e-01 -8.511622296401022e-02
1.062640000000000e+11 2.338074682900864e-01 -8.510575014675170e-02
1.063120000000000e+11 2.337909051349696e-01 -8.509540931787762e-02
1.063600000000000e+11 2.337738062186875e-01 -8.508520315041694e-02
1.064080000000000e+11 2.337561713354875e-01 -8.507513421561760e-02
1.064560000000000e+11 2.337380004194805e-01 -8.506520499922257e-02
1.065040000000000e+11 2.337192936417923e-01 -8.505541797722456e-02
1.065520000000000e+11 2.337000511716482e-01 -8.504577552454291e-02
1.066000000000000e+11 2.336802733540674e-01 -8.503627993010983e-02
1.066480000000000e+11 2.336599608586264e-01 -8.502693357050688e-02
1.066960000000000e+11 2.336391145061291e-01 -8.501773883661698e-02
1.067440000000000e+11 2.336177352474132e-01 -8.500869809362425e-02
1.067920000000000e+11 2.335958242425297e-01 -8.499981387450530e-02
1.068400000000000e+11 2.335733829082165e-01 -8.499108877208622e-02
1.068880000000000e+11 2.335504128510598e-01 -8.498252553325326e-02
1.069360000000000e+11 2.335269157832068e-01 -8.497412705655102e-02
1.069840000000000e+11 2.335028934287831e-01 -8.496589643853064e-02
1.070320000000000e+11 2.334783476134675e-01 -8.495783688924613e-02
1.070800000000000e+11 2.334532800503959e-01 -8.494995159155475e-02
1.071280000000000e+11 2.334276923622881e-01 -8.494224367871994e-02
1.071760000000000e+11 2.334015861273922e-01 -8.493471629975344e-02
1.072240000000000e+11 2.333749629457013e-01 -8.492737258695481e-02
1.072720000000000e+11 2.333478244409828e-01 -8.492021576414370e-02
1.073200000000000e+11 2.333201723488821e-01 -8.491324914644371e-02
1.073680000000000e+11 2.332920085355092e-01 -8.490647616948101e-02
1.074160000000000e+11 2.332633350173233e-01 -8.489990041016396e-02
1.074640000000000e+11 2.332341540807438e-01 -8.489352567242811e-02
1.075120000000000e+11 2.332044682428359e-01 -8.488735601182537e-02
1.075600000000000e+11 2.331742801818821e-01 -8.488139578820444e-02
1.076080000000000e+11 2.331435926105269e-01 -8.487564960629708e-02
1.076560000000000e+11 2.331124082474482e-01 -8.487012229528773e-02
1.077040000000000e+11 2.330807297556981e-01 -8.486481890535164e-02
1.077520000000000e+11 2.330485598268738e-01 -8.485974460901063e-02
1.078000000000000e+11 2.330159011232641e-01 -8.485490470492477e-02
1.078480000000000e+11 2.329827562950372e-01 -8.485030446673686e-02
1.078960000000000e+11 2.329491280807018e-01 -8.484594906353585e-02
1.079440000000000e+11 2.329150193792990e-01 -8.484184358655866e-02
1.079920000000000e+11 2.328804332786572e-01 -8.483799308230733e-02
1.080400000000000e+11 2.328453731612043e-01 -8.483440260139705e-02
1.080880000000000e+11 2.328098427087276e-01 -8.483107725048628e-02
1.081360000000000e+11 2.327738458862522e-01 -8.482802221719973e-02
1.081840000000000e+11 2.327373869436470e-01 -8.482524283541379e-02
1.082320000000000e+11 2.327004703491760e-01 -8.482274469972413e-02
1.082800000000000e+11 2.326631007777287e-01 -8.482053353785016e-02
1.083280000000000e+11 2.326252829757190e-01 -8.481861526640004e-02
1.083760000000000e+11 2.325870218094789e-01 -8.481699590409356e-02
1.084240000000000e+11 2.325483221813118e-01 -8.481568161753840e-02
1.084720000000000e+11 2.325091891317053e-01 -8.481467860734247e-02
1.085200000000000e+11 2.324696277286476e-01 -8.481399296188796e-02
1.085680000000000e+11 2.324296431016828e-01 -8.481363054892288e-02
1.086160000000000e+11 2.323892405493000e-01 -8.481359709568875e-02
1.086640000000000e+11 2.323484256736064e-01 -8.481389814288198e-02
1.087120000000000e+11 2.323072044513839e-01 -8.481453907668139e-02
1.087600000000000e+11 2.322655832860089e-01 -8.481552516817127e-02
1.088080000000000e+11 2.322235690340636e-01 -8.481686160128338e-02
1.088560000000000e+11 2.321811690765545e-01 -8.481855343823805e-02
1.089040000000000e+11 2.321383912802365e-01 -8.482060565348074e-02
1.089520000000000e+11 2.320952439669160e-01 -8.482302317786693e-02
1.090000000000000e+11 2.320517358412014e-01 -8.482581091105376e-02
1.090480000000000e+11 2.320078759619721e-01 -8.482897363189069e-02
1.090960000000000e+11 2.319636736283280e-01 -8.483251602379598e-02
1.091440000000000e+11 2.319191385129095e-01 -8.483644253862395e-02
1.091920000000000e+11 2.318742806579671e-01 -8.484075747121007e-02
1.092400000000000e+11 2.318291105480538e-01 -8.484546502877166e-02
1.092880000000000e+11 2.317836391402509e-01 -8.485056940340292e-02
1.093360000000000e+11 2.317378779282225e-01 -8.485607469054829e-02
1.093840000000000e+11 2.316918390549232e-01 -8.486198488355469e-02
1.094320000000000e+11 2.316455355141215e-01 -8.486830381365418e-02
1.094800000000000e+11 2.315989812221950e-01 -8.487503518931622e-02
1.095280000000000e+11 2.315521909936059e-01 -8.488218271258188e-02
1.095760000000000e+11 2.315051805283208e-01 -8.488975023705413e-02
1.096240000000000e+11 2.314579663551571e-01 -8.489774181269763e-02
1.096720000000000e+11 2.314105658517236e-01 -8.490616168969699e-02
1.097200000000000e+11 2.313629971389758e-01 -8.491501421245838e-02
1.097680000000000e+11 2.313152789667427e-01 -8.492430380705283e-02
1.098160000000000e+11 2.312674306595102e-01 -8.493403487131240e-02
1.098640000000000e+11 2.312194722040828e-01 -8.494421179304452e-02
1.099120000000000e+11 2.311714243252465e-01 -8.495483889087864e-02
1.099600000000000e+11 2.311233084702912e-01 -8.496592038948556e-02
1.100080000000000e+11 2.310269629308027e-01 -8.498946234314382e-02
1.100560000000000e+11 2.309306095304554e-01 -8.501487260407337e-02
1.101040000000000e+11 2.308344047513891e-01 -8.504218508559795e-02
1.101520000000000e+11 2.307384921261529e-01 -8.507142535176614e-02
1.102000000000000e+11 2.306430108013766e-01 -8.510261188174802e-02
1.102480000000000e+11 2.305009018367094e-01 -8.515305226435779e-02
1.102960000000000e+11 2.304070985495101e-01 -8.518910006501479e-02
1.103440000000000e+11 2.303141894648930e-01 -8.522704906624377e-02
1.103920000000000e+11 2.302222936389446e-01 -8.526685751643967e-02
1.104400000000000e+11 2.301315241294107e-01 -8.530847538360853e-02
1.104880000000000e+11 2.300419866432275e-01 -8.535184648020450e-02
1.105360000000000e+11 2.299102017094027e-01 -8.542005779073687e-02
1.105840000000000e+11 2.298241466468550e-01 -8.546754577674581e-02
1.106320000000000e+11 2.297396138544087e-01 -8.551657435524609e-02
1.106800000000000e+11 2.296566649611067e-01 -8.556708341139221e-02
1.107280000000000e+11 2.295753565650216e-01 -8.561901272161901e-02
1.107760000000000e+11 2.294565880836358e-01 -8.569943752449664e-02
1.108240000000000e+11 2.293796129950203e-01 -8.575465451714419e-02
1.108720000000000e+11 2.293044603394081e-01 -8.581108149630277e-02
1.109200000000000e+11 2.292311861534532e-01 -8.586865368851514e-02
1.109680000000000e+11 2.291598525294333e-01 -8.592730119697430e-02
1.110160000000000e+11 2.290905277690753e-01 -8.598694800011096e-02
1.110640000000000e+11 2.289904704227045e-01 -8.607810917638437e-02
1.111120000000000e+11 2.289264942737677e-01 -8.613987747013432e-02
1.111600000000000e+11 2.288647848619739e-01 -8.620232511582963e-02
1.112080000000000e+11 2.288054125002552e-01 -8.626534386279316e-02
1.112560000000000e+11 2.287484435800141e-01 -8.632881758152226e-02
1.113040000000000e+11 2.286939388030688e-01 -8.639262295405965e-02
1.113520000000000e+11 2.286169158835082e-01 -8.648866734422453e-02
1.114000000000000e+11 2.285687729423723e-01 -8.655272423633144e-02
1.114480000000000e+11 2.285232119132662e-01 -8.661664242158174e-02
1.114960000000000e+11 2.284802367537038e-01 -8.668028253091814e-02
1.115440000000000e+11 2.284398427714288e-01 -8.674350594503491e-02
1.115920000000000e+11 2.283840624735464e-01 -8.683726485201272e-02
1.116400000000000e+11 2.283500417045282e-01 -8.689887388320643e-02
1.116880000000000e+11 2.283185059345662e-01 -8.695963961679930e-02
1.117360000000000e+11 2.282894114938709e-01 -8.701946733433275e-02
1.117840000000000e+11 2.282627142059579e-01 -8.707827555544387e-02
1.118320000000000e+11 2.282383705453412e-01 -8.713599652125197e-02
1.118800000000000e+11 2.282061753772495e-01 -8.722042545765563e-02
1.119280000000000e+11 2.281875226121065e-01 -8.727523099215505e-02
1.119760000000000e+11 2.281710569340477e-01 -8.732883901854577e-02
1.120240000000000e+11 2.281567266203771e-01 -8.738125081114234e-02
1.120720000000000e+11 2.281444809737145e-01 -8.743247548275900e-02
1.121200000000000e+11 2.281342682550657e-01 -8.748252670843826e-02
1.121680000000000e+11 2.281226440022951e-01 -8.755543503619376e-02
1.122160000000000e+11 2.281172698279508e-01 -8.760262050692882e-02
1.122640000000000e+11 2.281137171881935e-01 -8.764869179089799e-02
1.123120000000000e+11 2.281119158445598e-01 -8.769366345378214e-02
1.123600000000000e+11 2.281117939623247e-01 -8.773754562273435e-02
1.124080000000000e+11 2.281132788433442e-01 -8.778034391096939e-02
1.124560000000000e+11 2.281183543746881e-01 -8.784250856473752e-02
1.125040000000000e+11 2.281235148504922e-01 -8.788259278030770e-02
1.125520000000000e+11 2.281299893942928e-01 -8.792158505943738e-02
1.126000000000000e+11 2.281376853702749e-01 -8.795947628686068e-02
1.126480000000000e+11 2.281465097314624e-01 -8.799625331765405e-02
1.126960000000000e+11 2.281616582705385e-01 -8.804929259503581e-02
1.127440000000000e+11 2.281728879652904e-01 -8.808321032324898e-02
1.127920000000000e+11 2.281849014871410e-01 -8.811595626489076e-02
1.128400000000000e+11 2.281975985382397e-01 -8.814751151219057e-02
1.128880000000000e+11 2.282108827803749e-01 -8.817785418204069e-02
1.129360000000000e+11 2.282246630788040e-01 -8.820695917277686e-02
1.129840000000000e+11 2.282460786710048e-01 -8.824823239960543e-02
1.130320000000000e+11 2.282607299630244e-01 -8.827411673689134e-02
1.130800000000000e+11 2.282755830116759e-01 -8.829866460726994e-02
1.131280000000000e+11 2.282905617816334e-01 -8.832184692230131e-02
1.131760000000000e+11 2.283055972649680e-01 -8.834363293779235e-02
1.132240000000000e+11 2.283206279297905e-01 -8.836399042027442e-02
1.132720000000000e+11 2.283430493190329e-01 -8.839177386406934e-02
1.133200000000000e+11 2.283578399305636e-01 -8.840841514257260e-02
1.133680000000000e+11 2.283724472480760e-01 -8.842351863491769e-02
1.134160000000000e+11 2.283868290632889e-01 -8.843705625906995e-02
1.134640000000000e+11 2.284009482524726e-01 -8.844900088009565e-02
1.135120000000000e+11 2.284215648720475e-01 -8.846387451019895e-02
1.135600000000000e+11 2.284348846758065e-01 -8.847173357402069e-02
1.136080000000000e+11 2.284478222818448e-01 -8.847793333060375e-02
1.136560000000000e+11 2.284603451754775e-01 -8.848246348874018e-02
1.137040000000000e+11 2.284724241159867e-01 -8.848531478829195e-02
1.137520000000000e+11 2.284840329249161e-01 -8.848647849814661e-02
1.138000000000000e+11 2.285005166522945e-01 -8.848504101132143e-02
1.138480000000000e+11 2.285108532924780e-01 -8.848195616946035e-02
1.138960000000000e+11 2.285206426581666e-01 -8.847717231821380e-02
1.139440000000000e+11 2.285298707759996e-01 -8.847068946540422e-02
1.139920000000000e+11 2.285385317466179e-01 -8.846250430489558e-02
1.140400000000000e+11 2.285466279682964e-01 -8.845260914913565e-02
1.140880000000000e+11 2.285577391950215e-01 -8.843452996833533e-02
1.141360000000000e+11 2.285644801045124e-01 -8.842029463541148e-02
1.141840000000000e+11 2.285707075072772e-01 -8.840428849837113e-02
1.142320000000000e+11 2.285764422005906e-01 -8.838648186963070e-02
1.142800000000000e+11 2.285817066435095e-01 -8.836683713411550e-02
1.143280000000000e+11 2.285887692261608e-01 -8.833382034791590e-02
1.143760000000000e+11 2.285929406234974e-01 -8.830936662229126e-02
1.144240000000000e+11 2.285966866317991e-01 -8.828289283368873e-02
1.144720000000000e+11 2.286000075074540e-01 -8.825433449611497e-02
1.145200000000000e+11 2.286029011129495e-01 -8.822362083948669e-02
1.145680000000000e+11 2.286053637589169e-01 -8.819067515883880e-02
1.146160000000000e+11 2.286082413875512e-01 -8.813689087710334e-02
1.146640000000000e+11 2.286096054584743e-01 -8.809800446427413e-02
1.147120000000000e+11 2.286105163289439e-01 -8.805659992005804e-02
1.147600000000000e+11 2.286109713847846e-01 -8.801259326164448e-02
1.148080000000000e+11 2.286109750355914e-01 -8.796589826390405e-02
1.148560000000000e+11 2.286105398349212e-01 -8.791642732906738e-02
1.149040000000000e+11 2.286091154357967e-01 -8.783682351137427e-02
1.149520000000000e+11 2.286077010694080e-01 -8.778003490887414e-02
1.150000000000000e+11 2.286059692412121e-01 -8.772017810658486e-02
