! Generated by Phase I extraction
# Hz S RI R 50
1.100000000000000e+11 2.310751469201234e-01 -8.497746029862886e-02
1.100408163265300e+11 2.309787767351081e-01 -8.500193152694460e-02
1.100816326530600e+11 2.308824792140651e-01 -8.502828930520774e-02
1.101224489795900e+11 2.307864030385081e-01 -8.505656288620511e-02
1.101632653061200e+11 2.306906887344932e-01 -8.508677446791416e-02
1.102040816326500e+11 2.305954751953042e-01 -8.511893767658198e-02
1.102448979591800e+11 2.305480999824084e-01 -8.513575170982679e-02
1.102857142857100e+11 2.304538959118352e-01 -8.517083619689222e-02
1.103265306122400e+11 2.303605244985077e-01 -8.520783927968871e-02
1.103673469387800e+11 2.302681075126021e-01 -8.524672379710800e-02
1.104081632653100e+11 2.301767611616455e-01 -8.528744366853830e-02
1.104489795918400e+11 2.300865949404176e-01 -8.532994550282122e-02
1.104897959183700e+11 2.299977106611238e-01 -8.537417076236148e-02
1.105306122449000e+11 2.299537789070907e-01 -8.539691043171592e-02
1.105714285714300e+11 2.298669878721923e-01 -8.544360548941134e-02
1.106122448979600e+11 2.297816858636631e-01 -8.549187131333398e-02
1.106530612244900e+11 2.296979376710850e-01 -8.554164766676567e-02
1.106938775510200e+11 2.296158021823028e-01 -8.559287436474076e-02
1.107346938775500e+11 2.295353343829333e-01 -8.564549119188114e-02
1.107755102040800e+11 2.294957427757542e-01 -8.567230192523806e-02
1.108163265306100e+11 2.294178759229128e-01 -8.572689094549760e-02
1.108571428571400e+11 2.293418053791797e-01 -8.578272073513689e-02
1.108979591836700e+11 2.292675845927367e-01 -8.583972869171111e-02
1.109387755102000e+11 2.291952725291296e-01 -8.589784763152157e-02
1.109795918367300e+11 2.291249344116199e-01 -8.595700468835223e-02
1.110204081632700e+11 2.290566415266777e-01 -8.601712057191967e-02
1.110612244898000e+11 2.290232859400805e-01 -8.604751143625722e-02
1.111020408163300e+11 2.289582033175361e-01 -8.610890194565371e-02
1.111428571428600e+11 2.288953515868977e-01 -8.617102294162994e-02
1.111836734693900e+11 2.288348020915487e-01 -8.623377018435724e-02
1.112244897959200e+11 2.287766234487447e-01 -8.629703141667686e-02
1.112653061224500e+11 2.287208794231239e-01 -8.636068680696650e-02
1.113061224489800e+11 2.286676272088924e-01 -8.642460973887930e-02
1.113469387755100e+11 2.286419514747768e-01 -8.645663018076125e-02
1.113877551020400e+11 2.285925220196779e-01 -8.652070452223143e-02
1.114285714285700e+11 2.285456689522829e-01 -8.658470946899255e-02
1.114693877551000e+11 2.285014009225640e-01 -8.664850606302328e-02
1.115102040816300e+11 2.284597174498450e-01 -8.671195502613949e-02
1.115510204081600e+11 2.284206098282974e-01 -8.677491901732610e-02
1.115918367346900e+11 2.284020175819090e-01 -8.680617714456866e-02
1.116326530612200e+11 2.283667385365725e-01 -8.686816855586273e-02
1.116734693877600e+11 2.283339656385837e-01 -8.692936856333204e-02
1.117142857142900e+11 2.283036560561770e-01 -8.698967632287760e-02
1.117551020408200e+11 2.282757657052985e-01 -8.704900363276412e-02
1.117959183673500e+11 2.282502506161075e-01 -8.710727581855462e-02
1.118367346938800e+11 2.282270678099846e-01 -8.716443211306829e-02
1.118775510204100e+11 2.282163380822718e-01 -8.719257637986108e-02
1.119183673469400e+11 2.281965721512442e-01 -8.724797776599860e-02
1.119591836734700e+11 2.281790194507742e-01 -8.730218502815303e-02
1.120000000000000e+11 2.281636278678023e-01 -8.735519416657826e-02
1.120408163265300e+11 2.281503462673063e-01 -8.740701088181937e-02
1.120816326530600e+11 2.281391236378942e-01 -8.745764701499342e-02
1.121224489795900e+11 2.281299075467208e-01 -8.750711696950159e-02
1.121632653061200e+11 2.281260353025489e-01 -8.753141899701845e-02
1.122040816326500e+11 2.281197247658657e-01 -8.757916823411502e-02
1.122448979591800e+11 2.281152699906117e-01 -8.762579453452080e-02
1.122857142857100e+11 2.281126018844359e-01 -8.767131445070504e-02
1.123265306122400e+11 2.281116492844401e-01 -8.771574037028387e-02
1.123673469387800e+11 2.281123399920819e-01 -8.775908021657008e-02
1.124081632653100e+11 2.281146002657104e-01 -8.780133704134083e-02
1.124489795918400e+11 2.281162955926196e-01 -8.782205870403124e-02
1.124897959183700e+11 2.281207643448383e-01 -8.786268688663781e-02
1.125306122449000e+11 2.281265934264233e-01 -8.790222600467652e-02
1.125714285714300e+11 2.281336902966315e-01 -8.794066916587831e-02
1.126122448979600e+11 2.281419621191204e-01 -8.797800516461080e-02
1.126530612244900e+11 2.281513157101895e-01 -8.801421911699292e-02
1.126938775510200e+11 2.281563693451265e-01 -8.803189957206876e-02
1.127346938775500e+11 2.281671685333216e-01 -8.806639699343080e-02
1.127755102040800e+11 2.281788028975712e-01 -8.809973101328014e-02
1.128163265306100e+11 2.281911704965990e-01 -8.813188414920689e-02
1.128571428571400e+11 2.282041728819618e-01 -8.816283604059297e-02
1.128979591836700e+11 2.282177161858551e-01 -8.819256322608174e-02
1.129387755102000e+11 2.282317121419888e-01 -8.822103886184532e-02
1.129795918367300e+11 2.282388541703505e-01 -8.823479780792229e-02
1.130204081632700e+11 2.282533738547991e-01 -8.826134002175531e-02
1.130612244898000e+11 2.282681359693957e-01 -8.828655966092432e-02
1.131020408163300e+11 2.282830609458745e-01 -8.831042849245603e-02
1.131428571428600e+11 2.282980762364506e-01 -8.833291659404213e-02
1.131836734693900e+11 2.283131165346940e-01 -8.835399246178324e-02
1.132244897959200e+11 2.283281240908492e-01 -8.837362309974094e-02
1.132653061224500e+11 2.283355999891447e-01 -8.838288555803159e-02
1.133061224489800e+11 2.283504644212737e-01 -8.840028509283747e-02
1.133469387755100e+11 2.283651690468431e-01 -8.841616103011896e-02
1.133877551020400e+11 2.283796685606921e-01 -8.843048506135362e-02
1.134285714285700e+11 2.283939233895618e-01 -8.844322950887186e-02
1.134693877551000e+11 2.284078989212860e-01 -8.845436782510145e-02
1.135102040816300e+11 2.284147725551166e-01 -8.845932649956709e-02
1.135510204081600e+11 2.284282701822379e-01 -8.846801094213150e-02
1.135918367346900e+11 2.284414031754238e-01 -8.847504172050083e-02
1.136326530612200e+11 2.284541372776873e-01 -8.848040788732381e-02
1.136734693877600e+11 2.284664416670408e-01 -8.848409973214857e-02
1.137142857142900e+11 2.284782885908432e-01 -8.848610831121724e-02
1.137551020408200e+11 2.284896537086332e-01 -8.848642499208331e-02
1.137959183673500e+11 2.284951492335712e-01 -8.848594595143733e-02
1.138367346938800e+11 2.285057520537603e-01 -8.848371123177032e-02
1.138775510204100e+11 2.285158172657684e-01 -8.847977672513929e-02
1.139183673469400e+11 2.285253272667806e-01 -8.847414354982230e-02
1.139591836734700e+11 2.285342720325620e-01 -8.846681018922165e-02
1.140000000000000e+11 2.285426498113690e-01 -8.845777129330740e-02
1.140408163265300e+11 2.285504672047110e-01 -8.844701660661528e-02
1.140816326530600e+11 2.285541702995396e-01 -8.844099091670912e-02
1.141224489795900e+11 2.285611748641955e-01 -8.842763221461679e-02
1.141632653061200e+11 2.285676565659625e-01 -8.841251471859890e-02
1.142040816326500e+11 2.285736348619708e-01 -8.839561252297883e-02
1.142448979591800e+11 2.285791315991705e-01 -8.837689207846851e-02
1.142857142857100e+11 2.285841692880193e-01 -8.835631151177613e-02
1.143265306122400e+11 2.285865229332485e-01 -8.834530809399613e-02
1.143673469387800e+11 2.285909080223856e-01 -8.832184237582814e-02
1.144081632653100e+11 2.285948665190615e-01 -8.829638627364284e-02
1.144489795918400e+11 2.285984001056034e-01 -8.826887868573866e-02
1.144897959183700e+11 2.286015077363487e-01 -8.823925191578752e-02
1.145306122449000e+11 2.286041863808565e-01 -8.820743219413142e-02
1.145714285714300e+11 2.286064320497487e-01 -8.817334003378556e-02
1.146122448979600e+11 2.286073915610871e-01 -8.815541537058638e-02
1.146530612244900e+11 2.286089795269192e-01 -8.811775748401648e-02
1.146938775510200e+11 2.286101177024260e-01 -8.807762232765465e-02
1.147346938775500e+11 2.286108006036891e-01 -8.803492738563953e-02
1.147755102040800e+11 2.286110289301444e-01 -8.798958744652272e-02
1.148163265306100e+11 2.286108110498898e-01 -8.794151547177108e-02
1.148571428571400e+11 2.286101640287627e-01 -8.789062358365851e-02
1.148979591836700e+11 2.286096878296934e-01 -8.786409242573764e-02
1.149387755102000e+11 2.286084512109160e-01 -8.780880785365047e-02
1.149795918367300e+11 2.286068711894957e-01 -8.775049531641725e-02
1.150204081632700e+11 2.286050032900923e-01 -8.768907339464688e-02
1.150612244898000e+11 2.286039828737073e-01 -8.765716980192892e-02
1.151020408163300e+11 2.286029179778793e-01 -8.762445687402023e-02
1.151428571428600e+11 2.286018189982116e-01 -8.759092490785558e-02
1.151836734693900e+11 2.286006966787611e-01 -8.755656479749491e-02
1.152244897959200e+11 2.285995619630649e-01 -8.752136791014331e-02
1.152653061224500e+11 2.285984258447227e-01 -8.748532599051183e-02
1.153061224489800e+11 2.285972992172325e-01 -8.744843114110519e-02
1.153469387755100e+11 2.285961927098298e-01 -8.741067582839059e-02
1.153877551020400e+11 2.285951165862418e-01 -8.737205290633916e-02
1.154285714285700e+11 2.285940806281667e-01 -8.733255568284692e-02
1.154693877551000e+11 2.285930940902381e-01 -8.729217799551461e-02
1.155102040816300e+11 2.285921656662930e-01 -8.725091426636351e-02
1.155510204081600e+11 2.285913034772216e-01 -8.720875953584820e-02
1.155918367346900e+11 2.285905151180271e-01 -8.716570950492515e-02
1.156326530612200e+11 2.285898076712277e-01 -8.712176050957426e-02
1.156734693877600e+11 2.285891876889488e-01 -8.707690943664052e-02
1.157142857142900e+11 2.285886612157781e-01 -8.703115366960436e-02
1.157551020408200e+11 2.285882337719914e-01 -8.698449101858483e-02
1.157959183673500e+11 2.285879103756084e-01 -8.693691960333438e-02
1.158367346938800e+11 2.285876955746095e-01 -8.688843777302309e-02
1.158775510204100e+11 2.285875934384745e-01 -8.683904400707108e-02
1.159183673469400e+11 2.285876075085393e-01 -8.678873690392146e-02
1.159591836734700e+11 2.285877407582352e-01 -8.673751514447892e-02
1.160000000000000e+11 2.285879955613408e-01 -8.668537751623157e-02
1.160408163265300e+11 2.285883736853430e-01 -8.663232296266773e-02
1.160816326530600e+11 2.285888762566535e-01 -8.657835066886117e-02
1.161224489795900e+11 2.285895037447656e-01 -8.652346015459832e-02
1.161632653061200e+11 2.285902559748031e-01 -8.646765138768318e-02
1.162040816326500e+11 2.285911321737283e-01 -8.641092490585453e-02
1.162448979591800e+11 2.285921310543020e-01 -8.635328197202179e-02
1.162857142857100e+11 2.285932509302667e-01 -8.629472468353651e-02
1.163265306122400e+11 2.285944898518914e-01 -8.623525605540618e-02
1.163673469387800e+11 2.285958457640536e-01 -8.617488003981952e-02
1.164081632653100e+11 2.285973166758117e-01 -8.611360157992233e-02
1.164489795918400e+11 2.285989008636682e-01 -8.605142665478027e-02
1.164897959183700e+11 2.286005970526158e-01 -8.598836222468578e-02
1.165306122449000e+11 2.286024045654566e-01 -8.592441617329025e-02
1.165714285714300e+11 2.286043234194870e-01 -8.585959722083250e-02
1.166122448979600e+11 2.286063544247947e-01 -8.579391483260360e-02
1.166530612244900e+11 2.286084992251931e-01 -8.572737909713744e-02
1.166938775510200e+11 2.286107603368921e-01 -8.566000057987300e-02
1.167346938775500e+11 2.286131412308538e-01 -8.559179015742759e-02
1.167755102040800e+11 2.286156463426396e-01 -8.552275883944056e-02
1.168163265306100e+11 2.286182810098949e-01 -8.545291762818105e-02
1.168571428571400e+11 2.286210513964602e-01 -8.538227736223240e-02
1.168979591836700e+11 2.286239643863449e-01 -8.531084860137508e-02
1.169387755102000e+11 2.286270274140750e-01 -8.523864151435510e-02
1.169795918367300e+11 2.286302482947646e-01 -8.516566582210931e-02
1.170204081632700e+11 2.286336350707392e-01 -8.509193075034228e-02
1.170612244898000e+11 2.286371958703492e-01 -8.501744503025874e-02
1.171020408163300e+11 2.286409387955909e-01 -8.494221690693121e-02
1.171428571428600e+11 2.286448718229938e-01 -8.486625420693915e-02
1.171836734693900e+11 2.286490027164039e-01 -8.478956436057157e-02
1.172244897959200e+11 2.286533389625658e-01 -8.471215450220351e-02
1.172653061224500e+11 2.286578877039600e-01 -8.463403154977438e-02
1.173061224489800e+11 2.286626557026638e-01 -8.455520226515860e-02
1.173469387755100e+11 2.286676493341810e-01 -8.447567332821071e-02
1.173877551020400e+11 2.286728745829147e-01 -8.439545141353220e-02
1.174285714285700e+11 2.286783370873113e-01 -8.431454327749005e-02
1.174693877551000e+11 2.286840421927549e-01 -8.423295581943938e-02
1.175102040816300e+11 2.286899949870571e-01 -8.415069607813998e-02
1.175510204081600e+11 2.286962003440744e-01 -8.406777126504374e-02
1.175918367346900e+11 2.287026629570193e-01 -8.398418878611846e-02
1.176326530612200e+11 2.287093874073441e-01 -8.389995624980751e-02
1.176734693877600e+11 2.287163782660745e-01 -8.381508144506020e-02
1.177142857142900e+11 2.287236401439664e-01 -8.372957231634426e-02
1.177551020408200e+11 2.287311777165345e-01 -8.364343699119468e-02
1.177959183673500e+11 2.287389957654953e-01 -8.355668378387131e-02
1.178367346938800e+11 2.287470992035166e-01 -8.346932120353090e-02
1.178775510204100e+11 2.287554931094684e-01 -8.338135792722384e-02
1.179183673469400e+11 2.287641827862429e-01 -8.329280278325706e-02
1.179591836734700e+11 2.287731738300115e-01 -8.320366470020055e-02
1.180000000000000e+11 2.287824721780479e-01 -8.311395269354706e-02
1.180408163265300e+11 2.287920841421068e-01 -8.302367580018907e-02
1.180816326530600e+11 2.288020164136692e-01 -8.293284304798146e-02
1.181224489795900e+11 2.288122760443785e-01 -8.284146396421620e-02
1.181632653061200e+11 2.288228704951152e-01 -8.274954856281501e-02
1.182040816326500e+11 2.288338076211572e-01 -8.265710732224828e-02
1.182448979591800e+11 2.288450956351052e-01 -8.256415118586799e-02
1.182857142857100e+11 2.288567431289784e-01 -8.247069158488676e-02
1.183265306122400e+11 2.288687590454028e-01 -8.237674047502357e-02
1.183673469387800e+11 2.288811526783213e-01 -8.228231030433114e-02
1.184081632653100e+11 2.288939336690139e-01 -8.218741401828229e-02
1.184489795918400e+11 2.289071120297716e-01 -8.209206504830212e-02
1.184897959183700e+11 2.289206981456356e-01 -8.199627733659064e-02
1.185306122449000e+11 2.289347027942276e-01 -8.190006534728637e-02
1.185714285714300e+11 2.289491371172189e-01 -8.180344408790452e-02
1.186122448979600e+11 2.289640125587063e-01 -8.170642909461211e-02
1.186530612244900e+11 2.289793408044342e-01 -8.160903646411831e-02
1.186938775510200e+11 2.289951336724464e-01 -8.151128285508832e-02
1.187346938775500e+11 2.290114029885425e-01 -8.141318544196137e-02
1.187755102040800e+11 2.290281604709717e-01 -8.131476189583607e-02
1.188163265306100e+11 2.290454176631755e-01 -8.121603037160799e-02
1.188571428571400e+11 2.290631858362021e-01 -8.111700947029522e-02
1.188979591836700e+11 2.290814758849192e-01 -8.101771819865371e-02
1.189387755102000e+11 2.291002982649756e-01 -8.091817594178964e-02
1.189795918367300e+11 2.291196629131895e-01 -8.081840247751408e-02
1.190204081632700e+11 2.291395792476799e-01 -8.071841801833961e-02
1.190612244898000e+11 2.291600561495337e-01 -8.061824321423462e-02
1.191020408163300e+11 2.291811019778987e-01 -8.051789913288249e-02
1.191428571428600e+11 2.292027245801919e-01 -8.041740729735869e-02
1.191836734693900e+11 2.292249312913733e-01 -8.031678973550238e-02
1.192244897959200e+11 2.292477289635257e-01 -8.021606898258717e-02
1.192653061224500e+11 2.292711240029872e-01 -8.011526812835632e-02
1.193061224489800e+11 2.292951223648342e-01 -8.001441079923914e-02
1.193469387755100e+11 2.293197295440376e-01 -7.991352118913538e-02
1.193877551020400e+11 2.293449505326453e-01 -7.981262405526027e-02
1.194285714285700e+11 2.293707898493594e-01 -7.971174470682083e-02
1.194693877551000e+11 2.293972515767812e-01 -7.961090890581148e-02
1.195102040816300e+11 2.294243393844181e-01 -7.951014277335458e-02
1.195510204081600e+11 2.294520565486224e-01 -7.940947275174330e-02
1.195918367346900e+11 2.294804059617848e-01 -7.930892554352001e-02
1.196326530612200e+11 2.295093902089084e-01 -7.920852801675932e-02
1.196734693877600e+11 2.295390115950295e-01 -7.910830710502927e-02
1.197142857142900e+11 2.295692721895654e-01 -7.900828972901805e-02
1.197551020408200e+11 2.296001738482280e-01 -7.890850275816233e-02
1.197959183673500e+11 2.296317182336708e-01 -7.880897293936631e-02
1.198367346938800e+11 2.296639068311820e-01 -7.870972679657982e-02
1.198775510204100e+11 2.296967409385895e-01 -7.861079060552022e-02
1.199183673469400e+11 2.297302216795969e-01 -7.851219039322904e-02
1.199591836734700e+11 2.297643500233938e-01 -7.841395193545443e-02
1.200000000000000e+11 2.297991267368862e-01 -7.831610070533829e-02
1.200408163265300e+11 2.298345523524410e-01 -7.821866184687290e-02
1.200816326530600e+11 2.298706270816166e-01 -7.812166020898761e-02
1.201224489795900e+11 2.299073507232809e-01 -7.802512034502183e-02
1.201632653061200e+11 2.299447225676110e-01 -7.792906657152776e-02
1.202040816326500e+11 2.299827413274135e-01 -7.783352302499004e-02
1.202448979591800e+11 2.300214050923458e-01 -7.773851374850065e-02
1.202857142857100e+11 2.300607112765817e-01 -7.764406270703325e-02
1.203265306122400e+11 2.301006565817887e-01 -7.755019382447374e-02
1.203673469387800e+11 2.301412370182735e-01 -7.745693103885805e-02
1.204081632653100e+11 2.301824479804209e-01 -7.736429842743088e-02
1.204489795918400e+11 2.302242842892809e-01 -7.727232027104582e-02
1.204897959183700e+11 2.302667402718541e-01 -7.718102105310785e-02
1.205306122449000e+11 2.303098098215880e-01 -7.709042550001577e-02
1.205714285714300e+11 2.303534864963777e-01 -7.700055861366076e-02
1.206122448979600e+11 2.303977635916173e-01 -7.691144572133993e-02
1.206530612244900e+11 2.304426342183790e-01 -7.682311245155637e-02
1.206938775510200e+11 2.304880913849867e-01 -7.673558466593282e-02
1.207346938775500e+11 2.305341280287936e-01 -7.664888841396467e-02
1.207755102040800e+11 2.305807370293700e-01 -7.656304981877464e-02
1.208163265306100e+11 2.306279112649445e-01 -7.647809492354844e-02
1.208571428571400e+11 2.306756436378883e-01 -7.639404951173294e-02
1.208979591836700e+11 2.307239271177859e-01 -7.631093889818459e-02
1.209387755102000e+11 2.307727547929245e-01 -7.622878775427579e-02
1.209795918367300e+11 2.308221199633913e-01 -7.614761985139985e-02
1.210204081632700e+11 2.308720161997507e-01 -7.606745791181808e-02
1.210612244898000e+11 2.309224373672433e-01 -7.598832347058133e-02
1.211020408163300e+11 2.309733776636518e-01 -7.591023674659050e-02
1.211428571428600e+11 2.310248316186602e-01 -7.583321651975566e-02
1.211836734693900e+11 2.310767940652107e-01 -7.575727999199826e-02
1.212244897959200e+11 2.311292601165836e-01 -7.568244272667569e-02
1.212653061224500e+11 2.311822251812712e-01 -7.560871863338248e-02
1.213061224489800e+11 2.312356849558556e-01 -7.553612000901253e-02
1.213469387755100e+11 2.312896353304224e-01 -7.546465761884681e-02
1.213877551020400e+11 2.313440723089804e-01 -7.539434076337169e-02
1.214285714285700e+11 2.313989919537609e-01 -7.532517734039182e-02
1.214693877551000e+11 2.314543903280132e-01 -7.525717387010281e-02
1.215102040816300e+11 2.315102634513242e-01 -7.519033550349725e-02
1.215510204081600e+11 2.315666072640075e-01 -7.512466598628188e-02
1.215918367346900e+11 2.316234176320670e-01 -7.506016768658634e-02
1.216326530612200e+11 2.316806903768442e-01 -7.499684167817385e-02
1.216734693877600e+11 2.317384212738919e-01 -7.493468775312070e-02
1.217142857142900e+11 2.317966061123641e-01 -7.487370442916401e-02
1.217551020408200e+11 2.318552407222837e-01 -7.481388899625165e-02
1.217959183673500e+11 2.319143210181966e-01 -7.475523757674768e-02
1.218367346938800e+11 2.319738430163958e-01 -7.469774515494691e-02
1.218775510204100e+11 2.320338028700495e-01 -7.464140559882697e-02
1.219183673469400e+11 2.320941969051430e-01 -7.458621169809000e-02
1.219591836734700e+11 2.321550216383088e-01 -7.453215515995430e-02
1.220000000000000e+11 2.322162737362718e-01 -7.447922663269681e-02
1.220408163265300e+11 2.322779499576366e-01 -7.442741578691420e-02
1.220816326530600e+11 2.323400470799758e-01 -7.437671135566208e-02
1.221224489795900e+11 2.324025618572673e-01 -7.432710120123255e-02
1.221632653061200e+11 2.324654909311042e-01 -7.427857239649394e-02
1.222040816326500e+11 2.325288307176129e-01 -7.423111134727702e-02
1.222448979591800e+11 2.325925773153066e-01 -7.418470391963418e-02
1.222857142857100e+11 2.326567264844079e-01 -7.413933552577709e-02
1.223265306122400e+11 2.327212736296917e-01 -7.409499122615236e-02
1.223673469387800e+11 2.327862138154560e-01 -7.405165580629057e-02
1.224081632653100e+11 2.328515417852541e-01 -7.400931383644727e-02
1.224489795918400e+11 2.329172520796231e-01 -7.396794968857984e-02
1.224897959183700e+11 2.329833391104623e-01 -7.392754757660518e-02
1.225306122449000e+11 2.330497972506712e-01 -7.388809160440167e-02
1.225714285714300e+11 2.331166209916811e-01 -7.384956578541808e-02
1.226122448979600e+11 2.331838049782002e-01 -7.381195404440964e-02
1.226530612244900e+11 2.332513440735615e-01 -7.377524020158807e-02
1.226938775510200e+11 2.333192334125459e-01 -7.373940798005575e-02
1.227346938775500e+11 2.333874683654574e-01 -7.370444093134622e-02
1.227755102040800e+11 2.334560444984978e-01 -7.367032233516056e-02
1.228163265306100e+11 2.335249575257865e-01 -7.363703504646128e-02
1.228571428571400e+11 2.335942031870988e-01 -7.360456142883393e-02
1.228979591836700e+11 2.336637771710142e-01 -7.357288328714781e-02
1.229387755102000e+11 2.337336750615116e-01 -7.354198178105026e-02
1.229795918367300e+11 2.338038922957032e-01 -7.351183733412800e-02
1.230204081632700e+11 2.338744241012446e-01 -7.348242960649437e-02
1.230612244898000e+11 2.339452653947545e-01 -7.345373742762178e-02
1.231020408163300e+11 2.340164107264228e-01 -7.342573874936983e-02
1.231428571428600e+11 2.340878542899373e-01 -7.339841067193938e-02
1.231836734693900e+11 2.341595899436339e-01 -7.337172951358062e-02
1.232244897959200e+11 2.342316112141956e-01 -7.334567090119311e-02
1.232653061224500e+11 2.343039113019492e-01 -7.332020985650846e-02
1.233061224489800e+11 2.343764830538806e-01 -7.329532089331513e-02
1.233469387755100e+11 2.344493189600229e-01 -7.327097810692203e-02
1.233877551020400e+11 2.345224111628348e-01 -7.324715533260405e-02
1.234285714285700e+11 2.345957514565619e-01 -7.322382627189987e-02
1.234693877551000e+11 2.346693312762118e-01 -7.320096457314794e-02
1.235102040816300e+11 2.347431416384103e-01 -7.317854387101909e-02
1.235510204081600e+11 2.348171731563767e-01 -7.315653782619408e-02
1.235918367346900e+11 2.348914160450011e-01 -7.313492016321217e-02
1.236326530612200e+11 2.349658601814621e-01 -7.311366471427151e-02
1.236734693877600e+11 2.350404951798820e-01 -7.309274539151923e-02
1.237142857142900e+11 2.351153104544648e-01 -7.307213615295553e-02
1.237551020408200e+11 2.351902953328668e-01 -7.305181095897327e-02
1.237959183673500e+11 2.352654391820726e-01 -7.303174375414985e-02
1.238367346938800e+11 2.353407314993357e-01 -7.301190843524774e-02
1.238775510204100e+11 2.354161620055419e-01 -7.299227881039390e-02
1.239183673469400e+11 2.354917207251336e-01 -7.297282862360943e-02
1.239591836734700e+11 2.355673981109586e-01 -7.295353157023030e-02
1.240000000000000e+11 2.356431850976760e-01 -7.293436131441085e-02
1.240408163265300e+11 2.357190730581135e-01 -7.291529151675304e-02
1.240816326530600e+11 2.357950537403010e-01 -7.289629585620125e-02
1.241224489795900e+11 2.358711192182647e-01 -7.287734798331670e-02
1.241632653061200e+11 2.359472618202353e-01 -7.285842152267107e-02
1.242040816326500e+11 2.360234740057122e-01 -7.283949007481413e-02
1.242448979591800e+11 2.360997482234650e-01 -7.282052719477405e-02
1.242857142857100e+11 2.361760768607052e-01 -7.280150641871881e-02
1.243265306122400e+11 2.362524521866038e-01 -7.278240130384374e-02
1.243673469387800e+11 2.363288663265816e-01 -7.276318550723561e-02
1.244081632653100e+11 2.364053112448613e-01 -7.274383285895696e-02
1.244489795918400e+11 2.364817787347448e-01 -7.272431737334596e-02
1.244897959183700e+11 2.365582604168499e-01 -7.270461331481902e-02
1.245306122449000e+11 2.366347478081127e-01 -7.268469528495466e-02
1.245714285714300e+11 2.367112323812907e-01 -7.266453835827567e-02
1.246122448979600e+11 2.367877056005433e-01 -7.264411816254880e-02
1.246530612244900e+11 2.368641589532870e-01 -7.262341090085807e-02
1.246938775510200e+11 2.369405839450550e-01 -7.260239338238167e-02
1.247346938775500e+11 2.370169721245063e-01 -7.258104306395388e-02
1.247755102040800e+11 2.370933150988893e-01 -7.255933808425769e-02
1.248163265306100e+11 2.371696045147192e-01 -7.253725726641708e-02
1.248571428571400e+11 2.372458320341747e-01 -7.251478006771928e-02
1.248979591836700e+11 2.373219892774824e-01 -7.249188653013325e-02
1.249387755102000e+11 2.373980677639315e-01 -7.246855727660792e-02
1.249795918367300e+11 2.374740588562373e-01 -7.244477343373784e-02
1.250204081632700e+11 2.375499536951787e-01 -7.242051658394293e-02
1.250612244898000e+11 2.376257431014259e-01 -7.239576871320716e-02
1.251020408163300e+11 2.377014174733320e-01 -7.237051218168787e-02
1.251428571428600e+11 2.377769667242678e-01 -7.234472968139707e-02
1.251836734693900e+11 2.378523802330102e-01 -7.231840423205665e-02
1.252244897959200e+11 2.379276468247244e-01 -7.229151917570706e-02
1.252653061224500e+11 2.380027547694724e-01 -7.226405822932766e-02
1.253061224489800e+11 2.380776917545620e-01 -7.223600548241668e-02
1.253469387755100e+11 2.381524449384899e-01 -7.220734544756315e-02
1.253877551020400e+11 2.382270009628535e-01 -7.217806315046746e-02
1.254285714285700e+11 2.383013459350819e-01 -7.214814420298436e-02
1.254693877551000e+11 2.383754654507201e-01 -7.211757486688833e-02
1.255102040816300e+11 2.384493445792229e-01 -7.208634214642055e-02
1.255510204081600e+11 2.385229678408983e-01 -7.205443386000158e-02
1.255918367346900e+11 2.385963192144160e-01 -7.202183870262395e-02
1.256326530612200e+11 2.386693821759453e-01 -7.198854624525695e-02
1.256734693877600e+11 2.387421397153928e-01 -7.195454697859668e-02
1.257142857142900e+11 2.388145743697122e-01 -7.191983232010933e-02
1.257551020408200e+11 2.388866682882989e-01 -7.188439461992213e-02
1.257959183673500e+11 2.389584033500490e-01 -7.184822713869971e-02
1.258367346938800e+11 2.390297612280121e-01 -7.181132403042420e-02
1.258775510204100e+11 2.391007234730966e-01 -7.177368027754930e-02
1.259183673469400e+11 2.391712715886760e-01 -7.173529166846693e-02
1.259591836734700e+11 2.392413871043580e-01 -7.169615475872239e-02
1.260000000000000e+11 2.393110515935369e-01 -7.165626683846864e-02
1.260408163265300e+11 2.393802467015046e-01 -7.161562589977497e-02
1.260816326530600e+11 2.394489541680556e-01 -7.157423056601002e-02
1.261224489795900e+11 2.395171558370019e-01 -7.153208005316397e-02
1.261632653061200e+11 2.395848335711497e-01 -7.148917413501429e-02
1.262040816326500e+11 2.396519692065338e-01 -7.144551312375981e-02
1.262448979591800e+11 2.397185444423629e-01 -7.140109786554794e-02
1.262857142857100e+11 2.397845407471891e-01 -7.135592969314523e-02
1.263265306122400e+11 2.398499392584968e-01 -7.131001038388325e-02
1.263673469387800e+11 2.399147206777565e-01 -7.126334215379104e-02
1.264081632653100e+11 2.399788652320113e-01 -7.121592769647239e-02
1.264489795918400e+11 2.400423526341040e-01 -7.116777022924929e-02
1.264897959183700e+11 2.401051620209862e-01 -7.111887347315235e-02
1.265306122449000e+11 2.401672718989942e-01 -7.106924167094872e-02
1.265714285714300e+11 2.402286601456657e-01 -7.101887967345262e-02
1.266122448979600e+11 2.402893039900733e-01 -7.096779299376246e-02
1.266530612244900e+11 2.403491800162068e-01 -7.091598783308063e-02
1.266938775510200e+11 2.404082641811451e-01 -7.086347109456670e-02
1.267346938775500e+11 2.404665318687413e-01 -7.081025039545817e-02
1.267755102040800e+11 2.405239579501062e-01 -7.075633413982009e-02
1.268163265306100e+11 2.405805168173896e-01 -7.070173152110205e-02
1.268571428571400e+11 2.406361824322658e-01 -7.064645253341124e-02
1.268979591836700e+11 2.406909283632620e-01 -7.059050797647069e-02
1.269387755102000e+11 2.407447278698882e-01 -7.053390941363651e-02
1.269795918367300e+11 2.407975539830034e-01 -7.047666915141949e-02
1.270204081632700e+11 2.408493795539177e-01 -7.041880025440603e-02
1.270612244898000e+11 2.409001773086820e-01 -7.036031652770579e-02
1.271020408163300e+11 2.409499199030488e-01 -7.030123247621846e-02
1.271428571428600e+11 2.409985800071553e-01 -7.024156322984906e-02
1.271836734693900e+11 2.410461303936509e-01 -7.018132445863785e-02
1.272244897959200e+11 2.410925440450911e-01 -7.012053228595354e-02
1.272653061224500e+11 2.411377942509588e-01 -7.005920322411721e-02
1.273061224489800e+11 2.411818546607131e-01 -6.999735412550030e-02
1.273469387755100e+11 2.412246993125381e-01 -6.993500209671250e-02
1.273877551020400e+11 2.412663026949288e-01 -6.987216442524198e-02
1.274285714285700e+11 2.413066397866089e-01 -6.980885853151364e-02
1.274693877551000e+11 2.413456860665228e-01 -6.974510197141973e-02
1.275102040816300e+11 2.413834174793778e-01 -6.968091240444238e-02
1.275510204081600e+11 2.414198104031487e-01 -6.961630759929387e-02
1.275918367346900e+11 2.414548415850781e-01 -6.955130544387529e-02
1.276326530612200e+11 2.414884881267705e-01 -6.948592394289274e-02
1.276734693877600e+11 2.415207274723360e-01 -6.942018122138363e-02
1.277142857142900e+11 2.415515373736962e-01 -6.935409552858429e-02
1.277551020408200e+11 2.415808958557377e-01 -6.928768525247758e-02
1.277959183673500e+11 2.416087812075514e-01 -6.922096893571598e-02
1.278367346938800e+11 2.416351720291481e-01 -6.915396532549951e-02
1.278775510204100e+11 2.416600472672326e-01 -6.908669332774223e-02
1.279183673469400e+11 2.416833862734714e-01 -6.901917199288300e-02
1.279591836734700e+11 2.417051688474714e-01 -6.895142048826190e-02
1.280000000000000e+11 2.417253752714950e-01 -6.888345812915857e-02
1.280408163265300e+11 2.417439862751284e-01 -6.881530438021410e-02
1.280816326530600e+11 2.417609830100373e-01 -6.874697883101542e-02
1.281224489795900e+11 2.417763470062103e-01 -6.867850118078174e-02
1.281632653061200e+11 2.417900601483634e-01 -6.860989119304671e-02
1.282040816326500e+11 2.418021046523821e-01 -6.854116860204533e-02
1.282448979591800e+11 2.418124630164035e-01 -6.847235304068539e-02
1.282857142857100e+11 2.418211180232881e-01 -6.840346398237798e-02
1.283265306122400e+11 2.418280527370582e-01 -6.833452070687739e-02
1.283673469387800e+11 2.418332504936056e-01 -6.826554226191991e-02
1.284081632653100e+11 2.418366948993848e-01 -6.819654738711917e-02
1.284489795918400e+11 2.418383698405225e-01 -6.812755450562173e-02
1.284897959183700e+11 2.418382594937709e-01 -6.805858175989563e-02
1.285306122449000e+11 2.418363483417310e-01 -6.798964703326368e-02
1.285714285714300e+11 2.418326212172654e-01 -6.792076802654939e-02
1.286122448979600e+11 2.418270633658012e-01 -6.785196232808277e-02
1.286530612244900e+11 2.418196605170919e-01 -6.778324745570864e-02
1.286938775510200e+11 2.418103989396373e-01 -6.771464095657295e-02
1.287346938775500e+11 2.417992655425188e-01 -6.764616050027514e-02
1.287755102040800e+11 2.417862479779936e-01 -6.757782397685111e-02
1.288163265306100e+11 2.417713347261674e-01 -6.750964955051733e-02
1.288571428571400e+11 2.417545152070782e-01 -6.744165575809716e-02
1.288979591836700e+11 2.417357798585074e-01 -6.737386153462099e-02
1.289387755102000e+11 2.417151202878721e-01 -6.730628625991274e-02
1.289795918367300e+11 2.416925294014493e-01 -6.723894974181970e-02
1.290204081632700e+11 2.416680015067742e-01 -6.717187214823005e-02
1.290612244898000e+11 2.416415324323199e-01 -6.710507396354437e-02
1.291020408163300e+11 2.416131196286506e-01 -6.703857592675880e-02
1.291428571428600e+11 2.415827623086366e-01 -6.697239889941993e-02
1.291836734693900e+11 2.415504615254263e-01 -6.690656375242617e-02
1.292244897959200e+11 2.415162202769244e-01 -6.684109123179988e-02
1.292653061224500e+11 2.414800435810860e-01 -6.677600181795378e-02
1.293061224489800e+11 2.414419384614740e-01 -6.671131563863424e-02
1.293469387755100e+11 2.414019139108232e-01 -6.664705234916804e-02
1.293877551020400e+11 2.413599808958151e-01 -6.658323104452374e-02
1.294285714285700e+11 2.413161522528210e-01 -6.651987019005615e-02
1.294693877551000e+11 2.412704425607864e-01 -6.645698759950086e-02
1.295102040816300e+11 2.412228679810393e-01 -6.639460040255155e-02
1.295510204081600e+11 2.411734461439952e-01 -6.633272502015394e-02
1.295918367346900e+11 2.411221959860317e-01 -6.627137713311640e-02
1.296326530612200e+11 2.410691376191508e-01 -6.621057172341850e-02
1.296734693877600e+11 2.410142921591232e-01 -6.615032314244314e-02
1.297142857142900e+11 2.409576815762379e-01 -6.609064517153146e-02
1.297551020408200e+11 2.408993285641469e-01 -6.603155113952765e-02
1.297959183673500e+11 2.408392564258686e-01 -6.597305404113692e-02
1.298367346938800e+11 2.407774889874577e-01 -6.591516665658748e-02
1.298775510204100e+11 2.407140505331548e-01 -6.585790170428278e-02
1.299183673469400e+11 2.406489657417273e-01 -6.580127196489081e-02
1.299591836734700e+11 2.405822597037566e-01 -6.574529034890712e-02
1.300000000000000e+11 2.405139579879217e-01 -6.568997002270936e-02
1.300408163265300e+11 2.404440867287115e-01 -6.563532450788984e-02
1.300816326530600e+11 2.403726727113754e-01 -6.558136776558339e-02
1.301224489795900e+11 2.402997434779646e-01 -6.552811427824641e-02
1.301632653061200e+11 2.402253274401381e-01 -6.547557912179132e-02
1.302040816326500e+11 2.401494539444244e-01 -6.542377803257653e-02
1.302448979591800e+11 2.400721533661129e-01 -6.537272738476552e-02
1.302857142857100e+11 2.399934572231039e-01 -6.532244414360669e-02
1.303265306122400e+11 2.399133981764307e-01 -6.527294579121794e-02
1.303673469387800e+11 2.398320100623664e-01 -6.522425025231335e-02
1.304081632653100e+11 2.397493279030321e-01 -6.517637585214735e-02
1.304489795918400e+11 2.396653878432799e-01 -6.512934118461557e-02
1.304897959183700e+11 2.395802271536424e-01 -6.508316504402013e-02
1.305306122449000e+11 2.394938842240972e-01 -6.503786633974395e-02
1.305714285714300e+11 2.394063985078641e-01 -6.499346404855962e-02
1.306122448979600e+11 2.393178104814899e-01 -6.494997713336464e-02
1.306530612244900e+11 2.392281616441829e-01 -6.490742445027262e-02
1.306938775510200e+11 2.391374944933897e-01 -6.486582469486996e-02
1.307346938775500e+11 2.390458525362634e-01 -6.482519630756364e-02
1.307755102040800e+11 2.389532802712642e-01 -6.478555740744939e-02
1.308163265306100e+11 2.388598231445570e-01 -6.474692582508854e-02
1.308571428571400e+11 2.387655274927808e-01 -6.470931914338673e-02
1.308979591836700e+11 2.386704404749952e-01 -6.467275474578282e-02
1.309387755102000e+11 2.385746099906718e-01 -6.463724982663456e-02
1.309795918367300e+11 2.384780845710996e-01 -6.460282142743483e-02
1.310204081632700e+11 2.383809132540116e-01 -6.456948647156822e-02
1.310612244898000e+11 2.382831454268978e-01 -6.453726175213712e-02
1.311020408163300e+11 2.381848306012145e-01 -6.450616399038697e-02
1.311428571428600e+11 2.380860183012680e-01 -6.447620981619387e-02
1.311836734693900e+11 2.379867579606705e-01 -6.444741576788793e-02
1.312244897959200e+11 2.378870988261378e-01 -6.441979838279804e-02
1.312653061224500e+11 2.377870898852955e-01 -6.439337420813633e-02
1.313061224489800e+11 2.376867797809048e-01 -6.436815973306545e-02
1.313469387755100e+11 2.375862167764253e-01 -6.434417131961591e-02
1.313877551020400e+11 2.374854487237108e-01 -6.432142518040440e-02
1.314285714285700e+11 2.373845231069414e-01 -6.429993735854019e-02
1.314693877551000e+11 2.372834870699571e-01 -6.427972373425528e-02
1.315102040816300e+11 2.371823874152375e-01 -6.426079996872380e-02
1.315510204081600e+11 2.370812705715044e-01 -6.424318149185246e-02
1.315918367346900e+11 2.369801826170924e-01 -6.422688349957420e-02
1.316326530612200e+11 2.368791693376591e-01 -6.421192089203789e-02
1.316734693877600e+11 2.367782761922119e-01 -6.419830826525402e-02
1.317142857142900e+11 2.366775482708581e-01 -6.418605990630860e-02
1.317551020408200e+11 2.365770302080799e-01 -6.417518976735090e-02
1.317959183673500e+11 2.364767660731588e-01 -6.416571145470826e-02
1.318367346938800e+11 2.363767992846967e-01 -6.415763819222987e-02
1.318775510204100e+11 2.362771725059057e-01 -6.415098279823545e-02
1.319183673469400e+11 2.361779275283203e-01 -6.414575768313896e-02
1.319591836734700e+11 2.360791051512421e-01 -6.414197483675556e-02
1.320000000000000e+11 2.359807450671618e-01 -6.413964577621416e-02
1.320408163265300e+11 2.358828858265301e-01 -6.413878145140293e-02
1.320816326530600e+11 2.357855648466252e-01 -6.413939218853699e-02
1.321224489795900e+11 2.356888184088640e-01 -6.414148765881877e-02
1.321632653061200e+11 2.355926817451677e-01 -6.414507677820171e-02
1.322040816326500e+11 2.354971891347016e-01 -6.415016763134671e-02
1.322448979591800e+11 2.354023740085351e-01 -6.415676744096879e-02
1.322857142857100e+11 2.353082691034537e-01 -6.416488254546618e-02
1.323265306122400e+11 2.352149065650543e-01 -6.417451830561419e-02
1.323673469387800e+11 2.351223180216533e-01 -6.418567903335129e-02
1.324081632653100e+11 2.350305346668889e-01 -6.419836797952347e-02
1.324489795918400e+11 2.349395872745282e-01 -6.421258733803474e-02
1.324897959183700e+11 2.348495061791432e-01 -6.422833820450795e-02
1.325306122449000e+11 2.347603211922878e-01 -6.424562046868683e-02
1.325714285714300e+11 2.346720615973318e-01 -6.426443280982773e-02
1.326122448979600e+11 2.345847560759638e-01 -6.428477263218071e-02
1.326530612244900e+11 2.344984325938820e-01 -6.430663595734638e-02
1.326938775510200e+11 2.344131182779357e-01 -6.433001736389590e-02
1.327346938775500e+11 2.343288393040660e-01 -6.435490996333555e-02
1.327755102040800e+11 2.342456208124108e-01 -6.438130536029781e-02
1.328163265306100e+11 2.341634867532795e-01 -6.440919364352772e-02
1.328571428571400e+11 2.340824597961842e-01 -6.443856328619743e-02
1.328979591836700e+11 2.340025612274053e-01 -6.446940117709300e-02
1.329387755102000e+11 2.339238109777516e-01 -6.450169268560056e-02
1.329795918367300e+11 2.338462276614037e-01 -6.453542171640299e-02
1.330204081632700e+11 2.337698285842967e-01 -6.457057081318675e-02
1.330612244898000e+11 2.336946297996757e-01 -6.460712133301882e-02
1.331020408163300e+11 2.336206461035713e-01 -6.464505358343449e-02
1.331428571428600e+11 2.335478911116071e-01 -6.468434701685413e-02
1.331836734693900e+11 2.334763773194385e-01 -6.472498035639163e-02
1.332244897959200e+11 2.334061161126911e-01 -6.476693172388956e-02
1.332653061224500e+11 2.333371177358181e-01 -6.481017874076483e-02
1.333061224489800e+11 2.332693912813503e-01 -6.485469864175207e-02
1.333469387755100e+11 2.332029447070640e-01 -6.490046842483542e-02
1.333877551020400e+11 2.331377849323849e-01 -6.494746492263015e-02
1.334285714285700e+11 2.330739179320108e-01 -6.499566484478560e-02
1.334693877551000e+11 2.330113487603051e-01 -6.504504480696781e-02
1.335102040816300e+11 2.329500815799889e-01 -6.509558130875941e-02
1.335510204081600e+11 2.328901196654169e-01 -6.514725071270870e-02
1.335918367346900e+11 2.328314654951156e-01 -6.520002917310720e-02
1.336326530612200e+11 2.327741208360082e-01 -6.525389259795929e-02
1.336734693877600e+11 2.327180868089335e-01 -6.530881654375406e-02
1.337142857142900e+11 2.326633639613654e-01 -6.536477610625195e-02
1.337551020408200e+11 2.326099523407557e-01 -6.542174582237249e-02
1.337959183673500e+11 2.325578515949516e-01 -6.547969962198365e-02
1.338367346938800e+11 2.325070609838330e-01 -6.553861072900878e-02
1.338775510204100e+11 2.324575793944422e-01 -6.559845150737260e-02
1.339183673469400e+11 2.324094053107936e-01 -6.565919334590631e-02
1.339591836734700e+11 2.323625368155035e-01 -6.572080649622720e-02
1.340000000000000e+11 2.323169715401772e-01 -6.578326000620080e-02
1.340408163265300e+11 2.322727065451746e-01 -6.584652166491638e-02
1.340816326530600e+11 2.322297381730414e-01 -6.591055793908668e-02
1.341224489795900e+11 2.321880618791221e-01 -6.597533391167078e-02
1.341632653061200e+11 2.321476721070032e-01 -6.604081328829910e-02
1.342040816326500e+11 2.321085621360445e-01 -6.610695843736329e-02
1.342448979591800e+11 2.320707240097800e-01 -6.617373044371283e-02
1.342857142857100e+11 2.320341484596045e-01 -6.624108918766104e-02
1.343265306122400e+11 2.319988248650972e-01 -6.630899340330036e-02
1.343673469387800e+11 2.319647412124714e-01 -6.637740082764522e-02
1.344081632653100e+11 2.319318840722992e-01 -6.644626833582253e-02
1.344489795918400e+11 2.319002385917655e-01 -6.651555202169646e-02
1.344897959183700e+11 2.318697884960187e-01 -6.658520731330307e-02
1.345306122449000e+11 2.318405161955493e-01 -6.665518911122920e-02
1.345714285714300e+11 2.318124029143257e-01 -6.672545194637669e-02
1.346122448979600e+11 2.317854287966626e-01 -6.679595011499302e-02
1.346530612244900e+11 2.317595729910713e-01 -6.686663780323217e-02
1.346938775510200e+11 2.317348137877279e-01 -6.693746918176341e-02
1.347346938775500e+11 2.317111287650391e-01 -6.700839851131236e-02
1.347755102040800e+11 2.316884949385141e-01 -6.707938025662190e-02
1.348163265306100e+11 2.316668888487325e-01 -6.715036916767919e-02
1.348571428571400e+11 2.316462866516675e-01 -6.722132030980132e-02
1.348979591836700e+11 2.316266641128936e-01 -6.729218907648908e-02
1.349387755102000e+11 2.316079966458570e-01 -6.736293122619441e-02
1.349795918367300e+11 2.315902592987865e-01 -6.743350296067123e-02
1.350204081632700e+11 2.315734267489507e-01 -6.750386092195355e-02
1.350612244898000e+11 2.315574733162305e-01 -6.757396220235680e-02
1.351020408163300e+11 2.315423729423473e-01 -6.764376437182684e-02
1.351428571428600e+11 2.315280991043312e-01 -6.771322554644492e-02
1.351836734693900e+11 2.315146247823592e-01 -6.778230445333459e-02
1.352244897959200e+11 2.315019224468749e-01 -6.785096047755305e-02
1.352653061224500e+11 2.314899640584430e-01 -6.791915374883133e-02
1.353061224489800e+11 2.314787210540988e-01 -6.798684519895035e-02
1.353469387755100e+11 2.314681643847208e-01 -6.805399664327171e-02
1.353877551020400e+11 2.314582645437601e-01 -6.812057086718386e-02
1.354285714285700e+11 2.314489915566727e-01 -6.818653169454200e-02
1.354693877551000e+11 2.314403149814140e-01 -6.825184408630877e-02
1.355102040816300e+11 2.314322039358268e-01 -6.831647422931006e-02
1.355510204081600e+11 2.314246271565311e-01 -6.838038959180429e-02
1.355918367346900e+11 2.314175530422919e-01 -6.844355895594607e-02
1.356326530612200e+11 2.314109496374984e-01 -6.850595246407894e-02
1.356734693877600e+11 2.314047846625869e-01 -6.856754160043632e-02
1.357142857142900e+11 2.313990256604372e-01 -6.862829917097613e-02
1.357551020408200e+11 2.313936401398393e-01 -6.868819921596787e-02
1.357959183673500e+11 2.313885956253312e-01 -6.874721701534110e-02
1.358367346938800e+11 2.313838596518207e-01 -6.880532910995375e-02
1.358775510204100e+11 2.313793998375530e-01 -6.886251329305217e-02
1.359183673469400e+11 2.313751839422028e-01 -6.891874854839553e-02
1.359591836734700e+11 2.313711799786191e-01 -6.897401492964587e-02
1.360000000000000e+11 2.313673562800080e-01 -6.902829351839151e-02
1.360408163265300e+11 2.313636815285574e-01 -6.908156636211597e-02
1.360816326530600e+11 2.313601247800981e-01 -6.913381638697493e-02
1.361224489795900e+11 2.313566555070680e-01 -6.918502737283266e-02
1.361632653061200e+11 2.313532436611027e-01 -6.923518389691606e-02
1.362040816326500e+11 2.313498596845529e-01 -6.928427128816574e-02
1.362448979591800e+11 2.313464745056557e-01 -6.933227560561439e-02
1.362857142857100e+11 2.313430595177106e-01 -6.937918360720426e-02
1.363265306122400e+11 2.313395864897909e-01 -6.942498278167804e-02
1.363673469387800e+11 2.313360275339096e-01 -6.946966137708857e-02
1.364081632653100e+11 2.313323551043975e-01 -6.951320842540168e-02
1.364489795918400e+11 2.313285420198680e-01 -6.955561376051865e-02
1.364897959183700e+11 2.313245614674205e-01 -6.959686811488153e-02
1.365306122449000e+11 2.313203869682836e-01 -6.963696320210863e-02
1.365714285714300e+11 2.313159924247721e-01 -6.967589179266849e-02
1.366122448979600e+11 2.313113521762795e-01 -6.971364778084906e-02
1.366530612244900e+11 2.313064409818114e-01 -6.975022625682648e-02
1.366938775510200e+11 2.313012340819282e-01 -6.978562355767068e-02
1.367346938775500e+11 2.312957072838039e-01 -6.981983727919996e-02
1.367755102040800e+11 2.312898370872401e-01 -6.985286637232621e-02
1.368163265306100e+11 2.312836008006925e-01 -6.988471119714823e-02
1.368571428571400e+11 2.312769765738290e-01 -6.991537355049539e-02
1.368979591836700e+11 2.312699434554973e-01 -6.994485668621570e-02
1.369387755102000e+11 2.312624815251738e-01 -6.997316526206784e-02
1.369795918367300e+11 2.312545719860017e-01 -7.000030535106345e-02
1.370204081632700e+11 2.312461971253568e-01 -7.002628445980009e-02
1.370612244898000e+11 2.312373403236776e-01 -7.005111149799902e-02
1.371020408163300e+11 2.312279861296179e-01 -7.007479668766817e-02
1.371428571428600e+11 2.312181203131473e-01 -7.009735147035551e-02
1.371836734693900e+11 2.312077298880684e-01 -7.011878843934180e-02
1.372244897959200e+11 2.311968031289665e-01 -7.013912131310159e-02
1.372653061224500e+11 2.311853295495847e-01 -7.015836490764372e-02
1.373061224489800e+11 2.311732999237433e-01 -7.017653507888967e-02
1.373469387755100e+11 2.311607062772901e-01 -7.019364865336043e-02
1.373877551020400e+11 2.311475419059962e-01 -7.020972340566395e-02
1.374285714285700e+11 2.311338013858371e-01 -7.022477799343048e-02
1.374693877551000e+11 2.311194806132904e-01 -7.023883192779347e-02
1.375102040816300e+11 2.311045767590720e-01 -7.025190552240046e-02
1.375510204081600e+11 2.310890882350603e-01 -7.026401989823022e-02
1.375918367346900e+11 2.310730146784783e-01 -7.027519691763914e-02
1.376326530612200e+11 2.310563569647971e-01 -7.028545911586599e-02
1.376734693877600e+11 2.310391171340903e-01 -7.029482967935199e-02
1.377142857142900e+11 2.310212983037424e-01 -7.030333244248865e-02
1.377551020408200e+11 2.310029045675998e-01 -7.031099182493272e-02
1.377959183673500e+11 2.309839409713839e-01 -7.031783275618302e-02
1.378367346938800e+11 2.309644134698758e-01 -7.032388063257869e-02
1.378775510204100e+11 2.309443288274173e-01 -7.032916128165613e-02
1.379183673469400e+11 2.309236945959809e-01 -7.033370090463721e-02
1.379591836734700e+11 2.309025190859716e-01 -7.033752600255479e-02
1.380000000000000e+11 2.308808113123053e-01 -7.034066328932889e-02
1.380408163265300e+11 2.308585809531286e-01 -7.034313966144835e-02
1.380816326530600e+11 2.308358383265744e-01 -7.034498218567879e-02
1.381224489795900e+11 2.308125943804487e-01 -7.034621805266932e-02
1.381632653061200e+11 2.307888606682539e-01 -7.034687452360211e-02
1.382040816326500e+11 2.307646493417387e-01 -7.034697893463961e-02
1.382448979591800e+11 2.307399731974317e-01 -7.034655863659811e-02
1.382857142857100e+11 2.307148456895307e-01 -7.034564091593945e-02
1.383265306122400e+11 2.306892809472848e-01 -7.034425302074143e-02
1.383673469387800e+11 2.306632937092037e-01 -7.034242220596873e-02
1.384081632653100e+11 2.306368993467442e-01 -7.034017569677023e-02
1.384489795918400e+11 2.306101138796265e-01 -7.033754066010128e-02
1.384897959183700e+11 2.305829539631413e-01 -7.033454420165987e-02
1.385306122449000e+11 2.305554368144882e-01 -7.033121336015141e-02
1.385714285714300e+11 2.305275801717562e-01 -7.032757509104533e-02
1.386122448979600e+11 2.304994022918930e-01 -7.032365624136423e-02
1.386530612244900e+11 2.304709218877616e-01 -7.031948356239780e-02
1.386938775510200e+11 2.304421580474419e-01 -7.031508371464308e-02
1.387346938775500e+11 2.304131301553259e-01 -7.031048328244224e-02
1.387755102040800e+11 2.303838578692580e-01 -7.030570874824046e-02
1.388163265306100e+11 2.303543611443816e-01 -7.030078645463059e-02
1.388571428571400e+11 2.303246602889007e-01 -7.029574264435348e-02
1.388979591836700e+11 2.302947759608849e-01 -7.029060345266751e-02
1.389387755102000e+11 2.302647292195269e-01 -7.028539488484085e-02
1.389795918367300e+11 2.302345415518802e-01 -7.028014280726969e-02
1.390204081632700e+11 2.302042349956252e-01 -7.027487290574680e-02
1.390612244898000e+11 2.301738322748467e-01 -7.026961067224817e-02
1.391020408163300e+11 2.301433569174232e-01 -7.026438136402552e-02
1.391428571428600e+11 2.301128332725300e-01 -7.025920998267310e-02
1.391836734693900e+11 2.300822864977097e-01 -7.025412129427190e-02
1.392244897959200e+11 2.300517425369930e-01 -7.024913973898561e-02
1.392653061224500e+11 2.300212281686307e-01 -7.024428934376636e-02
1.393061224489800e+11 2.299907710126269e-01 -7.023959356781793e-02
1.393469387755100e+11 2.299603994660439e-01 -7.023507523988254e-02
1.393877551020400e+11 2.299301426414616e-01 -7.023075648840933e-02
1.394285714285700e+11 2.299000303400861e-01 -7.022665864642691e-02
1.394693877551000e+11 2.298700929766737e-01 -7.022280215762154e-02
1.395102040816300e+11 2.298403615218965e-01 -7.021920645137766e-02
1.395510204081600e+11 2.298108674235805e-01 -7.021588987660188e-02
1.395918367346900e+11 2.297816425730684e-01 -7.021286967462886e-02
1.396326530612200e+11 2.297527192584298e-01 -7.021016197321123e-02
1.396734693877600e+11 2.297241300618858e-01 -7.020778178867026e-02
1.397142857142900e+11 2.296959077888353e-01 -7.020574297291048e-02
1.397551020408200e+11 2.296680853940268e-01 -7.020405822977267e-02
1.397959183673500e+11 2.296406959588034e-01 -7.020273920580643e-02
1.398367346938800e+11 2.296137726377303e-01 -7.020179652582198e-02
1.398775510204100e+11 2.295873486605364e-01 -7.020123978133742e-02
1.399183673469400e+11 2.295614572052516e-01 -7.020107752968556e-02
1.399591836734700e+11 2.295361313977256e-01 -7.020131731839123e-02
1.400000000000000e+11 2.295114042196816e-01 -7.020196576461636e-02
1.400408163265300e+11 2.294873084928739e-01 -7.020302855763055e-02
1.400816326530600e+11 2.294638769192691e-01 -7.020451048023905e-02
1.401224489795900e+11 2.294411420304611e-01 -7.020641543848181e-02
1.401632653061200e+11 2.294191361392940e-01 -7.020874650794229e-02
1.402040816326500e+11 2.293978912307846e-01 -7.021150610878302e-02
1.402448979591800e+11 2.293774388535290e-01 -7.021469605280295e-02
1.402857142857100e+11 2.293578101269454e-01 -7.021831755604137e-02
1.403265306122400e+11 2.293390357526391e-01 -7.022237124487052e-02
1.403673469387800e+11 2.293211459901412e-01 -7.022685720659801e-02
1.404081632653100e+11 2.293041705860176e-01 -7.023177506006885e-02
1.404489795918400e+11 2.292881388025222e-01 -7.023712402771640e-02
1.404897959183700e+11 2.292730795103172e-01 -7.024290292046889e-02
1.405306122449000e+11 2.292590212053940e-01 -7.024911016404060e-02
1.405714285714300e+11 2.292459920558993e-01 -7.025574377268851e-02
1.406122448979600e+11 2.292340199621654e-01 -7.026280138175833e-02
1.406530612244900e+11 2.292231326476371e-01 -7.027028019882701e-02
1.406938775510200e+11 2.292133576787632e-01 -7.027817692585456e-02
1.407346938775500e+11 2.292047226112878e-01 -7.028648770339524e-02
1.407755102040800e+11 2.291972549851414e-01 -7.029520812568607e-02
1.408163265306100e+11 2.291909823866444e-01 -7.030433322565655e-02
1.408571428571400e+11 2.291859324029923e-01 -7.031385735587659e-02
1.408979591836700e+11 2.291821326047561e-01 -7.032377397734589e-02
1.409387755102000e+11 2.291796105168143e-01 -7.033407560373287e-02
1.409795918367300e+11 2.291783935713786e-01 -7.034475382618978e-02
1.410204081632700e+11 2.291785090339521e-01 -7.035579929114302e-02
1.410612244898000e+11 2.291799839837526e-01 -7.036720160465774e-02
1.411020408163300e+11 2.291828452853092e-01 -7.037894923301864e-02
1.411428571428600e+11 2.291871195455803e-01 -7.039102948828153e-02
1.411836734693900e+11 2.291928331779600e-01 -7.040342846891678e-02
1.412244897959200e+11 2.292000124349887e-01 -7.041613090540694e-02
1.412653061224500e+11 2.292086834704789e-01 -7.042912000788977e-02
1.413061224489800e+11 2.292188722320908e-01 -7.044237753532716e-02
1.413469387755100e+11 2.292306043287206e-01 -7.045588382681671e-02
1.413877551020400e+11 2.292439050363975e-01 -7.046961773395681e-02
1.414285714285700e+11 2.292587992908270e-01 -7.048355649038518e-02
1.414693877551000e+11 2.292753117255327e-01 -7.049767561372870e-02
1.415102040816300e+11 2.292934666013649e-01 -7.051194901060957e-02
1.415510204081600e+11 2.293132877061234e-01 -7.052634912478085e-02
1.415918367346900e+11 2.293347983211304e-01 -7.054084699780053e-02
1.416326530612200e+11 2.293580211088432e-01 -7.055541217892514e-02
1.416734693877600e+11 2.293829779424750e-01 -7.057001266457612e-02
1.417142857142900e+11 2.294096897602672e-01 -7.058461499710324e-02
1.417551020408200e+11 2.294381764245824e-01 -7.059918432750835e-02
1.417959183673500e+11 2.294684566075472e-01 -7.061368435235117e-02
1.418367346938800e+11 2.295005476284444e-01 -7.062807736772883e-02
1.418775510204100e+11 2.295344653567403e-01 -7.064232425398363e-02
1.419183673469400e+11 2.295702241028038e-01 -7.065638462913156e-02
1.419591836734700e+11 2.296078364399002e-01 -7.067021707055952e-02
1.420000000000000e+11 2.296473130193233e-01 -7.068377927313138e-02
1.420408163265300e+11 2.296886624762577e-01 -7.069702805207022e-02
1.420816326530600e+11 2.297318913535403e-01 -7.070991934596027e-02
1.421224489795900e+11 2.297770040210249e-01 -7.072240823963080e-02
1.421632653061200e+11 2.298240026377477e-01 -7.073444904825443e-02
1.422040816326500e+11 2.298728872255440e-01 -7.074599548583638e-02
1.422448979591800e+11 2.299236557768260e-01 -7.075700084553989e-02
1.422857142857100e+11 2.299763042469805e-01 -7.076741821766680e-02
1.423265306122400e+11 2.300308264931794e-01 -7.077720057913298e-02
1.423673469387800e+11 2.300872143188026e-01 -7.078630093888387e-02
1.424081632653100e+11 2.301454575904678e-01 -7.079467241805114e-02
1.424489795918400e+11 2.302055442626391e-01 -7.080226839049318e-02
1.424897959183700e+11 2.302674604310629e-01 -7.080904266893370e-02
1.425306122449000e+11 2.303311904035885e-01 -7.081494959269599e-02
1.425714285714300e+11 2.303967168351484e-01 -7.081994411105112e-02
1.426122448979600e+11 2.304640208576113e-01 -7.082398181921833e-02
1.426530612244900e+11 2.305330821450690e-01 -7.082701904915954e-02
1.426938775510200e+11 2.306038789539793e-01 -7.082901292668810e-02
1.427346938775500e+11 2.306763883256852e-01 -7.082992139393154e-02
1.427755102040800e+11 2.307505862815557e-01 -7.082970321645927e-02
1.428163265306100e+11 2.308264479387292e-01 -7.082831802157538e-02
1.428571428571400e+11 2.309039476113147e-01 -7.082572631014356e-02
1.428979591836700e+11 2.309830589977492e-01 -7.082188943531181e-02
1.429387755102000e+11 2.310637553148626e-01 -7.081676964257920e-02
1.429795918367300e+11 2.311460094055624e-01 -7.081033004869279e-02
1.430204081632700e+11 2.312297938630929e-01 -7.080253464104329e-02
1.430612244898000e+11 2.313150811045673e-01 -7.079334825305152e-02
1.431020408163300e+11 2.314018434850209e-01 -7.078273654194089e-02
1.431428571428600e+11 2.314900532993438e-01 -7.077066602567587e-02
1.431836734693900e+11 2.315796827299698e-01 -7.075710404054060e-02
1.432244897959200e+11 2.316707038411502e-01 -7.074201870495614e-02
1.432653061224500e+11 2.317630885824344e-01 -7.072537897406833e-02
1.433061224489800e+11 2.318568087781748e-01 -7.070715467362264e-02
1.433469387755100e+11 2.319518360743235e-01 -7.068731649427702e-02
1.433877551020400e+11 2.320481419563590e-01 -7.066583598978714e-02
1.434285714285700e+11 2.321456977136954e-01 -7.064268562748829e-02
1.434693877551000e+11 2.322444745014850e-01 -7.061783885014476e-02
1.435102040816300e+11 2.323444433154578e-01 -7.059127011026832e-02
1.435510204081600e+11 2.324455750084731e-01 -7.056295487385134e-02
1.435918367346900e+11 2.325478402780967e-01 -7.053286964563055e-02
1.436326530612200e+11 2.326512096867770e-01 -7.050099205702588e-02
1.436734693877600e+11 2.327556536718053e-01 -7.046730090782091e-02
1.437142857142900e+11 2.328611425750693e-01 -7.043177616727603e-02
1.437551020408200e+11 2.329676466585288e-01 -7.039439903499106e-02
1.437959183673500e+11 2.330751360606692e-01 -7.035515201019528e-02
1.438367346938800e+11 2.331835807567026e-01 -7.031401894109914e-02
1.438775510204100e+11 2.332929505812812e-01 -7.027098500176826e-02
1.439183673469400e+11 2.334032152105420e-01 -7.022603675099132e-02
1.439591836734700e+11 2.335143440393879e-01 -7.017916210382505e-02
1.440000000000000e+11 2.336263060612790e-01 -7.013035034350458e-02
1.440408163265300e+11 2.337390698759303e-01 -7.007959213428594e-02
1.440816326530600e+11 2.338526036390889e-01 -7.002687954299414e-02
1.441224489795900e+11 2.339668750863191e-01 -6.997220607883053e-02
1.441632653061200e+11 2.340818514783061e-01 -6.991556676609335e-02
1.442040816326500e+11 2.341974995887010e-01 -6.985695819423024e-02
1.442448979591800e+11 2.343137857737862e-01 -6.979637856289984e-02
1.442857142857100e+11 2.344306759197025e-01 -6.973382773253885e-02
1.443265306122400e+11 2.345481354369957e-01 -6.966930718185048e-02
1.443673469387800e+11 2.346661293342477e-01 -6.960281996208989e-02
1.444081632653100e+11 2.347846222095296e-01 -6.953437067359276e-02
1.444489795918400e+11 2.349035782494411e-01 -6.946396543593493e-02
1.444897959183700e+11 2.350229612871308e-01 -6.939161191213754e-02
1.445306122449000e+11 2.351427348601569e-01 -6.931731922012051e-02
1.445714285714300e+11 2.352628622309930e-01 -6.924109786211445e-02
1.446122448979600e+11 2.353833064212193e-01 -6.916295968944236e-02
1.446530612244900e+11 2.355040302124271e-01 -6.908291789779537e-02
1.446938775510200e+11 2.356249961969988e-01 -6.900098704641570e-02
1.447346938775500e+11 2.357461667828210e-01 -6.891718308474562e-02
1.447755102040800e+11 2.358675041770226e-01 -6.883152338048476e-02
1.448163265306100e+11 2.359889704330762e-01 -6.874402675591500e-02
1.448571428571400e+11 2.361105274652481e-01 -6.865471350591998e-02
1.448979591836700e+11 2.362321370516773e-01 -6.856360540764264e-02
1.449387755102000e+11 2.363537608954815e-01 -6.847072578436945e-02
1.449795918367300e+11 2.364753606665031e-01 -6.837609950769410e-02
1.450204081632700e+11 2.365968980253244e-01 -6.827975298431604e-02
1.450612244898000e+11 2.367183346378492e-01 -6.818171419614291e-02
1.451020408163300e+11 2.368396322017997e-01 -6.808201269400478e-02
1.451428571428600e+11 2.369607525135830e-01 -6.798067954786625e-02
1.451836734693900e+11 2.370816574504359e-01 -6.787774731368118e-02
1.452244897959200e+11 2.372023089677449e-01 -6.777324998054765e-02
1.452653061224500e+11 2.373226691109090e-01 -6.766722281208119e-02
1.453061224489800e+11 2.374426999801876e-01 -6.755970224958627e-02
1.453469387755100e+11 2.375623637224798e-01 -6.745072591141574e-02
1.453877551020400e+11 2.376816224877887e-01 -6.734033259847230e-02
1.454285714285700e+11 2.378004384503584e-01 -6.722856225023360e-02
1.454693877551000e+11 2.379187737963489e-01 -6.711545583498210e-02
1.455102040816300e+11 2.380365906654082e-01 -6.700105528261208e-02
1.455510204081600e+11 2.381538510682162e-01 -6.688540352982027e-02
1.455918367346900e+11 2.382705169327300e-01 -6.676854444358563e-02
1.456326530612200e+11 2.383865500940802e-01 -6.665052276674216e-02
1.456734693877600e+11 2.385019122430906e-01 -6.653138410169798e-02
1.457142857142900e+11 2.386165649184024e-01 -6.641117494563345e-02
1.457551020408200e+11 2.387304694564251e-01 -6.628994286136061e-02
1.457959183673500e+11 2.388435869333456e-01 -6.616773657626208e-02
1.458367346938800e+11 2.389558781534292e-01 -6.604460596834882e-02
1.458775510204100e+11 2.390673036830192e-01 -6.592060200536373e-02
1.459183673469400e+11 2.391778238757706e-01 -6.579577672648089e-02
1.459591836734700e+11 2.392873988935962e-01 -6.567018329325262e-02
1.460000000000000e+11 2.393959887090645e-01 -6.554387604330694e-02
1.460408163265300e+11 2.395035530567962e-01 -6.541691056695841e-02
1.460816326530600e+11 2.396100515034369e-01 -6.528934371575570e-02
1.461224489795900e+11 2.397154434770214e-01 -6.516123356202365e-02
1.461632653061200e+11 2.398196882589073e-01 -6.503263937643150e-02
1.462040816326500e+11 2.399227449465261e-01 -6.490362170909104e-02
1.462448979591800e+11 2.400245725637124e-01 -6.477424240992428e-02
1.462857142857100e+11 2.401251301961313e-01 -6.464456455892412e-02
1.463265306122400e+11 2.402243771597397e-01 -6.451465234387500e-02
1.463673469387800e+11 2.403222731887743e-01 -6.438457101846616e-02
1.464081632653100e+11 2.404187785045185e-01 -6.425438697231750e-02
1.464489795918400e+11 2.405138540223739e-01 -6.412416782235530e-02
1.464897959183700e+11 2.406074614995070e-01 -6.399398235902169e-02
1.465306122449000e+11 2.406995636020595e-01 -6.386390051008595e-02
1.465714285714300e+11 2.407901239447407e-01 -6.373399324629270e-02
1.466122448979600e+11 2.408791071538209e-01 -6.360433255994126e-02
1.466530612244900e+11 2.409664790245407e-01 -6.347499139528079e-02
1.466938775510200e+11 2.410522066599713e-01 -6.334604363431941e-02
1.467346938775500e+11 2.411362584977462e-01 -6.321756416475101e-02
1.467755102040800e+11 2.412186043298106e-01 -6.308962879270226e-02
1.468163265306100e+11 2.412992153032698e-01 -6.296231410189018e-02
1.468571428571400e+11 2.413780639998420e-01 -6.283569735311141e-02
1.468979591836700e+11 2.414551243608319e-01 -6.270985645474443e-02
1.469387755102000e+11 2.415303716164103e-01 -6.258486997392504e-02
1.469795918367300e+11 2.416037823588402e-01 -6.246081693695827e-02
1.470204081632700e+11 2.416753346825089e-01 -6.233777677781117e-02
1.470612244898000e+11 2.417450081673062e-01 -6.221582935851942e-02
1.471020408163300e+11 2.418127837970108e-01 -6.209505495926805e-02
1.471428571428600e+11 2.418786439469963e-01 -6.197553413461895e-02
1.471836734693900e+11 2.419425724374764e-01 -6.185734760803132e-02
1.472244897959200e+11 2.420045545710980e-01 -6.174057621915067e-02
1.472653061224500e+11 2.420645772198845e-01 -6.162530085155814e-02
1.473061224489800e+11 2.421226289528286e-01 -6.151160235249720e-02
1.473469387755100e+11 2.421787000414853e-01 -6.139956160601902e-02
1.473877551020400e+11 2.422327825274771e-01 -6.128925950587739e-02
1.474285714285700e+11 2.422848702538075e-01 -6.118077685386752e-02
1.474693877551000e+11 2.423349589089025e-01 -6.107419426172071e-02
1.475102040816300e+11 2.423830460657101e-01 -6.096959213897431e-02
1.475510204081600e+11 2.424291311112336e-01 -6.086705067818881e-02
1.475918367346900e+11 2.424732152845933e-01 -6.076664982486599e-02
1.476326530612200e+11 2.425153017251791e-01 -6.066846919186288e-02
1.476734693877600e+11 2.425553954684810e-01 -6.057258804459865e-02
1.477142857142900e+11 2.425935033102428e-01 -6.047908530491088e-02
1.477551020408200e+11 2.426296337718869e-01 -6.038803956753049e-02
1.477959183673500e+11 2.426637970850587e-01 -6.029952900624306e-02
1.478367346938800e+11 2.426960051992372e-01 -6.021363112065123e-02
1.478775510204100e+11 2.427262718050024e-01 -6.013042266358491e-02
1.479183673469400e+11 2.427546123118596e-01 -6.004997966526778e-02
1.479591836734700e+11 2.427810437833369e-01 -5.997237752704260e-02
1.480000000000000e+11 2.428055849138356e-01 -5.989769098704403e-02
1.480408163265300e+11 2.428282560446924e-01 -5.982599402811789e-02
1.480816326530600e+11 2.428490792041259e-01 -5.975735983586724e-02
1.481224489795900e+11 2.428680781719695e-01 -5.969186083310600e-02
1.481632653061200e+11 2.428852784598021e-01 -5.962956870416855e-02
1.482040816326500e+11 2.429007073919641e-01 -5.957055444950743e-02
1.482448979591800e+11 2.429143941904614e-01 -5.951488836236754e-02
1.482857142857100e+11 2.429263700829171e-01 -5.946264001367836e-02
1.483265306122400e+11 2.429366684361027e-01 -5.941387820139885e-02
1.483673469387800e+11 2.429453248617270e-01 -5.936867098318973e-02
1.484081632653100e+11 2.429523771810574e-01 -5.932708572640474e-02
1.484489795918400e+11 2.429578654349625e-01 -5.928918913085661e-02
1.484897959183700e+11 2.429618319823242e-01 -5.925504703873551e-02
1.485306122449000e+11 2.429643216531744e-01 -5.922472430285934e-02
1.485714285714300e+11 2.429653817605526e-01 -5.919828465604423e-02
1.486122448979600e+11 2.429650620944523e-01 -5.917579054593610e-02
1.486530612244900e+11 2.429634148737280e-01 -5.915730303871224e-02
1.486938775510200e+11 2.429604947981553e-01 -5.914288162464954e-02
1.487346938775500e+11 2.429563590914832e-01 -5.913258392527128e-02
1.487755102040800e+11 2.429510675812403e-01 -5.912646547602414e-02
1.488163265306100e+11 2.429446825931660e-01 -5.912457957861741e-02
1.488571428571400e+11 2.429372687759157e-01 -5.912697714099711e-02
1.488979591836700e+11 2.429288930520702e-01 -5.913370644930510e-02
1.489387755102000e+11 2.429196245689602e-01 -5.914481301326419e-02
1.489795918367300e+11 2.429095346216276e-01 -5.916033936483407e-02
1.490204081632700e+11 2.428986965854219e-01 -5.918032486540798e-02
1.490612244898000e+11 2.428871857452933e-01 -5.920480564018461e-02
1.491020408163300e+11 2.428750791384729e-01 -5.923381457558147e-02
1.491428571428600e+11 2.428624553247458e-01 -5.926738132754657e-02
1.491836734693900e+11 2.428493942197648e-01 -5.930553228685696e-02
1.492244897959200e+11 2.428359769971378e-01 -5.934829048188620e-02
1.492653061224500e+11 2.428222860134938e-01 -5.939567559415575e-02
1.493061224489800e+11 2.428084045897305e-01 -5.944770421133536e-02
1.493469387755100e+11 2.427944167309981e-01 -5.950438995118595e-02
1.493877551020400e+11 2.427804068373989e-01 -5.956574358029801e-02
1.494285714285700e+11 2.427664595274458e-01 -5.963177297850981e-02
1.494693877551000e+11 2.427526595030521e-01 -5.970248326510608e-02
1.495102040816300e+11 2.427390914171586e-01 -5.977787703039264e-02
1.495510204081600e+11 2.427258396462087e-01 -5.985795456680042e-02
1.495918367346900e+11 2.427129882018459e-01 -5.994271391690220e-02
1.496326530612200e+11 2.427006206433382e-01 -6.003215089860121e-02
1.496734693877600e+11 2.426888201599219e-01 -6.012625911704712e-02
1.497142857142900e+11 2.426776696096543e-01 -6.022503019895158e-02
1.497551020408200e+11 2.426672514920573e-01 -6.032845406833459e-02
1.497959183673500e+11 2.426576478513811e-01 -6.043651909833092e-02
1.498367346938800e+11 2.426489403809990e-01 -6.054921213064150e-02
1.498775510204100e+11 2.426412104979228e-01 -6.066651843217221e-02
1.499183673469400e+11 2.426345394720396e-01 -6.078842172684268e-02
1.499591836734700e+11 2.426290085386629e-01 -6.091490419232526e-02
1.500000000000000e+11 2.426246990647292e-01 -6.104594647478895e-02
1.500408163265300e+11 2.426216926450628e-01 -6.118152761907793e-02
1.500816326530600e+11 2.426200711995243e-01 -6.132162500260020e-02
1.501224489795900e+11 2.426199169611170e-01 -6.146621417873142e-02
1.501632653061200e+11 2.426213124875870e-01 -6.161526878303660e-02
1.502040816326500e+11 2.426243407368167e-01 -6.176876042714122e-02
1.502448979591800e+11 2.426290851489299e-01 -6.192665852361210e-02
1.502857142857100e+11 2.426356294811122e-01 -6.208893008671176e-02
1.503265306122400e+11 2.426440576379238e-01 -6.225553951988852e-02
1.503673469387800e+11 2.426544535312103e-01 -6.242644847077018e-02
1.504081632653100e+11 2.426669009836905e-01 -6.260161569798370e-02
1.504489795918400e+11 2.426814835999725e-01 -6.278099686444698e-02
1.504897959183700e+11 2.426982846541743e-01 -6.296454426182849e-02
1.505306122449000e+11 2.427173869174122e-01 -6.315220662628106e-02
1.505714285714300e+11 2.427388725613150e-01 -6.334392907704377e-02
1.506122448979600e+11 2.427628230754161e-01 -6.353965314733323e-02
1.506530612244900e+11 2.427893191273088e-01 -6.373931686481044e-02
1.506938775510200e+11 2.428184402856448e-01 -6.394285485868210e-02
1.507346938775500e+11 2.428502649276246e-01 -6.415019832231819e-02
1.507755102040800e+11 2.428848701766986e-01 -6.436127498605318e-02
1.508163265306100e+11 2.429223317617863e-01 -6.457600921360461e-02
1.508571428571400e+11 2.429627239533650e-01 -6.479432210736974e-02
1.508979591836700e+11 2.430061193756512e-01 -6.501613172702105e-02
1.509387755102000e+11 2.430525888479829e-01 -6.524135329829528e-02
1.509795918367300e+11 2.431022013748506e-01 -6.546989934816777e-02
1.510204081632700e+11 2.431550241271644e-01 -6.570167989750790e-02
1.510612244898000e+11 2.432111222785191e-01 -6.593660273290264e-02
1.511020408163300e+11 2.432705587966020e-01 -6.617457353298889e-02
1.511428571428600e+11 2.433333943250823e-01 -6.641549595837205e-02
1.511836734693900e+11 2.433996871388242e-01 -6.665927170498029e-02
1.512244897959200e+11 2.434694931745876e-01 -6.690580067022707e-02
1.512653061224500e+11 2.435428660015341e-01 -6.715498116640031e-02
1.513061224489800e+11 2.436198567351169e-01 -6.740671008240524e-02
1.513469387755100e+11 2.437005140176583e-01 -6.766088284528897e-02
1.513877551020400e+11 2.437848839922689e-01 -6.791739352351425e-02
1.514285714285700e+11 2.438730104579505e-01 -6.817613492270223e-02
1.514693877551000e+11 2.439649349841106e-01 -6.843699871877798e-02
1.515102040816300e+11 2.440606970239332e-01 -6.869987565166474e-02
1.515510204081600e+11 2.441603339095074e-01 -6.896465556467811e-02
1.515918367346900e+11 2.442638809199854e-01 -6.923122750576012e-02
1.516326530612200e+11 2.443713712861662e-01 -6.949947982612534e-02
1.516734693877600e+11 2.444828362324905e-01 -6.976930035461738e-02
1.517142857142900e+11 2.445983050146081e-01 -7.004057644639258e-02
1.517551020408200e+11 2.447178049305687e-01 -7.031319498720606e-02
1.517959183673500e+11 2.448413612725030e-01 -7.058704239450538e-02
1.518367346938800e+11 2.449689973286079e-01 -7.086200462421258e-02
1.518775510204100e+11 2.451007344505771e-01 -7.113796716074662e-02
1.519183673469400e+11 2.452365919994703e-01 -7.141481506259248e-02
1.519591836734700e+11 2.453765872434830e-01 -7.169243295152136e-02
1.520000000000000e+11 2.455207352199581e-01 -7.197070509512754e-02
1.520408163265300e+11 2.456690487062788e-01 -7.224951542815254e-02
1.520816326530600e+11 2.458215381621144e-01 -7.252874756549149e-02
1.521224489795900e+11 2.459782117188410e-01 -7.280828468565763e-02
1.521632653061200e+11 2.461390750593926e-01 -7.308800956851931e-02
1.522040816326500e+11 2.463041313617613e-01 -7.336780471010880e-02
1.522448979591800e+11 2.464733812379868e-01 -7.364755242846591e-02
1.522857142857100e+11 2.466468226775826e-01 -7.392713489501873e-02
1.523265306122400e+11 2.468244509603436e-01 -7.420643413606022e-02
1.523673469387800e+11 2.470062585770886e-01 -7.448533210105633e-02
1.524081632653100e+11 2.471922352668439e-01 -7.476371069599552e-02
1.524489795918400e+11 2.473823680685715e-01 -7.504145187178711e-02
1.524897959183700e+11 2.475766413314063e-01 -7.531843765135270e-02
1.525306122449000e+11 2.477750365832426e-01 -7.559455015642745e-02
1.525714285714300e+11 2.479775323652608e-01 -7.586967163136196e-02
1.526122448979600e+11 2.481841041032448e-01 -7.614368453294437e-02
1.526530612244900e+11 2.483947240226601e-01 -7.641647156932405e-02
1.526938775510200e+11 2.486093610622752e-01 -7.668791574779070e-02
1.527346938775500e+11 2.488279807857815e-01 -7.695790034253076e-02
1.527755102040800e+11 2.490505452131639e-01 -7.722630894808755e-02
1.528163265306100e+11 2.492770126491024e-01 -7.749302548822311e-02
1.528571428571400e+11 2.495073376474256e-01 -7.775793419393304e-02
1.528979591836700e+11 2.497414708814197e-01 -7.802091969030443e-02
1.529387755102000e+11 2.499793591205300e-01 -7.828186717858576e-02
1.529795918367300e+11 2.502209450481517e-01 -7.854066275123182e-02
1.530204081632700e+11 2.504661671714944e-01 -7.879719353590865e-02
1.530612244898000e+11 2.507149596972044e-01 -7.905134794103942e-02
1.531020408163300e+11 2.509672525917513e-01 -7.930301586288792e-02
1.531428571428600e+11 2.512229717378536e-01 -7.955208887194788e-02
1.531836734693900e+11 2.514820388642670e-01 -7.979846043393010e-02
1.532244897959200e+11 2.517443715050987e-01 -8.004202619032175e-02
1.532653061224500e+11 2.520098830792291e-01 -8.028268426928452e-02
1.533061224489800e+11 2.522784832039375e-01 -8.052033538627223e-02
1.533469387755100e+11 2.525500778989407e-01 -8.075488302455540e-02
1.533877551020400e+11 2.528245696183459e-01 -8.098623362668897e-02
1.534285714285700e+11 2.531018573642293e-01 -8.121429676107243e-02
1.534693877551000e+11 2.533818369605081e-01 -8.143898516267359e-02
1.535102040816300e+11 2.536644013784699e-01 -8.166021472092687e-02
1.535510204081600e+11 2.539494409564006e-01 -8.187790453100013e-02
1.535918367346900e+11 2.542368435613387e-01 -8.209197693362479e-02
1.536326530612200e+11 2.545264947724247e-01 -8.230235746077354e-02
1.536734693877600e+11 2.548182781405994e-01 -8.250897491848054e-02
1.537142857142900e+11 2.551120754739677e-01 -8.271176133578333e-02
1.537551020408200e+11 2.554077668740023e-01 -8.291065181113415e-02
1.537959183673500e+11 2.557052308921934e-01 -8.310558431110497e-02
1.538367346938800e+11 2.560043446966467e-01 -8.329649962989508e-02
1.538775510204100e+11 2.563049842109787e-01 -8.348334129651155e-02
1.539183673469400e+11 2.566070242158681e-01 -8.366605552368872e-02
1.539591836734700e+11 2.569103383584382e-01 -8.384459099830367e-02
1.540000000000000e+11 2.572147991627995e-01 -8.401889872962680e-02
1.540408163265300e+11 2.575202779201711e-01 -8.418893204369508e-02
1.540816326530600e+11 2.578266446467092e-01 -8.435464650209093e-02
1.541224489795900e+11 2.581337680710746e-01 -8.451599983865433e-02
1.541632653061200e+11 2.584415156355305e-01 -8.467295203243752e-02
1.542040816326500e+11 2.587497534138041e-01 -8.482546521792156e-02
1.542448979591800e+11 2.590583458982355e-01 -8.497350382716284e-02
1.542857142857100e+11 2.593671558799787e-01 -8.511703462815107e-02
1.543265306122400e+11 2.596760444718269e-01 -8.525602675024013e-02
1.543673469387800e+11 2.599848711034597e-01 -8.539045178363830e-02
1.544081632653100e+11 2.602934933867106e-01 -8.552028400182138e-02
1.544489795918400e+11 2.606017670859280e-01 -8.564550056224056e-02
1.544897959183700e+11 2.609095461144902e-01 -8.576608174173508e-02
1.545306122449000e+11 2.612166827285403e-01 -8.588201119014711e-02
1.545714285714300e+11 2.615230275276898e-01 -8.599327622166368e-02
1.546122448979600e+11 2.618284295114417e-01 -8.609986801107916e-02
1.546530612244900e+11 2.621327362666325e-01 -8.620178173248445e-02
1.546938775510200e+11 2.624357941748816e-01 -8.629901679480990e-02
1.547346938775500e+11 2.627374486307197e-01 -8.639157695665077e-02
1.547755102040800e+11 2.630375443253468e-01 -8.647947044049147e-02
1.548163265306100e+11 2.633359255345949e-01 -8.656270982492865e-02
1.548571428571400e+11 2.636324363711993e-01 -8.664131214238258e-02
1.548979591836700e+11 2.639269208909836e-01 -8.671529914483947e-02
1.549387755102000e+11 2.642192233577009e-01 -8.678469735776427e-02
1.549795918367300e+11 2.645091885845286e-01 -8.684953781212204e-02
1.550204081632700e+11 2.647966621326004e-01 -8.690985565509861e-02
1.550612244898000e+11 2.650814906622108e-01 -8.696569003286979e-02
1.551020408163300e+11 2.653635228892833e-01 -8.701708586273027e-02
1.551428571428600e+11 2.656426103001436e-01 -8.706409354157794e-02
1.551836734693900e+11 2.659186072748910e-01 -8.710676906635863e-02
1.552244897959200e+11 2.661913710177506e-01 -8.714517431015049e-02
1.552653061224500e+11 2.664607615914826e-01 -8.717937684737054e-02
1.553061224489800e+11 2.667266420573239e-01 -8.720944977547623e-02
1.553469387755100e+11 2.669888786871513e-01 -8.723547145281631e-02
1.553877551020400e+11 2.672473409767498e-01 -8.725752552145515e-02
1.554285714285700e+11 2.675019015101654e-01 -8.727570082629611e-02
1.554693877551000e+11 2.677524359972701e-01 -8.729009119579129e-02
1.555102040816300e+11 2.679988233138103e-01 -8.730079526364289e-02
1.555510204081600e+11 2.682409455442828e-01 -8.730791644608155e-02
1.555918367346900e+11 2.684786878679763e-01 -8.731156309415838e-02
1.556326530612200e+11 2.687119385182041e-01 -8.731184846368321e-02
1.556734693877600e+11 2.689405888298295e-01 -8.730889062403853e-02
1.557142857142900e+11 2.691645332576417e-01 -8.730281237761825e-02
1.557551020408200e+11 2.693836693989494e-01 -8.729374138328484e-02
1.557959183673500e+11 2.695978979647393e-01 -8.728181018459301e-02
1.558367346938800e+11 2.698071228700687e-01 -8.726715622166017e-02
1.558775510204100e+11 2.700112513701067e-01 -8.724992170025365e-02
1.559183673469400e+11 2.702101942321894e-01 -8.723025363683935e-02
1.559591836734700e+11 2.704038658468509e-01 -8.720830370760686e-02
1.560000000000000e+11 2.705921843393573e-01 -8.718422826914697e-02
1.560408163265300e+11 2.707750716431317e-01 -8.715818839311731e-02
1.560816326530600e+11 2.709524537888059e-01 -8.713034971976651e-02
1.561224489795900e+11 2.711242611123566e-01 -8.710088223422537e-02
1.561632653061200e+11 2.712904283791843e-01 -8.706996009071893e-02
1.562040816326500e+11 2.714508947445355e-01 -8.703776159599175e-02
1.562448979591800e+11 2.716056039138647e-01 -8.700446918795282e-02
1.562857142857100e+11 2.717545044348437e-01 -8.697026903618564e-02
1.563265306122400e+11 2.718975498587785e-01 -8.693535080818129e-02
1.563673469387800e+11 2.720346987657347e-01 -8.689990746610071e-02
1.564081632653100e+11 2.721659147287030e-01 -8.686413511381931e-02
1.564489795918400e+11 2.722911663456445e-01 -8.682823273269213e-02
1.564897959183700e+11 2.724104273238255e-01 -8.679240180933376e-02
1.565306122449000e+11 2.725236764645211e-01 -8.675684614314870e-02
1.565714285714300e+11 2.726308975836143e-01 -8.672177156379632e-02
1.566122448979600e+11 2.727320793929988e-01 -8.668738573855073e-02
1.566530612244900e+11 2.728272155247072e-01 -8.665389788296744e-02
1.566938775510200e+11 2.729163045834214e-01 -8.662151845434650e-02
1.567346938775500e+11 2.729993500097335e-01 -8.659045899953323e-02
1.567755102040800e+11 2.730763599051821e-01 -8.656093188065135e-02
1.568163265306100e+11 2.731473470448944e-01 -8.653315002313530e-02
1.568571428571400e+11 2.732123289520591e-01 -8.650732671317063e-02
1.568979591836700e+11 2.732713278968371e-01 -8.648367548496755e-02
1.569387755102000e+11 2.733243707578346e-01 -8.646241005759939e-02
1.569795918367300e+11 2.733714889221723e-01 -8.644374423588547e-02
1.570204081632700e+11 2.734127182706247e-01 -8.642789180128624e-02
1.570612244898000e+11 2.734480991684492e-01 -8.641506659413274e-02
1.571020408163300e+11 2.734776765651497e-01 -8.640548254427280e-02
1.571428571428600e+11 2.735014999905810e-01 -8.639935361985071e-02
1.571836734693900e+11 2.735196235577182e-01 -8.639689357807577e-02
1.572244897959200e+11 2.735321059107399e-01 -8.639831568885864e-02
1.572653061224500e+11 2.735390101771200e-01 -8.640383273617266e-02
1.573061224489800e+11 2.735404040562266e-01 -8.641365696648348e-02
1.573469387755100e+11 2.735363598759477e-01 -8.642800002181031e-02
1.573877551020400e+11 2.735269546029410e-01 -8.644707260269693e-02
1.574285714285700e+11 2.735122698815902e-01 -8.647108411409614e-02
1.574693877551000e+11 2.734923920324179e-01 -8.650024251980645e-02
1.575102040816300e+11 2.734674120644373e-01 -8.653475423155464e-02
1.575510204081600e+11 2.734374257267828e-01 -8.657482376001174e-02
1.575918367346900e+11 2.734025335294019e-01 -8.662065326298982e-02
1.576326530612200e+11 2.733628408076595e-01 -8.667244226427606e-02
1.576734693877600e+11 2.733184577041508e-01 -8.673038742819213e-02
1.577142857142900e+11 2.732694991657023e-01 -8.679468235451239e-02
1.577551020408200e+11 2.732160849298402e-01 -8.686551717376947e-02
1.577959183673500e+11 2.731583395660620e-01 -8.694307820566480e-02
1.578367346938800e+11 2.730963925575521e-01 -8.702754777478781e-02
1.578775510204100e+11 2.730303781620385e-01 -8.711910414329352e-02
1.579183673469400e+11 2.729604352110387e-01 -8.721792136004368e-02
1.579591836734700e+11 2.728867070167942e-01 -8.732416899896574e-02
1.580000000000000e+11 2.728093412494816e-01 -8.743801191277328e-02
1.580408163265300e+11 2.727284898087037e-01 -8.755961008141668e-02
1.580816326530600e+11 2.726443085528119e-01 -8.768911851813231e-02
1.581224489795900e+11 2.725569571147784e-01 -8.782668719334036e-02
1.581632653061200e+11 2.724665988386151e-01 -8.797246075703559e-02
1.582040816326500e+11 2.723734006275688e-01 -8.812657828435098e-02
1.582448979591800e+11 2.722775327216725e-01 -8.828917322050976e-02
1.582857142857100e+11 2.721791683770981e-01 -8.846037354986963e-02
1.583265306122400e+11 2.720784837096386e-01 -8.864030169532254e-02
1.583673469387800e+11 2.719756576392459e-01 -8.882907427264701e-02
1.584081632653100e+11 2.718708718393241e-01 -8.902680194991924e-02
1.584489795918400e+11 2.717643106823176e-01 -8.923358944212398e-02
1.584897959183700e+11 2.716561611659769e-01 -8.944953552727768e-02
1.585306122449000e+11 2.715466129052005e-01 -8.967473287306357e-02
1.585714285714300e+11 2.714358579757185e-01 -8.990926786692864e-02
1.586122448979600e+11 2.713240908316812e-01 -9.015322043303144e-02
1.586530612244900e+11 2.712115083299478e-01 -9.040666389433460e-02
1.586938775510200e+11 2.710983096718257e-01 -9.066966494019547e-02
1.587346938775500e+11 2.709846963276686e-01 -9.094228345738253e-02
1.587755102040800e+11 2.708708719590733e-01 -9.122457219612026e-02
1.588163265306100e+11 2.707570422644208e-01 -9.151657671300784e-02
1.588571428571400e+11 2.706434148561728e-01 -9.181833519057872e-02
1.588979591836700e+11 2.705301990586635e-01 -9.212987834727686e-02
1.589387755102000e+11 2.704176056038799e-01 -9.245122943033096e-02
1.589795918367300e+11 2.703058464119749e-01 -9.278240405805349e-02
1.590204081632700e+11 2.701951343233409e-01 -9.312341004498358e-02
1.590612244898000e+11 2.700856829023693e-01 -9.347424727165538e-02
1.591020408163300e+11 2.699777062324607e-01 -9.383490757605753e-02
1.591428571428600e+11 2.698714186560994e-01 -9.420537462383481e-02
1.591836734693900e+11 2.697670345615529e-01 -9.458562384927090e-02
1.592244897959200e+11 2.696647681945952e-01 -9.497562253912825e-02
1.592653061224500e+11 2.695648335084376e-01 -9.537532990518394e-02
1.593061224489800e+11 2.694674440280859e-01 -9.578469707736714e-02
1.593469387755100e+11 2.693728126868636e-01 -9.620366708812400e-02
1.593877551020400e+11 2.692811516021011e-01 -9.663217497187727e-02
1.594285714285700e+11 2.691926719888695e-01 -9.707014787780834e-02
1.594693877551000e+11 2.691075842182104e-01 -9.751750529973945e-02
1.595102040816300e+11 2.690260976907192e-01 -9.797415921845798e-02
1.595510204081600e+11 2.689484206699125e-01 -9.844001428857654e-02
1.595918367346900e+11 2.688747602787949e-01 -9.891496788469679e-02
1.596326530612200e+11 2.688053224395530e-01 -9.939891030793592e-02
1.596734693877600e+11 2.687403118502592e-01 -9.989172491294744e-02
1.597142857142900e+11 2.686799318914628e-01 -1.003932883800027e-01
1.597551020408200e+11 2.686243845456916e-01 -1.009034709083634e-01
1.597959183673500e+11 2.685738703440940e-01 -1.014221362270913e-01
1.598367346938800e+11 2.685285882212773e-01 -1.019491414828985e-01
1.598775510204100e+11 2.684887354366457e-01 -1.024843371395397e-01
1.599183673469400e+11 2.684545075599167e-01 -1.030275670167188e-01
1.599591836734700e+11 2.684260983411278e-01 -1.035786682064052e-01
1.600000000000000e+11 2.684036995478112e-01 -1.041374709919810e-01
1.600408163265300e+11 2.683875008808522e-01 -1.047037985649625e-01
1.600816326530600e+11 2.683776907157299e-01 -1.052774671643076e-01
1.601224489795900e+11 2.683744558536821e-01 -1.058582866031121e-01
1.601632653061200e+11 2.683779813206346e-01 -1.064460602822230e-01
1.602040816326500e+11 2.683884501073697e-01 -1.070405851654179e-01
1.602448979591800e+11 2.684060429257235e-01 -1.076416516064018e-01
1.602857142857100e+11 2.684309380665017e-01 -1.082490430777961e-01
1.603265306122400e+11 2.684633110340162e-01 -1.088625359813644e-01
1.603673469387800e+11 2.685033341479833e-01 -1.094818996172382e-01
1.604081632653100e+11 2.685511761856351e-01 -1.101068962629779e-01
1.604489795918400e+11 2.686070019859891e-01 -1.107372812452388e-01
1.604897959183700e+11 2.686709721637312e-01 -1.113728032004447e-01
1.605306122449000e+11 2.687432427025033e-01 -1.120132042490811e-01
1.605714285714300e+11 2.688239644557497e-01 -1.126582202108389e-01
1.606122448979600e+11 2.689132826616591e-01 -1.133075807710155e-01
1.606530612244900e+11 2.690113365031308e-01 -1.139610099143264e-01
1.606938775510200e+11 2.691182588691723e-01 -1.146182264482550e-01
1.607346938775500e+11 2.692341761086910e-01 -1.152789444475629e-01
1.607755102040800e+11 2.693592077108262e-01 -1.159428736705372e-01
1.608163265306100e+11 2.694934661390920e-01 -1.166097201713436e-01
1.608571428571400e+11 2.696370567998780e-01 -1.172791867311353e-01
1.608979591836700e+11 2.697900780543789e-01 -1.179509734787658e-01
1.609387755102000e+11 2.699526211540634e-01 -1.186247784113667e-01
1.609795918367300e+11 2.701247702489426e-01 -1.193002979712804e-01
1.610204081632700e+11 2.703066024430299e-01 -1.199772276252315e-01
1.610612244898000e+11 2.704981879943991e-01 -1.206552623701039e-01
1.611020408163300e+11 2.706995906421037e-01 -1.213340971161439e-01
1.611428571428600e+11 2.709108677689028e-01 -1.220134269982537e-01
1.611836734693900e+11 2.711320705505025e-01 -1.226929475962840e-01
1.612244897959200e+11 2.713632441604250e-01 -1.233723550467785e-01
1.612653061224500e+11 2.716044281239379e-01 -1.240513460808594e-01
1.613061224489800e+11 2.718556565668449e-01 -1.247296179503160e-01
1.613469387755100e+11 2.721169584244302e-01 -1.254068685529881e-01
1.613877551020400e+11 2.723883576334380e-01 -1.260827963241353e-01
1.614285714285700e+11 2.726698732266650e-01 -1.267571001909938e-01
1.614693877551000e+11 2.729615195073789e-01 -1.274294795288078e-01
1.615102040816300e+11 2.732633061352201e-01 -1.280996341529009e-01
1.615510204081600e+11 2.735752381164853e-01 -1.287672641084494e-01
1.615918367346900e+11 2.738973157393298e-01 -1.294320693984869e-01
1.616326530612200e+11 2.742295344906446e-01 -1.300937497267504e-01
1.616734693877600e+11 2.745718849062833e-01 -1.307520042596994e-01
1.617142857142900e+11 2.749243523926057e-01 -1.314065314282329e-01
1.617551020408200e+11 2.752869169360322e-01 -1.320570288334122e-01
1.617959183673500e+11 2.756595528586621e-01 -1.327031932270390e-01
1.618367346938800e+11 2.760422286456916e-01 -1.333447205301820e-01
1.618775510204100e+11 2.764349067279012e-01 -1.339813058670060e-01
1.619183673469400e+11 2.768375431269118e-01 -1.346126437282368e-01
1.619591836734700e+11 2.772500871457320e-01 -1.352384282021161e-01
1.620000000000000e+11 2.776724812514171e-01 -1.358583533257255e-01
1.620408163265300e+11 2.781046608591020e-01 -1.364721134358885e-01
1.620816326530600e+11 2.785465540509379e-01 -1.370794036877704e-01
1.621224489795900e+11 2.789980813868605e-01 -1.376799205983240e-01
1.621632653061200e+11 2.794591556516773e-01 -1.382733624570946e-01
1.622040816326500e+11 2.799296818520015e-01 -1.388594298857996e-01
1.622448979591800e+11 2.804095571325440e-01 -1.394378263011633e-01
1.622857142857100e+11 2.808986706722661e-01 -1.400082585185281e-01
1.623265306122400e+11 2.813969037679186e-01 -1.405704373010737e-01
1.623673469387800e+11 2.819041299767039e-01 -1.411240779605362e-01
1.624081632653100e+11 2.824202152033815e-01 -1.416689008573828e-01
1.624489795918400e+11 2.829450177264581e-01 -1.422046318255107e-01
1.624897959183700e+11 2.834783883917147e-01 -1.427310024812466e-01
1.625306122449000e+11 2.840201709739246e-01 -1.432477504934101e-01
1.625714285714300e+11 2.845702024602502e-01 -1.437546198800486e-01
1.626122448979600e+11 2.851283132415333e-01 -1.442513612555284e-01
1.626530612244900e+11 2.856943273643793e-01 -1.447377321203100e-01
1.626938775510200e+11 2.862680631649183e-01 -1.452134968893452e-01
1.627346938775500e+11 2.868493336945843e-01 -1.456784269089740e-01
1.627755102040800e+11 2.874379470113729e-01 -1.461323009455877e-01
1.628163265306100e+11 2.880337066851518e-01 -1.465749056469730e-01
1.628571428571400e+11 2.886364122160217e-01 -1.470060357785674e-01
1.628979591836700e+11 2.892458594638213e-01 -1.474254941106555e-01
1.629387755102000e+11 2.898618409654259e-01 -1.478330914118078e-01
1.629795918367300e+11 2.904841461434310e-01 -1.482286464998888e-01
1.630204081632700e+11 2.911125615310898e-01 -1.486119861378733e-01
1.630612244898000e+11 2.917468711177915e-01 -1.489829447017125e-01
1.631020408163300e+11 2.923868565073705e-01 -1.493413640534682e-01
1.631428571428600e+11 2.930322971331537e-01 -1.496870934963893e-01
1.631836734693900e+11 2.936829703609348e-01 -1.500199897695696e-01
1.632244897959200e+11 2.943386515980670e-01 -1.503399168816225e-01
1.632653061224500e+11 2.949991143998359e-01 -1.506467457803882e-01
1.633061224489800e+11 2.956641304929772e-01 -1.509403541233952e-01
1.633469387755100e+11 2.963334698203103e-01 -1.512206261425820e-01
1.633877551020400e+11 2.970069006245363e-01 -1.514874527130030e-01
1.634285714285700e+11 2.976841895106722e-01 -1.517407313492335e-01
1.634693877551000e+11 2.983651013785382e-01 -1.519803662444500e-01
1.635102040816300e+11 2.990493995093456e-01 -1.522062681825717e-01
1.635510204081600e+11 2.997368456371474e-01 -1.524183544445087e-01
1.635918367346900e+11 3.004272000803096e-01 -1.526165487822468e-01
1.636326530612200e+11 3.011202217473993e-01 -1.528007816497061e-01
1.636734693877600e+11 3.018156680448205e-01 -1.529709904500977e-01
1.637142857142900e+11 3.025132947564830e-01 -1.531271196428880e-01
1.637551020408200e+11 3.032128561178229e-01 -1.532691205672660e-01
1.637959183673500e+11 3.039141049068236e-01 -1.533969514205844e-01
1.638367346938800e+11 3.046167924333950e-01 -1.535105776869816e-01
1.638775510204100e+11 3.053206685326682e-01 -1.536099723914766e-01
1.639183673469400e+11 3.060254815689335e-01 -1.536951160573995e-01
1.639591836734700e+11 3.067309784261145e-01 -1.537659964778702e-01
1.640000000000000e+11 3.074369045610583e-01 -1.538226087705362e-01
1.640408163265300e+11 3.081430039485707e-01 -1.538649556025400e-01
1.640816326530600e+11 3.088490191478899e-01 -1.538930473568956e-01
1.641224489795900e+11 3.095546914745722e-01 -1.539069021234404e-01
1.641632653061200e+11 3.102597611753279e-01 -1.539065456729944e-01
1.642040816326500e+11 3.109639675219082e-01 -1.538920116318902e-01
1.642448979591800e+11 3.116670490296388e-01 -1.538633415635750e-01
1.642857142857100e+11 3.123687437589112e-01 -1.538205851394992e-01
1.643265306122400e+11 3.130687895886878e-01 -1.537638003193960e-01
1.643673469387800e+11 3.137669244701319e-01 -1.536930535615319e-01
1.644081632653100e+11 3.144628866603263e-01 -1.536084200136433e-01
1.644489795918400e+11 3.151564150771561e-01 -1.535099836548266e-01
1.644897959183700e+11 3.158472497896477e-01 -1.533978374140746e-01
1.645306122449000e+11 3.165351324285828e-01 -1.532720833401595e-01
1.645714285714300e+11 3.172198065878241e-01 -1.531328327391275e-01
1.646122448979600e+11 3.179010181652535e-01 -1.529802063671688e-01
1.646530612244900e+11 3.185785156092034e-01 -1.528143342922539e-01
1.646938775510200e+11 3.192520503841578e-01 -1.526353556575010e-01
1.647346938775500e+11 3.199213774626850e-01 -1.524434183329987e-01
1.647755102040800e+11 3.205862558024400e-01 -1.522386785105225e-01
1.648163265306100e+11 3.212464486362678e-01 -1.520213005476946e-01
1.648571428571400e+11 3.219017239059165e-01 -1.517914567261621e-01
1.648979591836700e+11 3.225518547016098e-01 -1.515493267410356e-01
1.649387755102000e+11 3.231966197067579e-01 -1.512950970925260e-01
1.649795918367300e+11 3.238358035090710e-01 -1.510289604059820e-01
1.650204081632700e+11 3.244691969280141e-01 -1.507511148362133e-01
1.650612244898000e+11 3.250965971344306e-01 -1.504617635750218e-01
1.651020408163300e+11 3.257178077758081e-01 -1.501611141865906e-01
1.651428571428600e+11 3.263326388588215e-01 -1.498493780065811e-01
1.651836734693900e+11 3.269409067559932e-01 -1.495267694855106e-01
1.652244897959200e+11 3.275424343528192e-01 -1.491935055273844e-01
1.652653061224500e+11 3.281370510093241e-01 -1.488498049763037e-01
1.653061224489800e+11 3.287245922115716e-01 -1.484958880430001e-01
1.653469387755100e+11 3.293048991191962e-01 -1.481319759204394e-01
1.653877551020400e+11 3.298778182406465e-01 -1.477582904106889e-01
1.654285714285700e+11 3.304432011555586e-01 -1.473750536120668e-01
1.654693877551000e+11 3.310009042617343e-01 -1.469824876851960e-01
1.655102040816300e+11 3.315507883986153e-01 -1.465808146035621e-01
1.655510204081600e+11 3.320927183754261e-01 -1.461702559057944e-01
1.655918367346900e+11 3.326265624566969e-01 -1.457510325115817e-01
1.656326530612200e+11 3.331521920580573e-01 -1.453233646971584e-01
1.656734693877600e+11 3.336694814443475e-01 -1.448874721107379e-01
1.657142857142900e+11 3.341783073848790e-01 -1.444435739802130e-01
1.657551020408200e+11 3.346785489060082e-01 -1.439918892618917e-01
1.657959183673500e+11 3.351700871215635e-01 -1.435326367874504e-01
1.658367346938800e+11 3.356528051917617e-01 -1.430660355514884e-01
1.658775510204100e+11 3.361265883069991e-01 -1.425923049356169e-01
1.659183673469400e+11 3.365913237460478e-01 -1.421116649833234e-01
1.659591836734700e+11 3.370469011289320e-01 -1.416243366898298e-01
1.660000000000000e+11 3.374932127868150e-01 -1.411305421701219e-01
1.660408163265300e+11 3.379301541768409e-01 -1.406305048151751e-01
1.660816326530600e+11 3.383576241435585e-01 -1.401244496681332e-01
1.661224489795900e+11 3.387755251800211e-01 -1.396126036352396e-01
1.661632653061200e+11 3.391837639576952e-01 -1.390951955003577e-01
1.662040816326500e+11 3.395822519961970e-01 -1.385724559307308e-01
1.662448979591800e+11 3.399709062748126e-01 -1.380446174301513e-01
1.662857142857100e+11 3.403496496581835e-01 -1.375119143542661e-01
1.663265306122400e+11 3.407184113176884e-01 -1.369745826221635e-01
1.663673469387800e+11 3.410771271198235e-01 -1.364328593337247e-01
1.664081632653100e+11 3.414257401318537e-01 -1.358869822842031e-01
1.664489795918400e+11 3.417642010078125e-01 -1.353371893908480e-01
1.664897959183700e+11 3.420924681092579e-01 -1.347837181922265e-01
1.665306122449000e+11 3.424105076009156e-01 -1.342268053653904e-01
1.665714285714300e+11 3.427182937343187e-01 -1.336666859053927e-01
1.666122448979600e+11 3.430158091602892e-01 -1.331035922798961e-01
1.666530612244900e+11 3.433030451990465e-01 -1.325377536721951e-01
1.666938775510200e+11 3.435800019234561e-01 -1.319693953371573e-01
1.667346938775500e+11 3.438466880302287e-01 -1.313987380276590e-01
1.667755102040800e+11 3.441031205958648e-01 -1.308259974697200e-01
1.668163265306100e+11 3.443493248482432e-01 -1.302513838190866e-01
1.668571428571400e+11 3.445853341345725e-01 -1.296751011617790e-01
1.668979591836700e+11 3.448111898898311e-01 -1.290973469427532e-01
1.669387755102000e+11 3.450269413648157e-01 -1.285183117348341e-01
1.669795918367300e+11 3.452326452368890e-01 -1.279381790468711e-01
1.670204081632700e+11 3.454283652439723e-01 -1.273571251750318e-01
1.670612244898000e+11 3.456141718472567e-01 -1.267753189702660e-01
1.671020408163300e+11 3.457901417890926e-01 -1.261929216026231e-01
1.671428571428600e+11 3.459563576342836e-01 -1.256100866710885e-01
1.671836734693900e+11 3.461129074374378e-01 -1.250269604977736e-01
1.672244897959200e+11 3.462598844792969e-01 -1.244436822904304e-01
1.672653061224500e+11 3.463973868863414e-01 -1.238603841063696e-01
1.673061224489800e+11 3.465255172505837e-01 -1.232771907981826e-01
1.673469387755100e+11 3.466443823523735e-01 -1.226942201614265e-01
1.673877551020400e+11 3.467540930541292e-01 -1.221115833546674e-01
1.674285714285700e+11 3.468547641076891e-01 -1.215293851166546e-01
1.674693877551000e+11 3.469465138964532e-01 -1.209477239139550e-01
1.675102040816300e+11 3.470294642271532e-01 -1.203666920141317e-01
1.675510204081600e+11 3.471037403067623e-01 -1.197863756049186e-01
1.675918367346900e+11 3.471694706812193e-01 -1.192068550573451e-01
1.676326530612200e+11 3.472267871561531e-01 -1.186282051934193e-01
1.676734693877600e+11 3.472758247740387e-01 -1.180504954179001e-01
1.677142857142900e+11 3.473167217059815e-01 -1.174737898640910e-01
1.677551020408200e+11 3.473496191012267e-01 -1.168981476046380e-01
1.677959183673500e+11 3.473746611431530e-01 -1.163236228354800e-01
1.678367346938800e+11 3.473919950188554e-01 -1.157502652917664e-01
1.678775510204100e+11 3.474017709136217e-01 -1.151781205749222e-01
1.679183673469400e+11 3.474041419473144e-01 -1.146072303262552e-01
1.679591836734700e+11 3.473992640643921e-01 -1.140376325545044e-01
1.680000000000000e+11 3.473872958377553e-01 -1.134693618457199e-01
1.680408163265300e+11 3.473683982490051e-01 -1.129024494342421e-01
1.680816326530600e+11 3.473427343885314e-01 -1.123369234582448e-01
1.681224489795900e+11 3.473104692804913e-01 -1.117728090974704e-01
1.681632653061200e+11 3.472717696408449e-01 -1.112101289532400e-01
1.682040816326500e+11 3.472268037992376e-01 -1.106489029782927e-01
1.682448979591800e+11 3.471757415706669e-01 -1.100891484847211e-01
1.682857142857100e+11 3.471187541145581e-01 -1.095308802693655e-01
1.683265306122400e+11 3.470560138748000e-01 -1.089741109985973e-01
1.683673469387800e+11 3.469876946257934e-01 -1.084188514936510e-01
1.684081632653100e+11 3.469139715366025e-01 -1.078651107172285e-01
1.684489795918400e+11 3.468350212484420e-01 -1.073128956132372e-01
1.684897959183700e+11 3.467510219259085e-01 -1.067622111394459e-01
1.685306122449000e+11 3.466621532715640e-01 -1.062130603437513e-01
1.685714285714300e+11 3.465685965025914e-01 -1.056654441375943e-01
1.686122448979600e+11 3.464705342759514e-01 -1.051193611137587e-01
1.686530612244900e+11 3.463681505720128e-01 -1.045748075674847e-01
1.686938775510200e+11 3.462616306928721e-01 -1.040317774765708e-01
1.687346938775500e+11 3.461511610803965e-01 -1.034902622368079e-01
1.687755102040800e+11 3.460369290038910e-01 -1.029502502216562e-01
1.688163265306100e+11 3.459191221651953e-01 -1.024117264311295e-01
1.688571428571400e+11 3.457979283860757e-01 -1.018746723631671e-01
1.688979591836700e+11 3.456735353617200e-01 -1.013390658046629e-01
1.689387755102000e+11 3.455461302375478e-01 -1.008048805036675e-01
1.689795918367300e+11 3.454158989470987e-01 -1.002720859495527e-01
1.690204081632700e+11 3.452830255864802e-01 -9.974064716139798e-02
1.690612244898000e+11 3.451476919758376e-01 -9.921052453167982e-02
1.691020408163300e+11 3.450100771364015e-01 -9.868167391162455e-02
1.691428571428600e+11 3.448703566384398e-01 -9.815404660773741e-02
1.691836734693900e+11 3.447287020326660e-01 -9.762758956825697e-02
1.692244897959200e+11 3.445852801382868e-01 -9.710224560666175e-02
1.692653061224500e+11 3.444402525222217e-01 -9.657795370328350e-02
1.693061224489800e+11 3.442937750396932e-01 -9.605464943179172e-02
1.693469387755100e+11 3.441459971735595e-01 -9.553226528378155e-02
1.693877551020400e+11 3.439970615130247e-01 -9.501073121121861e-02
1.694285714285700e+11 3.438471033291846e-01 -9.448997533211119e-02
1.694693877551000e+11 3.436962502485466e-01 -9.396992471598230e-02
1.695102040816300e+11 3.435446220329778e-01 -9.345050607829430e-02
1.695510204081600e+11 3.433923302667028e-01 -9.293164650322321e-02
1.695918367346900e+11 3.432394781031831e-01 -9.241327418343830e-02
1.696326530612200e+11 3.430861601494891e-01 -9.189531928124960e-02
1.696734693877600e+11 3.429324623044093e-01 -9.137771480558818e-02
1.697142857142900e+11 3.427784617135494e-01 -9.086039746430695e-02
1.697551020408200e+11 3.426242267512786e-01 -9.034330851164908e-02
1.697959183673500e+11 3.424698169534705e-01 -8.982639450825006e-02
1.698367346938800e+11 3.423152830326427e-01 -8.930960796721929e-02
1.698775510204100e+11 3.421606669072595e-01 -8.879290797735748e-02
1.699183673469400e+11 3.420060017907644e-01 -8.827626079148673e-02
1.699591836734700e+11 3.418513123431631e-01 -8.775964043841276e-02
1.700000000000000e+11 3.416966148572567e-01 -8.724302915805023e-02
