! Generated by Phase I extraction
# Hz S RI R 50
6.700000000000000e+10 -1.006795509957761e+00 -6.719162869839548e-02
6.704800000000000e+10 -1.006757095055132e+00 -6.719457747778787e-02
6.709600000000000e+10 -1.006718342772642e+00 -6.719772903564507e-02
6.714400000000000e+10 -1.006679255896624e+00 -6.720111051819348e-02
6.719200000000000e+10 -1.006639837601291e+00 -6.720474669473038e-02
6.724000000000000e+10 -1.006600091529484e+00 -6.720866116532030e-02
6.728800000000000e+10 -1.006560020988446e+00 -6.721287634684193e-02
6.733600000000000e+10 -1.006519629676389e+00 -6.721741320102485e-02
6.738400000000000e+10 -1.006478920831580e+00 -6.722229207069012e-02
6.743200000000000e+10 -1.006437897567402e+00 -6.722753257417870e-02
6.748000000000000e+10 -1.006396563532822e+00 -6.723315354927173e-02
6.752800000000000e+10 -1.006354923006442e+00 -6.723917185161613e-02
6.757600000000000e+10 -1.006312981151677e+00 -6.724560245362908e-02
6.762400000000000e+10 -1.006270744049240e+00 -6.725245871431879e-02
6.767200000000000e+10 -1.006228217670268e+00 -6.725975287030236e-02
6.772000000000000e+10 -1.006185407917937e+00 -6.726749626884615e-02
6.776800000000000e+10 -1.006142320604503e+00 -6.727569941537830e-02
6.781600000000000e+10 -1.006098961315215e+00 -6.728437191142972e-02
6.786400000000000e+10 -1.006055335547716e+00 -6.729352222726646e-02
6.791200000000000e+10 -1.006011448800587e+00 -6.730315733086967e-02
6.796000000000000e+10 -1.005967306436507e+00 -6.731328282916817e-02
6.800800000000000e+10 -1.005922913315873e+00 -6.732390258270483e-02
6.805600000000000e+10 -1.005878274266436e+00 -6.733501968743523e-02
6.810400000000000e+10 -1.005833394227836e+00 -6.734663660972048e-02
6.815200000000000e+10 -1.005788278413312e+00 -6.735875480010929e-02
6.820000000000000e+10 -1.005742932460788e+00 -6.737137450026437e-02
6.824800000000000e+10 -1.005697362252125e+00 -6.738449468828991e-02
6.829600000000000e+10 -1.005651573634925e+00 -6.739811341674636e-02
6.834400000000000e+10 -1.005605572375044e+00 -6.741222774690774e-02
6.839200000000000e+10 -1.005559364287528e+00 -6.742683402934081e-02
6.844000000000000e+10 -1.005512955061421e+00 -6.744192800442761e-02
6.848800000000000e+10 -1.005466350391645e+00 -6.745750454478137e-02
6.853600000000000e+10 -1.005419555648587e+00 -6.747355748782653e-02
6.858400000000000e+10 -1.005372576497194e+00 -6.749007965959215e-02
6.863200000000000e+10 -1.005325418975294e+00 -6.750706345995694e-02
6.868000000000000e+10 -1.005278089770359e+00 -6.752450102694062e-02
6.872800000000000e+10 -1.005230596173396e+00 -6.754238454509265e-02
6.877600000000000e+10 -1.005182945849223e+00 -6.756070590582508e-02
6.882400000000000e+10 -1.005135146626313e+00 -6.757945627206997e-02
6.887200000000000e+10 -1.005087206332835e+00 -6.759862595654154e-02
6.892000000000000e+10 -1.005039132628869e+00 -6.761820453834530e-02
6.896800000000000e+10 -1.004990933251738e+00 -6.763818103973925e-02
6.901600000000000e+10 -1.004942616165567e+00 -6.765854453627254e-02
6.906400000000000e+10 -1.004894189881206e+00 -6.767928421703268e-02
6.911200000000000e+10 -1.004845663567152e+00 -6.770038950005448e-02
6.916000000000000e+10 -1.004797046966932e+00 -6.772184987983765e-02
6.920800000000000e+10 -1.004748350140107e+00 -6.774365467944689e-02
6.925600000000000e+10 -1.004699583205182e+00 -6.776579302924156e-02
6.930400000000000e+10 -1.004650756218827e+00 -6.778825400608091e-02
6.935200000000000e+10 -1.004601879137931e+00 -6.781102706122788e-02
6.940000000000000e+10 -1.004552962185464e+00 -6.783410217999014e-02
6.944800000000000e+10 -1.004504015732236e+00 -6.785746996940874e-02
6.949600000000000e+10 -1.004455050482964e+00 -6.788112137950232e-02
6.954400000000000e+10 -1.004406077243034e+00 -6.790504791459413e-02
6.959200000000000e+10 -1.004357106908206e+00 -6.792924155622601e-02
6.964000000000000e+10 -1.004308150584212e+00 -6.795369486095902e-02
6.968800000000000e+10 -1.004259219673718e+00 -6.797840115064940e-02
6.973600000000000e+10 -1.004210325896745e+00 -6.800335464606973e-02
6.978400000000000e+10 -1.004161481429456e+00 -6.802855046365347e-02
6.983200000000000e+10 -1.004112698694923e+00 -6.805398438210912e-02
6.988000000000000e+10 -1.004063990331645e+00 -6.807965274628204e-02
6.992800000000000e+10 -1.004015369227243e+00 -6.810555232367882e-02
6.997600000000000e+10 -1.003966848321858e+00 -6.813168030439472e-02
7.002400000000000e+10 -1.003918440711263e+00 -6.815803445021955e-02
7.007200000000000e+10 -1.003870159804250e+00 -6.818461303836632e-02
7.012000000000000e+10 -1.003822019577271e+00 -6.821141514992228e-02
7.016800000000000e+10 -1.003774034750260e+00 -6.823844045439144e-02
7.021600000000000e+10 -1.003726220683769e+00 -6.826568880726798e-02
7.026400000000000e+10 -1.003678593302008e+00 -6.829316038538731e-02
7.031200000000000e+10 -1.003631168939770e+00 -6.832085544118023e-02
7.036000000000000e+10 -1.003583964193985e+00 -6.834877465072170e-02
7.040800000000000e+10 -1.003536996056869e+00 -6.837691912477106e-02
7.045600000000000e+10 -1.003490281850463e+00 -6.840529065986889e-02
7.050400000000000e+10 -1.003443839522613e+00 -6.843389129803983e-02
7.055200000000000e+10 -1.003397687445099e+00 -6.846272362055320e-02
7.060000000000000e+10 -1.003351844603336e+00 -6.849179033205992e-02
7.064800000000000e+10 -1.003306330565364e+00 -6.852109431042172e-02
7.069600000000000e+10 -1.003261165333693e+00 -6.855063856094207e-02
7.074400000000000e+10 -1.003216369555513e+00 -6.858042610214973e-02
7.079200000000000e+10 -1.003171964039546e+00 -6.861046008671140e-02
7.084000000000000e+10 -1.003127970167492e+00 -6.864074342148613e-02
7.088800000000000e+10 -1.003084409289396e+00 -6.867127900969881e-02
7.093600000000000e+10 -1.003041303160818e+00 -6.870206927566963e-02
7.098400000000000e+10 -1.002998673217295e+00 -6.873311620400879e-02
7.103200000000000e+10 -1.002956541014768e+00 -6.876442133284520e-02
7.108000000000000e+10 -1.002914927684041e+00 -6.879598576538899e-02
7.112800000000000e+10 -1.002873854160219e+00 -6.882781019867579e-02
7.117600000000000e+10 -1.002833340985648e+00 -6.885989508980225e-02
7.122400000000000e+10 -1.002793408438300e+00 -6.889224052789879e-02
7.127200000000000e+10 -1.002754076440666e+00 -6.892484636234339e-02
7.132000000000000e+10 -1.002715364089246e+00 -6.895771206399309e-02
7.136800000000000e+10 -1.002677290078755e+00 -6.899083680662554e-02
7.141600000000000e+10 -1.002639872120596e+00 -6.902421940014632e-02
7.146400000000000e+10 -1.002603127622974e+00 -6.905785844068026e-02
7.151200000000000e+10 -1.002567072983377e+00 -6.909175237347187e-02
7.156000000000000e+10 -1.002531724196543e+00 -6.912589969168428e-02
7.160800000000000e+10 -1.002497096305635e+00 -6.916029859728920e-02
7.165600000000000e+10 -1.002463203954788e+00 -6.919494727177551e-02
7.170400000000000e+10 -1.002430060756789e+00 -6.922984351025463e-02
7.175200000000000e+10 -1.002397679743078e+00 -6.926498486521193e-02
7.180000000000000e+10 -1.002366072930416e+00 -6.930036870161287e-02
7.184800000000000e+10 -1.002335251615776e+00 -6.933599263501924e-02
7.189600000000000e+10 -1.002305226078879e+00 -6.937185432981925e-02
7.194400000000000e+10 -1.002276005715010e+00 -6.940795144327330e-02
7.199200000000000e+10 -1.002247598978310e+00 -6.944428145873131e-02
7.204000000000000e+10 -1.002220013744832e+00 -6.948084206848046e-02
7.208800000000000e+10 -1.002193257082505e+00 -6.951763081434152e-02
7.213600000000000e+10 -1.002167335177386e+00 -6.955464547721668e-02
7.218400000000000e+10 -1.002142253589073e+00 -6.959188402235075e-02
7.223200000000000e+10 -1.002118017246091e+00 -6.962934479201438e-02
7.228000000000000e+10 -1.002094630614292e+00 -6.966702645694592e-02
7.232800000000000e+10 -1.002072097796004e+00 -6.970492819664413e-02
7.237600000000000e+10 -1.002050422705206e+00 -6.974304969938756e-02
7.242400000000000e+10 -1.002029608714557e+00 -6.978139076695047e-02
7.247200000000000e+10 -1.002009658665504e+00 -6.981995129881546e-02
7.252000000000000e+10 -1.001990574652031e+00 -6.985873120926255e-02
7.256800000000000e+10 -1.001972357719625e+00 -6.989773029453461e-02
7.261600000000000e+10 -1.001955008721234e+00 -6.993694873725877e-02
7.266400000000000e+10 -1.001938527809897e+00 -6.997638620946504e-02
7.271200000000000e+10 -1.001922914926503e+00 -7.001604229316406e-02
7.276000000000000e+10 -1.001908169219225e+00 -7.005591607368204e-02
7.280800000000000e+10 -1.001894289149479e+00 -7.009600622667628e-02
7.285600000000000e+10 -1.001881272414050e+00 -7.013631096782905e-02
7.290400000000000e+10 -1.001869115909317e+00 -7.017682804832961e-02
7.295200000000000e+10 -1.001857815877369e+00 -7.021755489653672e-02
7.300000000000000e+10 -1.001847368041523e+00 -7.025848868294557e-02
7.304800000000000e+10 -1.001837767709600e+00 -7.029962643792785e-02
7.309600000000000e+10 -1.001829009970211e+00 -7.034096527276230e-02
7.314400000000000e+10 -1.001821089554261e+00 -7.038250215594123e-02
7.319200000000000e+10 -1.001814000966152e+00 -7.042423404270517e-02
7.324000000000000e+10 -1.001807738093528e+00 -7.046615750290684e-02
7.328800000000000e+10 -1.001802294491118e+00 -7.050826914345940e-02
7.333600000000000e+10 -1.001797663044398e+00 -7.055056540997019e-02
7.338400000000000e+10 -1.001793836158855e+00 -7.059304330118360e-02
7.343200000000000e+10 -1.001790805673116e+00 -7.063569985170245e-02
7.348000000000000e+10 -1.001788562728853e+00 -7.067853215678793e-02
7.352800000000000e+10 -1.001787097308925e+00 -7.072154088273409e-02
7.357600000000000e+10 -1.001786398310892e+00 -7.076472667953192e-02
7.362400000000000e+10 -1.001786453456415e+00 -7.080809033785093e-02
7.367200000000000e+10 -1.001787249338155e+00 -7.085163287391953e-02
7.372000000000000e+10 -1.001788771422648e+00 -7.089535557236706e-02
7.376800000000000e+10 -1.001791004045148e+00 -7.093926002405264e-02
7.381600000000000e+10 -1.001793930373780e+00 -7.098334962229171e-02
7.386400000000000e+10 -1.001797532471035e+00 -7.102762797503483e-02
7.391200000000000e+10 -1.001801791197378e+00 -7.107209884536039e-02
7.396000000000000e+10 -1.001806686225626e+00 -7.111676624988988e-02
7.400800000000000e+10 -1.001812196348982e+00 -7.116163367518129e-02
7.405600000000000e+10 -1.001818299518192e+00 -7.120670417400021e-02
7.410400000000000e+10 -1.001824972956136e+00 -7.125198076738906e-02
7.415200000000000e+10 -1.001832193130141e+00 -7.129746636954332e-02
7.420000000000000e+10 -1.001839935850215e+00 -7.134316397416218e-02
7.424800000000000e+10 -1.001848176283125e+00 -7.138907675242051e-02
7.429600000000000e+10 -1.001856889201643e+00 -7.143520837020996e-02
7.434400000000000e+10 -1.001866048794556e+00 -7.148156264654758e-02
7.439200000000000e+10 -1.001875628942675e+00 -7.152814381498443e-02
7.444000000000000e+10 -1.001885603039580e+00 -7.157495636814501e-02
7.448800000000000e+10 -1.001895944182946e+00 -7.162200513100869e-02
7.453600000000000e+10 -1.001906625154796e+00 -7.166929518858607e-02
7.458400000000000e+10 -1.001917618382135e+00 -7.171683186131332e-02
7.463200000000000e+10 -1.001928896041782e+00 -7.176462048181827e-02
7.468000000000000e+10 -1.001940429972353e+00 -7.181266628052256e-02
7.472800000000000e+10 -1.001952191926727e+00 -7.186097426590494e-02
7.477600000000000e+10 -1.001964153627455e+00 -7.190954914898560e-02
7.482400000000000e+10 -1.001976286816478e+00 -7.195839543814965e-02
7.487200000000000e+10 -1.001988563455435e+00 -7.200751760966120e-02
7.492000000000000e+10 -1.002000955789977e+00 -7.205692014955609e-02
7.496800000000000e+10 -1.002013436499550e+00 -7.210660774278428e-02
7.501600000000000e+10 -1.002025978877471e+00 -7.215658488418217e-02
7.506400000000000e+10 -1.002038556903350e+00 -7.220685601217747e-02
7.511200000000000e+10 -1.002051145253588e+00 -7.225742542127293e-02
7.516000000000000e+10 -1.002063719228703e+00 -7.230829726663274e-02
7.520800000000000e+10 -1.002076254917621e+00 -7.235947577469323e-02
7.525600000000000e+10 -1.002088729187068e+00 -7.241096490607368e-02
7.530400000000000e+10 -1.002101119736896e+00 -7.246276846682118e-02
7.535200000000000e+10 -1.002113405050189e+00 -7.251488998707521e-02
7.540000000000000e+10 -1.002125564606111e+00 -7.256733315988857e-02
7.544800000000000e+10 -1.002137578817357e+00 -7.262010154199774e-02
7.549600000000000e+10 -1.002149429205045e+00 -7.267319845143053e-02
7.554400000000000e+10 -1.002161098209563e+00 -7.272662680017504e-02
7.559200000000000e+10 -1.002172569093236e+00 -7.278038918397109e-02
7.564000000000000e+10 -1.002183825747337e+00 -7.283448792976889e-02
7.568800000000000e+10 -1.002194852769431e+00 -7.288892511424154e-02
7.573600000000000e+10 -1.002205635483519e+00 -7.294370248619411e-02
7.578400000000000e+10 -1.002216160074979e+00 -7.299882152654176e-02
7.583200000000000e+10 -1.002226413754598e+00 -7.305428315008210e-02
7.588000000000000e+10 -1.002236384806301e+00 -7.311008779586227e-02
7.592800000000000e+10 -1.002246062665201e+00 -7.316623531535255e-02
7.597600000000000e+10 -1.002255438125642e+00 -7.322272518817054e-02
7.602400000000000e+10 -1.002264503195316e+00 -7.327955617071183e-02
7.607200000000000e+10 -1.002273251060449e+00 -7.333672654750878e-02
7.612000000000000e+10 -1.002281676146164e+00 -7.339423419552925e-02
7.616800000000000e+10 -1.002289773960411e+00 -7.345207645912295e-02
7.621600000000000e+10 -1.002297540944856e+00 -7.351025008248174e-02
7.626400000000000e+10 -1.002304974485472e+00 -7.356875127728485e-02
7.631200000000000e+10 -1.002312072774064e+00 -7.362757552251953e-02
7.636000000000000e+10 -1.002318834815784e+00 -7.368671776645024e-02
7.640800000000000e+10 -1.002325260337562e+00 -7.374617240405333e-02
7.645600000000000e+10 -1.002331349865690e+00 -7.380593343196969e-02
7.650400000000000e+10 -1.002337104648882e+00 -7.386599440800887e-02
7.655200000000000e+10 -1.002342526766171e+00 -7.392634853655577e-02
7.660000000000000e+10 -1.002347619031103e+00 -7.398698869614645e-02
7.664800000000000e+10 -1.002352384842492e+00 -7.404790742611361e-02
7.669600000000000e+10 -1.002356828121565e+00 -7.410909693679642e-02
7.674400000000000e+10 -1.002360953192540e+00 -7.417054916276646e-02
7.679200000000000e+10 -1.002364764879270e+00 -7.423225574601126e-02
7.684000000000000e+10 -1.002368268396676e+00 -7.429420793834736e-02
7.688800000000000e+10 -1.002371469581905e+00 -7.435639682364001e-02
7.693600000000000e+10 -1.002374374805843e+00 -7.441881320288940e-02
7.698400000000000e+10 -1.002376991178992e+00 -7.448144759744235e-02
7.703200000000000e+10 -1.002379326557462e+00 -7.454429018809670e-02
7.708000000000000e+10 -1.002381389649038e+00 -7.460733086514991e-02
7.712800000000000e+10 -1.002383189823582e+00 -7.467055932957238e-02
7.717600000000000e+10 -1.002384736963474e+00 -7.473396518661056e-02
7.722400000000000e+10 -1.002386041267907e+00 -7.479753809197649e-02
7.727200000000000e+10 -1.002387113399294e+00 -7.486126801883489e-02
7.732000000000000e+10 -1.002387964457323e+00 -7.492514563103167e-02
7.736800000000000e+10 -1.002388606068771e+00 -7.498916234652685e-02
7.741600000000000e+10 -1.002389050293726e+00 -7.505331027180648e-02
7.746400000000000e+10 -1.002389309590532e+00 -7.511758193979813e-02
7.751200000000000e+10 -1.002389396615430e+00 -7.518196992943876e-02
7.756000000000000e+10 -1.002389324263168e+00 -7.524646694169587e-02
7.760800000000000e+10 -1.002389105591690e+00 -7.531106596078674e-02
7.765600000000000e+10 -1.002388753885894e+00 -7.537575989699086e-02
7.770400000000000e+10 -1.002388282758710e+00 -7.544054150641523e-02
7.775200000000000e+10 -1.002387706227758e+00 -7.550540353045775e-02
7.780000000000000e+10 -1.002387038511474e+00 -7.557033808001284e-02
7.784800000000000e+10 -1.002386294291661e+00 -7.563533678119545e-02
7.789600000000000e+10 -1.002385488679523e+00 -7.570039074077121e-02
7.794400000000000e+10 -1.002384637173477e+00 -7.576549051941138e-02
7.799200000000000e+10 -1.002383755728364e+00 -7.583062619252458e-02
7.804000000000000e+10 -1.002382860905069e+00 -7.589578723591187e-02
7.808800000000000e+10 -1.002381969929461e+00 -7.596096249894656e-02
7.813600000000000e+10 -1.002381100616744e+00 -7.602614007208255e-02
7.818400000000000e+10 -1.002380271468302e+00 -7.609130731850128e-02
7.823200000000000e+10 -1.002379501475434e+00 -7.615645073667875e-02
7.828000000000000e+10 -1.002378810009069e+00 -7.622155592813859e-02
7.832800000000000e+10 -1.002378216654772e+00 -7.628660765609381e-02
7.837600000000000e+10 -1.002377740954949e+00 -7.635159006125365e-02
7.842400000000000e+10 -1.002377402409175e+00 -7.641648672194370e-02
7.847200000000000e+10 -1.002377220424737e+00 -7.648128073770991e-02
7.852000000000000e+10 -1.002377214305267e+00 -7.654595505359738e-02
7.856800000000000e+10 -1.002377403116470e+00 -7.661049237539631e-02
7.861600000000000e+10 -1.002377805859719e+00 -7.667487535264446e-02
7.866400000000000e+10 -1.002378441087701e+00 -7.673908641888658e-02
7.871200000000000e+10 -1.002379327136947e+00 -7.680310791907305e-02
7.876000000000000e+10 -1.002380481888544e+00 -7.686692195355664e-02
7.880800000000000e+10 -1.002381922920614e+00 -7.693051046493911e-02
7.885600000000000e+10 -1.002383667248224e+00 -7.699385497771279e-02
7.890400000000000e+10 -1.002385731417695e+00 -7.705693678331360e-02
7.895200000000000e+10 -1.002388131459684e+00 -7.711973695942385e-02
7.900000000000000e+10 -1.002390882954518e+00 -7.718223622878975e-02
7.904800000000000e+10 -1.002394000959600e+00 -7.724441498754483e-02
7.909600000000000e+10 -1.002397500121943e+00 -7.730625347936211e-02
7.914400000000000e+10 -1.002401394835915e+00 -7.736773186456203e-02
7.919200000000000e+10 -1.002405699034576e+00 -7.742883032880593e-02
7.924000000000000e+10 -1.002410426113889e+00 -7.748952948455973e-02
7.928800000000000e+10 -1.002415588768527e+00 -7.754981060831588e-02
7.933600000000000e+10 -1.002421198903486e+00 -7.760965574620898e-02
7.938400000000000e+10 -1.002427267610817e+00 -7.766904790842639e-02
7.943200000000000e+10 -1.002433805024769e+00 -7.772797109807579e-02
7.948000000000000e+10 -1.002440820335648e+00 -7.778641034624398e-02
7.952800000000000e+10 -1.002448321897791e+00 -7.784435182752791e-02
7.957600000000000e+10 -1.002456317250197e+00 -7.790178263851474e-02
7.962400000000000e+10 -1.002464813488617e+00 -7.795869080761052e-02
7.967200000000000e+10 -1.002473817013083e+00 -7.801506519420520e-02
7.972000000000000e+10 -1.002483333822741e+00 -7.807089556233331e-02
7.976800000000000e+10 -1.002493369096144e+00 -7.812617266871665e-02
7.981600000000000e+10 -1.002503927500690e+00 -7.818088829267776e-02
7.986400000000000e+10 -1.002515013087829e+00 -7.823503519594338e-02
7.991200000000000e+10 -1.002526629705629e+00 -7.828860698644249e-02
7.996000000000000e+10 -1.002538780694629e+00 -7.834159795897996e-02
8.000800000000000e+10 -1.002551468899122e+00 -7.839400298484699e-02
8.005600000000000e+10 -1.002564696570632e+00 -7.844581725919829e-02
8.010400000000000e+10 -1.002578465435372e+00 -7.849703619702444e-02
8.015200000000000e+10 -1.002592776629998e+00 -7.854765541494746e-02
8.020000000000000e+10 -1.002607631009018e+00 -7.859767090220572e-02
8.024800000000000e+10 -1.002623029272957e+00 -7.864707897698675e-02
8.029600000000000e+10 -1.002638971969363e+00 -7.869587632755132e-02
8.034400000000000e+10 -1.002655459449638e+00 -7.874405978096020e-02
8.039200000000000e+10 -1.002672491760646e+00 -7.879162627389195e-02
8.044000000000000e+10 -1.002690068582260e+00 -7.883857295177471e-02
8.048800000000000e+10 -1.002708189374570e+00 -7.888489736801191e-02
8.053600000000000e+10 -1.002726853178665e+00 -7.893059757175545e-02
8.058400000000000e+10 -1.002746058531601e+00 -7.897567218253974e-02
8.063200000000000e+10 -1.002765803462052e+00 -7.902012045479573e-02
8.068000000000000e+10 -1.002786085255173e+00 -7.906394207132335e-02
8.072800000000000e+10 -1.002806900560265e+00 -7.910713730084835e-02
8.077600000000000e+10 -1.002828245245355e+00 -7.914970679392039e-02
8.082400000000000e+10 -1.002850114618066e+00 -7.919165147707258e-02
8.087200000000000e+10 -1.002872503155412e+00 -7.923297232257741e-02
8.092000000000000e+10 -1.002895404691958e+00 -7.927367057488138e-02
8.096800000000000e+10 -1.002918812284369e+00 -7.931374764060649e-02
8.101600000000000e+10 -1.002942718298776e+00 -7.935320520606709e-02
8.106400000000000e+10 -1.002967114247486e+00 -7.939204514370440e-02
8.111200000000000e+10 -1.002991991087202e+00 -7.943026990428551e-02
8.116000000000000e+10 -1.003017339247779e+00 -7.946788240731856e-02
8.120800000000000e+10 -1.003043148687112e+00 -7.950488600662649e-02
8.125600000000000e+10 -1.003069408653684e+00 -7.954128428674032e-02
8.130400000000000e+10 -1.003096107706970e+00 -7.957708109403397e-02
8.135200000000000e+10 -1.003123233692863e+00 -7.961228033021445e-02
8.140000000000000e+10 -1.003150773804599e+00 -7.964688606403750e-02
8.144800000000000e+10 -1.003178714563144e+00 -7.968090250461482e-02
8.149600000000000e+10 -1.003207041821196e+00 -7.971433440510811e-02
8.154400000000000e+10 -1.003235740895248e+00 -7.974718688913257e-02
8.159200000000000e+10 -1.003264796514716e+00 -7.977946574428806e-02
8.164000000000000e+10 -1.003294193024633e+00 -7.981117774306024e-02
8.168800000000000e+10 -1.003323914237678e+00 -7.984233059558417e-02
8.173600000000000e+10 -1.003353943448891e+00 -7.987293273832095e-02
8.178400000000000e+10 -1.003384263561473e+00 -7.990299348058419e-02
8.183200000000000e+10 -1.003414856607599e+00 -7.993252297478541e-02
8.188000000000000e+10 -1.003445703924459e+00 -7.996153239501365e-02
8.192800000000000e+10 -1.003476786239909e+00 -7.999003397455701e-02
8.197600000000000e+10 -1.003508084059679e+00 -8.001804093899084e-02
8.202400000000000e+10 -1.003539577900736e+00 -8.004556730885357e-02
8.207200000000000e+10 -1.003571248526210e+00 -8.007262763714057e-02
8.212000000000000e+10 -1.003603077047088e+00 -8.009923669773920e-02
8.216800000000000e+10 -1.003635044997031e+00 -8.012540940962107e-02
8.221600000000000e+10 -1.003667134331007e+00 -8.015116084967278e-02
8.226400000000000e+10 -1.003699327480909e+00 -8.017650604491013e-02
8.231200000000000e+10 -1.003731607333844e+00 -8.020146000883359e-02
8.236000000000000e+10 -1.003763957200168e+00 -8.022603755880309e-02
8.240800000000000e+10 -1.003796360665302e+00 -8.025025313868263e-02
8.245600000000000e+10 -1.003828801484247e+00 -8.027412073555766e-02
8.250400000000000e+10 -1.003861263602512e+00 -8.029765411273711e-02
8.255200000000000e+10 -1.003893731107332e+00 -8.032086685816733e-02
8.260000000000000e+10 -1.003926188356376e+00 -8.034377249731474e-02
8.264800000000000e+10 -1.003958619987970e+00 -8.036638452497065e-02
8.269600000000000e+10 -1.003991011000356e+00 -8.038871667087040e-02
8.274400000000000e+10 -1.004023347096285e+00 -8.041078288472164e-02
8.279200000000000e+10 -1.004055614813989e+00 -8.043259731848192e-02
8.284000000000000e+10 -1.004087801537710e+00 -8.045417441672664e-02
8.288800000000000e+10 -1.004119895349818e+00 -8.047552878460675e-02
8.293600000000000e+10 -1.004151884972911e+00 -8.049667516791909e-02
8.298400000000000e+10 -1.004183759443502e+00 -8.051762819258527e-02
8.303200000000000e+10 -1.004215507946531e+00 -8.053840232832590e-02
8.308000000000000e+10 -1.004247119603545e+00 -8.055901168098106e-02
8.312800000000000e+10 -1.004278583160269e+00 -8.057946984476881e-02
8.317600000000000e+10 -1.004309886985698e+00 -8.059978986119663e-02
8.322400000000000e+10 -1.004341019000657e+00 -8.061998412242237e-02
8.327200000000000e+10 -1.004371967019989e+00 -8.064006448285524e-02
8.332000000000000e+10 -1.004402718938796e+00 -8.066004214598708e-02
8.336800000000000e+10 -1.004433262999205e+00 -8.067992758124756e-02
8.341600000000000e+10 -1.004463588009536e+00 -8.069973074870268e-02
8.346400000000000e+10 -1.004493683558425e+00 -8.071946078589796e-02
8.351200000000000e+10 -1.004523540016543e+00 -8.073912587010200e-02
8.356000000000000e+10 -1.004553148333678e+00 -8.075873330559706e-02
8.360800000000000e+10 -1.004582499861282e+00 -8.077828968778233e-02
8.365600000000000e+10 -1.004611586079790e+00 -8.079780094051169e-02
8.370400000000000e+10 -1.004640398498686e+00 -8.081727232104499e-02
8.375200000000000e+10 -1.004668928536306e+00 -8.083670828834522e-02
8.380000000000000e+10 -1.004697167614239e+00 -8.085611277630196e-02
8.384800000000000e+10 -1.004725107438090e+00 -8.087548942732828e-02
8.389600000000000e+10 -1.004752740085903e+00 -8.089484158460826e-02
8.394400000000000e+10 -1.004780058322539e+00 -8.091417219023161e-02
8.399200000000000e+10 -1.004807055770340e+00 -8.093348394754279e-02
8.404000000000000e+10 -1.004833727023112e+00 -8.095277936431899e-02
8.408800000000000e+10 -1.004860067554421e+00 -8.097206083926264e-02
8.413600000000000e+10 -1.004886073644812e+00 -8.099133068876138e-02
8.418400000000000e+10 -1.004911741972662e+00 -8.101059124429306e-02
8.423200000000000e+10 -1.004937069218631e+00 -8.102984480874474e-02
8.428000000000000e+10 -1.004962051920953e+00 -8.104909370397380e-02
8.432800000000000e+10 -1.004986686029481e+00 -8.106833995501569e-02
8.437600000000000e+10 -1.005010967021805e+00 -8.108758560820310e-02
8.442400000000000e+10 -1.005034889869165e+00 -8.110683234619621e-02
8.447200000000000e+10 -1.005058449070910e+00 -8.112608141826336e-02
8.452000000000000e+10 -1.005081638845786e+00 -8.114533348343238e-02
8.456800000000000e+10 -1.005104453383439e+00 -8.116458883486891e-02
8.461600000000000e+10 -1.005126887097868e+00 -8.118384754609222e-02
8.466400000000000e+10 -1.005148934861682e+00 -8.120310948695886e-02
8.471200000000000e+10 -1.005170592195125e+00 -8.122237440801378e-02
8.476000000000000e+10 -1.005191855321481e+00 -8.124164197608913e-02
8.480800000000000e+10 -1.005212721174030e+00 -8.126091157981155e-02
8.485600000000000e+10 -1.005233187238795e+00 -8.128018223763177e-02
8.490400000000000e+10 -1.005253251304496e+00 -8.129945289242697e-02
8.495200000000000e+10 -1.005272911303850e+00 -8.131872264893919e-02
8.500000000000000e+10 -1.005292165212404e+00 -8.133799080339320e-02
8.504800000000000e+10 -1.005311011054421e+00 -8.135725680113107e-02
8.509600000000000e+10 -1.005329447144586e+00 -8.137652004605625e-02
8.514400000000000e+10 -1.005347472055872e+00 -8.139578008135750e-02
8.519200000000000e+10 -1.005365085211104e+00 -8.141503654425622e-02
8.524000000000000e+10 -1.005382286511148e+00 -8.143428989206648e-02
8.528800000000000e+10 -1.005399077042249e+00 -8.145353990146063e-02
8.533600000000000e+10 -1.005415458818180e+00 -8.147278635399105e-02
8.538400000000000e+10 -1.005431434542299e+00 -8.149202896863553e-02
8.543200000000000e+10 -1.005447007928078e+00 -8.151126703884665e-02
8.548000000000000e+10 -1.005462182997295e+00 -8.153049992662927e-02
8.552800000000000e+10 -1.005476964111543e+00 -8.154972711847121e-02
8.557600000000000e+10 -1.005491356035035e+00 -8.156894808787885e-02
8.562400000000000e+10 -1.005505363844401e+00 -8.158816253001536e-02
8.567200000000000e+10 -1.005518992604057e+00 -8.160736978539820e-02
8.572000000000000e+10 -1.005532247574816e+00 -8.162656924379869e-02
8.576800000000000e+10 -1.005545134274743e+00 -8.164576040708124e-02
8.581600000000000e+10 -1.005557658767311e+00 -8.166494296840070e-02
8.586400000000000e+10 -1.005569827504839e+00 -8.168411650639387e-02
8.591200000000000e+10 -1.005581647482650e+00 -8.170328101811627e-02
8.596000000000000e+10 -1.005593126124449e+00 -8.172243648637548e-02
8.600800000000000e+10 -1.005604271399573e+00 -8.174158311961847e-02
8.605600000000000e+10 -1.005615091636734e+00 -8.176072120581443e-02
8.610400000000000e+10 -1.005625595361013e+00 -8.177985131305519e-02
8.615200000000000e+10 -1.005635791394598e+00 -8.179897393138394e-02
8.620000000000000e+10 -1.005645688715878e+00 -8.181808970211461e-02
8.624800000000000e+10 -1.005655296342530e+00 -8.183719956920282e-02
8.629600000000000e+10 -1.005664623238272e+00 -8.185630490608289e-02
8.634400000000000e+10 -1.005673679085008e+00 -8.187540264227154e-02
8.639200000000000e+10 -1.005682473368068e+00 -8.189448930121702e-02
8.644000000000000e+10 -1.005691016018629e+00 -8.191356134844228e-02
8.648800000000000e+10 -1.005699316736976e+00 -8.193261514737961e-02
8.653600000000000e+10 -1.005707385401963e+00 -8.195164714960475e-02
8.658400000000000e+10 -1.005715232140577e+00 -8.197065344170749e-02
8.663200000000000e+10 -1.005722867331396e+00 -8.198962979572609e-02
8.668000000000000e+10 -1.005730301574137e+00 -8.200857141211386e-02
8.672800000000000e+10 -1.005737545453741e+00 -8.202747337266746e-02
8.677600000000000e+10 -1.005744609348258e+00 -8.204633049602190e-02
8.682400000000000e+10 -1.005751503677062e+00 -8.206513710800376e-02
8.687200000000000e+10 -1.005758238564248e+00 -8.208388700267523e-02
8.692000000000000e+10 -1.005764823699028e+00 -8.210257370407154e-02
8.696800000000000e+10 -1.005771268596596e+00 -8.212119025860111e-02
8.701600000000000e+10 -1.005777582479742e+00 -8.213972926155799e-02
8.706400000000000e+10 -1.005783774266606e+00 -8.215818296439392e-02
8.711200000000000e+10 -1.005789852446547e+00 -8.217654308726496e-02
8.716000000000000e+10 -1.005795825197602e+00 -8.219480097111892e-02
8.720800000000000e+10 -1.005801700512626e+00 -8.221294718056675e-02
8.725600000000000e+10 -1.005807486124325e+00 -8.223097190794314e-02
8.730400000000000e+10 -1.005813189510133e+00 -8.224886502137406e-02
8.735200000000000e+10 -1.005818817743941e+00 -8.226661636716681e-02
8.740000000000000e+10 -1.005824377379912e+00 -8.228421612338749e-02
8.744800000000000e+10 -1.005829874159385e+00 -8.230165456361560e-02
8.749600000000000e+10 -1.005835312872070e+00 -8.231892230946189e-02
8.754400000000000e+10 -1.005840697518425e+00 -8.233600982758163e-02
8.759200000000000e+10 -1.005846031160798e+00 -8.235290762964313e-02
8.764000000000000e+10 -1.005851316249737e+00 -8.236960640754251e-02
8.768800000000000e+10 -1.005856554432903e+00 -8.238609739158105e-02
8.773600000000000e+10 -1.005861746735584e+00 -8.240237198004965e-02
8.778400000000000e+10 -1.005866893228330e+00 -8.241842213388891e-02
8.783200000000000e+10 -1.005871993439091e+00 -8.243424005024916e-02
8.788000000000000e+10 -1.005877046443871e+00 -8.244981857699225e-02
8.792800000000000e+10 -1.005882050628527e+00 -8.246515137027732e-02
8.797600000000000e+10 -1.005887003887035e+00 -8.248023267846638e-02
8.802400000000000e+10 -1.005891903540978e+00 -8.249505745000263e-02
8.807200000000000e+10 -1.005896746344690e+00 -8.250962142427354e-02
8.812000000000000e+10 -1.005901528461365e+00 -8.252392098701893e-02
8.816800000000000e+10 -1.005906245424083e+00 -8.253795338997667e-02
8.821600000000000e+10 -1.005910892216266e+00 -8.255171673097801e-02
8.826400000000000e+10 -1.005915463248599e+00 -8.256521057250972e-02
8.831200000000000e+10 -1.005919952443205e+00 -8.257843578098667e-02
8.836000000000000e+10 -1.005924353432900e+00 -8.259139443827852e-02
8.840800000000000e+10 -1.005928659537165e+00 -8.260408965084239e-02
8.845600000000000e+10 -1.005932863780058e+00 -8.261652569320291e-02
8.850400000000000e+10 -1.005936958982414e+00 -8.262870786914146e-02
8.855200000000000e+10 -1.005940937877622e+00 -8.264064252308194e-02
8.860000000000000e+10 -1.005944792936110e+00 -8.265233732977420e-02
8.864800000000000e+10 -1.005948516699009e+00 -8.266380079661960e-02
8.869600000000000e+10 -1.005952101873581e+00 -8.267504161920428e-02
8.874400000000000e+10 -1.005955541154999e+00 -8.268607096215008e-02
8.879200000000000e+10 -1.005958827773733e+00 -8.269689954136381e-02
8.884000000000000e+10 -1.005961955242106e+00 -8.270753931389138e-02
8.888800000000000e+10 -1.005964917264937e+00 -8.271800324208152e-02
8.893600000000000e+10 -1.005967707820708e+00 -8.272830524661505e-02
8.898400000000000e+10 -1.005970320747982e+00 -8.273846099166721e-02
8.903200000000000e+10 -1.005972750254066e+00 -8.274848703347185e-02
8.908000000000000e+10 -1.005974990864150e+00 -8.275840089127612e-02
8.912800000000000e+10 -1.005977037601733e+00 -8.276822096237467e-02
8.917600000000000e+10 -1.005978886047966e+00 -8.277796636726700e-02
8.922400000000000e+10 -1.005980532455330e+00 -8.278765683932138e-02
8.927200000000000e+10 -1.005981973828978e+00 -8.279731272979457e-02
8.932000000000000e+10 -1.005983207973171e+00 -8.280695475812502e-02
8.936800000000000e+10 -1.005984233405828e+00 -8.281660406530736e-02
8.941600000000000e+10 -1.005985049330234e+00 -8.282628187824700e-02
8.946400000000000e+10 -1.005985655571691e+00 -8.283600980584249e-02
8.951200000000000e+10 -1.005986052602273e+00 -8.284580970227017e-02
8.956000000000000e+10 -1.005986241704521e+00 -8.285570390722442e-02
8.960800000000000e+10 -1.005986224867941e+00 -8.286571492989762e-02
8.965600000000000e+10 -1.005986004892612e+00 -8.287586574600260e-02
8.970400000000000e+10 -1.005985585339124e+00 -8.288617925668790e-02
8.975200000000000e+10 -1.005984970699160e+00 -8.289667852372834e-02
8.980000000000000e+10 -1.005984166484003e+00 -8.290738640355368e-02
8.984800000000000e+10 -1.005983179157321e+00 -8.291832559386790e-02
8.989600000000000e+10 -1.005982016200009e+00 -8.292951818904498e-02
8.994400000000000e+10 -1.005980686169413e+00 -8.294098568957088e-02
8.999200000000000e+10 -1.005979198399104e+00 -8.295274878866871e-02
9.004000000000000e+10 -1.005977562922987e+00 -8.296482760006867e-02
9.008800000000000e+10 -1.005975790070455e+00 -8.297724148129564e-02
9.013600000000000e+10 -1.005973890546726e+00 -8.299000918513556e-02
9.018400000000000e+10 -1.005971875222988e+00 -8.300314864213197e-02
9.023200000000000e+10 -1.005969755409329e+00 -8.301667689872268e-02
9.028000000000000e+10 -1.005967542411550e+00 -8.303060991508310e-02
9.032800000000000e+10 -1.005965247496303e+00 -8.304496229379238e-02
9.037600000000000e+10 -1.005962881894913e+00 -8.305974760166733e-02
9.042400000000000e+10 -1.005960457055559e+00 -8.307497840531709e-02
9.047200000000000e+10 -1.005957984602202e+00 -8.309066641144111e-02
9.052000000000000e+10 -1.005955476598895e+00 -8.310682261285020e-02
9.056800000000000e+10 -1.005952945534964e+00 -8.312345728332586e-02
9.061600000000000e+10 -1.005950404582754e+00 -8.314057989366865e-02
9.066400000000000e+10 -1.005947867309834e+00 -8.315819882396015e-02
9.071200000000000e+10 -1.005945347469565e+00 -8.317632129316528e-02
9.076000000000000e+10 -1.005942858696868e+00 -8.319495375411792e-02
9.080800000000000e+10 -1.005940414506690e+00 -8.321410166559778e-02
9.085600000000000e+10 -1.005938028134415e+00 -8.323376975102835e-02
9.090400000000000e+10 -1.005935712423356e+00 -8.325396192003182e-02
9.095200000000000e+10 -1.005933479658878e+00 -8.327468136079473e-02
9.100000000000000e+10 -1.005931341705141e+00 -8.329593070564642e-02
9.104800000000000e+10 -1.005929310026636e+00 -8.331771210924679e-02
9.109600000000000e+10 -1.005927396140660e+00 -8.334002737435514e-02
9.114400000000000e+10 -1.005925611508820e+00 -8.336287764748064e-02
9.119200000000000e+10 -1.005923967982024e+00 -8.338626345453747e-02
9.124000000000000e+10 -1.005922477651201e+00 -8.341018469700374e-02
9.128800000000000e+10 -1.005921152844391e+00 -8.343464043215194e-02
9.133600000000000e+10 -1.005920006029339e+00 -8.345962906534037e-02
9.138400000000000e+10 -1.005919049485882e+00 -8.348514824106416e-02
9.143200000000000e+10 -1.005918295397675e+00 -8.351119520109689e-02
9.148000000000000e+10 -1.005917755444619e+00 -8.353776663339404e-02
9.152800000000000e+10 -1.005917440839400e+00 -8.356485873820980e-02
9.157600000000000e+10 -1.005917362165110e+00 -8.359246722156626e-02
9.162400000000000e+10 -1.005917529513680e+00 -8.362058716372313e-02
9.167200000000000e+10 -1.005917952497703e+00 -8.364921309869713e-02
9.172000000000000e+10 -1.005918640299893e+00 -8.367833892909726e-02
9.176800000000000e+10 -1.005919601803631e+00 -8.370795805664553e-02
9.181600000000000e+10 -1.005920845725796e+00 -8.373806329500770e-02
9.186400000000000e+10 -1.005922380764238e+00 -8.376864708774075e-02
9.191200000000000e+10 -1.005924215649286e+00 -8.379970152517870e-02
9.196000000000000e+10 -1.005926359232410e+00 -8.383121837709494e-02
9.200800000000000e+10 -1.005928820447941e+00 -8.386318902235600e-02
9.205600000000000e+10 -1.005931608317953e+00 -8.389560437033197e-02
9.210400000000000e+10 -1.005934731659558e+00 -8.392845461072020e-02
9.215200000000000e+10 -1.005938199027839e+00 -8.396172951971459e-02
9.220000000000000e+10 -1.005942018467593e+00 -8.399541830639624e-02
9.224800000000000e+10 -1.005946197625772e+00 -8.402950971159082e-02
9.229600000000000e+10 -1.005950743442522e+00 -8.406399204803659e-02
9.234400000000000e+10 -1.005955662399763e+00 -8.409885354219532e-02
9.239200000000000e+10 -1.005960960411412e+00 -8.413408198835234e-02
9.244000000000000e+10 -1.005966643074594e+00 -8.416966486893680e-02
9.248800000000000e+10 -1.005972715532417e+00 -8.420558924546256e-02
9.253600000000000e+10 -1.005979182617932e+00 -8.424184175297966e-02
9.258400000000000e+10 -1.005986048873266e+00 -8.427840870011925e-02
9.263200000000000e+10 -1.005993318675928e+00 -8.431527580846067e-02
9.268000000000000e+10 -1.006000996201475e+00 -8.435242837361523e-02
9.272800000000000e+10 -1.006009085206842e+00 -8.438985126425909e-02
9.277600000000000e+10 -1.006017588986080e+00 -8.442752902797573e-02
9.282400000000000e+10 -1.006026510256909e+00 -8.446544595651911e-02
9.287200000000000e+10 -1.006035851027085e+00 -8.450358609641631e-02
9.292000000000000e+10 -1.006045612594658e+00 -8.454193327940329e-02
9.296800000000000e+10 -1.006055795526808e+00 -8.458047115473440e-02
9.301600000000000e+10 -1.006066399731803e+00 -8.461918334518846e-02
9.306400000000000e+10 -1.006077424469066e+00 -8.465805305271798e-02
9.311200000000000e+10 -1.006088868469571e+00 -8.469706344200925e-02
9.316000000000000e+10 -1.006100729962944e+00 -8.473619724800933e-02
9.320800000000000e+10 -1.006113006704926e+00 -8.477543720082688e-02
9.325600000000000e+10 -1.006125696006060e+00 -8.481476589579472e-02
9.330400000000000e+10 -1.006138794706690e+00 -8.485416591567028e-02
9.335200000000000e+10 -1.006152299315608e+00 -8.489361989118052e-02
9.340000000000000e+10 -1.006166205953229e+00 -8.493311049371320e-02
9.344800000000000e+10 -1.006180510352992e+00 -8.497262061798969e-02
9.349600000000000e+10 -1.006195207701312e+00 -8.501213323769850e-02
9.354400000000000e+10 -1.006210292606240e+00 -8.505163155176225e-02
9.359200000000000e+10 -1.006225759048740e+00 -8.509109898288204e-02
9.364000000000000e+10 -1.006241600416853e+00 -8.513051909121039e-02
9.368800000000000e+10 -1.006257809263838e+00 -8.516987571560405e-02
9.373600000000000e+10 -1.006274377318448e+00 -8.520915299202025e-02
9.378400000000000e+10 -1.006291295719812e+00 -8.524833555200396e-02
9.383200000000000e+10 -1.006308555225280e+00 -8.528740854572744e-02
9.388000000000000e+10 -1.006326146324688e+00 -8.532635751649027e-02
9.392800000000000e+10 -1.006344059325233e+00 -8.536516844251794e-02
9.397600000000000e+10 -1.006362284474531e+00 -8.540382766217049e-02
9.402400000000000e+10 -1.006380811972201e+00 -8.544232180683378e-02
9.407200000000000e+10 -1.006399631921373e+00 -8.548063806143592e-02
9.412000000000000e+10 -1.006418734180840e+00 -8.551876406742737e-02
9.416800000000000e+10 -1.006438108377989e+00 -8.555668812486111e-02
9.421600000000000e+10 -1.006457743799099e+00 -8.559439920718302e-02
9.426400000000000e+10 -1.006477629402470e+00 -8.563188721280567e-02
9.431200000000000e+10 -1.006497753826426e+00 -8.566914275612740e-02
9.436000000000000e+10 -1.006518105496118e+00 -8.570615750921294e-02
9.440800000000000e+10 -1.006538672846118e+00 -8.574292386992564e-02
9.445600000000000e+10 -1.006559444290168e+00 -8.577943508363604e-02
9.450400000000000e+10 -1.006580408355669e+00 -8.581568510343973e-02
9.455200000000000e+10 -1.006601553774487e+00 -8.585166877289667e-02
9.460000000000000e+10 -1.006622869458865e+00 -8.588738170130747e-02
9.464800000000000e+10 -1.006644344606018e+00 -8.592282043988612e-02
9.469600000000000e+10 -1.006665968648244e+00 -8.595798236129372e-02
9.474400000000000e+10 -1.006687731342044e+00 -8.599286585313676e-02
9.479200000000000e+10 -1.006709622723651e+00 -8.602747024398673e-02
9.484000000000000e+10 -1.006731633144266e+00 -8.606179589604269e-02
9.488800000000000e+10 -1.006753753192325e+00 -8.609584430726999e-02
9.493600000000000e+10 -1.006775973528004e+00 -8.612961762908607e-02
9.498400000000000e+10 -1.006798284798992e+00 -8.616311878481467e-02
9.503200000000000e+10 -1.006820677284232e+00 -8.619635185226579e-02
9.508000000000000e+10 -1.006843141685119e+00 -8.622932138678734e-02
9.512800000000000e+10 -1.006865668701392e+00 -8.626203214680066e-02
9.517600000000000e+10 -1.006888249132727e+00 -8.629448981082895e-02
9.522400000000000e+10 -1.006910874180092e+00 -8.632670088278298e-02
9.527200000000000e+10 -1.006933535603089e+00 -8.635867260294701e-02
9.532000000000000e+10 -1.006956225873725e+00 -8.639041287948730e-02
9.536800000000000e+10 -1.006978938239836e+00 -8.642193015053208e-02
9.541600000000000e+10 -1.007001666764578e+00 -8.645323332539068e-02
9.546400000000000e+10 -1.007024406176122e+00 -8.648433174532458e-02
9.551200000000000e+10 -1.007047151836357e+00 -8.651523525870954e-02
9.556000000000000e+10 -1.007069899512179e+00 -8.654595414882378e-02
9.560800000000000e+10 -1.007092645387431e+00 -8.657649912196501e-02
9.565600000000000e+10 -1.007115385994354e+00 -8.660688145200807e-02
9.570400000000000e+10 -1.007138118201784e+00 -8.663711278341690e-02
9.575200000000000e+10 -1.007160839246658e+00 -8.666720520863068e-02
9.580000000000000e+10 -1.007183546829580e+00 -8.669717098303172e-02
9.584800000000000e+10 -1.007206239226202e+00 -8.672702251941862e-02
9.589600000000000e+10 -1.007228915333054e+00 -8.675677216453932e-02
9.594400000000000e+10 -1.007251574707217e+00 -8.678643219712207e-02
9.599200000000000e+10 -1.007274217698648e+00 -8.681601471843382e-02
9.604000000000000e+10 -1.007296845477540e+00 -8.684553171778714e-02
9.608800000000000e+10 -1.007319460107105e+00 -8.687499497699135e-02
9.613600000000000e+10 -1.007342064532830e+00 -8.690441586953045e-02
9.618400000000000e+10 -1.007364662507214e+00 -8.693380545545276e-02
9.623200000000000e+10 -1.007387258501566e+00 -8.696317429512433e-02
9.628000000000000e+10 -1.007409857632615e+00 -8.699253261585574e-02
9.632800000000000e+10 -1.007432465545529e+00 -8.702189021484745e-02
9.637600000000000e+10 -1.007455088306341e+00 -8.705125663773641e-02
9.642400000000000e+10 -1.007477732383862e+00 -8.708064119297450e-02
9.647200000000000e+10 -1.007500404565998e+00 -8.711005298518820e-02
9.652000000000000e+10 -1.007523111892491e+00 -8.713950080583593e-02
9.656800000000000e+10 -1.007545861718322e+00 -8.716899310658148e-02
9.661600000000000e+10 -1.007568661653606e+00 -8.719853782846909e-02
9.666400000000000e+10 -1.007591519939585e+00 -8.722814297474817e-02
9.671200000000000e+10 -1.007614445324662e+00 -8.725781576289700e-02
9.676000000000000e+10 -1.007637446990525e+00 -8.728756280058152e-02
9.680800000000000e+10 -1.007660534534882e+00 -8.731738992602760e-02
9.685600000000000e+10 -1.007683717873900e+00 -8.734730211680533e-02
9.690400000000000e+10 -1.007707007205263e+00 -8.737730366170290e-02
9.695200000000000e+10 -1.007730412887139e+00 -8.740739792106531e-02
9.700000000000000e+10 -1.007753945417891e+00 -8.743758775664054e-02
9.704800000000000e+10 -1.007777615299651e+00 -8.746787535247280e-02
9.709600000000000e+10 -1.007801433042862e+00 -8.749826221274649e-02
9.714400000000000e+10 -1.007825409029173e+00 -8.752874927887562e-02
9.719200000000000e+10 -1.007849553491770e+00 -8.755933696686706e-02
9.724000000000000e+10 -1.007873876497593e+00 -8.759002525180352e-02
9.728800000000000e+10 -1.007898387842739e+00 -8.762081354258303e-02
9.733600000000000e+10 -1.007923096943118e+00 -8.765170071889518e-02
9.738400000000000e+10 -1.007948012871525e+00 -8.768268528233446e-02
9.743200000000000e+10 -1.007973144314923e+00 -8.771376510485349e-02
9.748000000000000e+10 -1.007998499686162e+00 -8.774493768065365e-02
9.752800000000000e+10 -1.008024086895935e+00 -8.777619985814519e-02
9.757600000000000e+10 -1.008049913506911e+00 -8.780754818884690e-02
9.762400000000000e+10 -1.008075986589271e+00 -8.783897844155107e-02
9.767200000000000e+10 -1.008102312812040e+00 -8.787048601624790e-02
9.772000000000000e+10 -1.008128898350162e+00 -8.790206579632774e-02
9.776800000000000e+10 -1.008155749010365e+00 -8.793371242438321e-02
9.781600000000000e+10 -1.008182870096806e+00 -8.796542003931311e-02
9.786400000000000e+10 -1.008210266428501e+00 -8.799718263536618e-02
9.791200000000000e+10 -1.008237941984971e+00 -8.802899383156448e-02
9.796000000000000e+10 -1.008265900101946e+00 -8.806084740389011e-02
9.800800000000000e+10 -1.008294143708712e+00 -8.809273709808571e-02
9.805600000000000e+10 -1.008322675270092e+00 -8.812465650152286e-02
9.810400000000000e+10 -1.008351496855324e+00 -8.815659918316572e-02
9.815200000000000e+10 -1.008380610051302e+00 -8.818855848173791e-02
9.820000000000000e+10 -1.008410015863812e+00 -8.822052758200412e-02
9.824800000000000e+10 -1.008439714862095e+00 -8.825249933643250e-02
9.829600000000000e+10 -1.008469707055139e+00 -8.828446632459544e-02
9.834400000000000e+10 -1.008499991832222e+00 -8.831642081434252e-02
9.839200000000000e+10 -1.008530567909547e+00 -8.834835507559062e-02
9.844000000000000e+10 -1.008561433368031e+00 -8.838026117352546e-02
9.848800000000000e+10 -1.008592585525953e+00 -8.841213110380855e-02
9.853600000000000e+10 -1.008624021084769e+00 -8.844395681181640e-02
9.858400000000000e+10 -1.008655736078214e+00 -8.847573022190321e-02
9.863200000000000e+10 -1.008687725980489e+00 -8.850744320107744e-02
9.868000000000000e+10 -1.008719985677892e+00 -8.853908767655330e-02
9.872800000000000e+10 -1.008752509560042e+00 -8.857065544392043e-02
9.877600000000000e+10 -1.008785291540996e+00 -8.860213841446159e-02
9.882400000000000e+10 -1.008818325147885e+00 -8.863352878619163e-02
9.887200000000000e+10 -1.008851603555475e+00 -8.866481924976631e-02
9.892000000000000e+10 -1.008885119731711e+00 -8.869600270896716e-02
9.896800000000000e+10 -1.008918866486876e+00 -8.872707229613484e-02
9.901600000000000e+10 -1.008952836279092e+00 -8.875802124276912e-02
9.906400000000000e+10 -1.008987021240658e+00 -8.878884292899467e-02
9.911200000000000e+10 -1.009021413177531e+00 -8.881953075543605e-02
9.916000000000000e+10 -1.009056003684634e+00 -8.885007818668723e-02
9.920800000000000e+10 -1.009090784123703e+00 -8.888047869147080e-02
9.925600000000000e+10 -1.009125745633571e+00 -8.891072585007134e-02
9.930400000000000e+10 -1.009160879325934e+00 -8.894081328888188e-02
9.935200000000000e+10 -1.009196176193627e+00 -8.897073487917502e-02
9.940000000000000e+10 -1.009231627281089e+00 -8.900048466988716e-02
9.944800000000000e+10 -1.009267223827484e+00 -8.903005693345273e-02
9.949600000000000e+10 -1.009302957168934e+00 -8.905944600052276e-02
9.954400000000000e+10 -1.009338819014868e+00 -8.908864639766774e-02
9.959200000000000e+10 -1.009374801265454e+00 -8.911765259656675e-02
9.964000000000000e+10 -1.009410896057884e+00 -8.914645911114774e-02
9.968800000000000e+10 -1.009447095704716e+00 -8.917506048933445e-02
9.973600000000000e+10 -1.009483392775854e+00 -8.920345112739776e-02
9.978400000000000e+10 -1.009519780071294e+00 -8.923162529690568e-02
9.983200000000000e+10 -1.009556250455467e+00 -8.925957710123582e-02
9.988000000000000e+10 -1.009592796684686e+00 -8.928730078910062e-02
9.992800000000000e+10 -1.009629411350630e+00 -8.931479051756014e-02
9.997600000000000e+10 -1.009666086813952e+00 -8.934204060720288e-02
1.000240000000000e+11 -1.009702815277441e+00 -8.936904538504462e-02
1.000720000000000e+11 -1.009739588914092e+00 -8.939579910383723e-02
1.001200000000000e+11 -1.009776399502598e+00 -8.942229601534486e-02
1.001680000000000e+11 -1.009813238887179e+00 -8.944853033691162e-02
1.002160000000000e+11 -1.009850098593414e+00 -8.947449610160656e-02
1.002640000000000e+11 -1.009886970034730e+00 -8.950018759603699e-02
1.003120000000000e+11 -1.009923844468807e+00 -8.952559902460445e-02
1.003600000000000e+11 -1.009960713105895e+00 -8.955072505561530e-02
1.004080000000000e+11 -1.009997567202005e+00 -8.957556043993777e-02
1.004560000000000e+11 -1.010034398126624e+00 -8.960010028826838e-02
1.005040000000000e+11 -1.010071197471553e+00 -8.962433971044767e-02
1.005520000000000e+11 -1.010107957302592e+00 -8.964827385175167e-02
1.006000000000000e+11 -1.010144669350675e+00 -8.967189792022254e-02
1.006480000000000e+11 -1.010181325482743e+00 -8.969520714372547e-02
1.006960000000000e+11 -1.010217917359300e+00 -8.971819669449783e-02
1.007440000000000e+11 -1.010254436335909e+00 -8.974086208946742e-02
1.007920000000000e+11 -1.010290873730705e+00 -8.976319865025957e-02
1.008400000000000e+11 -1.010327221204236e+00 -8.978520183474130e-02
1.008880000000000e+11 -1.010363470083293e+00 -8.980686705620347e-02
1.009360000000000e+11 -1.010399611599203e+00 -8.982818993900794e-02
1.009840000000000e+11 -1.010435636945498e+00 -8.984916600566990e-02
1.010320000000000e+11 -1.010471537434701e+00 -8.986979069608354e-02
1.010800000000000e+11 -1.010507304513197e+00 -8.989005906794159e-02
1.011280000000000e+11 -1.010542929687596e+00 -8.990996599380154e-02
1.011760000000000e+11 -1.010578404506485e+00 -8.992950611481493e-02
1.012240000000000e+11 -1.010613720574173e+00 -8.994867375517575e-02
1.012720000000000e+11 -1.010648869447363e+00 -8.996746330317265e-02
1.013200000000000e+11 -1.010683842749591e+00 -8.998586885590619e-02
1.013680000000000e+11 -1.010718632212774e+00 -9.000388451301293e-02
1.014160000000000e+11 -1.010753229634462e+00 -9.002150451120629e-02
1.014640000000000e+11 -1.010787626952570e+00 -9.003872307281494e-02
1.015120000000000e+11 -1.010821816039439e+00 -9.005553456509353e-02
1.015600000000000e+11 -1.010855789004798e+00 -9.007193313283138e-02
1.016080000000000e+11 -1.010889538243768e+00 -9.008791256963433e-02
1.016560000000000e+11 -1.010923056170526e+00 -9.010346601492962e-02
1.017040000000000e+11 -1.010956335015214e+00 -9.011858644330065e-02
1.017520000000000e+11 -1.010989366870565e+00 -9.013326647648300e-02
1.018000000000000e+11 -1.011022143601739e+00 -9.014749863035994e-02
1.018480000000000e+11 -1.011054657605385e+00 -9.016127559353497e-02
1.018960000000000e+11 -1.011086902035180e+00 -9.017458963758868e-02
1.019440000000000e+11 -1.011118870362469e+00 -9.018743248130039e-02
1.019920000000000e+11 -1.011150555826368e+00 -9.019979520352768e-02
1.020400000000000e+11 -1.011181951849468e+00 -9.021166951958839e-02
1.020880000000000e+11 -1.011213052506243e+00 -9.022304686596731e-02
1.021360000000000e+11 -1.011243851900201e+00 -9.023391788717212e-02
1.021840000000000e+11 -1.011274344038692e+00 -9.024427273494816e-02
1.022320000000000e+11 -1.011304522667704e+00 -9.025410179878134e-02
1.022800000000000e+11 -1.011334381821916e+00 -9.026339574517074e-02
1.023280000000000e+11 -1.011363916045837e+00 -9.027214558102541e-02
1.023760000000000e+11 -1.011393120522346e+00 -9.028034238650048e-02
1.024240000000000e+11 -1.011421991198223e+00 -9.028797773650361e-02
1.024720000000000e+11 -1.011450524804427e+00 -9.029504246772158e-02
1.025200000000000e+11 -1.011478718279379e+00 -9.030152709378503e-02
1.025680000000000e+11 -1.011506568697475e+00 -9.030742140307293e-02
1.026160000000000e+11 -1.011534073574111e+00 -9.031271515601186e-02
1.026640000000000e+11 -1.011561230535760e+00 -9.031739760251629e-02
1.027120000000000e+11 -1.011588037751743e+00 -9.032145830303427e-02
1.027600000000000e+11 -1.011614493678405e+00 -9.032488615527733e-02
1.028080000000000e+11 -1.011640597743005e+00 -9.032766973159795e-02
1.028560000000000e+11 -1.011666349862363e+00 -9.032979728008320e-02
1.029040000000000e+11 -1.011691750665396e+00 -9.033125701550178e-02
1.029520000000000e+11 -1.011716801124881e+00 -9.033203739509281e-02
1.030000000000000e+11 -1.011741502941305e+00 -9.033212650736698e-02
1.030480000000000e+11 -1.011765858377860e+00 -9.033151186608100e-02
1.030960000000000e+11 -1.011789870435309e+00 -9.033018088423091e-02
1.031440000000000e+11 -1.011813542717792e+00 -9.032812001014132e-02
1.031920000000000e+11 -1.011836879771193e+00 -9.032531552201098e-02
1.032400000000000e+11 -1.011859886928280e+00 -9.032175277713510e-02
1.032880000000000e+11 -1.011882570479432e+00 -9.031741725940860e-02
1.033360000000000e+11 -1.011904937540019e+00 -9.031229373459077e-02
1.033840000000000e+11 -1.011926996187545e+00 -9.030636683352394e-02
1.034320000000000e+11 -1.011948755180348e+00 -9.029962031475171e-02
1.034800000000000e+11 -1.011970223997298e+00 -9.029203776576351e-02
1.035280000000000e+11 -1.011991412719863e+00 -9.028360206464721e-02
1.035760000000000e+11 -1.012012331934410e+00 -9.027429575068324e-02
1.036240000000000e+11 -1.012032992725468e+00 -9.026410050188904e-02
1.036720000000000e+11 -1.012053406634101e+00 -9.025299753712208e-02
1.037200000000000e+11 -1.012073585589431e+00 -9.024096753883615e-02
1.037680000000000e+11 -1.012093541926544e+00 -9.022799060293844e-02
1.038160000000000e+11 -1.012113288406795e+00 -9.021404654917951e-02
1.038640000000000e+11 -1.012132838254293e+00 -9.019911452931177e-02
1.039120000000000e+11 -1.012152205251635e+00 -9.018317310541039e-02
1.039600000000000e+11 -1.012171403731130e+00 -9.016620028115607e-02
1.040080000000000e+11 -1.012190448593797e+00 -9.014817346448532e-02
1.040560000000000e+11 -1.012209355318377e+00 -9.012906935155357e-02
1.041040000000000e+11 -1.012228139784690e+00 -9.010886398362193e-02
1.041520000000000e+11 -1.012246818217639e+00 -9.008753256343201e-02
1.042000000000000e+11 -1.012265407182075e+00 -9.006504954095357e-02
1.042480000000000e+11 -1.012283923134321e+00 -9.004138874832938e-02
1.042960000000000e+11 -1.012302382579083e+00 -9.001652374718584e-02
1.043440000000000e+11 -1.012320802057142e+00 -8.999042756937808e-02
1.043920000000000e+11 -1.012339198084428e+00 -8.996307285979348e-02
1.044400000000000e+11 -1.012357587027252e+00 -8.993443156672552e-02
1.044880000000000e+11 -1.012375985134164e+00 -8.990447537560775e-02
1.045360000000000e+11 -1.012394408559823e+00 -8.987317548577629e-02
1.045840000000000e+11 -1.012412873504456e+00 -8.984050289456944e-02
1.046320000000000e+11 -1.012431396268610e+00 -8.980642831157852e-02
1.046800000000000e+11 -1.012449993375768e+00 -8.977092179491507e-02
1.047280000000000e+11 -1.012468681284398e+00 -8.973395325617850e-02
1.047760000000000e+11 -1.012487476827285e+00 -8.969549207262438e-02
1.048240000000000e+11 -1.012506397025621e+00 -8.965550730911559e-02
1.048720000000000e+11 -1.012525459071253e+00 -8.961396746506654e-02
1.049200000000000e+11 -1.012544680415950e+00 -8.957084117700972e-02
1.049680000000000e+11 -1.012564078623946e+00 -8.952609681860856e-02
1.050160000000000e+11 -1.012583670616616e+00 -8.947970230896367e-02
1.050640000000000e+11 -1.012603473245885e+00 -8.943162515833304e-02
1.051120000000000e+11 -1.012623502984563e+00 -8.938183268207356e-02
1.051600000000000e+11 -1.012643776109451e+00 -8.933029211414911e-02
1.052080000000000e+11 -1.012664308415421e+00 -8.927697057924067e-02
1.052560000000000e+11 -1.012685115393692e+00 -8.922183511165924e-02
1.053040000000000e+11 -1.012706212194874e+00 -8.916485292637831e-02
1.053520000000000e+11 -1.012727613845018e+00 -8.910599131355637e-02
1.054000000000000e+11 -1.012749335266533e+00 -8.904521759105118e-02
1.054480000000000e+11 -1.012771391389623e+00 -8.898249888404251e-02
1.054960000000000e+11 -1.012793797129012e+00 -8.891780249361401e-02
1.055440000000000e+11 -1.012816567295467e+00 -8.885109537920161e-02
1.055920000000000e+11 -1.012839716619199e+00 -8.878234482070377e-02
1.056400000000000e+11 -1.012863259753520e+00 -8.871151805591058e-02
1.056880000000000e+11 -1.012887210984919e+00 -8.863858271294500e-02
1.057360000000000e+11 -1.012911584597842e+00 -8.856350629896896e-02
1.057840000000000e+11 -1.012936394794749e+00 -8.848625693102725e-02
1.058320000000000e+11 -1.012961655513379e+00 -8.840680291393180e-02
1.058800000000000e+11 -1.012987380759102e+00 -8.832511319065080e-02
1.059280000000000e+11 -1.013013584371795e+00 -8.824115668812693e-02
1.059760000000000e+11 -1.013040279886192e+00 -8.815490280424508e-02
1.060240000000000e+11 -1.013067480474017e+00 -8.806632089349603e-02
1.060720000000000e+11 -1.013095198989125e+00 -8.797538060903851e-02
1.061200000000000e+11 -1.013123447826896e+00 -8.788205170067806e-02
1.061680000000000e+11 -1.013152239255857e+00 -8.778630435399432e-02
1.062160000000000e+11 -1.013181585272243e+00 -8.768810920521547e-02
1.062640000000000e+11 -1.013211497778922e+00 -8.758743740162912e-02
1.063120000000000e+11 -1.013241988561530e+00 -8.748426088405045e-02
1.063600000000000e+11 -1.013273069271859e+00 -8.737855181305017e-02
1.064080000000000e+11 -1.013304751425075e+00 -8.727028275878662e-02
1.064560000000000e+11 -1.013337046117274e+00 -8.715942645964767e-02
1.065040000000000e+11 -1.013369963924562e+00 -8.704595604101427e-02
1.065520000000000e+11 -1.013403515544585e+00 -8.692984528565416e-02
1.066000000000000e+11 -1.013437711182686e+00 -8.681106788536022e-02
1.066480000000000e+11 -1.013472560714226e+00 -8.668959768719395e-02
1.066960000000000e+11 -1.013508073949189e+00 -8.656540937399113e-02
1.067440000000000e+11 -1.013544260272229e+00 -8.643847791717628e-02
1.067920000000000e+11 -1.013581128353447e+00 -8.630877910940606e-02
1.068400000000000e+11 -1.013618686597719e+00 -8.617628919904635e-02
1.068880000000000e+11 -1.013656943016857e+00 -8.604098525520225e-02
1.069360000000000e+11 -1.013695905253700e+00 -8.590284508758197e-02
1.069840000000000e+11 -1.013735580551238e+00 -8.576184739864677e-02
1.070320000000000e+11 -1.013775975367302e+00 -8.561797159200657e-02
1.070800000000000e+11 -1.013817095536454e+00 -8.547119782965724e-02
1.071280000000000e+11 -1.013858946034965e+00 -8.532150709178506e-02
1.071760000000000e+11 -1.013901530921030e+00 -8.516888138716167e-02
1.072240000000000e+11 -1.013944853360998e+00 -8.501330392998296e-02
1.072720000000000e+11 -1.013988915740788e+00 -8.485475890279037e-02
1.073200000000000e+11 -1.014033719769520e+00 -8.469323160252429e-02
1.073680000000000e+11 -1.014079266634571e+00 -8.452870831133578e-02
1.074160000000000e+11 -1.014125556986873e+00 -8.436117603878966e-02
1.074640000000000e+11 -1.014172591081187e+00 -8.419062261874125e-02
1.075120000000000e+11 -1.014220368500068e+00 -8.401703677059577e-02
1.075600000000000e+11 -1.014268888456543e+00 -8.384040825568348e-02
1.076080000000000e+11 -1.014318149840896e+00 -8.366072802701842e-02
1.076560000000000e+11 -1.014368150999111e+00 -8.347798830000823e-02
1.077040000000000e+11 -1.014418889772754e+00 -8.329218293601086e-02
1.077520000000000e+11 -1.014470363591197e+00 -8.310330749022402e-02
1.078000000000000e+11 -1.014522569345720e+00 -8.291135955606198e-02
1.078480000000000e+11 -1.014575503380086e+00 -8.271633824268745e-02
1.078960000000000e+11 -1.014629161329883e+00 -8.251824412282983e-02
1.079440000000000e+11 -1.014683538028746e+00 -8.231707914957394e-02
1.079920000000000e+11 -1.014738627420333e+00 -8.211284662484612e-02
1.080400000000000e+11 -1.014794422400147e+00 -8.190555127547379e-02
1.080880000000000e+11 -1.014850915132843e+00 -8.169519941851112e-02
1.081360000000000e+11 -1.014908097040992e+00 -8.148179912107115e-02
1.081840000000000e+11 -1.014965958992393e+00 -8.126536031920616e-02
1.082320000000000e+11 -1.015024491374032e+00 -8.104589485324845e-02
1.082800000000000e+11 -1.015083684366582e+00 -8.082341666753075e-02
1.083280000000000e+11 -1.015143527856924e+00 -8.059794186951380e-02
1.083760000000000e+11 -1.015204011612627e+00 -8.036948875712452e-02
1.084240000000000e+11 -1.015265125093210e+00 -8.013807803784904e-02
1.084720000000000e+11 -1.015326857527056e+00 -7.990373270773392e-02
1.085200000000000e+11 -1.015389197682187e+00 -7.966647796134110e-02
1.085680000000000e+11 -1.015452133641578e+00 -7.942634071037800e-02
1.086160000000000e+11 -1.015515652602219e+00 -7.918335014140350e-02
1.086640000000000e+11 -1.015579741041680e+00 -7.893753759569384e-02
1.087120000000000e+11 -1.015644384682904e+00 -7.868893676035377e-02
1.087600000000000e+11 -1.015709568775079e+00 -7.843758398012902e-02
1.088080000000000e+11 -1.015775278260499e+00 -7.818351792839147e-02
1.088560000000000e+11 -1.015841497939447e+00 -7.792677942286852e-02
1.089040000000000e+11 -1.015908212430821e+00 -7.766741133919285e-02
1.089520000000000e+11 -1.015975406447577e+00 -7.740545877765782e-02
1.090000000000000e+11 -1.016043064554742e+00 -7.714096892957158e-02
1.090480000000000e+11 -1.016111171244685e+00 -7.687399090458182e-02
1.090960000000000e+11 -1.016179710520230e+00 -7.660457602896137e-02
1.091440000000000e+11 -1.016248666265927e+00 -7.633277749065186e-02
1.091920000000000e+11 -1.016318022076163e+00 -7.605865010762945e-02
1.092400000000000e+11 -1.016387761441090e+00 -7.578225003235689e-02
1.092880000000000e+11 -1.016457867634035e+00 -7.550363615533170e-02
1.093360000000000e+11 -1.016528323775298e+00 -7.522287016103478e-02
1.093840000000000e+11 -1.016599112665576e+00 -7.494001638368265e-02
1.094320000000000e+11 -1.016670216598264e+00 -7.465514164085070e-02
1.094800000000000e+11 -1.016741617450023e+00 -7.436831529172218e-02
1.095280000000000e+11 -1.016813296672383e+00 -7.407960933670951e-02
1.095760000000000e+11 -1.016885235361776e+00 -7.378910000406300e-02
1.096240000000000e+11 -1.016957414305984e+00 -7.349686592145892e-02
1.096720000000000e+11 -1.017029814092610e+00 -7.320298841061214e-02
1.097200000000000e+11 -1.017102415468616e+00 -7.290755103768558e-02
1.097680000000000e+11 -1.017175199324652e+00 -7.261063981224811e-02
1.098160000000000e+11 -1.017248146546413e+00 -7.231234291260778e-02
1.098640000000000e+11 -1.017321238044476e+00 -7.201275101930370e-02
1.099120000000000e+11 -1.017394454735139e+00 -7.171195733742775e-02
1.099600000000000e+11 -1.017467777251836e+00 -7.141005751597793e-02
1.100080000000000e+11 -1.017614661198792e+00 -7.080333489750196e-02
1.100560000000000e+11 -1.017761731500201e+00 -7.019337784911835e-02
1.101040000000000e+11 -1.017908833625618e+00 -6.958097238226643e-02
1.101520000000000e+11 -1.018055815941927e+00 -6.896688375819052e-02
1.102000000000000e+11 -1.018202527522826e+00 -6.835185523337570e-02
1.102480000000000e+11 -1.018421758943469e+00 -6.742909555324852e-02
1.102960000000000e+11 -1.018567141709036e+00 -6.681471825485893e-02
1.103440000000000e+11 -1.018711742347497e+00 -6.620165891468933e-02
1.103920000000000e+11 -1.018855425431234e+00 -6.559046394788429e-02
1.104400000000000e+11 -1.018998060719497e+00 -6.498164383758112e-02
1.104880000000000e+11 -1.019139524013036e+00 -6.437567515443687e-02
1.105360000000000e+11 -1.019349264189652e+00 -6.347302833410824e-02
1.105840000000000e+11 -1.019487294230325e+00 -6.287602385005052e-02
1.106320000000000e+11 -1.019623768056908e+00 -6.228320757196470e-02
1.106800000000000e+11 -1.019758592207892e+00 -6.169487241738262e-02
1.107280000000000e+11 -1.019891678895100e+00 -6.111128580791684e-02
1.107760000000000e+11 -1.020087868103662e+00 -6.024533872649234e-02
1.108240000000000e+11 -1.020216254754618e+00 -5.967461204846749e-02
1.108720000000000e+11 -1.020342632372721e+00 -5.910931324732027e-02
1.109200000000000e+11 -1.020466931071069e+00 -5.854956709047233e-02
1.109680000000000e+11 -1.020589082515486e+00 -5.799547943696864e-02
1.110160000000000e+11 -1.020709019596230e+00 -5.744713851882709e-02
1.110640000000000e+11 -1.020884630529749e+00 -5.663555912309248e-02
1.111120000000000e+11 -1.020998753764565e+00 -5.610184010583401e-02
1.111600000000000e+11 -1.021110452137876e+00 -5.557397962134793e-02
1.112080000000000e+11 -1.021219674737798e+00 -5.505195638712720e-02
1.112560000000000e+11 -1.021326374929064e+00 -5.453573894366855e-02
1.113040000000000e+11 -1.021430512032556e+00 -5.402528553493210e-02
1.113520000000000e+11 -1.021581838267170e+00 -5.327029384094141e-02
1.114000000000000e+11 -1.021679432056339e+00 -5.277395687118435e-02
1.114480000000000e+11 -1.021774372209556e+00 -5.228305789937564e-02
1.114960000000000e+11 -1.021866644911998e+00 -5.179744940501897e-02
1.115440000000000e+11 -1.021956239188296e+00 -5.131697405488147e-02
1.115920000000000e+11 -1.022085592044973e+00 -5.060552148834736e-02
1.116400000000000e+11 -1.022168466075200e+00 -5.013710409878405e-02
1.116880000000000e+11 -1.022248657557572e+00 -4.967312910178246e-02
1.117360000000000e+11 -1.022326177551239e+00 -4.921337088801758e-02
1.117840000000000e+11 -1.022401042984104e+00 -4.875760772385231e-02
1.118320000000000e+11 -1.022473278159539e+00 -4.830562194381819e-02
1.118800000000000e+11 -1.022576771137271e+00 -4.763426240382199e-02
1.119280000000000e+11 -1.022642588405132e+00 -4.719077070090448e-02
1.119760000000000e+11 -1.022705923413189e+00 -4.675026218671097e-02
1.120240000000000e+11 -1.022766835664684e+00 -4.631250902538907e-02
1.120720000000000e+11 -1.022825389007850e+00 -4.587729292834529e-02
1.121200000000000e+11 -1.022881647039585e+00 -4.544440611384195e-02
1.121680000000000e+11 -1.022961865718654e+00 -4.479899817856033e-02
1.122160000000000e+11 -1.023012654691860e+00 -4.437101430689372e-02
1.122640000000000e+11 -1.023061359180336e+00 -4.394457378930371e-02
1.123120000000000e+11 -1.023108031377490e+00 -4.351943606983465e-02
1.123600000000000e+11 -1.023152717739103e+00 -4.309536554418248e-02
1.124080000000000e+11 -1.023195460437911e+00 -4.267213191367926e-02
1.124560000000000e+11 -1.023256010589816e+00 -4.203835079536676e-02
1.125040000000000e+11 -1.023294048060235e+00 -4.161617015066938e-02
1.125520000000000e+11 -1.023330254019386e+00 -4.119393673077056e-02
1.126000000000000e+11 -1.023364651302701e+00 -4.077137585004035e-02
1.126480000000000e+11 -1.023397259454533e+00 -4.034821805641899e-02
1.126960000000000e+11 -1.023442852714724e+00 -3.971179255544328e-02
1.127440000000000e+11 -1.023471056769385e+00 -3.928597594334846e-02
1.127920000000000e+11 -1.023497525149467e+00 -3.885858928778413e-02
1.128400000000000e+11 -1.023522275380903e+00 -3.842934914866130e-02
1.128880000000000e+11 -1.023545327528457e+00 -3.799798149646107e-02
1.129360000000000e+11 -1.023566703368023e+00 -3.756422181919093e-02
1.129840000000000e+11 -1.023595672269862e+00 -3.690855178163319e-02
1.130320000000000e+11 -1.023612951609306e+00 -3.646770023593317e-02
1.130800000000000e+11 -1.023628627076151e+00 -3.602354025375994e-02
1.131280000000000e+11 -1.023642717069540e+00 -3.557581966733008e-02
1.131760000000000e+11 -1.023655240805702e+00 -3.512431008337601e-02
1.132240000000000e+11 -1.023666218538951e+00 -3.466880377984934e-02
1.132720000000000e+11 -1.023679836298142e+00 -3.397765108879944e-02
1.133200000000000e+11 -1.023687051466899e+00 -3.351134427745386e-02
1.133680000000000e+11 -1.023692807909862e+00 -3.304038037721968e-02
1.134160000000000e+11 -1.023697136996496e+00 -3.256458833024462e-02
1.134640000000000e+11 -1.023700074433141e+00 -3.208382299421519e-02
1.135120000000000e+11 -1.023701960061872e+00 -3.135308852561794e-02
1.135600000000000e+11 -1.023701600845387e+00 -3.085936486977989e-02
1.136080000000000e+11 -1.023700002246345e+00 -3.036024355620320e-02
1.136560000000000e+11 -1.023697212273138e+00 -2.985563175919230e-02
1.137040000000000e+11 -1.023693279401602e+00 -2.934546432033829e-02
1.137520000000000e+11 -1.023688251705410e+00 -2.882970671325438e-02
1.138000000000000e+11 -1.023678759846933e+00 -2.804558763966435e-02
1.138480000000000e+11 -1.023671196891297e+00 -2.751586353375713e-02
1.138960000000000e+11 -1.023662695865855e+00 -2.698057575327935e-02
1.139440000000000e+11 -1.023653298036661e+00 -2.643977926909226e-02
1.139920000000000e+11 -1.023643043414384e+00 -2.589356541488392e-02
1.140400000000000e+11 -1.023631971795458e+00 -2.534206096423535e-02
1.140880000000000e+11 -1.023613919374460e+00 -2.450525217752716e-02
1.141360000000000e+11 -1.023600977777441e+00 -2.394127538484557e-02
1.141840000000000e+11 -1.023587354805830e+00 -2.337263953387430e-02
1.142320000000000e+11 -1.023573088043588e+00 -2.279958133970156e-02
1.142800000000000e+11 -1.023558215305724e+00 -2.222237566105892e-02
1.143280000000000e+11 -1.023534853193103e+00 -2.134949344995080e-02
1.143760000000000e+11 -1.023518630102821e+00 -2.076334917277775e-02
1.144240000000000e+11 -1.023501929406044e+00 -2.017424132026835e-02
1.144720000000000e+11 -1.023484785575359e+00 -1.958257549379518e-02
1.145200000000000e+11 -1.023467232037049e+00 -1.898880264095139e-02
1.145680000000000e+11 -1.023449301275213e+00 -1.839342057887969e-02
1.146160000000000e+11 -1.023421766668596e+00 -1.749853927990869e-02
1.146640000000000e+11 -1.023403029467790e+00 -1.690158839612048e-02
1.147120000000000e+11 -1.023384023325675e+00 -1.630505115573528e-02
1.147600000000000e+11 -1.023364778078269e+00 -1.570958972300837e-02
1.148080000000000e+11 -1.023345322628621e+00 -1.511592021575917e-02
1.148560000000000e+11 -1.023325684853634e+00 -1.452481386805107e-02
1.149040000000000e+11 -1.023295944885313e+00 -1.364478806426843e-02
1.149520000000000e+11 -1.023275966647826e+00 -1.306379595357294e-02
1.150000000000000e+11 -1.023255895218742e+00 -1.248841452476721e-02
