! Generated by Phase I extraction
# Hz S RI R 50
6.700000000000000e+10 1.247417673692791e-01 -4.352946784955798e-02
6.704800000000000e+10 1.248661004236309e-01 -4.346232192841804e-02
6.709600000000000e+10 1.249902624698074e-01 -4.339447179314764e-02
6.714400000000000e+10 1.251142397957463e-01 -4.332595285109449e-02
6.719200000000000e+10 1.252380183485480e-01 -4.325680102568333e-02
6.724000000000000e+10 1.253615844056093e-01 -4.318705201197630e-02
6.728800000000000e+10 1.254849246098717e-01 -4.311674069856736e-02
6.733600000000000e+10 1.256080259461122e-01 -4.304590112110913e-02
6.738400000000000e+10 1.257308757896569e-01 -4.297456641749240e-02
6.743200000000000e+10 1.258534619579839e-01 -4.290276887659800e-02
6.748000000000000e+10 1.259757727478241e-01 -4.283053996548570e-02
6.752800000000000e+10 1.260977968894907e-01 -4.275791033930294e-02
6.757600000000000e+10 1.262195235113791e-01 -4.268490988625991e-02
6.762400000000000e+10 1.263409420876601e-01 -4.261156767697417e-02
6.767200000000000e+10 1.264620424309333e-01 -4.253791190751689e-02
6.772000000000000e+10 1.265828146947722e-01 -4.246396979021337e-02
6.776800000000000e+10 1.267032494199959e-01 -4.238976758076149e-02
6.781600000000000e+10 1.268233374784717e-01 -4.231533058408127e-02
6.786400000000000e+10 1.269430700124541e-01 -4.224068325992670e-02
6.791200000000000e+10 1.270624384036771e-01 -4.216584929039358e-02
6.796000000000000e+10 1.271814341909666e-01 -4.209085161459691e-02
6.800800000000000e+10 1.273000491031180e-01 -4.201571251279669e-02
6.805600000000000e+10 1.274182751483239e-01 -4.194045368230512e-02
6.810400000000000e+10 1.275361047355386e-01 -4.186509639073002e-02
6.815200000000000e+10 1.276535307145573e-01 -4.178966152902436e-02
6.820000000000000e+10 1.277705463876604e-01 -4.171416966600402e-02
6.824800000000000e+10 1.278871454339568e-01 -4.163864098094970e-02
6.829600000000000e+10 1.280033218661086e-01 -4.156309516323480e-02
6.834400000000000e+10 1.281190701010460e-01 -4.148755140457777e-02
6.839200000000000e+10 1.282343850072471e-01 -4.141202834652585e-02
6.844000000000000e+10 1.283492618933322e-01 -4.133654418051968e-02
6.848800000000000e+10 1.284636965044781e-01 -4.126111669782853e-02
6.853600000000000e+10 1.285776847949797e-01 -4.118576334309029e-02
6.858400000000000e+10 1.286912230153868e-01 -4.111050121576154e-02
6.863200000000000e+10 1.288043077279056e-01 -4.103534702909185e-02
6.868000000000000e+10 1.289169359112924e-01 -4.096031712660952e-02
6.872800000000000e+10 1.290291050215182e-01 -4.088542743475044e-02
6.877600000000000e+10 1.291408129456992e-01 -4.081069350486134e-02
6.882400000000000e+10 1.292520579513624e-01 -4.073613061141732e-02
6.887200000000000e+10 1.293628386578357e-01 -4.066175384183650e-02
6.892000000000000e+10 1.294731539823314e-01 -4.058757806763993e-02
6.896800000000000e+10 1.295830032021241e-01 -4.051361795469881e-02
6.901600000000000e+10 1.296923861142345e-01 -4.043988795880725e-02
6.906400000000000e+10 1.298013029961758e-01 -4.036640236947743e-02
6.911200000000000e+10 1.299097546592114e-01 -4.029317539835012e-02
6.916000000000000e+10 1.300177424275679e-01 -4.022022121474162e-02
6.920800000000000e+10 1.301252681072077e-01 -4.014755394657207e-02
6.925600000000000e+10 1.302323339076143e-01 -4.007518757674181e-02
6.930400000000000e+10 1.303389423990151e-01 -4.000313586318179e-02
6.935200000000000e+10 1.304450963946341e-01 -3.993141236378599e-02
6.940000000000000e+10 1.305507989409737e-01 -3.986003045311617e-02
6.944800000000000e+10 1.306560534013216e-01 -3.978900323102845e-02
6.949600000000000e+10 1.307608633921860e-01 -3.971834351785106e-02
6.954400000000000e+10 1.308652328292456e-01 -3.964806379198103e-02
6.959200000000000e+10 1.309691659096550e-01 -3.957817614473540e-02
6.964000000000000e+10 1.310726671285178e-01 -3.950869227389581e-02
6.968800000000000e+10 1.311757413220198e-01 -3.943962340688278e-02
6.973600000000000e+10 1.312783937212716e-01 -3.937098031219970e-02
6.978400000000000e+10 1.313806299247209e-01 -3.930277336858070e-02
6.983200000000000e+10 1.314824558196497e-01 -3.923501254048915e-02
6.988000000000000e+10 1.315838774906455e-01 -3.916770739490100e-02
6.992800000000000e+10 1.316849011773621e-01 -3.910086711558951e-02
6.997600000000000e+10 1.317855332492775e-01 -3.903450042800063e-02
7.002400000000000e+10 1.318857801947584e-01 -3.896861562945522e-02
7.007200000000000e+10 1.319856486207877e-01 -3.890322059578474e-02
7.012000000000000e+10 1.320851454945518e-01 -3.883832311159063e-02
7.016800000000000e+10 1.321842781245166e-01 -3.877393093981567e-02
7.021600000000000e+10 1.322830541281152e-01 -3.871005185983762e-02
7.026400000000000e+10 1.323814814214777e-01 -3.864669363709505e-02
7.031200000000000e+10 1.324795681040782e-01 -3.858386397599217e-02
7.036000000000000e+10 1.325773224581160e-01 -3.852157046396628e-02
7.040800000000000e+10 1.326747529018260e-01 -3.845982062753400e-02
7.045600000000000e+10 1.327718679391346e-01 -3.839862182530684e-02
7.050400000000000e+10 1.328686762095997e-01 -3.833798130406203e-02
7.055200000000000e+10 1.329651864169780e-01 -3.827790614079093e-02
7.060000000000000e+10 1.330614073243034e-01 -3.821840334895036e-02
7.064800000000000e+10 1.331573476436168e-01 -3.815947983756483e-02
7.069600000000000e+10 1.332530161042156e-01 -3.810114238704045e-02
7.074400000000000e+10 1.333484214409181e-01 -3.804339756479466e-02
7.079200000000000e+10 1.334435724479558e-01 -3.798625168868589e-02
7.084000000000000e+10 1.335384779386364e-01 -3.792971085284720e-02
7.088800000000000e+10 1.336331466945274e-01 -3.787378091668784e-02
7.093600000000000e+10 1.337275873975815e-01 -3.781846756765758e-02
7.098400000000000e+10 1.338218085081849e-01 -3.776377624836789e-02
7.103200000000000e+10 1.339158183473114e-01 -3.770971218653318e-02
7.108000000000000e+10 1.340096249925635e-01 -3.765628038129447e-02
7.112800000000000e+10 1.341032363581018e-01 -3.760348561813551e-02
7.117600000000000e+10 1.341966602018501e-01 -3.755133239255513e-02
7.122400000000000e+10 1.342899041613381e-01 -3.749982496424404e-02
7.127200000000000e+10 1.343829757043821e-01 -3.744896729861937e-02
7.132000000000000e+10 1.344758822098854e-01 -3.739876303448485e-02
7.136800000000000e+10 1.345686308776965e-01 -3.734921552094959e-02
7.141600000000000e+10 1.346612286861605e-01 -3.730032778008032e-02
7.146400000000000e+10 1.347536824297432e-01 -3.725210253022462e-02
7.151200000000000e+10 1.348459987054067e-01 -3.720454210096975e-02
7.156000000000000e+10 1.349381839995083e-01 -3.715764844486196e-02
7.160800000000000e+10 1.350302446208979e-01 -3.711142310898834e-02
7.165600000000000e+10 1.351221868106305e-01 -3.706586727722599e-02
7.170400000000000e+10 1.352140166725508e-01 -3.702098169729821e-02
7.175200000000000e+10 1.353057403031185e-01 -3.697676669197036e-02
7.180000000000000e+10 1.353973637352752e-01 -3.693322213728592e-02
7.184800000000000e+10 1.354888929709196e-01 -3.689034754091292e-02
7.189600000000000e+10 1.355803339273028e-01 -3.684814204212710e-02
7.194400000000000e+10 1.356716925881647e-01 -3.680660439693782e-02
7.199200000000000e+10 1.357629750202290e-01 -3.676573299351531e-02
7.204000000000000e+10 1.358541873240623e-01 -3.672552599561440e-02
7.208800000000000e+10 1.359453355335818e-01 -3.668598134918611e-02
7.213600000000000e+10 1.360364255860996e-01 -3.664709676344469e-02
7.218400000000000e+10 1.361274636066893e-01 -3.660886964869651e-02
7.223200000000000e+10 1.362184560728715e-01 -3.657129699301286e-02
7.228000000000000e+10 1.363094098396283e-01 -3.653437543668291e-02
7.232800000000000e+10 1.364003321012193e-01 -3.649810133943879e-02
7.237600000000000e+10 1.364912301289219e-01 -3.646247085996838e-02
7.242400000000000e+10 1.365821110795237e-01 -3.642747991425161e-02
7.247200000000000e+10 1.366729818437784e-01 -3.639312424603801e-02
7.252000000000000e+10 1.367638489329009e-01 -3.635939942929177e-02
7.256800000000000e+10 1.368547183044127e-01 -3.632630084670611e-02
7.261600000000000e+10 1.369455954894821e-01 -3.629382377384137e-02
7.266400000000000e+10 1.370364853929029e-01 -3.626196340748684e-02
7.271200000000000e+10 1.371273924742205e-01 -3.623071487334246e-02
7.276000000000000e+10 1.372183206143298e-01 -3.620007325257632e-02
7.280800000000000e+10 1.373092732202566e-01 -3.617003355033032e-02
7.285600000000000e+10 1.374002531633976e-01 -3.614059067765632e-02
7.290400000000000e+10 1.374912628012172e-01 -3.611173942322413e-02
7.295200000000000e+10 1.375823039043200e-01 -3.608347452932271e-02
7.300000000000000e+10 1.376733777149220e-01 -3.605579063684600e-02
7.304800000000000e+10 1.377644849377046e-01 -3.602868234506749e-02
7.309600000000000e+10 1.378556258594608e-01 -3.600214413778163e-02
7.314400000000000e+10 1.379468003089693e-01 -3.597617042856807e-02
7.319200000000000e+10 1.380380077009211e-01 -3.595075554196579e-02
7.324000000000000e+10 1.381292469961971e-01 -3.592589368041773e-02
7.328800000000000e+10 1.382205167246086e-01 -3.590157891467115e-02
7.333600000000000e+10 1.383118149792882e-01 -3.587780519849225e-02
7.338400000000000e+10 1.384031394750170e-01 -3.585456634774552e-02
7.343200000000000e+10 1.384944875741255e-01 -3.583185600712510e-02
7.348000000000000e+10 1.385858563104684e-01 -3.580966758454902e-02
7.352800000000000e+10 1.386772424919395e-01 -3.578799422399601e-02
7.357600000000000e+10 1.387686427189619e-01 -3.576682879537675e-02
7.362400000000000e+10 1.388600534160548e-01 -3.574616389774978e-02
7.367200000000000e+10 1.389514708751308e-01 -3.572599188820712e-02
7.372000000000000e+10 1.390428912059354e-01 -3.570630491736548e-02
7.376800000000000e+10 1.391343102959293e-01 -3.568709491756594e-02
7.381600000000000e+10 1.392257238817708e-01 -3.566835360712512e-02
7.386400000000000e+10 1.393171275249478e-01 -3.565007251895620e-02
7.391200000000000e+10 1.394085166249643e-01 -3.563224298198110e-02
7.396000000000000e+10 1.394998864163824e-01 -3.561485614157956e-02
7.400800000000000e+10 1.395912319894564e-01 -3.559790303379182e-02
7.405600000000000e+10 1.396825483316507e-01 -3.558137458823177e-02
7.410400000000000e+10 1.397738303319887e-01 -3.556526166428196e-02
7.415200000000000e+10 1.398650728063137e-01 -3.554955512119186e-02
7.420000000000000e+10 1.399562705277965e-01 -3.553424583695101e-02
7.424800000000000e+10 1.400474182307215e-01 -3.551932466191923e-02
7.429600000000000e+10 1.401385106625959e-01 -3.550478241400459e-02
7.434400000000000e+10 1.402295425475326e-01 -3.549060987274411e-02
7.439200000000000e+10 1.403205086577022e-01 -3.547679778786876e-02
7.444000000000000e+10 1.404114037948189e-01 -3.546333687192111e-02
7.448800000000000e+10 1.405022228403724e-01 -3.545021779388595e-02
7.453600000000000e+10 1.405929607788423e-01 -3.543743116597505e-02
7.458400000000000e+10 1.406836127614620e-01 -3.542496748148743e-02
7.463200000000000e+10 1.407741741107054e-01 -3.541281713827966e-02
7.468000000000000e+10 1.408646402963568e-01 -3.540097041421452e-02
7.472800000000000e+10 1.409550069358372e-01 -3.538941746830535e-02
7.477600000000000e+10 1.410452697788516e-01 -3.537814838245650e-02
7.482400000000000e+10 1.411354247229908e-01 -3.536715319140550e-02
7.487200000000000e+10 1.412254678057019e-01 -3.535642188175814e-02
7.492000000000000e+10 1.413153952701657e-01 -3.534594441146048e-02
7.496800000000000e+10 1.414052035163302e-01 -3.533571073225231e-02
7.501600000000000e+10 1.414948891334775e-01 -3.532571082543733e-02
7.506400000000000e+10 1.415844488723946e-01 -3.531593467700330e-02
7.511200000000000e+10 1.416738796796125e-01 -3.530637230630614e-02
7.516000000000000e+10 1.417631786849465e-01 -3.529701379220599e-02
7.520800000000000e+10 1.418523431930813e-01 -3.528784930942921e-02
7.525600000000000e+10 1.419413706317722e-01 -3.527886913830438e-02
7.530400000000000e+10 1.420302586069037e-01 -3.527006374511045e-02
7.535200000000000e+10 1.421190049116259e-01 -3.526142375314292e-02
7.540000000000000e+10 1.422076075815796e-01 -3.525293998169359e-02
7.544800000000000e+10 1.422960649042462e-01 -3.524460342886574e-02
7.549600000000000e+10 1.423843754342796e-01 -3.523640529305983e-02
7.554400000000000e+10 1.424725379796304e-01 -3.522833693489375e-02
7.559200000000000e+10 1.425605516320145e-01 -3.522038986063574e-02
7.564000000000000e+10 1.426484157653877e-01 -3.521255567323591e-02
7.568800000000000e+10 1.427361300083262e-01 -3.520482605649388e-02
7.573600000000000e+10 1.428236942056891e-01 -3.519719280127447e-02
7.578400000000000e+10 1.429111083624889e-01 -3.518964780854113e-02
7.583200000000000e+10 1.429983725674558e-01 -3.518218314070821e-02
7.588000000000000e+10 1.430854869980438e-01 -3.517479099331038e-02
7.592800000000000e+10 1.431724518824049e-01 -3.516746370219627e-02
7.597600000000000e+10 1.432592675172577e-01 -3.516019371889539e-02
7.602400000000000e+10 1.433459342960692e-01 -3.515297363282600e-02
7.607200000000000e+10 1.434324527385477e-01 -3.514579620428311e-02
7.612000000000000e+10 1.435188234823360e-01 -3.513865435279233e-02
7.616800000000000e+10 1.436050472748516e-01 -3.513154122109940e-02
7.621600000000000e+10 1.436911249526847e-01 -3.512445017564259e-02
7.626400000000000e+10 1.437770574600471e-01 -3.511737480564529e-02
7.631200000000000e+10 1.438628458069429e-01 -3.511030901134633e-02
7.636000000000000e+10 1.439484910704920e-01 -3.510324698948804e-02
7.640800000000000e+10 1.440339943949452e-01 -3.509618320801881e-02
7.645600000000000e+10 1.441193570329331e-01 -3.508911235255577e-02
7.650400000000000e+10 1.442045803412179e-01 -3.508202935724281e-02
7.655200000000000e+10 1.442896658341702e-01 -3.507492938568995e-02
7.660000000000000e+10 1.443746151729854e-01 -3.506780781055541e-02
7.664800000000000e+10 1.444594301502170e-01 -3.506066019566611e-02
7.669600000000000e+10 1.445441126942959e-01 -3.505348227851841e-02
7.674400000000000e+10 1.446286648713445e-01 -3.504626993359983e-02
7.679200000000000e+10 1.447130888544216e-01 -3.503901921454144e-02
7.684000000000000e+10 1.447973869277983e-01 -3.503172635929588e-02
7.688800000000000e+10 1.448815614802042e-01 -3.502438784641457e-02
7.693600000000000e+10 1.449656149671784e-01 -3.501700044035164e-02
7.698400000000000e+10 1.450495499799288e-01 -3.500956113764334e-02
7.703200000000000e+10 1.451333692042118e-01 -3.500206726774795e-02
7.708000000000000e+10 1.452170753869022e-01 -3.499451644635064e-02
7.712800000000000e+10 1.453006713725580e-01 -3.498690654763901e-02
7.717600000000000e+10 1.453841601164531e-01 -3.497923567697836e-02
7.722400000000000e+10 1.454675446330606e-01 -3.497150216099151e-02
7.727200000000000e+10 1.455508280252073e-01 -3.496370454555115e-02
7.732000000000000e+10 1.456340134775776e-01 -3.495584158612654e-02
7.736800000000000e+10 1.457171042872020e-01 -3.494791226676439e-02
7.741600000000000e+10 1.458001038053962e-01 -3.493991575238826e-02
7.746400000000000e+10 1.458830154471851e-01 -3.493185144832224e-02
7.751200000000000e+10 1.459658426164802e-01 -3.492371896974766e-02
7.756000000000000e+10 1.460485887093120e-01 -3.491551814112787e-02
7.760800000000000e+10 1.461312571337751e-01 -3.490724897022034e-02
7.765600000000000e+10 1.462138512803615e-01 -3.489891163133736e-02
7.770400000000000e+10 1.462963745570619e-01 -3.489050646331687e-02
7.775200000000000e+10 1.463788303306574e-01 -3.488203395618118e-02
7.780000000000000e+10 1.464612219571343e-01 -3.487349470743648e-02
7.784800000000000e+10 1.465435527776533e-01 -3.486488953461469e-02
7.789600000000000e+10 1.466258260455344e-01 -3.485621948366582e-02
7.794400000000000e+10 1.467080448810825e-01 -3.484748580889506e-02
7.799200000000000e+10 1.467902122616743e-01 -3.483868993665135e-02
7.804000000000000e+10 1.468723309782536e-01 -3.482983347274527e-02
7.808800000000000e+10 1.469544036366726e-01 -3.482091820360775e-02
7.813600000000000e+10 1.470364326678812e-01 -3.481194609479265e-02
7.818400000000000e+10 1.471184202969973e-01 -3.480291934085462e-02
7.823200000000000e+10 1.472003685281753e-01 -3.479384033878595e-02
7.828000000000000e+10 1.472822791352730e-01 -3.478471170924254e-02
7.832800000000000e+10 1.473641535878878e-01 -3.477553626487701e-02
7.837600000000000e+10 1.474459930518021e-01 -3.476631700503630e-02
7.842400000000000e+10 1.475277984388599e-01 -3.475705707622828e-02
7.847200000000000e+10 1.476095703969406e-01 -3.474775978018552e-02
7.852000000000000e+10 1.476913093541459e-01 -3.473842853682080e-02
7.856800000000000e+10 1.477730155055045e-01 -3.472906682649055e-02
7.861600000000000e+10 1.478546888837844e-01 -3.471967824130365e-02
7.866400000000000e+10 1.479363292946375e-01 -3.471026636472915e-02
7.871200000000000e+10 1.480179363676196e-01 -3.470083478169390e-02
7.876000000000000e+10 1.480995094987604e-01 -3.469138704339529e-02
7.880800000000000e+10 1.481810478668151e-01 -3.468192666477127e-02
7.885600000000000e+10 1.482625504012625e-01 -3.467245708083625e-02
7.890400000000000e+10 1.483440157805646e-01 -3.466298164811445e-02
7.895200000000000e+10 1.484254424275031e-01 -3.465350360533480e-02
7.900000000000000e+10 1.485068285014176e-01 -3.464402606549240e-02
7.904800000000000e+10 1.485881719410989e-01 -3.463455201461287e-02
7.909600000000000e+10 1.486694704655004e-01 -3.462508433758188e-02
7.914400000000000e+10 1.487507216070395e-01 -3.461562584025994e-02
7.919200000000000e+10 1.488319227233922e-01 -3.460617925154721e-02
7.924000000000000e+10 1.489130710722065e-01 -3.459674714411732e-02
7.928800000000000e+10 1.489941638329996e-01 -3.458733187514249e-02
7.933600000000000e+10 1.490751981280995e-01 -3.457793556710635e-02
7.938400000000000e+10 1.491561711055935e-01 -3.456856007676352e-02
7.943200000000000e+10 1.492370799661029e-01 -3.455920695931256e-02
7.948000000000000e+10 1.493179220177302e-01 -3.454987746504663e-02
7.952800000000000e+10 1.493986946864477e-01 -3.454057255008470e-02
7.957600000000000e+10 1.494793954800881e-01 -3.453129287472256e-02
7.962400000000000e+10 1.495600219690383e-01 -3.452203885488087e-02
7.967200000000000e+10 1.496405717591267e-01 -3.451281061615285e-02
7.972000000000000e+10 1.497210425637315e-01 -3.450360804789105e-02
7.976800000000000e+10 1.498014321536226e-01 -3.449443078334615e-02
7.981600000000000e+10 1.498817383771571e-01 -3.448527826735101e-02
7.986400000000000e+10 1.499619591878981e-01 -3.447614973207903e-02
7.991200000000000e+10 1.500420925925711e-01 -3.446704420074028e-02
7.996000000000000e+10 1.501221366547848e-01 -3.445796046173821e-02
8.000800000000000e+10 1.502020895272381e-01 -3.444889712124530e-02
8.005600000000000e+10 1.502819494262603e-01 -3.443985261690589e-02
8.010400000000000e+10 1.503617146735311e-01 -3.443082526403078e-02
8.015200000000000e+10 1.504413836411990e-01 -3.442181323241610e-02
8.020000000000000e+10 1.505209547882060e-01 -3.441281458639527e-02
8.024800000000000e+10 1.506004267179153e-01 -3.440382731066912e-02
8.029600000000000e+10 1.506797981364201e-01 -3.439484934858047e-02
8.034400000000000e+10 1.507590678443638e-01 -3.438587863545794e-02
8.039200000000000e+10 1.508382346941232e-01 -3.437691311797757e-02
8.044000000000000e+10 1.509172975782579e-01 -3.436795075537753e-02
8.048800000000000e+10 1.509962554689034e-01 -3.435898950986521e-02
8.053600000000000e+10 1.510751074666768e-01 -3.435002735635709e-02
8.058400000000000e+10 1.511538528171293e-01 -3.434106230492358e-02
8.063200000000000e+10 1.512324909203676e-01 -3.433209239228552e-02
8.068000000000000e+10 1.513110213702591e-01 -3.432311571100798e-02
8.072800000000000e+10 1.513894440046674e-01 -3.431413039630224e-02
8.077600000000000e+10 1.514677588211795e-01 -3.430513461128893e-02
8.082400000000000e+10 1.515459659670391e-01 -3.429612656667159e-02
8.087200000000000e+10 1.516240656431213e-01 -3.428710453027937e-02
8.092000000000000e+10 1.517020580976580e-01 -3.427806680960498e-02
8.096800000000000e+10 1.517799436231633e-01 -3.426901174661869e-02
8.101600000000000e+10 1.518577225562544e-01 -3.425993768894484e-02
8.106400000000000e+10 1.519353952637270e-01 -3.425084300180312e-02
8.111200000000000e+10 1.520129621918314e-01 -3.424172605715926e-02
8.116000000000000e+10 1.520904239131643e-01 -3.423258524253563e-02
8.120800000000000e+10 1.521677811498595e-01 -3.422341896935933e-02
8.125600000000000e+10 1.522450347462191e-01 -3.421422569654450e-02
8.130400000000000e+10 1.523221856677769e-01 -3.420500393658926e-02
8.135200000000000e+10 1.523992349908793e-01 -3.419575220369559e-02
8.140000000000000e+10 1.524761838894831e-01 -3.418646901798611e-02
8.144800000000000e+10 1.525530335588684e-01 -3.417715293195962e-02
8.149600000000000e+10 1.526297852292305e-01 -3.416780254720144e-02
8.154400000000000e+10 1.527064401012165e-01 -3.415841650225127e-02
8.159200000000000e+10 1.527829993378704e-01 -3.414899340329422e-02
8.164000000000000e+10 1.528594641973463e-01 -3.413953178716454e-02
8.168800000000000e+10 1.529358360537570e-01 -3.413003016016207e-02
8.173600000000000e+10 1.530121163203287e-01 -3.412048696807993e-02
8.178400000000000e+10 1.530883064837919e-01 -3.411090058182334e-02
8.183200000000000e+10 1.531644081047061e-01 -3.410126929379876e-02
8.188000000000000e+10 1.532404228485900e-01 -3.409159129775707e-02
8.192800000000000e+10 1.533163524809515e-01 -3.408186467590154e-02
8.197600000000000e+10 1.533921988707425e-01 -3.407208740129514e-02
8.202400000000000e+10 1.534679639461135e-01 -3.406225739894930e-02
8.207200000000000e+10 1.535436495871899e-01 -3.405237262324957e-02
8.212000000000000e+10 1.536192575458424e-01 -3.404243108138300e-02
8.216800000000000e+10 1.536947893999540e-01 -3.403243087748279e-02
8.221600000000000e+10 1.537702466194812e-01 -3.402237021865019e-02
8.226400000000000e+10 1.538456306060301e-01 -3.401224740272339e-02
8.231200000000000e+10 1.539209427520539e-01 -3.400206080121929e-02
8.236000000000000e+10 1.539961844604445e-01 -3.399180884538792e-02
8.240800000000000e+10 1.540713571989871e-01 -3.398148999869353e-02
8.245600000000000e+10 1.541464625309442e-01 -3.397110275211376e-02
8.250400000000000e+10 1.542215021707079e-01 -3.396064566707536e-02
8.255200000000000e+10 1.542964780094215e-01 -3.395011739184356e-02
8.260000000000000e+10 1.543713920657182e-01 -3.393951669262387e-02
8.264800000000000e+10 1.544462464433909e-01 -3.392884242617346e-02
8.269600000000000e+10 1.545210432262840e-01 -3.391809357232736e-02
8.274400000000000e+10 1.545957844309050e-01 -3.390726923539036e-02
8.279200000000000e+10 1.546704719770589e-01 -3.389636868327175e-02
8.284000000000000e+10 1.547451076768300e-01 -3.388539130094512e-02
8.288800000000000e+10 1.548196932674491e-01 -3.387433657668974e-02
8.293600000000000e+10 1.548942304550220e-01 -3.386320403278363e-02
8.298400000000000e+10 1.549687209383645e-01 -3.385199320742673e-02
8.303200000000000e+10 1.550431664376783e-01 -3.384070363414413e-02
8.308000000000000e+10 1.551175686948625e-01 -3.382933483784263e-02
8.312800000000000e+10 1.551919294943627e-01 -3.381788634925735e-02
8.317600000000000e+10 1.552662506120334e-01 -3.380635770665513e-02
8.322400000000000e+10 1.553405337593544e-01 -3.379474849159100e-02
8.327200000000000e+10 1.554147805576600e-01 -3.378305839518127e-02
8.332000000000000e+10 1.554889925167205e-01 -3.377128726360919e-02
8.336800000000000e+10 1.555631710253683e-01 -3.375943512991934e-02
8.341600000000000e+10 1.556373172661186e-01 -3.374750224989845e-02
8.346400000000000e+10 1.557114322347645e-01 -3.373548908837792e-02
8.351200000000000e+10 1.557855167424485e-01 -3.372339630602932e-02
8.356000000000000e+10 1.558595714697059e-01 -3.371122471982102e-02
8.360800000000000e+10 1.559335969958242e-01 -3.369897524425389e-02
8.365600000000000e+10 1.560075938700113e-01 -3.368664884943542e-02
8.370400000000000e+10 1.560815626201722e-01 -3.367424649674777e-02
8.375200000000000e+10 1.561555037806113e-01 -3.366176908187424e-02
8.380000000000000e+10 1.562294179161089e-01 -3.364921743315707e-02
8.384800000000000e+10 1.563033055381220e-01 -3.363659236930869e-02
8.389600000000000e+10 1.563771670445659e-01 -3.362389474429369e-02
8.394400000000000e+10 1.564510026316140e-01 -3.361112548265224e-02
8.399200000000000e+10 1.565248122381968e-01 -3.359828561787789e-02
8.404000000000000e+10 1.565985955529758e-01 -3.358537627238287e-02
8.408800000000000e+10 1.566723520796928e-01 -3.357239858245861e-02
8.413600000000000e+10 1.567460812155047e-01 -3.355935362272561e-02
8.418400000000000e+10 1.568197823353591e-01 -3.354624238227135e-02
8.423200000000000e+10 1.568934548668479e-01 -3.353306573367360e-02
8.428000000000000e+10 1.569670983584292e-01 -3.351982443021499e-02
8.432800000000000e+10 1.570407124606809e-01 -3.350651916872126e-02
8.437600000000000e+10 1.571142968954914e-01 -3.349315056882270e-02
8.442400000000000e+10 1.571878514047625e-01 -3.347971921504758e-02
8.447200000000000e+10 1.572613756907299e-01 -3.346622570442206e-02
8.452000000000000e+10 1.573348693771583e-01 -3.345267065394680e-02
8.456800000000000e+10 1.574083319886324e-01 -3.343905480520784e-02
8.461600000000000e+10 1.574817629010691e-01 -3.342537902945088e-02
8.466400000000000e+10 1.575551613714216e-01 -3.341164433197256e-02
8.471200000000000e+10 1.576285265485353e-01 -3.339785181950614e-02
8.476000000000000e+10 1.577018575172933e-01 -3.338400273304013e-02
8.480800000000000e+10 1.577751533545169e-01 -3.337009842888082e-02
8.485600000000000e+10 1.578484131202290e-01 -3.335614034290599e-02
8.490400000000000e+10 1.579216358757826e-01 -3.334212993293893e-02
8.495200000000000e+10 1.579948207042431e-01 -3.332806863373473e-02
8.500000000000000e+10 1.580679667938190e-01 -3.331395781958197e-02
8.504800000000000e+10 1.581410734419169e-01 -3.329979875891240e-02
8.509600000000000e+10 1.582141399664563e-01 -3.328559254329588e-02
8.514400000000000e+10 1.582871657183242e-01 -3.327134015697013e-02
8.519200000000000e+10 1.583601499961724e-01 -3.325704249769502e-02
8.524000000000000e+10 1.584330919876803e-01 -3.324270049419460e-02
8.528800000000000e+10 1.585059906684733e-01 -3.322831493427220e-02
8.533600000000000e+10 1.585788448876700e-01 -3.321388650278771e-02
8.538400000000000e+10 1.586516533876958e-01 -3.319941572872972e-02
8.543200000000000e+10 1.587244148462404e-01 -3.318490293825918e-02
8.548000000000000e+10 1.587971279719701e-01 -3.317034833297283e-02
8.552800000000000e+10 1.588697915391634e-01 -3.315575199880202e-02
8.557600000000000e+10 1.589424044550176e-01 -3.314111393861977e-02
8.562400000000000e+10 1.590149657683247e-01 -3.312643406410919e-02
8.567200000000000e+10 1.590874746470450e-01 -3.311171230690307e-02
8.572000000000000e+10 1.591599303886892e-01 -3.309694857393436e-02
8.576800000000000e+10 1.592323323914092e-01 -3.308214274651453e-02
8.581600000000000e+10 1.593046801296662e-01 -3.306729468287144e-02
8.586400000000000e+10 1.593769732033905e-01 -3.305240416496752e-02
8.591200000000000e+10 1.594492112597833e-01 -3.303747097870641e-02
8.596000000000000e+10 1.595213940190864e-01 -3.302249489708487e-02
8.600800000000000e+10 1.595935213492627e-01 -3.300747572654051e-02
8.605600000000000e+10 1.596655932292749e-01 -3.299241332110830e-02
8.610400000000000e+10 1.597376097585569e-01 -3.297730759756536e-02
8.615200000000000e+10 1.598095711563251e-01 -3.296215852194789e-02
8.620000000000000e+10 1.598814777712842e-01 -3.294696612799024e-02
8.624800000000000e+10 1.599533301121696e-01 -3.293173050683221e-02
8.629600000000000e+10 1.600251288316378e-01 -3.291645181816435e-02
8.634400000000000e+10 1.600968746549038e-01 -3.290113019722442e-02
8.639200000000000e+10 1.601685684763696e-01 -3.288576574009151e-02
8.644000000000000e+10 1.602402112434787e-01 -3.287035849696386e-02
8.648800000000000e+10 1.603118041262836e-01 -3.285490841521760e-02
8.653600000000000e+10 1.603833483058390e-01 -3.283941558049138e-02
8.658400000000000e+10 1.604548450082432e-01 -3.282388019912125e-02
8.663200000000000e+10 1.605262954396876e-01 -3.280830264285304e-02
8.668000000000000e+10 1.605977006599467e-01 -3.279268337808587e-02
8.672800000000000e+10 1.606690616852213e-01 -3.277702296784025e-02
8.677600000000000e+10 1.607403794854832e-01 -3.276132210256314e-02
8.682400000000000e+10 1.608116550024003e-01 -3.274558151372376e-02
8.687200000000000e+10 1.608828890498953e-01 -3.272980193023347e-02
8.692000000000000e+10 1.609540823814265e-01 -3.271398404342465e-02
8.696800000000000e+10 1.610252355697943e-01 -3.269812859596276e-02
8.701600000000000e+10 1.610963491026328e-01 -3.268223635531371e-02
8.706400000000000e+10 1.611674234548126e-01 -3.266630810249140e-02
8.711200000000000e+10 1.612384590990357e-01 -3.265034453910808e-02
8.716000000000000e+10 1.613094564879985e-01 -3.263434627944077e-02
8.720800000000000e+10 1.613804159936690e-01 -3.261831380266345e-02
8.725600000000000e+10 1.614513378432556e-01 -3.260224754143861e-02
8.730400000000000e+10 1.615222221064772e-01 -3.258614778863271e-02
8.735200000000000e+10 1.615930686871666e-01 -3.257001473838842e-02
8.740000000000000e+10 1.616638773773153e-01 -3.255384845209914e-02
8.744800000000000e+10 1.617346478549871e-01 -3.253764894266174e-02
8.749600000000000e+10 1.618053797871388e-01 -3.252141612407823e-02
8.754400000000000e+10 1.618760727542036e-01 -3.250514980944074e-02
8.759200000000000e+10 1.619467263348875e-01 -3.248884958989920e-02
8.764000000000000e+10 1.620173400731094e-01 -3.247251482499700e-02
8.768800000000000e+10 1.620879135714733e-01 -3.245614461834909e-02
8.773600000000000e+10 1.621584464614301e-01 -3.243973784098265e-02
8.778400000000000e+10 1.622289384450209e-01 -3.242329305864045e-02
8.783200000000000e+10 1.622993892280038e-01 -3.240680860228826e-02
8.788000000000000e+10 1.623697985311386e-01 -3.239028258430944e-02
8.792800000000000e+10 1.624401660862840e-01 -3.237371290990119e-02
8.797600000000000e+10 1.625104916354645e-01 -3.235709735243022e-02
8.802400000000000e+10 1.625807749006531e-01 -3.234043352816337e-02
8.807200000000000e+10 1.626510155782369e-01 -3.232371891289106e-02
8.812000000000000e+10 1.627212134099390e-01 -3.230695074290419e-02
8.816800000000000e+10 1.627913682350155e-01 -3.229012604188767e-02
8.821600000000000e+10 1.628614800398303e-01 -3.227324151522772e-02
8.826400000000000e+10 1.629315489757297e-01 -3.225629370974795e-02
8.831200000000000e+10 1.630015754477993e-01 -3.223927887474291e-02
8.836000000000000e+10 1.630715600882078e-01 -3.222219299940818e-02
8.840800000000000e+10 1.631415037384877e-01 -3.220503182801115e-02
8.845600000000000e+10 1.632114074319214e-01 -3.218779093328424e-02
8.850400000000000e+10 1.632812723099180e-01 -3.217046571893169e-02
8.855200000000000e+10 1.633510996108758e-01 -3.215305143511071e-02
8.860000000000000e+10 1.634208906288649e-01 -3.213554314598311e-02
8.864800000000000e+10 1.634906467733648e-01 -3.211793568419245e-02
8.869600000000000e+10 1.635603695936840e-01 -3.210022348626208e-02
8.874400000000000e+10 1.636300610986564e-01 -3.208240015334862e-02
8.879200000000000e+10 1.636997232767491e-01 -3.206445888475176e-02
8.884000000000000e+10 1.637693582201030e-01 -3.204639276304946e-02
8.888800000000000e+10 1.638389681533994e-01 -3.202819483853538e-02
8.893600000000000e+10 1.639085554695498e-01 -3.200985806193580e-02
8.898400000000000e+10 1.639781229103541e-01 -3.199137490377674e-02
8.903200000000000e+10 1.640476732858224e-01 -3.197273773109820e-02
8.908000000000000e+10 1.641172095343532e-01 -3.195393889993073e-02
8.912800000000000e+10 1.641867347576860e-01 -3.193497079213411e-02
8.917600000000000e+10 1.642562521279448e-01 -3.191582584363177e-02
8.922400000000000e+10 1.643257649031213e-01 -3.189649654993650e-02
8.927200000000000e+10 1.643952763718141e-01 -3.187697553335572e-02
8.932000000000000e+10 1.644647898642126e-01 -3.185725554523709e-02
8.936800000000000e+10 1.645343087242603e-01 -3.183732945509691e-02
8.941600000000000e+10 1.646038363032181e-01 -3.181719029083201e-02
8.946400000000000e+10 1.646733759787180e-01 -3.179683121615510e-02
8.951200000000000e+10 1.647429312222761e-01 -3.177624556839680e-02
8.956000000000000e+10 1.648125055794267e-01 -3.175542687688686e-02
8.960800000000000e+10 1.648821026797772e-01 -3.173436892182721e-02
8.965600000000000e+10 1.649517262794609e-01 -3.171306577386828e-02
8.970400000000000e+10 1.650213801754945e-01 -3.169151182003373e-02
8.975200000000000e+10 1.650910682656747e-01 -3.166970179925514e-02
8.980000000000000e+10 1.651607944816988e-01 -3.164763085390890e-02
8.984800000000000e+10 1.652305627328519e-01 -3.162529453169725e-02
8.989600000000000e+10 1.653003767734559e-01 -3.160268885718439e-02
8.994400000000000e+10 1.653702402665972e-01 -3.157981025974798e-02
8.999200000000000e+10 1.654401567733922e-01 -3.155665553672363e-02
9.004000000000000e+10 1.655101297520140e-01 -3.153322188009548e-02
9.008800000000000e+10 1.655801625696134e-01 -3.150950679683839e-02
9.013600000000000e+10 1.656502585552500e-01 -3.148550811113679e-02
9.018400000000000e+10 1.657204210344901e-01 -3.146122393187303e-02
9.023200000000000e+10 1.657906534597269e-01 -3.143665269131584e-02
9.028000000000000e+10 1.658609592453385e-01 -3.141179315757809e-02
9.032800000000000e+10 1.659313417151224e-01 -3.138664442771326e-02
9.037600000000000e+10 1.660018040213966e-01 -3.136120593062915e-02
9.042400000000000e+10 1.660723491102318e-01 -3.133547742354467e-02
9.047200000000000e+10 1.661429797180873e-01 -3.130945896863765e-02
9.052000000000000e+10 1.662136984548349e-01 -3.128315090792232e-02
9.056800000000000e+10 1.662845077740399e-01 -3.125655387822159e-02
9.061600000000000e+10 1.663554099897521e-01 -3.122966885741989e-02
9.066400000000000e+10 1.664264072506109e-01 -3.120249710726522e-02
9.071200000000000e+10 1.664975015661821e-01 -3.117504020494771e-02
9.076000000000000e+10 1.665686948087641e-01 -3.114730000140299e-02
9.080800000000000e+10 1.666399887209603e-01 -3.111927859965602e-02
9.085600000000000e+10 1.667113849957301e-01 -3.109097828084637e-02
9.090400000000000e+10 1.667828852990149e-01 -3.106240147674351e-02
9.095200000000000e+10 1.668544912554373e-01 -3.103355072537922e-02
9.100000000000000e+10 1.669262044614054e-01 -3.100442872548866e-02
9.104800000000000e+10 1.669980264411337e-01 -3.097503833433299e-02
9.109600000000000e+10 1.670699586532210e-01 -3.094538264931350e-02
9.114400000000000e+10 1.671420023644525e-01 -3.091546499337251e-02
9.119200000000000e+10 1.672141586558414e-01 -3.088528891925195e-02
9.124000000000000e+10 1.672864283670340e-01 -3.085485823704754e-02
9.128800000000000e+10 1.673588121060060e-01 -3.082417695993627e-02
9.133600000000000e+10 1.674313102692660e-01 -3.079324929050900e-02
9.138400000000000e+10 1.675039230647985e-01 -3.076207955120008e-02
9.143200000000000e+10 1.675766505703918e-01 -3.073067218297872e-02
9.148000000000000e+10 1.676494927928208e-01 -3.069903167234116e-02
9.152800000000000e+10 1.677224497316223e-01 -3.066716253630103e-02
9.157600000000000e+10 1.677955213605588e-01 -3.063506930042422e-02
9.162400000000000e+10 1.678687076418432e-01 -3.060275659370533e-02
9.167200000000000e+10 1.679420084861580e-01 -3.057022913677376e-02
9.172000000000000e+10 1.680154237387654e-01 -3.053749174190494e-02
9.176800000000000e+10 1.680889530995673e-01 -3.050454935232849e-02
9.181600000000000e+10 1.681625960816389e-01 -3.047140709362000e-02
9.186400000000000e+10 1.682363519933825e-01 -3.043807028715535e-02
9.191200000000000e+10 1.683102199519723e-01 -3.040454444354591e-02
9.196000000000000e+10 1.683841988820013e-01 -3.037083531908609e-02
9.200800000000000e+10 1.684582875383587e-01 -3.033694889512391e-02
9.205600000000000e+10 1.685324845678228e-01 -3.030289139321021e-02
9.210400000000000e+10 1.686067884857239e-01 -3.026866931800756e-02
9.215200000000000e+10 1.686811977393589e-01 -3.023428948046133e-02
9.220000000000000e+10 1.687557107292547e-01 -3.019975891176271e-02
9.224800000000000e+10 1.688303258551701e-01 -3.016508486542461e-02
9.229600000000000e+10 1.689050414953107e-01 -3.013027479870302e-02
9.234400000000000e+10 1.689798560778100e-01 -3.009533635912160e-02
9.239200000000000e+10 1.690547679863908e-01 -3.006027740638855e-02
9.244000000000000e+10 1.691297755981401e-01 -3.002510602109781e-02
9.248800000000000e+10 1.692048772582085e-01 -2.998983046793839e-02
9.253600000000000e+10 1.692800712537426e-01 -2.995445923541835e-02
9.258400000000000e+10 1.693553557309367e-01 -2.991900100720919e-02
9.263200000000000e+10 1.694307286976245e-01 -2.988346463263319e-02
9.268000000000000e+10 1.695061880011552e-01 -2.984785912257912e-02
9.272800000000000e+10 1.695817313781781e-01 -2.981219364133481e-02
9.277600000000000e+10 1.696573564660088e-01 -2.977647743590403e-02
9.282400000000000e+10 1.697330608749898e-01 -2.974071979508473e-02
9.287200000000000e+10 1.698088422317514e-01 -2.970492997460493e-02
9.292000000000000e+10 1.698846981923244e-01 -2.966911719643362e-02
9.296800000000000e+10 1.699606264481364e-01 -2.963329064532095e-02
9.301600000000000e+10 1.700366247278695e-01 -2.959745948187717e-02
9.306400000000000e+10 1.701126907065961e-01 -2.956163285108692e-02
9.311200000000000e+10 1.701888220528482e-01 -2.952581985110189e-02
9.316000000000000e+10 1.702650163723594e-01 -2.949002951965606e-02
9.320800000000000e+10 1.703412712082020e-01 -2.945427079475349e-02
9.325600000000000e+10 1.704175839964630e-01 -2.941855249499706e-02
9.330400000000000e+10 1.704939520756742e-01 -2.938288326901653e-02
9.335200000000000e+10 1.705703726888181e-01 -2.934727159982883e-02
9.340000000000000e+10 1.706468430016779e-01 -2.931172576080330e-02
9.344800000000000e+10 1.707233601654208e-01 -2.927625381960013e-02
9.349600000000000e+10 1.707999213270886e-01 -2.924086359035543e-02
9.354400000000000e+10 1.708765236951109e-01 -2.920556255743912e-02
9.359200000000000e+10 1.709531644938616e-01 -2.917035788209395e-02
9.364000000000000e+10 1.710298410077482e-01 -2.913525633369655e-02
9.368800000000000e+10 1.711065506241658e-01 -2.910026427186350e-02
9.373600000000000e+10 1.711832908057211e-01 -2.906538761816788e-02
9.378400000000000e+10 1.712600590610573e-01 -2.903063185333590e-02
9.383200000000000e+10 1.713368529574559e-01 -2.899600200917270e-02
9.388000000000000e+10 1.714136700104461e-01 -2.896150270258904e-02
9.392800000000000e+10 1.714905077289166e-01 -2.892713810799668e-02
9.397600000000000e+10 1.715673635467871e-01 -2.889291200992822e-02
9.402400000000000e+10 1.716442348690624e-01 -2.885882772004736e-02
9.407200000000000e+10 1.717211190954868e-01 -2.882488808206221e-02
9.412000000000000e+10 1.717980136779111e-01 -2.879109545842072e-02
9.416800000000000e+10 1.718749161837477e-01 -2.875745173510472e-02
9.421600000000000e+10 1.719518243652793e-01 -2.872395829402970e-02
9.426400000000000e+10 1.720287361780334e-01 -2.869061600737092e-02
9.431200000000000e+10 1.721056497690207e-01 -2.865742529347136e-02
9.436000000000000e+10 1.721825635314833e-01 -2.862438608774241e-02
9.440800000000000e+10 1.722594760439511e-01 -2.859149794975603e-02
9.445600000000000e+10 1.723363860855298e-01 -2.855876004925247e-02
9.450400000000000e+10 1.724132926720578e-01 -2.852617121884577e-02
9.455200000000000e+10 1.724901950105408e-01 -2.849372997296002e-02
9.460000000000000e+10 1.725670925011235e-01 -2.846143452752752e-02
9.464800000000000e+10 1.726439847194092e-01 -2.842928283039774e-02
9.469600000000000e+10 1.727208714380216e-01 -2.839727254330582e-02
9.474400000000000e+10 1.727977526319750e-01 -2.836540105723487e-02
9.479200000000000e+10 1.728746285224055e-01 -2.833366544042931e-02
9.484000000000000e+10 1.729514996093162e-01 -2.830206250193946e-02
9.488800000000000e+10 1.730283666846136e-01 -2.827058878239164e-02
9.493600000000000e+10 1.731052308042998e-01 -2.823924055401888e-02
9.498400000000000e+10 1.731820933171535e-01 -2.820801382121405e-02
9.503200000000000e+10 1.732589557600426e-01 -2.817690434431069e-02
9.508000000000000e+10 1.733358197452997e-01 -2.814590758319759e-02
9.512800000000000e+10 1.734126869483283e-01 -2.811501872678301e-02
9.517600000000000e+10 1.734895590928852e-01 -2.808423275173301e-02
9.522400000000000e+10 1.735664379126044e-01 -2.805354447511496e-02
9.527200000000000e+10 1.736433251210634e-01 -2.802294857661679e-02
9.532000000000000e+10 1.737202223358072e-01 -2.799243967328977e-02
9.536800000000000e+10 1.737971311024402e-01 -2.796201236198407e-02
9.541600000000000e+10 1.738740528022615e-01 -2.793166123378392e-02
9.546400000000000e+10 1.739509887045042e-01 -2.790138089995150e-02
9.551200000000000e+10 1.740279399920172e-01 -2.787116594283424e-02
9.556000000000000e+10 1.741049078301976e-01 -2.784101093518658e-02
9.560800000000000e+10 1.741818933673044e-01 -2.781091047166453e-02
9.565600000000000e+10 1.742588977764370e-01 -2.778085913808835e-02
9.570400000000000e+10 1.743359222543061e-01 -2.775085154573996e-02
9.575200000000000e+10 1.744129680018157e-01 -2.772088233736851e-02
9.580000000000000e+10 1.744900362192437e-01 -2.769094619648621e-02
9.584800000000000e+10 1.745671281312938e-01 -2.766103781078610e-02
9.589600000000000e+10 1.746442449311459e-01 -2.763115191533987e-02
9.594400000000000e+10 1.747213877276200e-01 -2.760128332153969e-02
9.599200000000000e+10 1.747985575434209e-01 -2.757142692165779e-02
9.604000000000000e+10 1.748757553286712e-01 -2.754157765190833e-02
9.608800000000000e+10 1.749529819525840e-01 -2.751173052858655e-02
9.613600000000000e+10 1.750302381930136e-01 -2.748188065777268e-02
9.618400000000000e+10 1.751075247913693e-01 -2.745202318465835e-02
9.623200000000000e+10 1.751848424613686e-01 -2.742215328221796e-02
9.628000000000000e+10 1.752621919167960e-01 -2.739226609010093e-02
9.632800000000000e+10 1.753395738470570e-01 -2.736235682311541e-02
9.637600000000000e+10 1.754169889472290e-01 -2.733242070841758e-02
9.642400000000000e+10 1.754944379385766e-01 -2.730245305256634e-02
9.647200000000000e+10 1.755719215502034e-01 -2.727244921854032e-02
9.652000000000000e+10 1.756494405233671e-01 -2.724240467484157e-02
9.656800000000000e+10 1.757269956075776e-01 -2.721231498136558e-02
9.661600000000000e+10 1.758045875369231e-01 -2.718217583355402e-02
9.666400000000000e+10 1.758822169982272e-01 -2.715198299734723e-02
9.671200000000000e+10 1.759598846388886e-01 -2.712173243608897e-02
9.676000000000000e+10 1.760375909899412e-01 -2.709142035039134e-02
9.680800000000000e+10 1.761153364591242e-01 -2.706104315565283e-02
9.685600000000000e+10 1.761931212734206e-01 -2.703059755128919e-02
9.690400000000000e+10 1.762709455274300e-01 -2.700008044628359e-02
9.695200000000000e+10 1.763488091545816e-01 -2.696948898163982e-02
9.700000000000000e+10 1.764267119567101e-01 -2.693882049044795e-02
9.704800000000000e+10 1.765046536263934e-01 -2.690807245963798e-02
9.709600000000000e+10 1.765826337529340e-01 -2.687724250379351e-02
9.714400000000000e+10 1.766606518488741e-01 -2.684632835860318e-02
9.719200000000000e+10 1.767387073693803e-01 -2.681532784393332e-02
9.724000000000000e+10 1.768167997512033e-01 -2.678423887417448e-02
9.728800000000000e+10 1.768949284183492e-01 -2.675305939349566e-02
9.733600000000000e+10 1.769730928281152e-01 -2.672178734534926e-02
9.738400000000000e+10 1.770512923415877e-01 -2.669042070592764e-02
9.743200000000000e+10 1.771295262731926e-01 -2.665895746075839e-02
9.748000000000000e+10 1.772077938706532e-01 -2.662739558567866e-02
9.752800000000000e+10 1.772860942969957e-01 -2.659573307337982e-02
9.757600000000000e+10 1.773644266403880e-01 -2.656396790253054e-02
9.762400000000000e+10 1.774427898232461e-01 -2.653209815596940e-02
9.767200000000000e+10 1.775211826670511e-01 -2.650012194404154e-02
9.772000000000000e+10 1.775996038151924e-01 -2.646803742533430e-02
9.776800000000000e+10 1.776780518028614e-01 -2.643584279039333e-02
9.781600000000000e+10 1.777565250753766e-01 -2.640353628928054e-02
9.786400000000000e+10 1.778350219985374e-01 -2.637111625358629e-02
9.791200000000000e+10 1.779135407230926e-01 -2.633858112288370e-02
9.796000000000000e+10 1.779920793134521e-01 -2.630592935351138e-02
9.800800000000000e+10 1.780706358019196e-01 -2.627315941002736e-02
9.805600000000000e+10 1.781492082349450e-01 -2.624026972386416e-02
9.810400000000000e+10 1.782277946783740e-01 -2.620725873683059e-02
9.815200000000000e+10 1.783063931834882e-01 -2.617412491186723e-02
9.820000000000000e+10 1.783850017585316e-01 -2.614086676302158e-02
9.824800000000000e+10 1.784636183746304e-01 -2.610748282498914e-02
9.829600000000000e+10 1.785422409333388e-01 -2.607397168496360e-02
9.834400000000000e+10 1.786208673257949e-01 -2.604033190157867e-02
9.839200000000000e+10 1.786994953950280e-01 -2.600656202521196e-02
9.844000000000000e+10 1.787781229510723e-01 -2.597266054737032e-02
9.848800000000000e+10 1.788567477814985e-01 -2.593862595217902e-02
9.853600000000000e+10 1.789353676526212e-01 -2.590445675891798e-02
9.858400000000000e+10 1.790139802623505e-01 -2.587015148479159e-02
9.863200000000000e+10 1.790925832263556e-01 -2.583570868343547e-02
9.868000000000000e+10 1.791711740208593e-01 -2.580112698439823e-02
9.872800000000000e+10 1.792497500452742e-01 -2.576640500608383e-02
9.877600000000000e+10 1.793283086126467e-01 -2.573154135393107e-02
9.882400000000000e+10 1.794068469951599e-01 -2.569653459955168e-02
9.887200000000000e+10 1.794853624720980e-01 -2.566138328911113e-02
9.892000000000000e+10 1.795638523230935e-01 -2.562608607226365e-02
9.896800000000000e+10 1.796423138480445e-01 -2.559064165342494e-02
9.901600000000000e+10 1.797207444126600e-01 -2.555504879567661e-02
9.906400000000000e+10 1.797991414398719e-01 -2.551930630496596e-02
9.911200000000000e+10 1.798775024646160e-01 -2.548341308351041e-02
9.916000000000000e+10 1.799558250475441e-01 -2.544736812271336e-02
9.920800000000000e+10 1.800341066648331e-01 -2.541117064215306e-02
9.925600000000000e+10 1.801123448714191e-01 -2.537481993531193e-02
9.930400000000000e+10 1.801905373422889e-01 -2.533831534363581e-02
9.935200000000000e+10 1.802686819007506e-01 -2.530165627046848e-02
9.940000000000000e+10 1.803467764834186e-01 -2.526484218131326e-02
9.944800000000000e+10 1.804248191835507e-01 -2.522787263061771e-02
9.949600000000000e+10 1.805028081960410e-01 -2.519074720392762e-02
9.954400000000000e+10 1.805807418095473e-01 -2.515346560230660e-02
9.959200000000000e+10 1.806586183654980e-01 -2.511602758157588e-02
9.964000000000000e+10 1.807364362341830e-01 -2.507843299031266e-02
9.968800000000000e+10 1.808141937859984e-01 -2.504068176953239e-02
9.973600000000000e+10 1.808918893852517e-01 -2.500277391862471e-02
9.978400000000000e+10 1.809695214169559e-01 -2.496470945112488e-02
9.983200000000000e+10 1.810470882562565e-01 -2.492648841182124e-02
9.988000000000000e+10 1.811245882816508e-01 -2.488811088019798e-02
9.992800000000000e+10 1.812020198861549e-01 -2.484957694676714e-02
9.997600000000000e+10 1.812793815322344e-01 -2.481088674576958e-02
1.000240000000000e+11 1.813566717220447e-01 -2.477204046674259e-02
1.000720000000000e+11 1.814338890024783e-01 -2.473303828142802e-02
1.001200000000000e+11 1.815110319502071e-01 -2.469388037764420e-02
1.001680000000000e+11 1.815880991931735e-01 -2.465456690033028e-02
1.002160000000000e+11 1.816650894081952e-01 -2.461509803034798e-02
1.002640000000000e+11 1.817420012565342e-01 -2.457547398851292e-02
1.003120000000000e+11 1.818188334092503e-01 -2.453569507958926e-02
1.003600000000000e+11 1.818955845594868e-01 -2.449576168848846e-02
1.004080000000000e+11 1.819722534321472e-01 -2.445567429293826e-02
1.004560000000000e+11 1.820488387733777e-01 -2.441543346453394e-02
1.005040000000000e+11 1.821253394023526e-01 -2.437503978466374e-02
1.005520000000000e+11 1.822017542884962e-01 -2.433449391329477e-02
1.006000000000000e+11 1.822780824478977e-01 -2.429379649246047e-02
1.006480000000000e+11 1.823543229742320e-01 -2.425294828963721e-02
1.006960000000000e+11 1.824304751126308e-01 -2.421195004816019e-02
1.007440000000000e+11 1.825065382879747e-01 -2.417080258160881e-02
1.007920000000000e+11 1.825825122186847e-01 -2.412950664911329e-02
1.008400000000000e+11 1.826583968227824e-01 -2.408806296312788e-02
1.008880000000000e+11 1.827341921841722e-01 -2.404647219504445e-02
1.009360000000000e+11 1.828098985944462e-01 -2.400473500216394e-02
1.009840000000000e+11 1.828855166008826e-01 -2.396285204719111e-02
1.010320000000000e+11 1.829610469424290e-01 -2.392082401792491e-02
1.010800000000000e+11 1.830364904901648e-01 -2.387865160028710e-02
1.011280000000000e+11 1.831118482338641e-01 -2.383633557782047e-02
1.011760000000000e+11 1.831871212402519e-01 -2.379387680053083e-02
1.012240000000000e+11 1.832623106366375e-01 -2.375127615923946e-02
1.012720000000000e+11 1.833374175397220e-01 -2.370853465501008e-02
1.013200000000000e+11 1.834124431212850e-01 -2.366565329882629e-02
1.013680000000000e+11 1.834873886081734e-01 -2.362263316292680e-02
1.014160000000000e+11 1.835622553094328e-01 -2.357947534195888e-02
1.014640000000000e+11 1.836370446492773e-01 -2.353618100291565e-02
1.015120000000000e+11 1.837117581482817e-01 -2.349275138494496e-02
1.015600000000000e+11 1.837863972986729e-01 -2.344918788136080e-02
1.016080000000000e+11 1.838609635808958e-01 -2.340549199629559e-02
1.016560000000000e+11 1.839354584712614e-01 -2.336166548135086e-02
1.017040000000000e+11 1.840098834723854e-01 -2.331771028445863e-02
1.017520000000000e+11 1.840842400126770e-01 -2.327362862216704e-02
1.018000000000000e+11 1.841585296228543e-01 -2.322942282333188e-02
1.018480000000000e+11 1.842327537961339e-01 -2.318509541162551e-02
1.018960000000000e+11 1.843069139693896e-01 -2.314064886353055e-02
1.019440000000000e+11 1.843810115402343e-01 -2.309608566848583e-02
1.019920000000000e+11 1.844550479198704e-01 -2.305140838654000e-02
1.020400000000000e+11 1.845290245941533e-01 -2.300661961355820e-02
1.020880000000000e+11 1.846029429753006e-01 -2.296172174506891e-02
1.021360000000000e+11 1.846768045815211e-01 -2.291671692840343e-02
1.021840000000000e+11 1.847506110609176e-01 -2.287160728236409e-02
1.022320000000000e+11 1.848243640875751e-01 -2.282639490220340e-02
1.022800000000000e+11 1.848980652890534e-01 -2.278108177331251e-02
1.023280000000000e+11 1.849717162250059e-01 -2.273566975098606e-02
1.023760000000000e+11 1.850453184393146e-01 -2.269016047010265e-02
1.024240000000000e+11 1.851188735552160e-01 -2.264455504529228e-02
1.024720000000000e+11 1.851923831189299e-01 -2.259885431077283e-02
1.025200000000000e+11 1.852658487283105e-01 -2.255305896333473e-02
1.025680000000000e+11 1.853392720378706e-01 -2.250716958988816e-02
1.026160000000000e+11 1.854126546821051e-01 -2.246118668482829e-02
1.026640000000000e+11 1.854859982736316e-01 -2.241511063400822e-02
1.027120000000000e+11 1.855593044194523e-01 -2.236894183390802e-02
1.027600000000000e+11 1.856325746825734e-01 -2.232268058449448e-02
1.028080000000000e+11 1.857058106391489e-01 -2.227632697665407e-02
1.028560000000000e+11 1.857790138750526e-01 -2.222988093884743e-02
1.029040000000000e+11 1.858521860277743e-01 -2.218334221428475e-02
1.029520000000000e+11 1.859253288189141e-01 -2.213671042373500e-02
1.030000000000000e+11 1.859984440381008e-01 -2.208998507290557e-02
1.030480000000000e+11 1.860715334764963e-01 -2.204316557327403e-02
1.030960000000000e+11 1.861445989248168e-01 -2.199625134413001e-02
1.031440000000000e+11 1.862176420678856e-01 -2.194924178003679e-02
1.031920000000000e+11 1.862906645169543e-01 -2.190213621701096e-02
1.032400000000000e+11 1.863636678001803e-01 -2.185493386921134e-02
1.032880000000000e+11 1.864366534917481e-01 -2.180763365517732e-02
1.033360000000000e+11 1.865096231501751e-01 -2.176023434365103e-02
1.033840000000000e+11 1.865825783676797e-01 -2.171273454243915e-02
1.034320000000000e+11 1.866555207472690e-01 -2.166513278713195e-02
1.034800000000000e+11 1.867284519740372e-01 -2.161742746502684e-02
1.035280000000000e+11 1.868013738193022e-01 -2.156961684804013e-02
1.035760000000000e+11 1.868742881059849e-01 -2.152169908937512e-02
1.036240000000000e+11 1.869471966916609e-01 -2.147367227347291e-02
1.036720000000000e+11 1.870201014995083e-01 -2.142553435395823e-02
1.037200000000000e+11 1.870930044747063e-01 -2.137728315951096e-02
1.037680000000000e+11 1.871659075557384e-01 -2.132891653152585e-02
1.038160000000000e+11 1.872388126683706e-01 -2.128043237083132e-02
1.038640000000000e+11 1.873117217121924e-01 -2.123182857044395e-02
1.039120000000000e+11 1.873846365472800e-01 -2.118310312778870e-02
1.039600000000000e+11 1.874575588263821e-01 -2.113425480832911e-02
1.040080000000000e+11 1.875304901598136e-01 -2.108528233790317e-02
1.040560000000000e+11 1.876034320327223e-01 -2.103618454997561e-02
1.041040000000000e+11 1.876763857944089e-01 -2.098696027052294e-02
1.041520000000000e+11 1.877493526507118e-01 -2.093760837903253e-02
1.042000000000000e+11 1.878223336653588e-01 -2.088812785507898e-02
1.042480000000000e+11 1.878953298617267e-01 -2.083851791460976e-02
1.042960000000000e+11 1.879683421953241e-01 -2.078877785598681e-02
1.043440000000000e+11 1.880413715909824e-01 -2.073890712357505e-02
1.043920000000000e+11 1.881144189867726e-01 -2.068890533436062e-02
1.044400000000000e+11 1.881874852376831e-01 -2.063877244950566e-02
1.044880000000000e+11 1.882605711389064e-01 -2.058850879020400e-02
1.045360000000000e+11 1.883336773921843e-01 -2.053811490129670e-02
1.045840000000000e+11 1.884068045314794e-01 -2.048759149577237e-02
1.046320000000000e+11 1.884799529368233e-01 -2.043693939587598e-02
1.046800000000000e+11 1.885531228024170e-01 -2.038615948893607e-02
1.047280000000000e+11 1.886263140904391e-01 -2.033525273512520e-02
1.047760000000000e+11 1.886995265581363e-01 -2.028422012409637e-02
1.048240000000000e+11 1.887727598047929e-01 -2.023306263059794e-02
1.048720000000000e+11 1.888460133145386e-01 -2.018178116954605e-02
1.049200000000000e+11 1.889192864477768e-01 -2.013037658795992e-02
1.049680000000000e+11 1.889925784629523e-01 -2.007884960919134e-02
1.050160000000000e+11 1.890658885960216e-01 -2.002720089235953e-02
1.050640000000000e+11 1.891392160465967e-01 -1.997543079521974e-02
1.051120000000000e+11 1.892125600145020e-01 -1.992353937595629e-02
1.051600000000000e+11 1.892859196470727e-01 -1.987152660069627e-02
1.052080000000000e+11 1.893592941493382e-01 -1.981939242558537e-02
1.052560000000000e+11 1.894326827459021e-01 -1.976713680633404e-02
1.053040000000000e+11 1.895060846935868e-01 -1.971475975289011e-02
1.053520000000000e+11 1.895794992851744e-01 -1.966226131730080e-02
1.054000000000000e+11 1.896529258846370e-01 -1.960964155407095e-02
1.054480000000000e+11 1.897263638787368e-01 -1.955690061684628e-02
1.054960000000000e+11 1.897998126995799e-01 -1.950403868054982e-02
1.055440000000000e+11 1.898732718169913e-01 -1.945105595603023e-02
1.055920000000000e+11 1.899467407415431e-01 -1.939795263093716e-02
1.056400000000000e+11 1.900202189836547e-01 -1.934472893940393e-02
1.056880000000000e+11 1.900937061539224e-01 -1.929138510398010e-02
1.057360000000000e+11 1.901672018907011e-01 -1.923792141136406e-02
1.057840000000000e+11 1.902407058763389e-01 -1.918433811670663e-02
1.058320000000000e+11 1.903142178793729e-01 -1.913063550858659e-02
1.058800000000000e+11 1.903877378071547e-01 -1.907681385032716e-02
1.059280000000000e+11 1.904612656225213e-01 -1.902287343435924e-02
1.059760000000000e+11 1.905348013732064e-01 -1.896881457293112e-02
1.060240000000000e+11 1.906083451052602e-01 -1.891463768343042e-02
1.060720000000000e+11 1.906818968982201e-01 -1.886034329362650e-02
1.061200000000000e+11 1.907554567591608e-01 -1.880593207168045e-02
1.061680000000000e+11 1.908290246746098e-01 -1.875140473274641e-02
1.062160000000000e+11 1.909026005211728e-01 -1.869676211872601e-02
1.062640000000000e+11 1.909761841202875e-01 -1.864200511049212e-02
1.063120000000000e+11 1.910497751931572e-01 -1.858713464144975e-02
1.063600000000000e+11 1.911233733662459e-01 -1.853215165776547e-02
1.064080000000000e+11 1.911969781290489e-01 -1.847705717936417e-02
1.064560000000000e+11 1.912705888867320e-01 -1.842185225431587e-02
1.065040000000000e+11 1.913442049482107e-01 -1.836653803253974e-02
1.065520000000000e+11 1.914178254443480e-01 -1.831111580589284e-02
1.066000000000000e+11 1.914914492638708e-01 -1.825558676611433e-02
1.066480000000000e+11 1.915650751031417e-01 -1.819995218409908e-02
1.066960000000000e+11 1.916387015058148e-01 -1.814421340929044e-02
1.067440000000000e+11 1.917123267840157e-01 -1.808837189064778e-02
1.067920000000000e+11 1.917859489899504e-01 -1.803242916749612e-02
1.068400000000000e+11 1.918595661186786e-01 -1.797638696148568e-02
1.068880000000000e+11 1.919331760431759e-01 -1.792024718960847e-02
1.069360000000000e+11 1.920067764942753e-01 -1.786401199009090e-02
1.069840000000000e+11 1.920803650682897e-01 -1.780768378487249e-02
1.070320000000000e+11 1.921539392525383e-01 -1.775126516433453e-02
1.070800000000000e+11 1.922274964789301e-01 -1.769475897998365e-02
1.071280000000000e+11 1.923010341513765e-01 -1.763816825431511e-02
1.071760000000000e+11 1.923745497090028e-01 -1.758149622927667e-02
1.072240000000000e+11 1.924480406656214e-01 -1.752474621172357e-02
1.072720000000000e+11 1.925215046224617e-01 -1.746792167392221e-02
1.073200000000000e+11 1.925949392813518e-01 -1.741102626258117e-02
1.073680000000000e+11 1.926683424395656e-01 -1.735406387523570e-02
1.074160000000000e+11 1.927417118844061e-01 -1.729703869518609e-02
1.074640000000000e+11 1.928150454285920e-01 -1.723995525351320e-02
1.075120000000000e+11 1.928883408203068e-01 -1.718281843986574e-02
1.075600000000000e+11 1.929615956945788e-01 -1.712563359836191e-02
1.076080000000000e+11 1.930348074804416e-01 -1.706840649153307e-02
1.076560000000000e+11 1.931079733948538e-01 -1.701114327084261e-02
1.077040000000000e+11 1.931810904629267e-01 -1.695385043401784e-02
1.077520000000000e+11 1.932541556312113e-01 -1.689653474197990e-02
1.078000000000000e+11 1.933271657508543e-01 -1.683920331725073e-02
1.078480000000000e+11 1.934001176320935e-01 -1.678186351784223e-02
1.078960000000000e+11 1.934730080836818e-01 -1.672452296939388e-02
1.079440000000000e+11 1.935458339142493e-01 -1.666718961490500e-02
1.079920000000000e+11 1.936185919027352e-01 -1.660987175640671e-02
1.080400000000000e+11 1.936912787405593e-01 -1.655257799204263e-02
1.080880000000000e+11 1.937638910421396e-01 -1.649531733508586e-02
1.081360000000000e+11 1.938364252760969e-01 -1.643809917715678e-02
1.081840000000000e+11 1.939088777523335e-01 -1.638093326564204e-02
1.082320000000000e+11 1.939812446077851e-01 -1.632382984224557e-02
1.082800000000000e+11 1.940535218493091e-01 -1.626679957880368e-02
1.083280000000000e+11 1.941257053518469e-01 -1.620985365019253e-02
1.083760000000000e+11 1.941977909114837e-01 -1.615300367448787e-02
1.084240000000000e+11 1.942697742381928e-01 -1.609626178081621e-02
1.084720000000000e+11 1.943416509880231e-01 -1.603964060107933e-02
1.085200000000000e+11 1.944134168074590e-01 -1.598315317231572e-02
1.085680000000000e+11 1.944850673766599e-01 -1.592681287418047e-02
1.086160000000000e+11 1.945565984454672e-01 -1.587063335611390e-02
1.086640000000000e+11 1.946280058500841e-01 -1.581462851606090e-02
1.087120000000000e+11 1.946992855111935e-01 -1.575881254654792e-02
1.087600000000000e+11 1.947704334668935e-01 -1.570319989135499e-02
1.088080000000000e+11 1.948414458355202e-01 -1.564780528948120e-02
1.088560000000000e+11 1.949123187950380e-01 -1.559264378310461e-02
1.089040000000000e+11 1.949830485209572e-01 -1.553773076095365e-02
1.089520000000000e+11 1.950536311995423e-01 -1.548308198098449e-02
1.090000000000000e+11 1.951240629171421e-01 -1.542871362194155e-02
1.090480000000000e+11 1.951943396833069e-01 -1.537464227651932e-02
1.090960000000000e+11 1.952644574029440e-01 -1.532088490805783e-02
1.091440000000000e+11 1.953344119675736e-01 -1.526745877576186e-02
1.091920000000000e+11 1.954041993735488e-01 -1.521438131657679e-02
1.092400000000000e+11 1.954738158101387e-01 -1.516167027442464e-02
1.092880000000000e+11 1.955432575607456e-01 -1.510934385961259e-02
1.093360000000000e+11 1.956125210675191e-01 -1.505742069460829e-02
1.093840000000000e+11 1.956816029200507e-01 -1.500591984783810e-02
1.094320000000000e+11 1.957504999377542e-01 -1.495486079123198e-02
1.094800000000000e+11 1.958192090812268e-01 -1.490426348613851e-02
1.095280000000000e+11 1.958877273804969e-01 -1.485414840818121e-02
1.095760000000000e+11 1.959560518931511e-01 -1.480453654599939e-02
1.096240000000000e+11 1.960241796140313e-01 -1.475544942266602e-02
1.096720000000000e+11 1.960921075682434e-01 -1.470690905056562e-02
1.097200000000000e+11 1.961598326647785e-01 -1.465893789797811e-02
1.097680000000000e+11 1.962273517720671e-01 -1.461155885961350e-02
1.098160000000000e+11 1.962946618684068e-01 -1.456479509930167e-02
1.098640000000000e+11 1.963617599137959e-01 -1.451867025523645e-02
1.099120000000000e+11 1.964286429298929e-01 -1.447320839709263e-02
1.099600000000000e+11 1.964953079759302e-01 -1.442843406104074e-02
1.100080000000000e+11 1.966279729322212e-01 -1.434104795965398e-02
1.100560000000000e+11 1.967597332080394e-01 -1.425671294738802e-02
1.101040000000000e+11 1.968905639049730e-01 -1.417562399536075e-02
1.101520000000000e+11 1.970204369954723e-01 -1.409796305889489e-02
1.102000000000000e+11 1.971493275116079e-01 -1.402389746151976e-02
1.102480000000000e+11 1.973407772359400e-01 -1.391985820132143e-02
1.102960000000000e+11 1.974671293267520e-01 -1.385537352885082e-02
1.103440000000000e+11 1.975924388411842e-01 -1.379489183873625e-02
1.103920000000000e+11 1.977166901323115e-01 -1.373848289481858e-02
1.104400000000000e+11 1.978398666764981e-01 -1.368620198139909e-02
1.104880000000000e+11 1.979619514733024e-01 -1.363809167225082e-02
1.105360000000000e+11 1.981429945722295e-01 -1.357381272847855e-02
1.105840000000000e+11 1.982622800408159e-01 -1.353624399667782e-02
1.106320000000000e+11 1.983804256207664e-01 -1.350291029646397e-02
1.106800000000000e+11 1.984974232648058e-01 -1.347380997586069e-02
1.107280000000000e+11 1.986132693597284e-01 -1.344893447476007e-02
1.107760000000000e+11 1.987848874651662e-01 -1.341950513381025e-02
1.108240000000000e+11 1.988978871066778e-01 -1.340509923473786e-02
1.108720000000000e+11 1.990097874450460e-01 -1.339481512503520e-02
1.109200000000000e+11 1.991206234888135e-01 -1.338859897334143e-02
1.109680000000000e+11 1.992304373839470e-01 -1.338638569239662e-02
1.110160000000000e+11 1.993392775727514e-01 -1.338809781371188e-02
1.110640000000000e+11 1.995008299196119e-01 -1.339782441562413e-02
1.111120000000000e+11 1.996074787490686e-01 -1.340892015049511e-02
1.111600000000000e+11 1.997133572279004e-01 -1.342355570149068e-02
1.112080000000000e+11 1.998185251049584e-01 -1.344158971999845e-02
1.112560000000000e+11 1.999230388447055e-01 -1.346286977978113e-02
1.113040000000000e+11 2.000269503384507e-01 -1.348723395906183e-02
1.113520000000000e+11 2.001817883797383e-01 -1.352918946913888e-02
1.114000000000000e+11 2.002843818261442e-01 -1.356050559714148e-02
1.114480000000000e+11 2.003865027327371e-01 -1.359428373512404e-02
1.114960000000000e+11 2.004881720219274e-01 -1.363033889933332e-02
1.115440000000000e+11 2.005894047013287e-01 -1.366848731408111e-02
1.115920000000000e+11 2.007404552123617e-01 -1.372924018802530e-02
1.116400000000000e+11 2.008406304729859e-01 -1.377184201979486e-02
1.116880000000000e+11 2.009403883537381e-01 -1.381593152613856e-02
1.117360000000000e+11 2.010397297082537e-01 -1.386135355999650e-02
1.117840000000000e+11 2.011386554760661e-01 -1.390796297160648e-02
1.118320000000000e+11 2.012371674866727e-01 -1.395562425770472e-02
1.118800000000000e+11 2.013841676136044e-01 -1.402881613297248e-02
1.119280000000000e+11 2.014816674489918e-01 -1.407857995317710e-02
1.119760000000000e+11 2.015787819815665e-01 -1.412900188358024e-02
1.120240000000000e+11 2.016755272184921e-01 -1.417999119877913e-02
1.120720000000000e+11 2.017719219652351e-01 -1.423146289360287e-02
1.121200000000000e+11 2.018679868064563e-01 -1.428333159919652e-02
1.121680000000000e+11 2.020115132859140e-01 -1.436168489571662e-02
1.122160000000000e+11 2.021068523256997e-01 -1.441415117586461e-02
1.122640000000000e+11 2.022019445817749e-01 -1.446668697873934e-02
1.123120000000000e+11 2.022968145059556e-01 -1.451918767533568e-02
1.123600000000000e+11 2.023914856639902e-01 -1.457154329515644e-02
1.124080000000000e+11 2.024859808098069e-01 -1.462363875170559e-02
1.124560000000000e+11 2.026274332491127e-01 -1.470103238189958e-02
1.125040000000000e+11 2.027215612746713e-01 -1.475194702801716e-02
1.125520000000000e+11 2.028155608512562e-01 -1.480216705566431e-02
1.126000000000000e+11 2.029094368122213e-01 -1.485156047801109e-02
1.126480000000000e+11 2.030031905477408e-01 -1.489999346302775e-02
1.126960000000000e+11 2.031435885940829e-01 -1.497054682963205e-02
1.127440000000000e+11 2.032370273599636e-01 -1.501598726550288e-02
1.127920000000000e+11 2.033303334737619e-01 -1.505999245284807e-02
1.128400000000000e+11 2.034235029253176e-01 -1.510242643368344e-02
1.128880000000000e+11 2.035165329256081e-01 -1.514315411433086e-02
1.129360000000000e+11 2.036094227307639e-01 -1.518204213505063e-02
1.129840000000000e+11 2.037484987656870e-01 -1.523663981032164e-02
1.130320000000000e+11 2.038410501358338e-01 -1.527036243438091e-02
1.130800000000000e+11 2.039334765245185e-01 -1.530179961393589e-02
1.131280000000000e+11 2.040257863334663e-01 -1.533083326648037e-02
1.131760000000000e+11 2.041179887238242e-01 -1.535735046676594e-02
1.132240000000000e+11 2.042100929741004e-01 -1.538124338158679e-02
1.132720000000000e+11 2.043480847103148e-01 -1.541193750157438e-02
1.133200000000000e+11 2.044399822123860e-01 -1.542882558903661e-02
1.133680000000000e+11 2.045318112151638e-01 -1.544274281466204e-02
1.134160000000000e+11 2.046235773311785e-01 -1.545360074832144e-02
1.134640000000000e+11 2.047152841373988e-01 -1.546131826043773e-02
1.135120000000000e+11 2.048527362885877e-01 -1.546684855204619e-02
1.135600000000000e+11 2.049442995078266e-01 -1.546641177547283e-02
1.136080000000000e+11 2.050358050915129e-01 -1.546261225135739e-02
1.136560000000000e+11 2.051272520746264e-01 -1.545540448895283e-02
1.137040000000000e+11 2.052186390868791e-01 -1.544475139084522e-02
1.137520000000000e+11 2.053099645155710e-01 -1.543062350288212e-02
1.138000000000000e+11 2.054468334571466e-01 -1.540286971353378e-02
1.138480000000000e+11 2.055379992245646e-01 -1.537997259180489e-02
1.138960000000000e+11 2.056291025012505e-01 -1.535355230176527e-02
1.139440000000000e+11 2.057201456712199e-01 -1.532360917569152e-02
1.139920000000000e+11 2.058111314423672e-01 -1.529014802067490e-02
1.140400000000000e+11 2.059020617210184e-01 -1.525317728191738e-02
1.140880000000000e+11 2.060383540387392e-01 -1.519116478300422e-02
1.141360000000000e+11 2.061291452997772e-01 -1.514546808502388e-02
1.141840000000000e+11 2.062198754431427e-01 -1.509630036728508e-02
1.142320000000000e+11 2.063105336541149e-01 -1.504367495832576e-02
1.142800000000000e+11 2.064011019475491e-01 -1.498760766665424e-02
1.143280000000000e+11 2.065367260760852e-01 -1.489709383614189e-02
1.143760000000000e+11 2.066269352385308e-01 -1.483250728280186e-02
1.144240000000000e+11 2.067169230858172e-01 -1.476455520336503e-02
1.144720000000000e+11 2.068066320743347e-01 -1.469326927712123e-02
1.145200000000000e+11 2.068959965842750e-01 -1.461868776244502e-02
1.145680000000000e+11 2.069849433700311e-01 -1.454085611138592e-02
1.146160000000000e+11 2.071174030869684e-01 -1.441813219321310e-02
1.146640000000000e+11 2.072049430885314e-01 -1.433242198013767e-02
1.147120000000000e+11 2.072917638905677e-01 -1.424367804531469e-02
1.147600000000000e+11 2.073777706350518e-01 -1.415197916526430e-02
1.148080000000000e+11 2.074628662151252e-01 -1.405741221801623e-02
1.148560000000000e+11 2.075469521600781e-01 -1.396007266501355e-02
1.149040000000000e+11 2.076709729852579e-01 -1.380909538444176e-02
1.149520000000000e+11 2.077521122198161e-01 -1.370529768907183e-02
1.150000000000000e+11 2.078319171974949e-01 -1.359912383902810e-02
