! Generated by Phase I extraction
# Hz S RI R 50
6.700000000000000e+10 1.011370325567272e+00 3.157606511166815e-02
6.704800000000000e+10 1.011445607810924e+00 3.166613039113630e-02
6.709600000000000e+10 1.011520543557792e+00 3.175679530671395e-02
6.714400000000000e+10 1.011595101181242e+00 3.184801259590396e-02
6.719200000000000e+10 1.011669249646932e+00 3.193973853311102e-02
6.724000000000000e+10 1.011742959363976e+00 3.203193082465743e-02
6.728800000000000e+10 1.011816202069556e+00 3.212454901833490e-02
6.733600000000000e+10 1.011888951060001e+00 3.221755436250130e-02
6.738400000000000e+10 1.011961180795278e+00 3.231091002164171e-02
6.743200000000000e+10 1.012032866774715e+00 3.240458106929416e-02
6.748000000000000e+10 1.012103985653899e+00 3.249853455839562e-02
6.752800000000000e+10 1.012174515264674e+00 3.259273910249601e-02
6.757600000000000e+10 1.012244434798724e+00 3.268716486715444e-02
6.762400000000000e+10 1.012313724980510e+00 3.278178347704606e-02
6.767200000000000e+10 1.012382367498209e+00 3.287656795728949e-02
6.772000000000000e+10 1.012450345120320e+00 3.297149245745978e-02
6.776800000000000e+10 1.012517641272319e+00 3.306653210698826e-02
6.781600000000000e+10 1.012584240185573e+00 3.316166298034719e-02
6.786400000000000e+10 1.012650126688807e+00 3.325686218026966e-02
6.791200000000000e+10 1.012715286676952e+00 3.335210775276602e-02
6.796000000000000e+10 1.012779706895011e+00 3.344737857009676e-02
6.800800000000000e+10 1.012843374657470e+00 3.354265417516307e-02
6.805600000000000e+10 1.012906278007150e+00 3.363791500605985e-02
6.810400000000000e+10 1.012968405492015e+00 3.373314246666742e-02
6.815200000000000e+10 1.013029746315964e+00 3.382831876300276e-02
6.820000000000000e+10 1.013090290403281e+00 3.392342689763762e-02
6.824800000000000e+10 1.013150028689656e+00 3.401845049344972e-02
6.829600000000000e+10 1.013208952948409e+00 3.411337372188592e-02
6.834400000000000e+10 1.013267055512266e+00 3.420818110430131e-02
6.839200000000000e+10 1.013324329167934e+00 3.430285755994576e-02
6.844000000000000e+10 1.013380767143848e+00 3.439738868612600e-02
6.848800000000000e+10 1.013436363123107e+00 3.449176074002950e-02
6.853600000000000e+10 1.013491111560098e+00 3.458596053486318e-02
6.858400000000000e+10 1.013545007506961e+00 3.467997523147085e-02
6.863200000000000e+10 1.013598047020393e+00 3.477379216523560e-02
6.868000000000000e+10 1.013650226909673e+00 3.486739880531452e-02
6.872800000000000e+10 1.013701544822292e+00 3.496078272110131e-02
6.877600000000000e+10 1.013751999310140e+00 3.505393157442276e-02
6.882400000000000e+10 1.013801589791907e+00 3.514683306708877e-02
6.887200000000000e+10 1.013850316599202e+00 3.523947482111311e-02
6.892000000000000e+10 1.013898180713761e+00 3.533184398982185e-02
6.896800000000000e+10 1.013945184001048e+00 3.542392705527979e-02
6.901600000000000e+10 1.013991328804823e+00 3.551570979930218e-02
6.906400000000000e+10 1.014036618395774e+00 3.560717737495143e-02
6.911200000000000e+10 1.014081056757447e+00 3.569831466086698e-02
6.916000000000000e+10 1.014124649102987e+00 3.578910630224031e-02
6.920800000000000e+10 1.014167401654506e+00 3.587953659211765e-02
6.925600000000000e+10 1.014209321794990e+00 3.596958920680544e-02
6.930400000000000e+10 1.014250417675954e+00 3.605924715169098e-02
6.935200000000000e+10 1.014290697923527e+00 3.614849365162987e-02
6.940000000000000e+10 1.014330171742590e+00 3.623731218345732e-02
6.944800000000000e+10 1.014368848500299e+00 3.632568662074901e-02
6.949600000000000e+10 1.014406737851512e+00 3.641360113687553e-02
6.954400000000000e+10 1.014443849561403e+00 3.650104040684664e-02
6.959200000000000e+10 1.014480193850474e+00 3.658798959104294e-02
6.964000000000000e+10 1.014515780979355e+00 3.667443445525626e-02
6.968800000000000e+10 1.014550621394898e+00 3.676036112735374e-02
6.973600000000000e+10 1.014584725581736e+00 3.684575616607896e-02
6.978400000000000e+10 1.014618104067560e+00 3.693060668295230e-02
6.983200000000000e+10 1.014650767362289e+00 3.701490029830282e-02
6.988000000000000e+10 1.014682725862615e+00 3.709862523276421e-02
6.992800000000000e+10 1.014713989852294e+00 3.718177024950497e-02
6.997600000000000e+10 1.014744569415319e+00 3.726432469895998e-02
7.002400000000000e+10 1.014774474439502e+00 3.734627840672849e-02
7.007200000000000e+10 1.014803714525887e+00 3.742762178554324e-02
7.012000000000000e+10 1.014832299443025e+00 3.750834544903197e-02
7.016800000000000e+10 1.014860239156824e+00 3.758844013924825e-02
7.021600000000000e+10 1.014887543783473e+00 3.766789659097980e-02
7.026400000000000e+10 1.014914223553695e+00 3.774670560718348e-02
7.031200000000000e+10 1.014940289092754e+00 3.782485783665476e-02
7.036000000000000e+10 1.014965750904467e+00 3.790234354063859e-02
7.040800000000000e+10 1.014990619137336e+00 3.797915268116184e-02
7.045600000000000e+10 1.015014903567451e+00 3.805527501372274e-02
7.050400000000000e+10 1.015038613924747e+00 3.813070005345545e-02
7.055200000000000e+10 1.015061759953058e+00 3.820541736703004e-02
7.060000000000000e+10 1.015084351351000e+00 3.827941642150119e-02
7.064800000000000e+10 1.015106397566816e+00 3.835268669455121e-02
7.069600000000000e+10 1.015127908066027e+00 3.842521749297842e-02
7.074400000000000e+10 1.015148892282681e+00 3.849699803377622e-02
7.079200000000000e+10 1.015169359423153e+00 3.856801737961064e-02
7.084000000000000e+10 1.015189318676339e+00 3.863826460493081e-02
7.088800000000000e+10 1.015208779069634e+00 3.870772878532184e-02
7.093600000000000e+10 1.015227749713133e+00 3.877639901423277e-02
7.098400000000000e+10 1.015246239408388e+00 3.884426441489609e-02
7.103200000000000e+10 1.015264257349431e+00 3.891131425971912e-02
7.108000000000000e+10 1.015281812686040e+00 3.897753789332745e-02
7.112800000000000e+10 1.015298914628425e+00 3.904292490332147e-02
7.117600000000000e+10 1.015315572586212e+00 3.910746511995990e-02
7.122400000000000e+10 1.015331796109467e+00 3.917114888237213e-02
7.127200000000000e+10 1.015347594910301e+00 3.923396698714470e-02
7.132000000000000e+10 1.015362978694054e+00 3.929591094327663e-02
7.136800000000000e+10 1.015377957274528e+00 3.935697299859749e-02
7.141600000000000e+10 1.015392540095483e+00 3.941714590924936e-02
7.146400000000000e+10 1.015406736603594e+00 3.947642284924697e-02
7.151200000000000e+10 1.015420555700605e+00 3.953479757209383e-02
7.156000000000000e+10 1.015434005853618e+00 3.959226401743741e-02
7.160800000000000e+10 1.015447094810771e+00 3.964881604045576e-02
7.165600000000000e+10 1.015459829812565e+00 3.970444733510871e-02
7.170400000000000e+10 1.015472217711280e+00 3.975915126245806e-02
7.175200000000000e+10 1.015484265353724e+00 3.981292053701681e-02
7.180000000000000e+10 1.015495979382995e+00 3.986574793955046e-02
7.184800000000000e+10 1.015507367260997e+00 3.991762765431892e-02
7.189600000000000e+10 1.015518437190496e+00 3.996855435046237e-02
7.194400000000000e+10 1.015529197113619e+00 4.001852233980203e-02
7.199200000000000e+10 1.015539654868712e+00 4.006752575504605e-02
7.204000000000000e+10 1.015549818347414e+00 4.011555892357754e-02
7.208800000000000e+10 1.015559695261325e+00 4.016261600608429e-02
7.213600000000000e+10 1.015569293414029e+00 4.020869128788494e-02
7.218400000000000e+10 1.015578620906567e+00 4.025377934331129e-02
7.223200000000000e+10 1.015587686245920e+00 4.029787522005473e-02
7.228000000000000e+10 1.015596498567450e+00 4.034097426624088e-02
7.232800000000000e+10 1.015605067209983e+00 4.038307224129901e-02
7.237600000000000e+10 1.015613401739571e+00 4.042416560606456e-02
7.242400000000000e+10 1.015621511888934e+00 4.046425123767742e-02
7.247200000000000e+10 1.015629407563243e+00 4.050332633252890e-02
7.252000000000000e+10 1.015637098602791e+00 4.054138828015462e-02
7.256800000000000e+10 1.015644594654709e+00 4.057843469964374e-02
7.261600000000000e+10 1.015651905405952e+00 4.061446352405143e-02
7.266400000000000e+10 1.015659040537152e+00 4.064947288400141e-02
7.271200000000000e+10 1.015666009727908e+00 4.068346106993468e-02
7.276000000000000e+10 1.015672822688958e+00 4.071642652855874e-02
7.280800000000000e+10 1.015679489129346e+00 4.074836790502569e-02
7.285600000000000e+10 1.015686018821132e+00 4.077928403687829e-02
7.290400000000000e+10 1.015692421678735e+00 4.080917400060429e-02
7.295200000000000e+10 1.015698707548917e+00 4.083803697359323e-02
7.300000000000000e+10 1.015704886498995e+00 4.086587227492410e-02
7.304800000000000e+10 1.015710968617463e+00 4.089267913884358e-02
7.309600000000000e+10 1.015716964312946e+00 4.091845698537903e-02
7.314400000000000e+10 1.015722884065291e+00 4.094320518794173e-02
7.319200000000000e+10 1.015728738591500e+00 4.096692334821886e-02
7.324000000000000e+10 1.015734538547270e+00 4.098961095902904e-02
7.328800000000000e+10 1.015740294599308e+00 4.101126766259375e-02
7.333600000000000e+10 1.015746017155231e+00 4.103189309006269e-02
7.338400000000000e+10 1.015751716318260e+00 4.105148733707825e-02
7.343200000000000e+10 1.015757401922433e+00 4.107005053944554e-02
7.348000000000000e+10 1.015763083565652e+00 4.108758284919662e-02
7.352800000000000e+10 1.015768769429494e+00 4.110408999277661e-02
7.357600000000000e+10 1.015774467120854e+00 4.111957733358446e-02
7.362400000000000e+10 1.015780183701027e+00 4.113405015634299e-02
7.367200000000000e+10 1.015785925833272e+00 4.114751362120074e-02
7.372000000000000e+10 1.015791699580296e+00 4.115997277436285e-02
7.376800000000000e+10 1.015797510339838e+00 4.117143253510045e-02
7.381600000000000e+10 1.015803361694848e+00 4.118190311306878e-02
7.386400000000000e+10 1.015809256580604e+00 4.119139444830415e-02
7.391200000000000e+10 1.015815197210952e+00 4.119991629808210e-02
7.396000000000000e+10 1.015821184555341e+00 4.120748104362029e-02
7.400800000000000e+10 1.015827219200292e+00 4.121410041432087e-02
7.405600000000000e+10 1.015833301329942e+00 4.121978572314024e-02
7.410400000000000e+10 1.015839430972738e+00 4.122454846310079e-02
7.415200000000000e+10 1.015845607870590e+00 4.122840013099973e-02
7.420000000000000e+10 1.015851831511886e+00 4.123135224387644e-02
7.424800000000000e+10 1.015858101049032e+00 4.123341635123472e-02
7.429600000000000e+10 1.015864415514927e+00 4.123460430070176e-02
7.434400000000000e+10 1.015870773622788e+00 4.123492785282645e-02
7.439200000000000e+10 1.015877173917489e+00 4.123439891995762e-02
7.444000000000000e+10 1.015883614602503e+00 4.123302941961738e-02
7.448800000000000e+10 1.015890093569999e+00 4.123083133191111e-02
7.453600000000000e+10 1.015896608412048e+00 4.122781665874176e-02
7.458400000000000e+10 1.015903156423194e+00 4.122399754701706e-02
7.463200000000000e+10 1.015909734577130e+00 4.121938617050233e-02
7.468000000000000e+10 1.015916339653223e+00 4.121399470313709e-02
7.472800000000000e+10 1.015922968310987e+00 4.120783527600328e-02
7.477600000000000e+10 1.015929617068334e+00 4.120091991574382e-02
7.482400000000000e+10 1.015936282241200e+00 4.119326049217592e-02
7.487200000000000e+10 1.015942960121744e+00 4.118486876067760e-02
7.492000000000000e+10 1.015949646938472e+00 4.117575623853974e-02
7.496800000000000e+10 1.015956338853734e+00 4.116593433959918e-02
7.501600000000000e+10 1.015963031957077e+00 4.115541422866070e-02
7.506400000000000e+10 1.015969722418969e+00 4.114420704037638e-02
7.511200000000000e+10 1.015976406435826e+00 4.113232397944237e-02
7.516000000000000e+10 1.015983080119460e+00 4.111977627330964e-02
7.520800000000000e+10 1.015989739574089e+00 4.110657549008183e-02
7.525600000000000e+10 1.015996380785359e+00 4.109273323487640e-02
7.530400000000000e+10 1.016002999878489e+00 4.107826151385599e-02
7.535200000000000e+10 1.016009592998621e+00 4.106317238677400e-02
7.540000000000000e+10 1.016016156648825e+00 4.104747825148487e-02
7.544800000000000e+10 1.016022687518866e+00 4.103119153352661e-02
7.549600000000000e+10 1.016029182572574e+00 4.101432465208412e-02
7.554400000000000e+10 1.016035638900961e+00 4.099688987172215e-02
7.559200000000000e+10 1.016042053608093e+00 4.097889945546251e-02
7.564000000000000e+10 1.016048423763528e+00 4.096036582366255e-02
7.568800000000000e+10 1.016054746229765e+00 4.094130159779275e-02
7.573600000000000e+10 1.016061017710714e+00 4.092171966483416e-02
7.578400000000000e+10 1.016067234757784e+00 4.090163325863073e-02
7.583200000000000e+10 1.016073393707510e+00 4.088105581314777e-02
7.588000000000000e+10 1.016079490961984e+00 4.086000095255119e-02
7.592800000000000e+10 1.016085522915938e+00 4.083848231636449e-02
7.597600000000000e+10 1.016091486179577e+00 4.081651369359827e-02
7.602400000000000e+10 1.016097377358534e+00 4.079410869483621e-02
7.607200000000000e+10 1.016103193110557e+00 4.077128098408071e-02
7.612000000000000e+10 1.016108930046434e+00 4.074804426449588e-02
7.616800000000000e+10 1.016114584748797e+00 4.072441249182589e-02
7.621600000000000e+10 1.016120153617492e+00 4.070039977117366e-02
7.626400000000000e+10 1.016125632982796e+00 4.067602039766004e-02
7.631200000000000e+10 1.016131018995210e+00 4.065128878047839e-02
7.636000000000000e+10 1.016136307707492e+00 4.062621953900119e-02
7.640800000000000e+10 1.016141495245986e+00 4.060082748426095e-02
7.645600000000000e+10 1.016146577788327e+00 4.057512759258076e-02
7.650400000000000e+10 1.016151551864859e+00 4.054913499659386e-02
7.655200000000000e+10 1.016156414229527e+00 4.052286487118777e-02
7.660000000000000e+10 1.016161162057826e+00 4.049633249008072e-02
7.664800000000000e+10 1.016165792756414e+00 4.046955312218944e-02
7.669600000000000e+10 1.016170304132219e+00 4.044254200393124e-02
7.674400000000000e+10 1.016174694084718e+00 4.041531427664698e-02
7.679200000000000e+10 1.016178960783377e+00 4.038788502255172e-02
7.684000000000000e+10 1.016183102432580e+00 4.036026900531574e-02
7.688800000000000e+10 1.016187117535776e+00 4.033248105633794e-02
7.693600000000000e+10 1.016191004939583e+00 4.030453601314777e-02
7.698400000000000e+10 1.016194763547032e+00 4.027644851730605e-02
7.703200000000000e+10 1.016198392872320e+00 4.024823317209331e-02
7.708000000000000e+10 1.016201893120909e+00 4.021990439938093e-02
7.712800000000000e+10 1.016205265431552e+00 4.019147630670225e-02
7.717600000000000e+10 1.016208511593567e+00 4.016296234783250e-02
7.722400000000000e+10 1.016211634048813e+00 4.013437526227960e-02
7.727200000000000e+10 1.016214635670173e+00 4.010572685635967e-02
7.732000000000000e+10 1.016217519669039e+00 4.007702834797044e-02
7.736800000000000e+10 1.016220289323824e+00 4.004829059256666e-02
7.741600000000000e+10 1.016222947888363e+00 4.001952453164832e-02
7.746400000000000e+10 1.016225498590269e+00 3.999074111056269e-02
7.751200000000000e+10 1.016227944632918e+00 3.996195097141939e-02
7.756000000000000e+10 1.016230289103869e+00 3.993316454270159e-02
7.760800000000000e+10 1.016232535173323e+00 3.990439263731005e-02
7.765600000000000e+10 1.016234686076330e+00 3.987564598583225e-02
7.770400000000000e+10 1.016236745347232e+00 3.984693520875170e-02
7.775200000000000e+10 1.016238717197271e+00 3.981827097177797e-02
7.780000000000000e+10 1.016240605291135e+00 3.978966352895449e-02
7.784800000000000e+10 1.016242413362100e+00 3.976112313829733e-02
7.789600000000000e+10 1.016244145389644e+00 3.973265997927301e-02
7.794400000000000e+10 1.016245805539930e+00 3.970428413400386e-02
7.799200000000000e+10 1.016247398141610e+00 3.967600548992192e-02
7.804000000000000e+10 1.016248927649889e+00 3.964783378827159e-02
7.808800000000000e+10 1.016250398799209e+00 3.961977869110972e-02
7.813600000000000e+10 1.016251816383459e+00 3.959184960017666e-02
7.818400000000000e+10 1.016253185292181e+00 3.956405578612616e-02
7.823200000000000e+10 1.016254510604590e+00 3.953640644227575e-02
7.828000000000000e+10 1.016255797475865e+00 3.950891061517565e-02
7.832800000000000e+10 1.016257051183299e+00 3.948157714565596e-02
7.837600000000000e+10 1.016258277141517e+00 3.945441513486841e-02
7.842400000000000e+10 1.016259480818248e+00 3.942743352389100e-02
7.847200000000000e+10 1.016260667725353e+00 3.940064088201174e-02
7.852000000000000e+10 1.016261843640831e+00 3.937404553798258e-02
7.856800000000000e+10 1.016263014526539e+00 3.934765527384597e-02
7.861600000000000e+10 1.016264186202606e+00 3.932147780551870e-02
7.866400000000000e+10 1.016265364767000e+00 3.929552055949635e-02
7.871200000000000e+10 1.016266556718837e+00 3.926979068913091e-02
7.876000000000000e+10 1.016267768741626e+00 3.924429508487231e-02
7.880800000000000e+10 1.016269007756385e+00 3.921904046525711e-02
7.885600000000000e+10 1.016270280703148e+00 3.919403326010910e-02
7.890400000000000e+10 1.016271594359021e+00 3.916927985277133e-02
7.895200000000000e+10 1.016272955568880e+00 3.914478669324934e-02
7.900000000000000e+10 1.016274371527721e+00 3.912056005370692e-02
7.904800000000000e+10 1.016275849546960e+00 3.909660590920301e-02
7.909600000000000e+10 1.016277397327031e+00 3.907292996749521e-02
7.914400000000000e+10 1.016279023125513e+00 3.904953744965420e-02
7.919200000000000e+10 1.016280735717024e+00 3.902643288820903e-02
7.924000000000000e+10 1.016282544485252e+00 3.900361992400606e-02
7.928800000000000e+10 1.016284458953884e+00 3.898110109364551e-02
7.933600000000000e+10 1.016286488585085e+00 3.895887794166657e-02
7.938400000000000e+10 1.016288642505558e+00 3.893695105926749e-02
7.943200000000000e+10 1.016290929460538e+00 3.891532050131027e-02
7.948000000000000e+10 1.016293357858130e+00 3.889398581416682e-02
7.952800000000000e+10 1.016295935817625e+00 3.887294631710557e-02
7.957600000000000e+10 1.016298671144506e+00 3.885220123388831e-02
7.962400000000000e+10 1.016301571373251e+00 3.883174978023234e-02
7.967200000000000e+10 1.016304644095020e+00 3.881159128643450e-02
7.972000000000000e+10 1.016307897237257e+00 3.879172515520605e-02
7.976800000000000e+10 1.016311339022053e+00 3.877215068540343e-02
7.981600000000000e+10 1.016314977790264e+00 3.875286747297693e-02
7.986400000000000e+10 1.016318821615957e+00 3.873387494000836e-02
7.991200000000000e+10 1.016322879413465e+00 3.871517184298172e-02
7.996000000000000e+10 1.016327160438526e+00 3.869675633264218e-02
8.000800000000000e+10 1.016331673803590e+00 3.867862598492233e-02
8.005600000000000e+10 1.016336428558324e+00 3.866077794751697e-02
8.010400000000000e+10 1.016341433453848e+00 3.864320888204256e-02
8.015200000000000e+10 1.016346696443475e+00 3.862591494833650e-02
8.020000000000000e+10 1.016352225232999e+00 3.860889233658147e-02
8.024800000000000e+10 1.016358027243686e+00 3.859213699955252e-02
8.029600000000000e+10 1.016364109740975e+00 3.857564470100967e-02
8.034400000000000e+10 1.016370479803778e+00 3.855941079549242e-02
8.039200000000000e+10 1.016377144407135e+00 3.854343005902564e-02
8.044000000000000e+10 1.016384110406495e+00 3.852769647499180e-02
8.048800000000000e+10 1.016391384728613e+00 3.851220352568774e-02
8.053600000000000e+10 1.016398973780278e+00 3.849694370963879e-02
8.058400000000000e+10 1.016406883428862e+00 3.848190896139219e-02
8.063200000000000e+10 1.016415119255111e+00 3.846709053701411e-02
8.068000000000000e+10 1.016423686306566e+00 3.845247908853691e-02
8.072800000000000e+10 1.016432588810870e+00 3.843806466377839e-02
8.077600000000000e+10 1.016441830411207e+00 3.842383704233811e-02
8.082400000000000e+10 1.016451414155509e+00 3.840978582153200e-02
8.087200000000000e+10 1.016461342597263e+00 3.839590036131318e-02
8.092000000000000e+10 1.016471617923288e+00 3.838216988091114e-02
8.096800000000000e+10 1.016482241905034e+00 3.836858323745337e-02
8.101600000000000e+10 1.016493215855262e+00 3.835512901237008e-02
8.106400000000000e+10 1.016504540525137e+00 3.834179535615004e-02
8.111200000000000e+10 1.016516216547553e+00 3.832857027084399e-02
8.116000000000000e+10 1.016528244607030e+00 3.831544150103470e-02
8.120800000000000e+10 1.016540625465515e+00 3.830239648925261e-02
8.125600000000000e+10 1.016553359353189e+00 3.828942230281111e-02
8.130400000000000e+10 1.016566445875229e+00 3.827650543590876e-02
8.135200000000000e+10 1.016579885057424e+00 3.826363190606513e-02
8.140000000000000e+10 1.016593677300276e+00 3.825078705370477e-02
8.144800000000000e+10 1.016607822804395e+00 3.823795578602594e-02
8.149600000000000e+10 1.016622321224367e+00 3.822512295655067e-02
8.154400000000000e+10 1.016637171982796e+00 3.821227271102107e-02
8.159200000000000e+10 1.016652374349555e+00 3.819938805870344e-02
8.164000000000000e+10 1.016667927504088e+00 3.818645168280330e-02
8.168800000000000e+10 1.016683829515654e+00 3.817344604774037e-02
8.173600000000000e+10 1.016700078282118e+00 3.816035276133851e-02
8.178400000000000e+10 1.016716671843410e+00 3.814715295846285e-02
8.183200000000000e+10 1.016733607396585e+00 3.813382759122869e-02
8.188000000000000e+10 1.016750880902480e+00 3.812035790068444e-02
8.192800000000000e+10 1.016768487106408e+00 3.810672527652960e-02
8.197600000000000e+10 1.016786420277406e+00 3.809291118625121e-02
8.202400000000000e+10 1.016804674436692e+00 3.807889722858067e-02
8.207200000000000e+10 1.016823243298800e+00 3.806466535300061e-02
8.212000000000000e+10 1.016842120252015e+00 3.805019776302457e-02
8.216800000000000e+10 1.016861298265465e+00 3.803547710084278e-02
8.221600000000000e+10 1.016880769935641e+00 3.802048639162768e-02
8.226400000000000e+10 1.016900527782404e+00 3.800520880197956e-02
8.231200000000000e+10 1.016920564199445e+00 3.798962759363556e-02
8.236000000000000e+10 1.016940871601068e+00 3.797372598346412e-02
8.240800000000000e+10 1.016961442382166e+00 3.795748692767635e-02
8.245600000000000e+10 1.016982268820517e+00 3.794089336373518e-02
8.250400000000000e+10 1.017003343011718e+00 3.792392827626971e-02
8.255200000000000e+10 1.017024656738160e+00 3.790657501357364e-02
8.260000000000000e+10 1.017046201526502e+00 3.788881739239923e-02
8.264800000000000e+10 1.017067968895821e+00 3.787063977060296e-02
8.269600000000000e+10 1.017089950424527e+00 3.785202694729587e-02
8.274400000000000e+10 1.017112137739081e+00 3.783296384938276e-02
8.279200000000000e+10 1.017134522502530e+00 3.781343558730108e-02
8.284000000000000e+10 1.017157096383986e+00 3.779342747712416e-02
8.288800000000000e+10 1.017179851072439e+00 3.777292511279805e-02
8.293600000000000e+10 1.017202778334277e+00 3.775191449648378e-02
8.298400000000000e+10 1.017225869735136e+00 3.773038196548431e-02
8.303200000000000e+10 1.017249116421926e+00 3.770831436287403e-02
8.308000000000000e+10 1.017272508988466e+00 3.768569914954436e-02
8.312800000000000e+10 1.017296037285672e+00 3.766252446494667e-02
8.317600000000000e+10 1.017319690400232e+00 3.763877932020260e-02
8.322400000000000e+10 1.017343456409079e+00 3.761445367159321e-02
8.327200000000000e+10 1.017367322621499e+00 3.758953849419004e-02
8.332000000000000e+10 1.017391275715111e+00 3.756402566867015e-02
8.336800000000000e+10 1.017415302185428e+00 3.753790775368940e-02
8.341600000000000e+10 1.017439388413581e+00 3.751117816732628e-02
8.346400000000000e+10 1.017463521010106e+00 3.748383084458241e-02
8.351200000000000e+10 1.017487687090547e+00 3.745586026600713e-02
8.356000000000000e+10 1.017511874304706e+00 3.742726148020340e-02
8.360800000000000e+10 1.017536070799044e+00 3.739803001787782e-02
8.365600000000000e+10 1.017560265049862e+00 3.736816159844416e-02
8.370400000000000e+10 1.017584445679240e+00 3.733765207580877e-02
8.375200000000000e+10 1.017608601320873e+00 3.730649744359777e-02
8.380000000000000e+10 1.017632720663061e+00 3.727469384189532e-02
8.384800000000000e+10 1.017656792384874e+00 3.724223782867775e-02
8.389600000000000e+10 1.017680804992029e+00 3.720912632433225e-02
8.394400000000000e+10 1.017704746930015e+00 3.717535662352418e-02
8.399200000000000e+10 1.017728606680009e+00 3.714092662764560e-02
8.404000000000000e+10 1.017752373201251e+00 3.710583483730107e-02
8.408800000000000e+10 1.017776036010338e+00 3.707008031045019e-02
8.413600000000000e+10 1.017799585338317e+00 3.703366257632533e-02
8.418400000000000e+10 1.017823011943759e+00 3.699658169110109e-02
8.423200000000000e+10 1.017846306862859e+00 3.695883823257953e-02
8.428000000000000e+10 1.017869461392804e+00 3.692043339761625e-02
8.432800000000000e+10 1.017892466459006e+00 3.688136887800082e-02
8.437600000000000e+10 1.017915312923597e+00 3.684164735529099e-02
8.442400000000000e+10 1.017937991402609e+00 3.680127234698126e-02
8.447200000000000e+10 1.017960492233343e+00 3.676024818043377e-02
8.452000000000000e+10 1.017982805575051e+00 3.671858010671036e-02
8.456800000000000e+10 1.018004921556415e+00 3.667627425301749e-02
8.461600000000000e+10 1.018026830374267e+00 3.663333761049180e-02
8.466400000000000e+10 1.018048522574896e+00 3.658977793132970e-02
8.471200000000000e+10 1.018069989233932e+00 3.654560365385024e-02
8.476000000000000e+10 1.018091222133759e+00 3.650082380965307e-02
8.480800000000000e+10 1.018112213832823e+00 3.645544775645568e-02
8.485600000000000e+10 1.018132957570370e+00 3.640948496142330e-02
8.490400000000000e+10 1.018153447016917e+00 3.636294535612041e-02
8.495200000000000e+10 1.018173676058538e+00 3.631583954006916e-02
8.500000000000000e+10 1.018193638554948e+00 3.626817861315821e-02
8.504800000000000e+10 1.018213328252625e+00 3.621997415043987e-02
8.509600000000000e+10 1.018232739028287e+00 3.617123822565056e-02
8.514400000000000e+10 1.018251864487151e+00 3.612198353721012e-02
8.519200000000000e+10 1.018270698529212e+00 3.607222349576080e-02
8.524000000000000e+10 1.018289234876201e+00 3.602197335033331e-02
8.528800000000000e+10 1.018307468177728e+00 3.597124876546293e-02
8.533600000000000e+10 1.018325393973742e+00 3.592006649805515e-02
8.538400000000000e+10 1.018343008548333e+00 3.586844448857645e-02
8.543200000000000e+10 1.018360309475387e+00 3.581640115242450e-02
8.548000000000000e+10 1.018377294843331e+00 3.576395568614556e-02
8.552800000000000e+10 1.018393963160023e+00 3.571112794072696e-02
8.557600000000000e+10 1.018410313421581e+00 3.565793844948108e-02
8.562400000000000e+10 1.018426345089619e+00 3.560440859466225e-02
8.567200000000000e+10 1.018442057420186e+00 3.555056008996121e-02
8.572000000000000e+10 1.018457449793153e+00 3.549641538550392e-02
8.576800000000000e+10 1.018472521754788e+00 3.544199770294355e-02
8.581600000000000e+10 1.018487273362860e+00 3.538733096844903e-02
8.586400000000000e+10 1.018501704811138e+00 3.533243934193470e-02
8.591200000000000e+10 1.018515816575712e+00 3.527734768971157e-02
8.596000000000000e+10 1.018529609484156e+00 3.522208137020937e-02
8.600800000000000e+10 1.018543084829853e+00 3.516666621568535e-02
8.605600000000000e+10 1.018556244439136e+00 3.511112856865595e-02
8.610400000000000e+10 1.018569090495917e+00 3.505549527412348e-02
8.615200000000000e+10 1.018581625684498e+00 3.499979321445854e-02
8.620000000000000e+10 1.018593852919027e+00 3.494404951640039e-02
8.624800000000000e+10 1.018605775208698e+00 3.488829169825314e-02
8.629600000000000e+10 1.018617395376284e+00 3.483254770452163e-02
8.634400000000000e+10 1.018628716304559e+00 3.477684082317492e-02
8.639200000000000e+10 1.018639740173927e+00 3.472119391560210e-02
8.644000000000000e+10 1.018650469987223e+00 3.466562966111102e-02
8.648800000000000e+10 1.018660908776619e+00 3.461017113629033e-02
8.653600000000000e+10 1.018671059397667e+00 3.455484184347416e-02
8.658400000000000e+10 1.018680924968757e+00 3.449966534074620e-02
8.663200000000000e+10 1.018690508926503e+00 3.444466524053463e-02
8.668000000000000e+10 1.018699815568059e+00 3.438986500904746e-02
8.672800000000000e+10 1.018708849428432e+00 3.433528822531022e-02
8.677600000000000e+10 1.018717614965217e+00 3.428095841097355e-02
8.682400000000000e+10 1.018726117170521e+00 3.422689826731981e-02
8.687200000000000e+10 1.018734361619034e+00 3.417313020789613e-02
8.692000000000000e+10 1.018742353880956e+00 3.411967663422311e-02
8.696800000000000e+10 1.018750099736539e+00 3.406656010820130e-02
8.701600000000000e+10 1.018757604912151e+00 3.401380336739178e-02
8.706400000000000e+10 1.018764874987574e+00 3.396142956211247e-02
8.711200000000000e+10 1.018771915400806e+00 3.390946196875798e-02
8.716000000000000e+10 1.018778731565643e+00 3.385792396706020e-02
8.720800000000000e+10 1.018785329348541e+00 3.380683845219481e-02
8.725600000000000e+10 1.018791714962664e+00 3.375622809150198e-02
8.730400000000000e+10 1.018797895348325e+00 3.370611504361286e-02
8.735200000000000e+10 1.018803878260135e+00 3.365652139297037e-02
8.740000000000000e+10 1.018809671892782e+00 3.360746926656100e-02
8.744800000000000e+10 1.018815284446180e+00 3.355898078447662e-02
8.749600000000000e+10 1.018820723523964e+00 3.351107815508235e-02
8.754400000000000e+10 1.018825996552371e+00 3.346378302633973e-02
8.759200000000000e+10 1.018831110423018e+00 3.341711643602379e-02
8.764000000000000e+10 1.018836072249767e+00 3.337109894142361e-02
8.768800000000000e+10 1.018840889025279e+00 3.332575082335532e-02
8.773600000000000e+10 1.018845568294736e+00 3.328109160365963e-02
8.778400000000000e+10 1.018850116681780e+00 3.323714073850027e-02
8.783200000000000e+10 1.018854541264781e+00 3.319391680658842e-02
8.788000000000000e+10 1.018858849528600e+00 3.315143765946220e-02
8.792800000000000e+10 1.018863048988763e+00 3.310972120754272e-02
8.797600000000000e+10 1.018867147493586e+00 3.306878492576593e-02
8.802400000000000e+10 1.018871153008220e+00 3.302864577407107e-02
8.807200000000000e+10 1.018875073896219e+00 3.298932030331907e-02
8.812000000000000e+10 1.018878918838811e+00 3.295082397372814e-02
8.816800000000000e+10 1.018882696761998e+00 3.291317159216332e-02
8.821600000000000e+10 1.018886417273261e+00 3.287637640844836e-02
8.826400000000000e+10 1.018890089581455e+00 3.284045206512527e-02
8.831200000000000e+10 1.018893721953437e+00 3.280541176806660e-02
8.836000000000000e+10 1.018897322433427e+00 3.277126758431649e-02
8.840800000000000e+10 1.018900898983081e+00 3.273803056373197e-02
8.845600000000000e+10 1.018904459417935e+00 3.270571121678435e-02
8.850400000000000e+10 1.018908011599563e+00 3.267431947022071e-02
8.855200000000000e+10 1.018911563531839e+00 3.264386433572975e-02
8.860000000000000e+10 1.018915123069047e+00 3.261435495255353e-02
8.864800000000000e+10 1.018918697867579e+00 3.258579754618011e-02
8.869600000000000e+10 1.018922295789919e+00 3.255819262688063e-02
8.874400000000000e+10 1.018925924961936e+00 3.253153442881048e-02
8.879200000000000e+10 1.018929593057049e+00 3.250580742715679e-02
8.884000000000000e+10 1.018933307652795e+00 3.248099602852480e-02
8.888800000000000e+10 1.018937075783364e+00 3.245708412736116e-02
8.893600000000000e+10 1.018940904526979e+00 3.243405484688543e-02
8.898400000000000e+10 1.018944801015333e+00 3.241188836691470e-02
8.903200000000000e+10 1.018948772306699e+00 3.239056567269465e-02
8.908000000000000e+10 1.018952824837898e+00 3.237006817047992e-02
8.912800000000000e+10 1.018956964719561e+00 3.235037674986437e-02
8.917600000000000e+10 1.018961197334901e+00 3.233147163867675e-02
8.922400000000000e+10 1.018965527520101e+00 3.231333253576397e-02
8.927200000000000e+10 1.018969959977650e+00 3.229593907024488e-02
8.932000000000000e+10 1.018974499188319e+00 3.227927038524653e-02
8.936800000000000e+10 1.018979149661742e+00 3.226330548972945e-02
8.941600000000000e+10 1.018983915748815e+00 3.224802293964410e-02
8.946400000000000e+10 1.018988801550082e+00 3.223340128247443e-02
8.951200000000000e+10 1.018993811117210e+00 3.221941866810955e-02
8.956000000000000e+10 1.018998948339554e+00 3.220605309842187e-02
8.960800000000000e+10 1.019004217138455e+00 3.219328260645851e-02
8.965600000000000e+10 1.019009620859117e+00 3.218108564253649e-02
8.970400000000000e+10 1.019015162813262e+00 3.216944025244931e-02
8.975200000000000e+10 1.019020845948406e+00 3.215832512100863e-02
8.980000000000000e+10 1.019026673538767e+00 3.214771854941480e-02
8.984800000000000e+10 1.019032648848109e+00 3.213759948407605e-02
8.989600000000000e+10 1.019038775383379e+00 3.212794701514481e-02
8.994400000000000e+10 1.019045057072853e+00 3.211873988423191e-02
8.999200000000000e+10 1.019051497283391e+00 3.210995654426096e-02
9.004000000000000e+10 1.019058099453042e+00 3.210157574732408e-02
9.008800000000000e+10 1.019064867258424e+00 3.209357661247479e-02
9.013600000000000e+10 1.019071804832565e+00 3.208593817316154e-02
9.018400000000000e+10 1.019078916672777e+00 3.207863963351667e-02
9.023200000000000e+10 1.019086207968106e+00 3.207166036622900e-02
9.028000000000000e+10 1.019093683467295e+00 3.206497977740159e-02
9.032800000000000e+10 1.019101347498687e+00 3.205857616202009e-02
9.037600000000000e+10 1.019109203660657e+00 3.205242828933751e-02
9.042400000000000e+10 1.019117255567623e+00 3.204651551943598e-02
9.047200000000000e+10 1.019125506872495e+00 3.204081761096877e-02
9.052000000000000e+10 1.019133961587199e+00 3.203531473794068e-02
9.056800000000000e+10 1.019142623927230e+00 3.202998755818783e-02
9.061600000000000e+10 1.019151499073714e+00 3.202481695628428e-02
9.066400000000000e+10 1.019160593024961e+00 3.201978277141162e-02
9.071200000000000e+10 1.019169911268520e+00 3.201486425896372e-02
9.076000000000000e+10 1.019179459444604e+00 3.201004149212195e-02
9.080800000000000e+10 1.019189243578992e+00 3.200529479869845e-02
9.085600000000000e+10 1.019199269831271e+00 3.200060449149644e-02
9.090400000000000e+10 1.019209544531246e+00 3.199595042990526e-02
9.095200000000000e+10 1.019220073515014e+00 3.199131188425318e-02
9.100000000000000e+10 1.019230861927693e+00 3.198666785558597e-02
9.104800000000000e+10 1.019241913987842e+00 3.198199747463675e-02
9.109600000000000e+10 1.019253233233330e+00 3.197728070213796e-02
9.114400000000000e+10 1.019264822930760e+00 3.197249792365378e-02
9.119200000000000e+10 1.019276686199040e+00 3.196763028312740e-02
9.124000000000000e+10 1.019288826323361e+00 3.196265962773880e-02
9.128800000000000e+10 1.019301246712903e+00 3.195756817122565e-02
9.133600000000000e+10 1.019313951138237e+00 3.195233824853922e-02
9.138400000000000e+10 1.019326943147614e+00 3.194695230786935e-02
9.143200000000000e+10 1.019340226427046e+00 3.194139308201752e-02
9.148000000000000e+10 1.019353804426211e+00 3.193564330427545e-02
9.152800000000000e+10 1.019367680345105e+00 3.192968568183510e-02
9.157600000000000e+10 1.019381856794329e+00 3.192350290282570e-02
9.162400000000000e+10 1.019396335679399e+00 3.191707758455633e-02
9.167200000000000e+10 1.019411118259057e+00 3.191039246842291e-02
9.172000000000000e+10 1.019426204953909e+00 3.190343062879508e-02
9.176800000000000e+10 1.019441595403020e+00 3.189617562303780e-02
9.181600000000000e+10 1.019457288771585e+00 3.188861116711473e-02
9.186400000000000e+10 1.019473283786493e+00 3.188072166957943e-02
9.191200000000000e+10 1.019489579032082e+00 3.187249190118955e-02
9.196000000000000e+10 1.019506173208938e+00 3.186390695478454e-02
9.200800000000000e+10 1.019523065135476e+00 3.185495224151392e-02
9.205600000000000e+10 1.019540253741769e+00 3.184561313454567e-02
9.210400000000000e+10 1.019557737818480e+00 3.183587492394848e-02
9.215200000000000e+10 1.019575515847728e+00 3.182572314349261e-02
9.220000000000000e+10 1.019593585966301e+00 3.181514349002978e-02
9.224800000000000e+10 1.019611946027038e+00 3.180412184302075e-02
9.229600000000000e+10 1.019630593286340e+00 3.179264447878515e-02
9.234400000000000e+10 1.019649524251924e+00 3.178069827290710e-02
9.239200000000000e+10 1.019668734700501e+00 3.176827057933369e-02
9.244000000000000e+10 1.019688219893729e+00 3.175534897637388e-02
9.248800000000000e+10 1.019707974728930e+00 3.174192152523698e-02
9.253600000000000e+10 1.019727993764437e+00 3.172797668135809e-02
9.258400000000000e+10 1.019748271569430e+00 3.171350350494123e-02
9.263200000000000e+10 1.019768803034066e+00 3.169849117771830e-02
9.268000000000000e+10 1.019789583246083e+00 3.168292912710315e-02
9.272800000000000e+10 1.019810607390938e+00 3.166680674697499e-02
9.277600000000000e+10 1.019831870801450e+00 3.165011331038849e-02
9.282400000000000e+10 1.019853368757757e+00 3.163283796819394e-02
9.287200000000000e+10 1.019875096453001e+00 3.161496979650737e-02
9.292000000000000e+10 1.019897048865337e+00 3.159649781900192e-02
9.296800000000000e+10 1.019919220629192e+00 3.157741108034606e-02
9.301600000000000e+10 1.019941606060682e+00 3.155769884663238e-02
9.306400000000000e+10 1.019964199186134e+00 3.153735047619369e-02
9.311200000000000e+10 1.019986993850190e+00 3.151635569711558e-02
9.316000000000000e+10 1.020009983810650e+00 3.149470448125508e-02
9.320800000000000e+10 1.020033162982214e+00 3.147238723247567e-02
9.325600000000000e+10 1.020056525454845e+00 3.144939480966764e-02
9.330400000000000e+10 1.020080065607508e+00 3.142571830427925e-02
9.335200000000000e+10 1.020103778305413e+00 3.140134911777348e-02
9.340000000000000e+10 1.020127658923172e+00 3.137627883989208e-02
9.344800000000000e+10 1.020151703302508e+00 3.135049935124226e-02
9.349600000000000e+10 1.020175907650507e+00 3.132400260388409e-02
9.354400000000000e+10 1.020200268428964e+00 3.129678072478567e-02
9.359200000000000e+10 1.020224782193675e+00 3.126882611548332e-02
9.364000000000000e+10 1.020249445655989e+00 3.124013149990361e-02
9.368800000000000e+10 1.020274255046534e+00 3.121068987236860e-02
9.373600000000000e+10 1.020299205872859e+00 3.118049468516578e-02
9.378400000000000e+10 1.020324293177670e+00 3.114954018037656e-02
9.383200000000000e+10 1.020349511765565e+00 3.111782131037901e-02
9.388000000000000e+10 1.020374856368414e+00 3.108533373308943e-02
9.392800000000000e+10 1.020400321779469e+00 3.105207360657209e-02
9.397600000000000e+10 1.020425903145068e+00 3.101803764075146e-02
9.402400000000000e+10 1.020451596091784e+00 3.098322275095950e-02
9.407200000000000e+10 1.020477396534750e+00 3.094762616347117e-02
9.412000000000000e+10 1.020503300619269e+00 3.091124516947215e-02
9.416800000000000e+10 1.020529304671354e+00 3.087407725622458e-02
9.421600000000000e+10 1.020555405029577e+00 3.083612014061561e-02
9.426400000000000e+10 1.020581597924567e+00 3.079737190180294e-02
9.431200000000000e+10 1.020607879229762e+00 3.075783085615329e-02
9.436000000000000e+10 1.020634244443174e+00 3.071749588517502e-02
9.440800000000000e+10 1.020660688706821e+00 3.067636626531615e-02
9.445600000000000e+10 1.020687206733332e+00 3.063444196825010e-02
9.450400000000000e+10 1.020713792965793e+00 3.059172349510641e-02
9.455200000000000e+10 1.020740441733606e+00 3.054821218331231e-02
9.460000000000000e+10 1.020767147183738e+00 3.050390996472812e-02
9.464800000000000e+10 1.020793903443476e+00 3.045881948605872e-02
9.469600000000000e+10 1.020820704647580e+00 3.041294396866888e-02
9.474400000000000e+10 1.020847545155687e+00 3.036628715045674e-02
9.479200000000000e+10 1.020874419430546e+00 3.031885323675934e-02
9.484000000000000e+10 1.020901322153760e+00 3.027064678993428e-02
9.488800000000000e+10 1.020928248116078e+00 3.022167293866544e-02
9.493600000000000e+10 1.020955192122236e+00 3.017193702855677e-02
9.498400000000000e+10 1.020982148823961e+00 3.012144460176314e-02
9.503200000000000e+10 1.021009111840464e+00 3.007020232643813e-02
9.508000000000000e+10 1.021036075065814e+00 3.001821709748431e-02
9.512800000000000e+10 1.021063031579695e+00 2.996549629517682e-02
9.517600000000000e+10 1.021089973747515e+00 2.991204814929087e-02
9.522400000000000e+10 1.021116893564161e+00 2.985788181422292e-02
9.527200000000000e+10 1.021143782717943e+00 2.980300693584271e-02
9.532000000000000e+10 1.021170632805994e+00 2.974743389706421e-02
9.536800000000000e+10 1.021197435471825e+00 2.969117345502875e-02
9.541600000000000e+10 1.021224182622634e+00 2.963423690174075e-02
9.546400000000000e+10 1.021250866281299e+00 2.957663566248326e-02
9.551200000000000e+10 1.021277478808504e+00 2.951838156021289e-02
9.556000000000000e+10 1.021304012459610e+00 2.945948650283525e-02
9.560800000000000e+10 1.021330459434573e+00 2.939996248738493e-02
9.565600000000000e+10 1.021356811670744e+00 2.933982160563717e-02
9.570400000000000e+10 1.021383060701645e+00 2.927907608803307e-02
9.575200000000000e+10 1.021409197576993e+00 2.921773842432570e-02
9.580000000000000e+10 1.021435212939765e+00 2.915582162237707e-02
9.584800000000000e+10 1.021461097140179e+00 2.909333915403037e-02
9.589600000000000e+10 1.021486840191258e+00 2.903030517893777e-02
9.594400000000000e+10 1.021512431809740e+00 2.896673450437613e-02
9.599200000000000e+10 1.021537861721069e+00 2.890264267374132e-02
9.604000000000000e+10 1.021563119690083e+00 2.883804580684393e-02
9.608800000000000e+10 1.021588195772184e+00 2.877296056671089e-02
9.613600000000000e+10 1.021613080498869e+00 2.870740401051059e-02
9.618400000000000e+10 1.021637764844552e+00 2.864139339319147e-02
9.623200000000000e+10 1.021662240454408e+00 2.857494617230836e-02
9.628000000000000e+10 1.021686499446662e+00 2.850807981143728e-02
9.632800000000000e+10 1.021710534302268e+00 2.844081187750179e-02
9.637600000000000e+10 1.021734337758206e+00 2.837316010444640e-02
9.642400000000000e+10 1.021757902790201e+00 2.830514248816510e-02
9.647200000000000e+10 1.021781222446145e+00 2.823677730054953e-02
9.652000000000000e+10 1.021804289622431e+00 2.816808304587455e-02
9.656800000000000e+10 1.021827097156876e+00 2.809907837967010e-02
9.661600000000000e+10 1.021849637552351e+00 2.802978214588048e-02
9.666400000000000e+10 1.021871904311097e+00 2.796021412186576e-02
9.671200000000000e+10 1.021893891349369e+00 2.789039439134046e-02
9.676000000000000e+10 1.021915592958831e+00 2.782034334511605e-02
9.680800000000000e+10 1.021937003835422e+00 2.775008143999809e-02
9.685600000000000e+10 1.021958119128977e+00 2.767962899825274e-02
9.690400000000000e+10 1.021978934337575e+00 2.760900625006703e-02
9.695200000000000e+10 1.021999445433780e+00 2.753823307334244e-02
9.700000000000000e+10 1.022019648835845e+00 2.746732954371466e-02
9.704800000000000e+10 1.022039541275965e+00 2.739631547851987e-02
9.709600000000000e+10 1.022059119835970e+00 2.732521078531327e-02
9.714400000000000e+10 1.022078381610418e+00 2.725403504503068e-02
9.719200000000000e+10 1.022097324255608e+00 2.718280742386064e-02
9.724000000000000e+10 1.022115945884241e+00 2.711154716925362e-02
9.728800000000000e+10 1.022134244930678e+00 2.704027306714425e-02
9.733600000000000e+10 1.022152219590513e+00 2.696900335584647e-02
9.738400000000000e+10 1.022169868270272e+00 2.689775648409960e-02
9.743200000000000e+10 1.022187189515501e+00 2.682655065805232e-02
9.748000000000000e+10 1.022204182119755e+00 2.675540407517047e-02
9.752800000000000e+10 1.022220845104194e+00 2.668433467963762e-02
9.757600000000000e+10 1.022237177777559e+00 2.661336039085217e-02
9.762400000000000e+10 1.022253179743981e+00 2.654249852240005e-02
9.767200000000000e+10 1.022268850757913e+00 2.647176611485935e-02
9.772000000000000e+10 1.022284190777788e+00 2.640117963952315e-02
9.776800000000000e+10 1.022299200067210e+00 2.633075510277633e-02
9.781600000000000e+10 1.022313879004350e+00 2.626050770570726e-02
9.786400000000000e+10 1.022328227885920e+00 2.619045223838907e-02
9.791200000000000e+10 1.022342245900412e+00 2.612060263668475e-02
9.796000000000000e+10 1.022355932079804e+00 2.605097289963814e-02
9.800800000000000e+10 1.022369286472704e+00 2.598157651639612e-02
9.805600000000000e+10 1.022382309007947e+00 2.591242637278153e-02
9.810400000000000e+10 1.022394999958810e+00 2.584353499884246e-02
9.815200000000000e+10 1.022407359270130e+00 2.577491436032464e-02
9.820000000000000e+10 1.022419386705586e+00 2.570657629774967e-02
9.824800000000000e+10 1.022431082003435e+00 2.563853212482477e-02
9.829600000000000e+10 1.022442445095396e+00 2.557079280706619e-02
9.834400000000000e+10 1.022453476204552e+00 2.550336870302678e-02
9.839200000000000e+10 1.022464175500065e+00 2.543627024149591e-02
9.844000000000000e+10 1.022474542744020e+00 2.536950716340605e-02
9.848800000000000e+10 1.022484577527376e+00 2.530308862939665e-02
9.853600000000000e+10 1.022494279261707e+00 2.523702346788010e-02
9.858400000000000e+10 1.022503647566632e+00 2.517132003488355e-02
9.863200000000000e+10 1.022512681870748e+00 2.510598599109817e-02
9.868000000000000e+10 1.022521381143284e+00 2.504102839306070e-02
9.872800000000000e+10 1.022529743625762e+00 2.497645321206870e-02
9.877600000000000e+10 1.022537766934833e+00 2.491226599594577e-02
9.882400000000000e+10 1.022545448013000e+00 2.484847214093657e-02
9.887200000000000e+10 1.022552783560196e+00 2.478507712450380e-02
9.892000000000000e+10 1.022559770643945e+00 2.472208590363919e-02
9.896800000000000e+10 1.022566406544828e+00 2.465950279715608e-02
9.901600000000000e+10 1.022572688360707e+00 2.459733139608700e-02
9.906400000000000e+10 1.022578612965606e+00 2.453557482751232e-02
9.911200000000000e+10 1.022584177361856e+00 2.447423568078088e-02
9.916000000000000e+10 1.022589379167584e+00 2.441331599466182e-02
9.920800000000000e+10 1.022594215847549e+00 2.435281722524214e-02
9.925600000000000e+10 1.022598685239376e+00 2.429274013193158e-02
9.930400000000000e+10 1.022602785788712e+00 2.423308463342613e-02
9.935200000000000e+10 1.022606516237941e+00 2.417384996701950e-02
9.940000000000000e+10 1.022609875441372e+00 2.411503478893615e-02
9.944800000000000e+10 1.022612863121872e+00 2.405663754180129e-02
9.949600000000000e+10 1.022615479379045e+00 2.399865579584884e-02
9.954400000000000e+10 1.022617724967713e+00 2.394108673136314e-02
9.959200000000000e+10 1.022619600672189e+00 2.388392660254157e-02
9.964000000000000e+10 1.022621107434790e+00 2.382717122356336e-02
9.968800000000000e+10 1.022622246284523e+00 2.377081618334814e-02
9.973600000000000e+10 1.022623018899820e+00 2.371485652200621e-02
9.978400000000000e+10 1.022623427302134e+00 2.365928689743682e-02
9.983200000000000e+10 1.022623473739819e+00 2.360410112508051e-02
9.988000000000000e+10 1.022623160308443e+00 2.354929286900858e-02
9.992800000000000e+10 1.022622489305362e+00 2.349485531052778e-02
9.997600000000000e+10 1.022621462405184e+00 2.344078134080351e-02
1.000240000000000e+11 1.022620081184194e+00 2.338706374385525e-02
1.000720000000000e+11 1.022618347642863e+00 2.333369507101588e-02
1.001200000000000e+11 1.022616263271088e+00 2.328066765698760e-02
1.001680000000000e+11 1.022613830029345e+00 2.322797378645051e-02
1.002160000000000e+11 1.022611049558740e+00 2.317560510875954e-02
1.002640000000000e+11 1.022607923257307e+00 2.312355338323619e-02
1.003120000000000e+11 1.022604451852737e+00 2.307180983279277e-02
1.003600000000000e+11 1.022600635793805e+00 2.302036596449676e-02
1.004080000000000e+11 1.022596475352815e+00 2.296921317229426e-02
1.004560000000000e+11 1.022591970934459e+00 2.291834300011623e-02
1.005040000000000e+11 1.022587122996163e+00 2.286774688527118e-02
1.005520000000000e+11 1.022581932700598e+00 2.281741573990350e-02
1.006000000000000e+11 1.022576400590374e+00 2.276734031270176e-02
1.006480000000000e+11 1.022570527517525e+00 2.271751122386280e-02
1.006960000000000e+11 1.022564314061984e+00 2.266791878033405e-02
1.007440000000000e+11 1.022557759494652e+00 2.261855343546078e-02
1.007920000000000e+11 1.022550863104662e+00 2.256940514714409e-02
1.008400000000000e+11 1.022543624929583e+00 2.252046421030825e-02
1.008880000000000e+11 1.022536044193568e+00 2.247172090798589e-02
1.009360000000000e+11 1.022528120058594e+00 2.242316577326646e-02
1.009840000000000e+11 1.022519851211785e+00 2.237478935588235e-02
1.010320000000000e+11 1.022511236674282e+00 2.232658246718084e-02
1.010800000000000e+11 1.022502275769392e+00 2.227853595020068e-02
1.011280000000000e+11 1.022492967783705e+00 2.223064091086296e-02
1.011760000000000e+11 1.022483312027186e+00 2.218288869044593e-02
1.012240000000000e+11 1.022473307919991e+00 2.213527077034290e-02
1.012720000000000e+11 1.022462954617019e+00 2.208777898527015e-02
1.013200000000000e+11 1.022452251370974e+00 2.204040507942403e-02
1.013680000000000e+11 1.022441197384500e+00 2.199314103015563e-02
1.014160000000000e+11 1.022429791739348e+00 2.194597924586993e-02
1.014640000000000e+11 1.022418033479377e+00 2.189891254813042e-02
1.015120000000000e+11 1.022405921142928e+00 2.185193441167057e-02
1.015600000000000e+11 1.022393453157194e+00 2.180503896034728e-02
1.016080000000000e+11 1.022380627824582e+00 2.175822066622632e-02
1.016560000000000e+11 1.022367442770509e+00 2.171147394310903e-02
1.017040000000000e+11 1.022353894700186e+00 2.166479363644235e-02
1.017520000000000e+11 1.022339979488069e+00 2.161817494460510e-02
1.018000000000000e+11 1.022325692206008e+00 2.157161363628389e-02
1.018480000000000e+11 1.022311028257092e+00 2.152510678228030e-02
1.018960000000000e+11 1.022295984311137e+00 2.147865188823982e-02
1.019440000000000e+11 1.022280557361575e+00 2.143224659918864e-02
1.019920000000000e+11 1.022264743783120e+00 2.138588827016015e-02
1.020400000000000e+11 1.022248539960441e+00 2.133957573234734e-02
1.020880000000000e+11 1.022231943175397e+00 2.129330835975597e-02
1.021360000000000e+11 1.022214950621583e+00 2.124708543445072e-02
1.021840000000000e+11 1.022197558905270e+00 2.120090611464333e-02
1.022320000000000e+11 1.022179763657222e+00 2.115477042513835e-02
1.022800000000000e+11 1.022161560199467e+00 2.110867964902587e-02
1.023280000000000e+11 1.022142943874339e+00 2.106263623440782e-02
1.023760000000000e+11 1.022123910321766e+00 2.101664368633916e-02
1.024240000000000e+11 1.022104455573366e+00 2.097070705584937e-02
1.024720000000000e+11 1.022084576299831e+00 2.092483183066589e-02
1.025200000000000e+11 1.022064268994554e+00 2.087902422985488e-02
1.025680000000000e+11 1.022043529968319e+00 2.083329119434806e-02
1.026160000000000e+11 1.022022355754127e+00 2.078764068521589e-02
1.026640000000000e+11 1.022000742807416e+00 2.074208183200934e-02
1.027120000000000e+11 1.021978688091873e+00 2.069662502315362e-02
1.027600000000000e+11 1.021956188868792e+00 2.065128153258044e-02
1.028080000000000e+11 1.021933243626888e+00 2.060606305898191e-02
1.028560000000000e+11 1.021909851274636e+00 2.056098199856899e-02
1.029040000000000e+11 1.021886011151839e+00 2.051605148562375e-02
1.029520000000000e+11 1.021861722501203e+00 2.047128582774385e-02
1.030000000000000e+11 1.021836984672173e+00 2.042669973640523e-02
1.030480000000000e+11 1.021811796995632e+00 2.038230864601119e-02
1.030960000000000e+11 1.021786158828932e+00 2.033812911896826e-02
1.031440000000000e+11 1.021760069540161e+00 2.029417833989279e-02
1.031920000000000e+11 1.021733528891543e+00 2.025047464457685e-02
1.032400000000000e+11 1.021706537140305e+00 2.020703713429921e-02
1.032880000000000e+11 1.021679095242536e+00 2.016388611044022e-02
1.033360000000000e+11 1.021651204961898e+00 2.012104282708698e-02
1.033840000000000e+11 1.021622868875069e+00 2.007852936658767e-02
1.034320000000000e+11 1.021594090113259e+00 2.003636831352333e-02
1.034800000000000e+11 1.021564872364257e+00 1.999458294330381e-02
1.035280000000000e+11 1.021535219934278e+00 1.995319717673599e-02
1.035760000000000e+11 1.021505137518510e+00 1.991223562647069e-02
1.036240000000000e+11 1.021474630165869e+00 1.987172336853676e-02
1.036720000000000e+11 1.021443703180085e+00 1.983168608213111e-02
1.037200000000000e+11 1.021412362033348e+00 1.979215012535304e-02
1.037680000000000e+11 1.021380612295494e+00 1.975314239915492e-02
1.038160000000000e+11 1.021348459618099e+00 1.971469067250629e-02
1.038640000000000e+11 1.021315909712683e+00 1.967682337168940e-02
1.039120000000000e+11 1.021282968405391e+00 1.963956962073215e-02
1.039600000000000e+11 1.021249641659051e+00 1.960295946991795e-02
1.040080000000000e+11 1.021215935792685e+00 1.956702377680140e-02
1.040560000000000e+11 1.021181857655752e+00 1.953179424384810e-02
1.041040000000000e+11 1.021147414644024e+00 1.949730331933788e-02
1.041520000000000e+11 1.021112614845080e+00 1.946358406785766e-02
1.042000000000000e+11 1.021077467028056e+00 1.943066973943417e-02
1.042480000000000e+11 1.021041979979401e+00 1.939859400289532e-02
1.042960000000000e+11 1.021006162819513e+00 1.936739078346792e-02
1.043440000000000e+11 1.020970024820282e+00 1.933709404944460e-02
1.043920000000000e+11 1.020933575096142e+00 1.930773767941882e-02
1.044400000000000e+11 1.020896822027952e+00 1.927935545104377e-02
1.044880000000000e+11 1.020859773245481e+00 1.925198148914840e-02
1.045360000000000e+11 1.020822435735880e+00 1.922565019165312e-02
1.045840000000000e+11 1.020784816216111e+00 1.920039657048820e-02
1.046320000000000e+11 1.020746921217536e+00 1.917625616013264e-02
1.046800000000000e+11 1.020708757223519e+00 1.915326436560745e-02
1.047280000000000e+11 1.020670330139199e+00 1.913145731403445e-02
1.047760000000000e+11 1.020631646455451e+00 1.911087118107160e-02
1.048240000000000e+11 1.020592712784305e+00 1.909154222630804e-02
1.048720000000000e+11 1.020553536042916e+00 1.907350635897952e-02
1.049200000000000e+11 1.020514123919704e+00 1.905680004476682e-02
1.049680000000000e+11 1.020474484630038e+00 1.904145982554247e-02
1.050160000000000e+11 1.020434625217926e+00 1.902752213813606e-02
1.050640000000000e+11 1.020394553039764e+00 1.901502323520023e-02
1.051120000000000e+11 1.020354275238489e+00 1.900399925289645e-02
1.051600000000000e+11 1.020313799204679e+00 1.899448649744531e-02
1.052080000000000e+11 1.020273131817407e+00 1.898652098944644e-02
1.052560000000000e+11 1.020232279628525e+00 1.898013879471091e-02
1.053040000000000e+11 1.020191248716163e+00 1.897537594827474e-02
1.053520000000000e+11 1.020150045212310e+00 1.897226866195067e-02
1.054000000000000e+11 1.020108675269429e+00 1.897085317571912e-02
1.054480000000000e+11 1.020067145411856e+00 1.897116558309773e-02
1.054960000000000e+11 1.020025462567126e+00 1.897324183896571e-02
1.055440000000000e+11 1.019983634048039e+00 1.897711748700970e-02
1.055920000000000e+11 1.019941667674610e+00 1.898282795713608e-02
1.056400000000000e+11 1.019899571909912e+00 1.899040840587514e-02
1.056880000000000e+11 1.019857354783169e+00 1.899989369109482e-02
1.057360000000000e+11 1.019815024774399e+00 1.901131788454517e-02
1.057840000000000e+11 1.019772590707811e+00 1.902471450479378e-02
1.058320000000000e+11 1.019730060686302e+00 1.904011678676863e-02
1.058800000000000e+11 1.019687443440120e+00 1.905755731871842e-02
1.059280000000000e+11 1.019644747697338e+00 1.907706821263931e-02
1.059760000000000e+11 1.019601981784028e+00 1.909868130505737e-02
1.060240000000000e+11 1.019559153559884e+00 1.912242803329144e-02
1.060720000000000e+11 1.019516270184089e+00 1.914833956017156e-02
1.061200000000000e+11 1.019473338286403e+00 1.917644663274135e-02
1.061680000000000e+11 1.019430364731796e+00 1.920677992866111e-02
1.062160000000000e+11 1.019387357197000e+00 1.923936991446859e-02
1.062640000000000e+11 1.019344323724202e+00 1.927424664271019e-02
1.063120000000000e+11 1.019301273559679e+00 1.931144016174518e-02
1.063600000000000e+11 1.019258215968788e+00 1.935097884754985e-02
1.064080000000000e+11 1.019215161195858e+00 1.939289050851745e-02
1.064560000000000e+11 1.019172118916168e+00 1.943720133905603e-02
1.065040000000000e+11 1.019129097362845e+00 1.948393703835872e-02
1.065520000000000e+11 1.019086107216516e+00 1.953312380910908e-02
1.066000000000000e+11 1.019043157734525e+00 1.958478549208909e-02
1.066480000000000e+11 1.019000257881374e+00 1.963894514400933e-02
1.066960000000000e+11 1.018957418135438e+00 1.969562589842870e-02
1.067440000000000e+11 1.018914648948498e+00 1.975485020570329e-02
1.067920000000000e+11 1.018871958639776e+00 1.981663941019203e-02
1.068400000000000e+11 1.018829356716670e+00 1.988101350629001e-02
1.068880000000000e+11 1.018786852624690e+00 1.994799117208293e-02
1.069360000000000e+11 1.018744455939398e+00 2.001758992499046e-02
1.069840000000000e+11 1.018702176387982e+00 2.008982654810612e-02
1.070320000000000e+11 1.018660022191525e+00 2.016471607034355e-02
1.070800000000000e+11 1.018618002579933e+00 2.024227212888162e-02
1.071280000000000e+11 1.018576126768484e+00 2.032250629618186e-02
1.071760000000000e+11 1.018534403771374e+00 2.040542875652165e-02
1.072240000000000e+11 1.018492842088317e+00 2.049104821464749e-02
1.072720000000000e+11 1.018451449636953e+00 2.057937123996910e-02
1.073200000000000e+11 1.018410234308051e+00 2.067040304249725e-02
1.073680000000000e+11 1.018369203888266e+00 2.076414718653703e-02
1.074160000000000e+11 1.018328366049105e+00 2.086060568419920e-02
1.074640000000000e+11 1.018287728025673e+00 2.095977923754829e-02
1.075120000000000e+11 1.018247296062331e+00 2.106166714989669e-02
1.075600000000000e+11 1.018207076153572e+00 2.116626793395347e-02
1.076080000000000e+11 1.018167075226891e+00 2.127357933599777e-02
1.076560000000000e+11 1.018127299597881e+00 2.138359741965947e-02
1.077040000000000e+11 1.018087755671742e+00 2.149631695748599e-02
1.077520000000000e+11 1.018048449958720e+00 2.161173157954030e-02
1.078000000000000e+11 1.018009389188657e+00 2.172983356570647e-02
1.078480000000000e+11 1.017970580225596e+00 2.185061315581443e-02
1.078960000000000e+11 1.017932029937232e+00 2.197405786092864e-02
1.079440000000000e+11 1.017893744937009e+00 2.210015275412724e-02
1.079920000000000e+11 1.017855731265676e+00 2.222888047519166e-02
1.080400000000000e+11 1.017817993116940e+00 2.236022210050327e-02
1.080880000000000e+11 1.017780534200623e+00 2.249415757412623e-02
1.081360000000000e+11 1.017743357526976e+00 2.263066568888797e-02
1.081840000000000e+11 1.017706464758691e+00 2.276972322915613e-02
1.082320000000000e+11 1.017669856760719e+00 2.291130535177551e-02
1.082800000000000e+11 1.017633534062488e+00 2.305538592324224e-02
1.083280000000000e+11 1.017597497158649e+00 2.320193744704117e-02
1.083760000000000e+11 1.017561746443083e+00 2.335093128795230e-02
1.084240000000000e+11 1.017526282016694e+00 2.350233790737521e-02
1.084720000000000e+11 1.017491104014817e+00 2.365612780063616e-02
1.085200000000000e+11 1.017456212903743e+00 2.381227085873889e-02
1.085680000000000e+11 1.017421608615692e+00 2.397073417319318e-02
1.086160000000000e+11 1.017387289757521e+00 2.413148275304344e-02
1.086640000000000e+11 1.017353253789630e+00 2.429447946010007e-02
1.087120000000000e+11 1.017319496791024e+00 2.445968572241826e-02
1.087600000000000e+11 1.017286013973048e+00 2.462706235684012e-02
1.088080000000000e+11 1.017252800365326e+00 2.479656913613178e-02
1.088560000000000e+11 1.017219850762450e+00 2.496816492476531e-02
1.089040000000000e+11 1.017187159695145e+00 2.514180754178606e-02
1.089520000000000e+11 1.017154721837296e+00 2.531745414750233e-02
1.090000000000000e+11 1.017122532057085e+00 2.549506113047130e-02
1.090480000000000e+11 1.017090585425739e+00 2.567458358391173e-02
1.090960000000000e+11 1.017058876756612e+00 2.585597475130070e-02
1.091440000000000e+11 1.017027400408101e+00 2.603918569929624e-02
1.091920000000000e+11 1.016996150732284e+00 2.622416437687618e-02
1.092400000000000e+11 1.016965122727696e+00 2.641085532189327e-02
1.092880000000000e+11 1.016934311972855e+00 2.659919997156804e-02
1.093360000000000e+11 1.016903714393219e+00 2.678913807840185e-02
1.093840000000000e+11 1.016873325960099e+00 2.698060782547549e-02
1.094320000000000e+11 1.016843142211945e+00 2.717354564836123e-02
1.094800000000000e+11 1.016813158449444e+00 2.736788681124118e-02
1.095280000000000e+11 1.016783369543671e+00 2.756356575015729e-02
1.095760000000000e+11 1.016753769552002e+00 2.776051973150096e-02
1.096240000000000e+11 1.016724351987291e+00 2.795868381743131e-02
1.096720000000000e+11 1.016695109767798e+00 2.815799117669591e-02
1.097200000000000e+11 1.016666036544335e+00 2.835837246295865e-02
1.097680000000000e+11 1.016637126547031e+00 2.855975588115368e-02
1.098160000000000e+11 1.016608374671433e+00 2.876206586272177e-02
1.098640000000000e+11 1.016579776499359e+00 2.896522496344384e-02
1.099120000000000e+11 1.016551327855264e+00 2.916915398270001e-02
1.099600000000000e+11 1.016523024876878e+00 2.937377158022536e-02
1.100080000000000e+11 1.016466841889735e+00 2.978473775915289e-02
1.100560000000000e+11 1.016411186648870e+00 3.019745473144476e-02
1.101040000000000e+11 1.016356002838672e+00 3.061128071270794e-02
1.101520000000000e+11 1.016301222545771e+00 3.102559909230236e-02
1.102000000000000e+11 1.016246766593836e+00 3.143981046090034e-02
1.102480000000000e+11 1.016165500453795e+00 3.205965044317409e-02
1.102960000000000e+11 1.016111458472184e+00 3.247109391810091e-02
1.103440000000000e+11 1.016057400786674e+00 3.288052434422627e-02
1.103920000000000e+11 1.016003219132454e+00 3.328747415300003e-02
1.104400000000000e+11 1.015948806325633e+00 3.369150428454501e-02
1.104880000000000e+11 1.015894059041542e+00 3.409220418896906e-02
1.105360000000000e+11 1.015811096512711e+00 3.468618176858571e-02
1.105840000000000e+11 1.015755088684263e+00 3.507697114128193e-02
1.106320000000000e+11 1.015698415482826e+00 3.546327572109602e-02
1.106800000000000e+11 1.015640993367806e+00 3.584484205416163e-02
1.107280000000000e+11 1.015582743175050e+00 3.622144184355147e-02
1.107760000000000e+11 1.015493647171057e+00 3.677659024185261e-02
1.108240000000000e+11 1.015432990873268e+00 3.713995528867350e-02
1.108720000000000e+11 1.015371233465695e+00 3.749779180780524e-02
1.109200000000000e+11 1.015308289530757e+00 3.785000224588123e-02
1.109680000000000e+11 1.015244069264649e+00 3.819650744814689e-02
1.110160000000000e+11 1.015178479127897e+00 3.853724342472164e-02
1.110640000000000e+11 1.015077315929327e+00 3.903743088559986e-02
1.111120000000000e+11 1.015007883608448e+00 3.936359104206240e-02
1.111600000000000e+11 1.014936751257313e+00 3.968393035891549e-02
1.112080000000000e+11 1.014863832023636e+00 3.999847675698796e-02
1.112560000000000e+11 1.014789046070507e+00 4.030726846422218e-02
1.113040000000000e+11 1.014712323561226e+00 4.061035341920358e-02
1.113520000000000e+11 1.014593485736832e+00 4.105440350199410e-02
1.114000000000000e+11 1.014511690294497e+00 4.134350185724737e-02
1.114480000000000e+11 1.014427794666859e+00 4.162716968476443e-02
1.114960000000000e+11 1.014341769419066e+00 4.190551126909269e-02
1.115440000000000e+11 1.014253590754792e+00 4.217863612957239e-02
1.115920000000000e+11 1.014117244425215e+00 4.257879163305009e-02
1.116400000000000e+11 1.014023605634784e+00 4.283940650398682e-02
1.116880000000000e+11 1.013927758734702e+00 4.309528204403715e-02
1.117360000000000e+11 1.013829694092246e+00 4.334658216476090e-02
1.117840000000000e+11 1.013729406451969e+00 4.359347530201071e-02
1.118320000000000e+11 1.013626896840941e+00 4.383613134629771e-02
1.118800000000000e+11 1.013468986495074e+00 4.419254264971319e-02
1.119280000000000e+11 1.013360970982216e+00 4.442537501695233e-02
1.119760000000000e+11 1.013250786696913e+00 4.465462343163275e-02
1.120240000000000e+11 1.013138463977928e+00 4.488048782507100e-02
1.120720000000000e+11 1.013024039910146e+00 4.510316242831341e-02
1.121200000000000e+11 1.012907557086785e+00 4.532283511309592e-02
1.121680000000000e+11 1.012729069941048e+00 4.564710882279097e-02
1.122160000000000e+11 1.012607631658167e+00 4.586007739007852e-02
1.122640000000000e+11 1.012484280485492e+00 4.607070736357981e-02
1.123120000000000e+11 1.012359051514824e+00 4.627918946141760e-02
1.123600000000000e+11 1.012231975865850e+00 4.648570782011036e-02
1.124080000000000e+11 1.012103083408360e+00 4.669044129841570e-02
1.124560000000000e+11 1.011906393397315e+00 4.699457113504971e-02
1.125040000000000e+11 1.011773059714355e+00 4.719560892108731e-02
1.125520000000000e+11 1.011637972599627e+00 4.739550229151145e-02
1.126000000000000e+11 1.011501140321096e+00 4.759444107724388e-02
1.126480000000000e+11 1.011362570220344e+00 4.779260992776024e-02
1.126960000000000e+11 1.011151469808697e+00 4.808881219294558e-02
1.127440000000000e+11 1.011008575190960e+00 4.828586121362647e-02
1.127920000000000e+11 1.010863952539682e+00 4.848281590944981e-02
1.128400000000000e+11 1.010717610357486e+00 4.867987577406246e-02
1.128880000000000e+11 1.010569564986098e+00 4.887722867696579e-02
1.129360000000000e+11 1.010419839446255e+00 4.907504920462574e-02
1.129840000000000e+11 1.010192161313560e+00 4.937301275837109e-02
1.130320000000000e+11 1.010038354170649e+00 4.957272389984538e-02
1.130800000000000e+11 1.009882957654944e+00 4.977349742102362e-02
1.131280000000000e+11 1.009725997431995e+00 4.997550057528462e-02
1.131760000000000e+11 1.009567500609899e+00 5.017889266343497e-02
1.132240000000000e+11 1.009407494969927e+00 5.038382178322973e-02
1.132720000000000e+11 1.009164716830644e+00 5.069439025796046e-02
1.133200000000000e+11 1.009001050663755e+00 5.090375147318302e-02
1.133680000000000e+11 1.008835953966804e+00 5.111512572478663e-02
1.134160000000000e+11 1.008669444710058e+00 5.132863385988665e-02
1.134640000000000e+11 1.008501544465512e+00 5.154438697579056e-02
1.135120000000000e+11 1.008247147055399e+00 5.187244195857715e-02
1.135600000000000e+11 1.008075894111458e+00 5.209424651096708e-02
1.136080000000000e+11 1.007903353835646e+00 5.231865609649562e-02
1.136560000000000e+11 1.007729563922324e+00 5.254575818400561e-02
1.137040000000000e+11 1.007554567416013e+00 5.277562276109759e-02
1.137520000000000e+11 1.007378410932954e+00 5.300830036710552e-02
1.138000000000000e+11 1.007112111631639e+00 5.336265355611787e-02
1.138480000000000e+11 1.006933270789752e+00 5.360248702025958e-02
1.138960000000000e+11 1.006753432505751e+00 5.384523020406903e-02
1.139440000000000e+11 1.006572636276207e+00 5.409088782799443e-02
1.139920000000000e+11 1.006390918738459e+00 5.433944439056050e-02
1.140400000000000e+11 1.006208314796665e+00 5.459086424296659e-02
1.140880000000000e+11 1.005932823342199e+00 5.497323188956075e-02
1.141360000000000e+11 1.005748152295812e+00 5.523154074427368e-02
1.141840000000000e+11 1.005562710205954e+00 5.549248623097545e-02
1.142320000000000e+11 1.005376536398592e+00 5.575597468484026e-02
1.142800000000000e+11 1.005189679786856e+00 5.602188790787260e-02
1.143280000000000e+11 1.004908248783238e+00 5.642497860893680e-02
1.143760000000000e+11 1.004719963686155e+00 5.669628797692941e-02
1.144240000000000e+11 1.004531233724653e+00 5.696946505991094e-02
1.144720000000000e+11 1.004342143047434e+00 5.724430722715883e-02
1.145200000000000e+11 1.004152783849237e+00 5.752058340879621e-02
1.145680000000000e+11 1.003963254801439e+00 5.779803290937434e-02
1.146160000000000e+11 1.003678872038689e+00 5.821577051694870e-02
1.146640000000000e+11 1.003489378911287e+00 5.849486415027050e-02
1.147120000000000e+11 1.003300087527450e+00 5.877407289954056e-02
1.147600000000000e+11 1.003111111073766e+00 5.905305006447610e-02
1.148080000000000e+11 1.002922568360012e+00 5.933142116820058e-02
1.148560000000000e+11 1.002734586145104e+00 5.960878167207561e-02
1.149040000000000e+11 1.002453966409707e+00 6.002196644437179e-02
1.149520000000000e+11 1.002268002298334e+00 6.029485218313278e-02
1.150000000000000e+11 1.002083111523258e+00 6.056512047801421e-02
