! Generated by Phase I extraction
# Hz S RI R 50
6.700000000000000e+10 -9.900837101365420e-02 -8.575948079893518e-02 9.366642343584082e-01 -6.285009259665282e-02 9.361828551838529e-01 -6.529363604791769e-02 1.238594976088584e-03 -7.227446562771739e-02
6.704800000000000e+10 -1.046356783815553e-01 -6.577825736757230e-02 9.365467148124211e-01 -6.284852900021520e-02 9.360536844077869e-01 -6.531918049001867e-02 -1.068660973982887e-03 -7.395220767902871e-02
6.709600000000000e+10 -9.546830653890630e-02 -5.398122950752613e-02 9.364292299642473e-01 -6.284699570238998e-02 9.359243792437018e-01 -6.534490324069980e-02 5.390617552414776e-03 -5.591132992269534e-02
6.714400000000000e+10 -8.500980365342223e-02 -5.300025020928027e-02 9.363118257152474e-01 -6.284550714589650e-02 9.357949882693086e-01 -6.537081093553740e-02 -6.149996233469684e-03 -6.523368893096682e-02
6.719200000000000e+10 -8.027733885318651e-02 -4.899969334479777e-02 9.361945457420902e-01 -6.284407767463367e-02 9.356655581820441e-01 -6.539691051836362e-02 -9.848308471196981e-03 -6.263240218777322e-02
6.724000000000000e+10 -8.004802908873641e-02 -4.886075119504192e-02 9.360774322120889e-01 -6.284272167703669e-02 9.355361346837798e-01 -6.542320917887669e-02 -8.948739176891186e-03 -6.113636714447238e-02
6.728800000000000e+10 -7.973077984705190e-02 -4.848674946208335e-02 9.359605264565123e-01 -6.284145316624000e-02 9.354067624966924e-01 -6.544971442250475e-02 -1.033123445216101e-02 -6.142980545582203e-02
6.733600000000000e+10 -7.922707158846524e-02 -4.890598910954862e-02 9.358438685731016e-01 -6.284028556210550e-02 9.352774853013837e-01 -6.547643397909902e-02 -1.048416395418874e-02 -6.235073467805011e-02
6.738400000000000e+10 -7.895768671465750e-02 -4.926981003162016e-02 9.357274976728748e-01 -6.283923187191355e-02 9.351483458208699e-01 -6.550337573441550e-02 -9.137591730974911e-03 -6.193082781092053e-02
6.743200000000000e+10 -7.962503368517718e-02 -4.946693090998242e-02 9.356114518958574e-01 -6.283830458037945e-02 9.350193859699643e-01 -6.553054782261591e-02 -8.073721213498378e-03 -6.177957385382231e-02
6.748000000000000e+10 -8.014942219793018e-02 -4.908887324955598e-02 9.354957680431387e-01 -6.283751560755023e-02 9.348906465857117e-01 -6.555795865935583e-02 -8.350017089645528e-03 -6.216169935429811e-02
6.752800000000000e+10 -8.038285494365392e-02 -4.814361747795874e-02 9.353804816139263e-01 -6.283687607071003e-02 9.347621670701943e-01 -6.558561687860247e-02 -8.931926815011759e-03 -6.141954830071457e-02
6.757600000000000e+10 -7.950840315244005e-02 -4.778329232320021e-02 9.352656266118818e-01 -6.283639631200007e-02 9.346339854759743e-01 -6.561353124848449e-02 -9.132553289525582e-03 -6.197878429055464e-02
6.762400000000000e+10 -7.872186934901375e-02 -4.725596301223042e-02 9.351512358228851e-01 -6.283608621087364e-02 9.345061385780471e-01 -6.564171059666003e-02 -9.232737187246678e-03 -6.199764660932067e-02
6.767200000000000e+10 -7.889972939030593e-02 -4.814607520056532e-02 9.350373409556919e-01 -6.283595513680564e-02 9.343786621875727e-01 -6.567016378983474e-02 -9.365713007564261e-03 -6.156144869690198e-02
6.772000000000000e+10 -7.860759361760661e-02 -4.813291730361458e-02 9.349239724428491e-01 -6.283601194323037e-02 9.342515907425293e-01 -6.569889970801825e-02 -9.086231727876593e-03 -6.160952858334612e-02
6.776800000000000e+10 -7.894597202739252e-02 -4.819447978620001e-02 9.348111594913396e-01 -6.283626504039559e-02 9.341249574332851e-01 -6.572792724332040e-02 -8.303022566512865e-03 -6.227343655436322e-02
6.781600000000000e+10 -7.945432160168500e-02 -4.822867523638907e-02 9.346989301613304e-01 -6.283672237465701e-02 9.339987942978113e-01 -6.575725522180219e-02 -8.596162334216912e-03 -6.209131418977733e-02
6.786400000000000e+10 -7.974090537907710e-02 -4.757972053591407e-02 9.345873112126596e-01 -6.283739157880858e-02 9.338731323320721e-01 -6.578689241725852e-02 -9.528366616583248e-03 -6.165572724597280e-02
6.791200000000000e+10 -8.031765547953298e-02 -4.786463582690869e-02 9.344763280482418e-01 -6.283827991551248e-02 9.337480013436388e-01 -6.581684759849581e-02 -9.480179449523854e-03 -6.219267920872350e-02
6.796000000000000e+10 -7.973965539486128e-02 -4.838326431057402e-02 9.343660047756003e-01 -6.283939429797414e-02 9.336234300435048e-01 -6.584712968110078e-02 -1.003401054204812e-02 -6.184231889875469e-02
6.800800000000000e+10 -8.019222562669664e-02 -4.940196358685833e-02 9.342563643872497e-01 -6.284074130806772e-02 9.334994461231266e-01 -6.587774776746649e-02 -9.598201123481252e-03 -6.106376472285883e-02
6.805600000000000e+10 -8.105329424120579e-02 -4.918458557446463e-02 9.341474287526876e-01 -6.284232733668417e-02 9.333760761685858e-01 -6.590871122142503e-02 -9.549466459660792e-03 -6.096321441991605e-02
6.810400000000000e+10 -8.106358473869185e-02 -4.881130737944319e-02 9.340392188920777e-01 -6.284415878682421e-02 9.332533456279809e-01 -6.594002954173461e-02 -9.077323421580382e-03 -6.155399225193841e-02
6.815200000000000e+10 -8.109277049085982e-02 -4.795634324532757e-02 9.339317548593578e-01 -6.284624226657771e-02 9.331312789815112e-01 -6.597171242403062e-02 -9.643597172241204e-03 -6.051349215843750e-02
6.820000000000000e+10 -8.090967218203783e-02 -4.700108417420269e-02 9.338250559821615e-01 -6.284858473371036e-02 9.330098999056662e-01 -6.600376979846855e-02 -1.010846302902596e-02 -6.020140005576737e-02
6.824800000000000e+10 -8.014270303728450e-02 -4.710631481786235e-02 9.337191405733412e-01 -6.285119350667759e-02 9.328892310208153e-01 -6.603621186850524e-02 -9.347926701218513e-03 -6.086998555190901e-02
6.829600000000000e+10 -7.914103599259169e-02 -4.750715285149534e-02 9.336140256067957e-01 -6.285407648064854e-02 9.327692937711614e-01 -6.606904924213709e-02 -8.354865775216892e-03 -6.111703595608833e-02
6.834400000000000e+10 -7.891626984460776e-02 -4.883585715457990e-02 9.335097268603474e-01 -6.285724217712896e-02 9.326501087036095e-01 -6.610229302288052e-02 -7.548599661358035e-03 -6.162176274300321e-02
6.839200000000000e+10 -7.957046343720717e-02 -4.942935292036692e-02 9.334062586197670e-01 -6.286069965311238e-02 9.325316952881942e-01 -6.613595424450688e-02 -7.144747813626000e-03 -6.186741624838350e-02
6.844000000000000e+10 -8.135852621736409e-02 -4.886562178260776e-02 9.333036332979228e-01 -6.286445851294564e-02 9.324140714512250e-01 -6.617004425849012e-02 -8.403156964452683e-03 -6.175577942324056e-02
6.848800000000000e+10 -8.126677039943012e-02 -4.846348315977906e-02 9.332018612301762e-01 -6.286852862764448e-02 9.322972533642698e-01 -6.620457458469005e-02 -7.853429017364048e-03 -6.039487982087677e-02
6.853600000000000e+10 -8.123876161823076e-02 -4.825659650540853e-02 9.331009506271721e-01 -6.287291989809117e-02 9.321812552780443e-01 -6.623955689870165e-02 -9.055054659786411e-03 -5.986076761804349e-02
6.858400000000000e+10 -8.119070936316750e-02 -4.883531810237608e-02 9.330009082669590e-01 -6.287764220807306e-02 9.320660898890368e-01 -6.627500289095631e-02 -8.697024366871720e-03 -6.033337243218903e-02
6.863200000000000e+10 -8.008437566072277e-02 -4.845836999080128e-02 9.329017397256693e-01 -6.288270527458661e-02 9.319517684656718e-01 -6.631092407667152e-02 -7.256054977156200e-03 -6.117546219041751e-02
6.868000000000000e+10 -8.002015124772072e-02 -4.875141472593028e-02 9.328034493701916e-01 -6.288811872330052e-02 9.318383008748277e-01 -6.634733178955408e-02 -6.779110549798461e-03 -6.114910103432455e-02
6.872800000000000e+10 -8.117856837154529e-02 -4.930731449877268e-02 9.327060402150269e-01 -6.289389218939170e-02 9.317256954742963e-01 -6.638423719599053e-02 -7.148852686511040e-03 -6.222828222662834e-02
6.877600000000000e+10 -8.184941464216455e-02 -4.919221025517773e-02 9.326095136127664e-01 -6.290003540841725e-02 9.316139589125623e-01 -6.642165120729100e-02 -7.831262625272581e-03 -6.241344881474230e-02
6.882400000000000e+10 -8.299147963661409e-02 -4.751563826333046e-02 9.325138690223065e-01 -6.290655841083886e-02 9.315030960258683e-01 -6.645958449400528e-02 -7.672124328027359e-03 -6.172416884728447e-02
6.887200000000000e+10 -8.335056883432908e-02 -4.670303866414241e-02 9.324191041869128e-01 -6.291347134800364e-02 9.313931101885798e-01 -6.649804754479487e-02 -5.787030970289129e-03 -6.057643581605741e-02
6.892000000000000e+10 -8.237066894922808e-02 -4.619495838262658e-02 9.323252160581730e-01 -6.292078304179549e-02 9.312840037777219e-01 -6.653705004388390e-02 -4.069995513093775e-03 -6.126732745854100e-02
6.896800000000000e+10 -8.158321894955400e-02 -4.844092270730332e-02 9.322322013526720e-01 -6.292850064464231e-02 9.311757787773055e-01 -6.657660043243742e-02 -8.422994171320249e-03 -5.938430183792199e-02
6.901600000000000e+10 -8.157859414660440e-02 -4.874758445973330e-02 9.321400573544540e-01 -6.293662907023881e-02 9.310684373402931e-01 -6.661670556390467e-02 -6.935465945761718e-03 -6.014420349125167e-02
6.906400000000000e+10 -8.185735873648040e-02 -4.838386309730230e-02 9.320487812690255e-01 -6.294517269727259e-02 9.309619811264257e-01 -6.665737126732052e-02 -6.759436314055401e-03 -5.940739641916901e-02
6.911200000000000e+10 -8.191422512221565e-02 -4.793684596543318e-02 9.319583700823909e-01 -6.295413561586020e-02 9.308564111800647e-01 -6.669860248972835e-02 -6.744023101986564e-03 -6.018115955264389e-02
6.916000000000000e+10 -8.115559651436384e-02 -4.612191745886748e-02 9.318688204959390e-01 -6.296352155766355e-02 9.307517279964331e-01 -6.674040335855036e-02 -7.343631853184534e-03 -5.880570998511088e-02
6.920800000000000e+10 -8.122634895067336e-02 -4.648529024920149e-02 9.317801289760023e-01 -6.297333405608652e-02 9.306479315854377e-01 -6.678277708325155e-02 -8.877425309411328e-03 -5.853145561708215e-02
6.925600000000000e+10 -8.074570611287941e-02 -4.561722883751927e-02 9.316922916810549e-01 -6.298357632104148e-02 9.305450214918995e-01 -6.682572590505949e-02 -8.430070726258315e-03 -5.796431918824772e-02
6.930400000000000e+10 -8.085366406999953e-02 -4.580847460339198e-02 9.316053043907709e-01 -6.299425139239130e-02 9.304429967256249e-01 -6.686925122177852e-02 -9.134082385903236e-03 -5.664450537911734e-02
6.935200000000000e+10 -7.962049387082960e-02 -4.542340483456443e-02 9.315191625630984e-01 -6.300536214414498e-02 9.303418557273928e-01 -6.691335354869112e-02 -8.331121740652189e-03 -5.714030170325118e-02
6.940000000000000e+10 -7.963324861905538e-02 -4.494059492207872e-02 9.314338614156819e-01 -6.301691106526451e-02 9.302415964108698e-01 -6.695803243958624e-02 -8.056105824985777e-03 -5.592143482133973e-02
6.944800000000000e+10 -7.831128177174325e-02 -4.451244463914266e-02 9.313493959449374e-01 -6.302890031716794e-02 9.301422160474775e-01 -6.700328647465852e-02 -6.989196456851818e-03 -5.625980879615167e-02
6.949600000000000e+10 -7.868383428689033e-02 -4.379391361068972e-02 9.312657610721228e-01 -6.304133156493329e-02 9.300437114054183e-01 -6.704911316550864e-02 -7.958268569650871e-03 -5.610956839391860e-02
6.954400000000000e+10 -7.903708487571752e-02 -4.348565589774195e-02 9.311829518172591e-01 -6.305420607678516e-02 9.299460789853856e-01 -6.709550899183478e-02 -8.483748451808422e-03 -5.596956385378670e-02
6.959200000000000e+10 -7.794537419146469e-02 -4.315345199955857e-02 9.311009632089274e-01 -6.306752481949908e-02 9.298493149350279e-01 -6.714246949843014e-02 -7.858902239996189e-03 -5.499056508625745e-02
6.964000000000000e+10 -7.733496163302107e-02 -4.392374235339924e-02 9.310197904421378e-01 -6.308128867471741e-02 9.297534152565307e-01 -6.718998947333750e-02 -8.024873490017749e-03 -5.573653869356950e-02
6.968800000000000e+10 -7.811372473319372e-02 -4.371201002849449e-02 9.309394288546794e-01 -6.309549835966204e-02 9.296583758924472e-01 -6.723806285319243e-02 -8.819753366778278e-03 -5.566199096707315e-02
6.973600000000000e+10 -7.770273437447263e-02 -4.317243144158888e-02 9.308598738318955e-01 -6.311015450707570e-02 9.295641926750208e-01 -6.728668289954678e-02 -8.243435073326245e-03 -5.543917974501213e-02
6.978400000000000e+10 -7.803342012262546e-02 -4.286019963327164e-02 9.307811205775005e-01 -6.312525758938980e-02 9.294708610793854e-01 -6.733584218161345e-02 -8.293395363532347e-03 -5.543785185750761e-02
6.983200000000000e+10 -7.830375482084466e-02 -4.248844050962724e-02 9.307031641050549e-01 -6.314080777506122e-02 9.293783762242078e-01 -6.738553262808929e-02 -8.867405877107985e-03 -5.536206583461457e-02
6.988000000000000e+10 -7.738496939212737e-02 -4.200375893377493e-02 9.306259994024701e-01 -6.315680490932937e-02 9.292867329578847e-01 -6.743574550837592e-02 -8.286189812443084e-03 -5.542697597945918e-02
6.992800000000000e+10 -7.721186086004435e-02 -4.177483075268928e-02 9.305496214700764e-01 -6.317324843809255e-02 9.291959258268537e-01 -6.748647139743981e-02 -8.496978444958204e-03 -5.523573122078217e-02
6.997600000000000e+10 -7.712691812931281e-02 -4.167562450237147e-02 9.304740254708750e-01 -6.319013743906389e-02 9.291059492460263e-01 -6.753770024527372e-02 -7.777778141793372e-03 -5.461288803608137e-02
7.002400000000000e+10 -7.738090450838370e-02 -4.552180829993665e-02 9.303992068074123e-01 -6.320747061155133e-02 9.290167974575971e-01 -6.758942129330457e-02 -5.594664295778815e-03 -5.679168567788621e-02
7.007200000000000e+10 -7.818995873234780e-02 -4.535964724724084e-02 9.303251609774980e-01 -6.322524637031365e-02 9.289284645534595e-01 -6.764162309298306e-02 -6.488373861158776e-03 -5.727462521679737e-02
7.012000000000000e+10 -7.848585029805918e-02 -4.485173027977386e-02 9.302518837498496e-01 -6.324346308512950e-02 9.288409447119600e-01 -6.769429356681353e-02 -6.097080646617328e-03 -5.736885828950650e-02
7.016800000000000e+10 -7.828873890308270e-02 -4.460418541645369e-02 9.301793710846603e-01 -6.326211915737787e-02 9.287542320997787e-01 -6.774742025119862e-02 -6.385327935625399e-03 -5.650601803666146e-02
7.021600000000000e+10 -7.819146780564686e-02 -4.413966104132498e-02 9.301076191105180e-01 -6.328121303903454e-02 9.286683208983529e-01 -6.780099033126367e-02 -6.671048008702508e-03 -5.719656465360488e-02
7.026400000000000e+10 -7.778170020890926e-02 -4.349513301869053e-02 9.300366242668232e-01 -6.330074313984031e-02 9.285832054223967e-01 -6.785499060576469e-02 -7.408387553509883e-03 -5.677948882200534e-02
7.031200000000000e+10 -7.804223856705186e-02 -4.400587001398647e-02 9.299663829966287e-01 -6.332070772890920e-02 9.284988798168921e-01 -6.790940754330729e-02 -7.256019131727503e-03 -5.656620539261725e-02
7.036000000000000e+10 -7.732285029893159e-02 -4.338738906165009e-02 9.298968920161927e-01 -6.334110485245925e-02 9.284153380974303e-01 -6.796422716211070e-02 -7.160565217973832e-03 -5.658039855961807e-02
7.040800000000000e+10 -7.725596288430632e-02 -4.432124001925491e-02 9.298281484071417e-01 -6.336193234203050e-02 9.283325743828805e-01 -6.801943507750970e-02 -6.012823309591855e-03 -5.692808908656351e-02
7.045600000000000e+10 -7.715707652248233e-02 -4.306389146728520e-02 9.297601495420760e-01 -6.338318777737145e-02 9.282505827949229e-01 -6.807501646699665e-02 -6.900425473961000e-03 -5.674788230602452e-02
7.050400000000000e+10 -7.754437658101046e-02 -4.366619623694741e-02 9.296928930926075e-01 -6.340486848864235e-02 9.281693574427997e-01 -6.813095618991338e-02 -6.019579382330762e-03 -5.691445207809784e-02
7.055200000000000e+10 -7.810581618090970e-02 -4.298162043518328e-02 9.296263769742300e-01 -6.342697157126130e-02 9.280888927124458e-01 -6.818723883397719e-02 -7.013281087554901e-03 -5.642056938802536e-02
7.060000000000000e+10 -7.775377057862184e-02 -4.285884096916492e-02 9.295605996297831e-01 -6.344949407419762e-02 9.280091832387259e-01 -6.824384879256670e-02 -6.914965553120734e-03 -5.672520082907023e-02
7.064800000000000e+10 -7.762230406082574e-02 -4.258225042157773e-02 9.294955599305293e-01 -6.347243298317025e-02 9.279302239851061e-01 -6.830077036175269e-02 -6.417005799117004e-03 -5.637663882742258e-02
7.069600000000000e+10 -7.707452539062631e-02 -4.285417464315727e-02 9.294312572106630e-01 -6.349578523594933e-02 9.278520101979352e-01 -6.835798775390327e-02 -6.835565104351228e-03 -5.643516220776700e-02
7.074400000000000e+10 -7.706984462716804e-02 -4.291067226306269e-02 9.293676912643707e-01 -6.351954761574607e-02 9.277745375882518e-01 -6.841548509247483e-02 -5.607940445063519e-03 -5.591362479291372e-02
7.079200000000000e+10 -7.722858354721754e-02 -4.236763792875966e-02 9.293048624995583e-01 -6.354371673350237e-02 9.276978023730241e-01 -6.847324640836355e-02 -6.758870439173466e-03 -5.663409356657598e-02
7.084000000000000e+10 -7.755048204630478e-02 -4.274678167561548e-02 9.292427714408251e-01 -6.356828883295484e-02 9.276218008195262e-01 -6.853125562266661e-02 -5.347332580610692e-03 -5.644974106401458e-02
7.088800000000000e+10 -7.791125587553321e-02 -4.113684222428622e-02 9.291814191349517e-01 -6.359325978157304e-02 9.275465295379124e-01 -6.858949664744150e-02 -7.417158088052267e-03 -5.669399267267389e-02
7.093600000000000e+10 -7.688670399182057e-02 -4.279830701748395e-02 9.291208066650145e-01 -6.361862499071329e-02 9.274719851735023e-01 -6.864795336984639e-02 -4.946532169903358e-03 -5.610713200129184e-02
7.098400000000000e+10 -7.717868754836485e-02 -4.202945512453159e-02 9.290609356667520e-01 -6.364437947727487e-02 9.273981648524323e-01 -6.870660976129332e-02 -6.195117730187195e-03 -5.709188976765211e-02
7.103200000000000e+10 -7.720622656936595e-02 -4.214175944623671e-02 9.290018080825934e-01 -6.367051792722034e-02 9.273250658215810e-01 -6.876544978669201e-02 -6.237506549448026e-03 -5.779044275787101e-02
7.108000000000000e+10 -7.686080523446999e-02 -4.194564425198834e-02 9.289434263619394e-01 -6.369703482204837e-02 9.272526856974924e-01 -6.882445744932549e-02 -6.413729438616971e-03 -5.682391289298068e-02
7.112800000000000e+10 -7.669604016400736e-02 -4.298656683746305e-02 9.288857931252960e-01 -6.372392461139491e-02 9.271810222422386e-01 -6.888361680758322e-02 -5.894360656073834e-03 -5.653596697681652e-02
7.117600000000000e+10 -7.716872342741533e-02 -4.238584105258614e-02 9.288289109259559e-01 -6.375118166972057e-02 9.271100733014390e-01 -6.894291194219883e-02 -7.007658054935606e-03 -5.721099239774607e-02
7.122400000000000e+10 -7.678234082324772e-02 -4.241456576649464e-02 9.287727824072565e-01 -6.377880032191012e-02 9.270398367395698e-01 -6.900232708998735e-02 -6.285999720246326e-03 -5.770136445572230e-02
7.127200000000000e+10 -7.775852897819802e-02 -4.272074874429806e-02 9.287174099420128e-01 -6.380677477861937e-02 9.269703103425867e-01 -6.906184667563985e-02 -6.529254163001584e-03 -5.622523426767773e-02
7.132000000000000e+10 -7.797867038603878e-02 -4.184779412796723e-02 9.286627958682179e-01 -6.383509909649814e-02 9.269014918393509e-01 -6.912145531614020e-02 -7.502951917161151e-03 -5.725837142080021e-02
7.136800000000000e+10 -7.788190932614716e-02 -4.254177071416338e-02 9.286089423051729e-01 -6.386376704348193e-02 9.268333788617228e-01 -6.918113788503200e-02 -6.476048264908742e-03 -5.671313387305099e-02
7.141600000000000e+10 -7.742664459520310e-02 -4.222517739037621e-02 9.285558513600091e-01 -6.389277217144446e-02 9.267659688339990e-01 -6.924087960596663e-02 -6.740680060242616e-03 -5.710569215404191e-02
7.146400000000000e+10 -7.694370974588471e-02 -4.311118821120162e-02 9.285035247880241e-01 -6.392210792453178e-02 9.266992590402187e-01 -6.930066606617660e-02 -6.191533905121517e-03 -5.684627526416844e-02
7.151200000000000e+10 -7.767157829996577e-02 -4.210655099877399e-02 9.284519645611645e-01 -6.395176768921751e-02 9.266332470843248e-01 -6.936048315343711e-02 -6.476144075416290e-03 -5.710787220958354e-02
7.156000000000000e+10 -7.705134920000228e-02 -4.339429603847712e-02 9.284011725136774e-01 -6.398174487040720e-02 9.265679306703074e-01 -6.942031704912596e-02 -6.164375177095800e-03 -5.733203716388904e-02
7.160800000000000e+10 -7.751796078019733e-02 -4.257336381720490e-02 9.283511506146268e-01 -6.401203295510821e-02 9.265033078336703e-01 -6.948015417759111e-02 -6.175065735155330e-03 -5.686474434373578e-02
7.165600000000000e+10 -7.706074302436927e-02 -4.373115519682867e-02 9.283019008962089e-01 -6.404262552624557e-02 9.264393767187374e-01 -6.953998119006276e-02 -5.131806398112702e-03 -5.629188450458650e-02
7.170400000000000e+10 -7.745735279887636e-02 -4.264649835512708e-02 9.282534257587656e-01 -6.407351610598684e-02 9.263761360576506e-01 -6.959978486808080e-02 -5.780033022753655e-03 -5.659584061848155e-02
7.175200000000000e+10 -7.698723948343397e-02 -4.366829230915346e-02 9.282057275646769e-01 -6.410469815469844e-02 9.263135848608015e-01 -6.965955200382332e-02 -5.156157178593926e-03 -5.700973006980634e-02
7.180000000000000e+10 -7.740213121507732e-02 -4.315127599672387e-02 9.281588086393967e-01 -6.413616515001251e-02 9.262517225798055e-01 -6.971926946643971e-02 -5.924303520661935e-03 -5.670969936351424e-02
7.184800000000000e+10 -7.694512172334342e-02 -4.407395211612524e-02 9.281126709292042e-01 -6.416791075062502e-02 9.261905486922140e-01 -6.977892451492965e-02 -5.544427019605385e-03 -5.647472200100782e-02
7.189600000000000e+10 -7.742660145752608e-02 -4.349881309426418e-02 9.280673160720356e-01 -6.419992865036328e-02 9.261300627972111e-01 -6.983850479830660e-02 -5.067316405648333e-03 -5.740674846470702e-02
7.194400000000000e+10 -7.764258987473478e-02 -4.317370995026172e-02 9.280227458381550e-01 -6.423221242801629e-02 9.260702648356752e-01 -6.989799835783729e-02 -5.167380311597765e-03 -5.760587562424583e-02
7.199200000000000e+10 -7.812503622466449e-02 -4.312056988827084e-02 9.279789620794510e-01 -6.426475542295411e-02 9.260111550194565e-01 -6.995739352005909e-02 -4.864328802394530e-03 -5.760302710905058e-02
7.204000000000000e+10 -7.769867920331830e-02 -4.257378619861665e-02 9.279359666689642e-01 -6.429755076349768e-02 9.259527334848383e-01 -7.001667903433592e-02 -5.721378735283852e-03 -5.755887944271396e-02
7.208800000000000e+10 -7.855500020982589e-02 -4.244542099998657e-02 9.278937617097601e-01 -6.433059137235181e-02 9.258950006552797e-01 -7.007584381855533e-02 -5.604847136728629e-03 -5.751963397488131e-02
7.213600000000000e+10 -7.842208701320154e-02 -4.283757456472705e-02 9.278523494926424e-01 -6.436387015732647e-02 9.258379571855275e-01 -7.013487708732645e-02 -6.479962644070057e-03 -5.708590802469982e-02
7.218400000000000e+10 -7.805015016420444e-02 -4.264100304731355e-02 9.278117323027356e-01 -6.439738002602642e-02 9.257816040156271e-01 -7.019376835859316e-02 -5.853987202407241e-03 -5.716490278983466e-02
7.223200000000000e+10 -7.803972537861636e-02 -4.296846787266390e-02 9.277719123760320e-01 -6.443111404322083e-02 9.257259425548806e-01 -7.025250741230565e-02 -6.119266845741844e-03 -5.741014367521805e-02
7.228000000000000e+10 -7.932068742961332e-02 -4.286487948711466e-02 9.277328918852065e-01 -6.446506542515625e-02 9.256709746282832e-01 -7.031108445114799e-02 -6.649524338676655e-03 -5.731436403653470e-02
7.232800000000000e+10 -7.989551325670878e-02 -4.221836978952152e-02 9.276946726794102e-01 -6.449922749409348e-02 9.256167023057393e-01 -7.036949004178598e-02 -6.844050080831859e-03 -5.845864822277342e-02
7.237600000000000e+10 -8.052449715472323e-02 -4.212173208686822e-02 9.276572561467603e-01 -6.453359379025271e-02 9.255631277140534e-01 -7.042771535409494e-02 -7.515535291230482e-03 -5.834195579971644e-02
7.242400000000000e+10 -8.022475156521459e-02 -4.114507147260223e-02 9.276206431733687e-01 -6.456815811525214e-02 9.255102528425817e-01 -7.048575220650345e-02 -6.640145444206424e-03 -5.893311604811687e-02
7.247200000000000e+10 -8.105888786467397e-02 -3.990085194091082e-02 9.275848341701993e-01 -6.460291451077209e-02 9.254580795520039e-01 -7.054359304402208e-02 -7.664638215162006e-03 -5.984158866620791e-02
7.252000000000000e+10 -8.086443698574219e-02 -4.107384257192466e-02 9.275498290235531e-01 -6.463785735258448e-02 9.254066095215443e-01 -7.060123093844828e-02 -7.884055804760953e-03 -5.864434847514476e-02
7.256800000000000e+10 -8.226930195592667e-02 -3.970825591749483e-02 9.275156272952758e-01 -6.467298131738369e-02 9.253558441583196e-01 -7.065865959966185e-02 -8.630416190597595e-03 -5.930623740542863e-02
7.261600000000000e+10 -8.102011485092016e-02 -4.072156758320924e-02 9.274822280789699e-01 -6.470828159357932e-02 9.253057847041776e-01 -7.071587343791411e-02 -7.187108613907080e-03 -5.917335101281726e-02
7.266400000000000e+10 -8.204223753313233e-02 -3.976041496982234e-02 9.274496307073297e-01 -6.474375383996064e-02 9.252564326621002e-01 -7.077286740224879e-02 -7.689857014658305e-03 -5.977925183961445e-02
7.271200000000000e+10 -8.074362242843733e-02 -4.042881045177652e-02 9.274178344243401e-01 -6.477939420401084e-02 9.252077893996402e-01 -7.082963711847447e-02 -6.492520773303648e-03 -5.921097093497846e-02
7.276000000000000e+10 -8.142776991155611e-02 -3.987872267432573e-02 9.273868383491140e-01 -6.481519931044495e-02 9.251598561667587e-01 -7.088617890836345e-02 -7.309885405954246e-03 -5.921542634970587e-02
7.280800000000000e+10 -8.144444330559490e-02 -3.989579749791033e-02 9.273566413869179e-01 -6.485116622862966e-02 9.251126340986224e-01 -7.094248966763521e-02 -7.103549260924642e-03 -5.942574968161321e-02
7.285600000000000e+10 -8.215327166558024e-02 -3.958932691695940e-02 9.273272422776337e-01 -6.488729244189056e-02 9.250661240962872e-01 -7.099856695732450e-02 -7.754975688496838e-03 -5.935975404443721e-02
7.290400000000000e+10 -8.155700539836297e-02 -3.966131296480809e-02 9.272986396690361e-01 -6.492357581253042e-02 9.250203268268227e-01 -7.105440904040758e-02 -7.239050735995036e-03 -5.897893653754167e-02
7.295200000000000e+10 -8.235277930999187e-02 -4.018592257988136e-02 9.272708319736104e-01 -6.496001475459967e-02 9.249752426677682e-01 -7.111001489866081e-02 -7.916410664309250e-03 -5.925830848625570e-02
7.300000000000000e+10 -8.134144010129346e-02 -4.021353256523309e-02 9.272438175757111e-01 -6.499660809709190e-02 9.249308718741823e-01 -7.116538404845087e-02 -7.124541269111884e-03 -5.894474993392415e-02
7.304800000000000e+10 -8.167566654079549e-02 -4.036828900008441e-02 9.272175947201433e-01 -6.503335514904839e-02 9.248872144827321e-01 -7.122051666372109e-02 -7.158192614492961e-03 -5.902301990816396e-02
7.309600000000000e+10 -8.142335340728570e-02 -4.040363159374108e-02 9.271921614402279e-01 -6.507025567494018e-02 9.248442702126395e-01 -7.127541343257449e-02 -7.411395307587371e-03 -5.831594136038306e-02
7.314400000000000e+10 -8.179714890079455e-02 -3.989001551434247e-02 9.271675156262098e-01 -6.510730991562817e-02 9.248020385496959e-01 -7.133007556625093e-02 -7.121126322443363e-03 -5.922050183152193e-02
7.319200000000000e+10 -8.143126671487759e-02 -4.027329911818093e-02 9.271436551350538e-01 -6.514451846426085e-02 9.247605187946809e-01 -7.138450469314346e-02 -6.924585147379790e-03 -5.881297262101972e-02
7.324000000000000e+10 -8.174404517474293e-02 -4.049902516651417e-02 9.271205777976160e-01 -6.518188213768168e-02 9.247197101017720e-01 -7.143870292162063e-02 -7.644949576542197e-03 -5.885379321872174e-02
7.328800000000000e+10 -8.125244400684126e-02 -4.033112515495280e-02 9.270982810209175e-01 -6.521940221047054e-02 9.246796113248594e-01 -7.149267291123378e-02 -7.613206937543916e-03 -5.839676236332866e-02
7.333600000000000e+10 -8.134146408896550e-02 -4.080990940941615e-02 9.270767619552621e-01 -6.525708017299531e-02 9.246402211360312e-01 -7.154641766424828e-02 -6.963165087946595e-03 -5.838925619583755e-02
7.338400000000000e+10 -8.107075608610950e-02 -4.100196404156588e-02 9.270560174372471e-01 -6.529491786978761e-02 9.246015379301475e-01 -7.159994105078930e-02 -7.407597662586138e-03 -5.860240747376649e-02
7.343200000000000e+10 -8.096008895821490e-02 -4.116492373499725e-02 9.270360440339612e-01 -6.533291738729614e-02 9.245635599045087e-01 -7.165324720854954e-02 -7.070817232503076e-03 -5.812852910772168e-02
7.348000000000000e+10 -8.073697294754142e-02 -4.141048500018525e-02 9.270168379074851e-01 -6.537108097768229e-02 9.245262849585195e-01 -7.170634044638116e-02 -6.330660171142568e-03 -5.809519788144688e-02
7.352800000000000e+10 -8.074963173686443e-02 -4.144034217259420e-02 9.269983950675889e-01 -6.540941101873084e-02 9.244897108092370e-01 -7.175922544900976e-02 -5.899084955809334e-03 -5.790660378182623e-02
7.357600000000000e+10 -8.080680333080995e-02 -4.149390987642369e-02 9.269807113752613e-01 -6.544790975345295e-02 9.244538349581378e-01 -7.181190716144542e-02 -6.137701274531178e-03 -5.786968569913976e-02
7.362400000000000e+10 -8.115017407784941e-02 -4.137295710129286e-02 9.269637823567515e-01 -6.548657928421601e-02 9.244186545872555e-01 -7.186439080624632e-02 -5.943646862865707e-03 -5.784793601490485e-02
7.367200000000000e+10 -8.121906117151549e-02 -4.120870957196426e-02 9.269476032031360e-01 -6.552542150923453e-02 9.243841664639476e-01 -7.191668192583349e-02 -5.739586387356270e-03 -5.798307300792136e-02
7.372000000000000e+10 -8.097417032663716e-02 -4.133716378316592e-02 9.269321687213180e-01 -6.556443808311653e-02 9.243503669526804e-01 -7.196878627897670e-02 -5.832450853914165e-03 -5.821005627354255e-02
7.376800000000000e+10 -8.127440382388815e-02 -4.153883280676215e-02 9.269174732414236e-01 -6.560363051302706e-02 9.243172519009865e-01 -7.202070980653946e-02 -6.093059858175064e-03 -5.779832203715568e-02
7.381600000000000e+10 -8.145827958638632e-02 -4.190388731181180e-02 9.269035104924147e-01 -6.564300033444050e-02 9.242848165668989e-01 -7.207245871452930e-02 -6.807139334164258e-03 -5.754893527824885e-02
7.386400000000000e+10 -8.164011946340959e-02 -4.179438857742378e-02 9.268902732651586e-01 -6.568254913752924e-02 9.242530554721017e-01 -7.212403931561202e-02 -6.730498034051427e-03 -5.783606413119399e-02
7.391200000000000e+10 -8.218555132596897e-02 -4.196162986022530e-02 9.268777533604931e-01 -6.572227847459418e-02 9.242219624371384e-01 -7.217545801994507e-02 -6.456362880472968e-03 -5.722352620070185e-02
7.396000000000000e+10 -8.226923582599030e-02 -4.188576909748017e-02 9.268659413869157e-01 -6.576218984736379e-02 9.241915305366520e-01 -7.222672141449461e-02 -5.812321095275239e-03 -5.703671673758554e-02
7.400800000000000e+10 -8.217690857717365e-02 -4.165410196864740e-02 9.268548268239907e-01 -6.580228467756161e-02 9.241617520120705e-01 -7.227783635331904e-02 -5.491952563237734e-03 -5.695185771959962e-02
7.405600000000000e+10 -8.233653420950005e-02 -4.177332249990066e-02 9.268443979441522e-01 -6.584256427775423e-02 9.241326184816843e-01 -7.232880966859277e-02 -5.892766662181022e-03 -5.718765717703252e-02
7.410400000000000e+10 -8.215288119383787e-02 -4.213424232648843e-02 9.268346419898532e-01 -6.588302993620047e-02 9.241041207909156e-01 -7.237964837503227e-02 -5.698150267687123e-03 -5.723578567435371e-02
7.415200000000000e+10 -8.222559425761954e-02 -4.181818929884005e-02 9.268255451460437e-01 -6.592368310463249e-02 9.240762490101898e-01 -7.243035957137216e-02 -5.585775506801912e-03 -5.745227515249551e-02
7.420000000000000e+10 -8.186492607199367e-02 -4.211156975175231e-02 9.268170925541717e-01 -6.596452538366100e-02 9.240489923196649e-01 -7.248095048800732e-02 -5.264057268999401e-03 -5.710770718315988e-02
7.424800000000000e+10 -8.213165965454218e-02 -4.166815865806346e-02 9.268092685238880e-01 -6.600555853602051e-02 9.240223393096397e-01 -7.253142830895198e-02 -5.122322281219177e-03 -5.728165187680322e-02
7.429600000000000e+10 -8.170827640824541e-02 -4.200454555962174e-02 9.268020563779821e-01 -6.604678462483481e-02 9.239962777871517e-01 -7.258180041297464e-02 -4.780827608246226e-03 -5.728176750295730e-02
7.434400000000000e+10 -8.212625253118896e-02 -4.136253513100702e-02 9.267954386594704e-01 -6.608820585437813e-02 9.239707949313145e-01 -7.263207425791988e-02 -4.824072828868752e-03 -5.754755176415722e-02
7.439200000000000e+10 -8.156140063940862e-02 -4.147597731251464e-02 9.267893970092078e-01 -6.612982463033369e-02 9.239458772581237e-01 -7.268225748922433e-02 -4.344387143262725e-03 -5.698561457130771e-02
7.444000000000000e+10 -8.124793820944162e-02 -4.144020725580188e-02 9.267839122691306e-01 -6.617164345151720e-02 9.239215107602776e-01 -7.273235791036740e-02 -4.150505093317115e-03 -5.720917104553749e-02
7.448800000000000e+10 -8.100426747081375e-02 -4.133590087103461e-02 9.267789645252695e-01 -6.621366480503091e-02 9.238976809062336e-01 -7.278238351769008e-02 -3.435868553348988e-03 -5.744856205562407e-02
7.453600000000000e+10 -8.131720464543518e-02 -4.131269157288514e-02 9.267745331761681e-01 -6.625589113011483e-02 9.238743727491763e-01 -7.283234240286172e-02 -3.314046070266125e-03 -5.734397619148867e-02
7.458400000000000e+10 -8.069923828397334e-02 -4.122952813891342e-02 9.267705970327981e-01 -6.629832477314768e-02 9.238515709533897e-01 -7.288224264018911e-02 -2.642960333827482e-03 -5.695668265950169e-02
7.463200000000000e+10 -8.097649763951996e-02 -4.102295539028059e-02 9.267671344870351e-01 -6.634096781036271e-02 9.238292598753962e-01 -7.293209220903403e-02 -2.810609792016607e-03 -5.745278112593123e-02
7.468000000000000e+10 -8.145575953138366e-02 -4.077413593945652e-02 9.267641235527915e-01 -6.638382205205817e-02 9.238074235447812e-01 -7.298189901518629e-02 -2.793879908795052e-03 -5.745722480033363e-02
7.472800000000000e+10 -8.124613624039106e-02 -4.117170717910403e-02 9.267615419832335e-01 -6.642688895096331e-02 9.237860457112956e-01 -7.303167083168947e-02 -2.663346193419366e-03 -5.740628335253896e-02
7.477600000000000e+10 -8.108888256167418e-02 -4.100467562397767e-02 9.267593674434186e-01 -6.647016949583942e-02 9.237651100186290e-01 -7.308141528977168e-02 -2.730003638182528e-03 -5.694378529615066e-02
7.482400000000000e+10 -8.069807043548481e-02 -4.116008751553292e-02 9.267575776117017e-01 -6.651366427567558e-02 9.237446000244649e-01 -7.313113981468243e-02 -2.396784751132142e-03 -5.719747665500835e-02
7.487200000000000e+10 -8.069900611905929e-02 -4.080269336497372e-02 9.267561503582690e-01 -6.655737344175135e-02 9.237244992653298e-01 -7.318085168820501e-02 -2.124556763569940e-03 -5.749325872525658e-02
7.492000000000000e+10 -8.041345870651462e-02 -4.112238468551717e-02 9.267550637730942e-01 -6.660129681564447e-02 9.237047912847127e-01 -7.323055798165046e-02 -1.590541663154872e-03 -5.694851768601673e-02
7.496800000000000e+10 -8.011752143426006e-02 -4.089933542082891e-02 9.267542960530110e-01 -6.664543391233234e-02 9.236854595104530e-01 -7.328026555383156e-02 -1.484473791255097e-03 -5.644884267828222e-02
7.501600000000000e+10 -8.017672912560889e-02 -4.102199062136166e-02 9.267538255543284e-01 -6.668978384824957e-02 9.236664871863228e-01 -7.332998108772666e-02 -9.576556324928246e-04 -5.696071853674359e-02
7.506400000000000e+10 -8.028768774981281e-02 -4.100405651026354e-02 9.267536306379589e-01 -6.673434542697439e-02 9.236478574560744e-01 -7.337971106603339e-02 -1.420702774427986e-03 -5.691750400062600e-02
7.511200000000000e+10 -8.045327930603201e-02 -4.130490326696205e-02 9.267536897436512e-01 -6.677911712747533e-02 9.236295535546210e-01 -7.342946164363279e-02 -1.470784801606215e-03 -5.658053540324653e-02
7.516000000000000e+10 -8.054120148267474e-02 -4.102980073224445e-02 9.267539814519579e-01 -6.682409705395356e-02 9.236115588781296e-01 -7.347923866544895e-02 -1.739281355478769e-03 -5.674703572916318e-02
7.520800000000000e+10 -8.114206504493085e-02 -4.142757967676754e-02 9.267544843158080e-01 -6.686928309344556e-02 9.235938569162975e-01 -7.352904776749648e-02 -1.622511883203602e-03 -5.691233786769947e-02
7.525600000000000e+10 -8.108599494360941e-02 -4.144667750896660e-02 9.267551769016699e-01 -6.691467279452169e-02 9.235764312103734e-01 -7.357889432174794e-02 -1.893042412165582e-03 -5.709412811196217e-02
7.530400000000000e+10 -8.080030825910775e-02 -4.208746707550058e-02 9.267560379265350e-01 -6.696026346377899e-02 9.235592653488895e-01 -7.362878350711860e-02 -2.102886035074534e-03 -5.665016446318332e-02
7.535200000000000e+10 -8.087404365279088e-02 -4.163452581602024e-02 9.267570462757738e-01 -6.700605208164552e-02 9.235423429288437e-01 -7.367872021313768e-02 -1.670037262556148e-03 -5.687150683895507e-02
7.540000000000000e+10 -8.110076843369958e-02 -4.170680229548820e-02 9.267581810777613e-01 -6.705203547330707e-02 9.235256474914597e-01 -7.372870911650353e-02 -1.206763273905160e-03 -5.705505605663955e-02
7.544800000000000e+10 -8.075631656391578e-02 -4.158593016535897e-02 9.267594219461016e-01 -6.709821013364678e-02 9.235091626532298e-01 -7.377875467336203e-02 -1.345677192607706e-03 -5.648767510274635e-02
7.549600000000000e+10 -8.034648547588825e-02 -4.186130432508956e-02 9.267607488834182e-01 -6.714457239066274e-02 9.234928721088073e-01 -7.382886104581547e-02 -1.194188759998920e-03 -5.628384281038954e-02
7.554400000000000e+10 -8.024808704293133e-02 -4.144223768432122e-02 9.267621423788831e-01 -6.719111836387325e-02 9.234767597319714e-01 -7.387903200784415e-02 -4.906349307127458e-04 -5.697070831770126e-02
7.559200000000000e+10 -8.028697917519090e-02 -4.146827315909210e-02 9.267635833038109e-01 -6.723784410820646e-02 9.234608095855069e-01 -7.392927104831713e-02 -6.681768384116995e-04 -5.675450258075389e-02
7.564000000000000e+10 -8.069458403502609e-02 -4.193062401812100e-02 9.267650527867685e-01 -6.728474558364583e-02 9.234450060053485e-01 -7.397958143908338e-02 -9.638335802981836e-04 -5.624356467048559e-02
7.568800000000000e+10 -8.098144087266279e-02 -4.225796268654086e-02 9.267665320942278e-01 -6.733181852827966e-02 9.234293337241157e-01 -7.402996616031794e-02 -1.362302865995418e-03 -5.638175370932652e-02
7.573600000000000e+10 -8.199434086540605e-02 -4.171454745084373e-02 9.267680026091262e-01 -6.737905838928228e-02 9.234137777377900e-01 -7.408042810752853e-02 -8.323463241209784e-04 -5.681070952018696e-02
7.578400000000000e+10 -8.174077636899309e-02 -4.163071215911048e-02 9.267694455189196e-01 -6.742646048930807e-02 9.233983232338716e-01 -7.413097023421965e-02 -1.129106284574768e-03 -5.629784104329760e-02
7.583200000000000e+10 -8.202782030930494e-02 -4.205767690625073e-02 9.267708421855821e-01 -6.747401979106048e-02 9.233829556107939e-01 -7.418159534679047e-02 -1.232253231507531e-03 -5.598631887730086e-02
7.588000000000000e+10 -8.151161730005928e-02 -4.176064258276983e-02 9.267721742986632e-01 -6.752173097905773e-02 9.233676605910004e-01 -7.423230608257857e-02 -7.417196242749597e-04 -5.610626733790603e-02
7.592800000000000e+10 -8.150750700856985e-02 -4.182080278663400e-02 9.267734238334726e-01 -6.756958852743891e-02 9.233524241200560e-01 -7.428310484943564e-02 -4.432236216682934e-04 -5.600282242754264e-02
7.597600000000000e+10 -8.153216175258148e-02 -4.234371843038703e-02 9.267745733153711e-01 -6.761758676868511e-02 9.233372323677908e-01 -7.433399386596011e-02 -9.759360000122055e-04 -5.583528901857032e-02
7.602400000000000e+10 -8.131504851416085e-02 -4.236302197235906e-02 9.267756059545091e-01 -6.766571988311040e-02 9.233220719371766e-01 -7.438497495734207e-02 -4.783832971327856e-04 -5.593487773039005e-02
7.607200000000000e+10 -8.149111500992547e-02 -4.264198487756998e-02 9.267765057606018e-01 -6.771398184703536e-02 9.233069298464530e-01 -7.443604981227921e-02 -1.566522620939250e-04 -5.586147067487502e-02
7.612000000000000e+10 -8.179036348379026e-02 -4.239344089054951e-02 9.267772572308931e-01 -6.776236655402440e-02 9.232917934999052e-01 -7.448721996418099e-02 -2.563056128914141e-04 -5.560629118336471e-02
7.616800000000000e+10 -8.162795193127979e-02 -4.261256019992970e-02 9.267778451998366e-01 -6.781086775954953e-02 9.232766505468372e-01 -7.453848682711953e-02 -4.686097262355200e-04 -5.587960558479829e-02
7.621600000000000e+10 -8.248302487045493e-02 -4.244929449619428e-02 9.267782546910248e-01 -6.785947911620635e-02 9.232614890205026e-01 -7.458985155305967e-02 -7.045478508797678e-04 -5.577600810224723e-02
7.626400000000000e+10 -8.277979829735764e-02 -4.253758758842509e-02 9.267784709745346e-01 -6.790819415082766e-02 9.232462972422395e-01 -7.464131500470808e-02 -1.387868381420205e-03 -5.570786549141105e-02
7.631200000000000e+10 -8.285438662887808e-02 -4.239153524812624e-02 9.267784796792278e-01 -6.795700645253430e-02 9.232310640120210e-01 -7.469287768836777e-02 -1.320455151053160e-03 -5.578317114387546e-02
7.636000000000000e+10 -8.246253984886653e-02 -4.227219469605596e-02 9.267782668265808e-01 -6.800590959896903e-02 9.232157785445922e-01 -7.474453976575453e-02 -1.294295888051015e-03 -5.565478209450365e-02
7.640800000000000e+10 -8.262538564358958e-02 -4.252839515349262e-02 9.267778189152887e-01 -6.805489712117835e-02 9.232004305149374e-01 -7.479630104294803e-02 -1.472618556455631e-03 -5.549858429729018e-02
7.645600000000000e+10 -8.270009962997332e-02 -4.294653434573650e-02 9.267771229606463e-01 -6.810396237536255e-02 9.231850101045623e-01 -7.484816092637990e-02 -1.681983417624470e-03 -5.538237573040993e-02
7.650400000000000e+10 -8.245646969806697e-02 -4.272746039502207e-02 9.267761664672218e-01 -6.815309859869234e-02 9.231695079859089e-01 -7.490011860449484e-02 -1.056818408201825e-03 -5.526321561483465e-02
7.655200000000000e+10 -8.194069963791908e-02 -4.249363517798510e-02 9.267749375672185e-01 -6.820229883952678e-02 9.231539154110344e-01 -7.495217301839444e-02 -7.880166785269221e-04 -5.506735109259365e-02
7.660000000000000e+10 -8.212593102803546e-02 -4.274073810665456e-02 9.267734250801768e-01 -6.825155600925414e-02 9.231382242276290e-01 -7.500432288384540e-02 -9.455501096595507e-04 -5.485278934236056e-02
7.664800000000000e+10 -8.198979878652582e-02 -4.270836136784985e-02 9.267716184416548e-01 -6.830086292309420e-02 9.231224269367624e-01 -7.505656666014637e-02 -6.481350963069785e-04 -5.487462349872596e-02
7.669600000000000e+10 -8.211761506672463e-02 -4.288280173098031e-02 9.267695077244842e-01 -6.835021239246439e-02 9.231065166613003e-01 -7.510890253314823e-02 -1.966784582881388e-04 -5.524030430547489e-02
7.674400000000000e+10 -8.220418053604787e-02 -4.307447474929674e-02 9.267670836463526e-01 -6.839959720784861e-02 9.230904870669503e-01 -7.516132841888479e-02 -5.078325121488750e-04 -5.538433777511870e-02
7.679200000000000e+10 -8.283345207021618e-02 -4.330560124610651e-02 9.267643374335932e-01 -6.844901015601293e-02 9.230743323404246e-01 -7.521384195101467e-02 -7.040184616084255e-04 -5.564738963813563e-02
7.684000000000000e+10 -8.328749643819912e-02 -4.356606513235053e-02 9.267612606550175e-01 -6.849844403920088e-02 9.230580471289190e-01 -7.526644066089332e-02 -1.069881432990805e-03 -5.562225559701831e-02
7.688800000000000e+10 -8.278963785481311e-02 -4.337681224574203e-02 9.267578453505547e-01 -6.854789175616145e-02 9.230416267193272e-01 -7.531912208430468e-02 -3.559598847599146e-04 -5.573332869923810e-02
7.693600000000000e+10 -8.333116080543582e-02 -4.341132853298463e-02 9.267540837471082e-01 -6.859734633346262e-02 9.230250666014511e-01 -7.537188377600926e-02 -4.699218774899430e-04 -5.572297912434712e-02
7.698400000000000e+10 -8.349121648335436e-02 -4.332778469267654e-02 9.267499684739378e-01 -6.864680081583491e-02 9.230083626996223e-01 -7.542472314643628e-02 -9.684886528033653e-04 -5.544328688557658e-02
7.703200000000000e+10 -8.331081150710372e-02 -4.347328262091764e-02 9.267454927118102e-01 -6.869624832503461e-02 9.229915113722689e-01 -7.547763756715305e-02 -1.323236019212824e-03 -5.502049951460635e-02
7.708000000000000e+10 -8.238662941285053e-02 -4.312282502105204e-02 9.267406501005278e-01 -6.874568196347805e-02 9.229745092701624e-01 -7.553062427771562e-02 -4.018233094446583e-04 -5.500367796778128e-02
7.712800000000000e+10 -8.271468602149550e-02 -4.298978301363436e-02 9.267354347828360e-01 -6.879509481821071e-02 9.229573532742580e-01 -7.558368043358174e-02 -8.777482645772862e-04 -5.464775952974609e-02
7.717600000000000e+10 -8.275318371253836e-02 -4.325910309397075e-02 9.267298414996210e-01 -6.884447991798447e-02 9.229400406651092e-01 -7.563680295718421e-02 -9.826546573155402e-04 -5.464582926790524e-02
7.722400000000000e+10 -8.246745822132874e-02 -4.326273622537267e-02 9.267238656230102e-01 -6.889383026931171e-02 9.229225691616378e-01 -7.568998849563148e-02 -7.606480982031662e-04 -5.442566759539778e-02
7.727200000000000e+10 -8.227657449002522e-02 -4.359293475862637e-02 9.267175030968424e-01 -6.894313885359961e-02 9.229049368798834e-01 -7.574323339385584e-02 -3.397104365122468e-04 -5.475676519636360e-02
7.732000000000000e+10 -8.283381368700804e-02 -4.349382316508545e-02 9.267107503507886e-01 -6.899239865781172e-02 9.228871422583643e-01 -7.579653377122419e-02 3.622178507156222e-05 -5.648890702710968e-02
7.736800000000000e+10 -8.267468440244514e-02 -4.329653233399296e-02 9.267036043473802e-01 -6.904160277322471e-02 9.228691842011281e-01 -7.584988555087059e-02 3.453150070925925e-04 -5.507333425569316e-02
7.741600000000000e+10 -8.260472613250783e-02 -4.285840107074062e-02 9.266960623665299e-01 -6.909074624057002e-02 9.228510619532607e-01 -7.590328495364318e-02 6.322408572005642e-04 -5.496916382971969e-02
7.746400000000000e+10 -8.273730512396615e-02 -4.282631987276345e-02 9.266881219923075e-01 -6.913982411814619e-02 9.228327750050777e-01 -7.595672819179149e-02 1.581621900194558e-04 -5.517352407477454e-02
7.751200000000000e+10 -8.249236071475095e-02 -4.273588417871114e-02 9.266797812907085e-01 -6.918883138717224e-02 9.228143229951705e-01 -7.601021141113540e-02 5.338733733845543e-04 -5.518970500891203e-02
7.756000000000000e+10 -8.225631084932104e-02 -4.284766176343496e-02 9.266710388104721e-01 -6.923776311309425e-02 9.227957058811689e-01 -7.606373064950595e-02 5.502838341841180e-04 -5.521468055581379e-02
7.760800000000000e+10 -8.188566774334741e-02 -4.283803483775803e-02 9.266618934538934e-01 -6.928661450059416e-02 9.227769237824309e-01 -7.611728198666332e-02 1.092061442011886e-03 -5.492836498900015e-02
7.765600000000000e+10 -8.214365591348768e-02 -4.295383026047375e-02 9.266523444874386e-01 -6.933538090658407e-02 9.227579770883315e-01 -7.617086131291705e-02 8.565072029165229e-04 -5.518777416650823e-02
7.770400000000000e+10 -8.219440037499795e-02 -4.246015786287387e-02 9.266423916576717e-01 -6.938405780410462e-02 9.227388664052355e-01 -7.622446459043505e-02 8.435525958143863e-04 -5.481028554889365e-02
7.775200000000000e+10 -8.273050345385649e-02 -4.327227516482114e-02 9.266320347340469e-01 -6.943264083142153e-02 9.227195921113580e-01 -7.627808789821360e-02 1.217516397904964e-03 -5.508078281818841e-02
7.780000000000000e+10 -8.290328509237346e-02 -4.305905590508897e-02 9.266212740179651e-01 -6.948112566078647e-02 9.227001548016180e-01 -7.633172701826209e-02 1.378460044951863e-03 -5.527660846907752e-02
7.784800000000000e+10 -8.285930700642806e-02 -4.275883735771393e-02 9.266101103778686e-01 -6.952950803917696e-02 9.226805554023976e-01 -7.638537777803626e-02 1.516830942819734e-03 -5.531793029641430e-02
7.789600000000000e+10 -8.304129261345897e-02 -4.275130892399640e-02 9.265985450064624e-01 -6.957778380380253e-02 9.226607949383167e-01 -7.643903606423857e-02 1.034327694675905e-03 -5.498691209830416e-02
7.794400000000000e+10 -8.329581769584940e-02 -4.231095485647370e-02 9.265865793512116e-01 -6.962594890392540e-02 9.226408746031308e-01 -7.649269770903491e-02 1.549797194816664e-03 -5.485773129079674e-02
7.799200000000000e+10 -8.341227445799268e-02 -4.265170491804865e-02 9.265742151257184e-01 -6.967399945537549e-02 9.226207956257215e-01 -7.654635844940434e-02 1.333925411061608e-03 -5.537666827160988e-02
7.804000000000000e+10 -8.335575632886326e-02 -4.252765555195244e-02 9.265614544180872e-01 -6.972193182835974e-02 9.226005594190791e-01 -7.660001385441856e-02 1.543089813201601e-03 -5.541233315665150e-02
7.808800000000000e+10 -8.358668747189582e-02 -4.273221146686252e-02 9.265482996368409e-01 -6.976974279351471e-02 9.225801675077032e-01 -7.665365940551296e-02 1.491541952874825e-03 -5.546634869017503e-02
7.813600000000000e+10 -8.331573524440199e-02 -4.255684442545889e-02 9.265347536257851e-01 -6.981742934551503e-02 9.225596216084322e-01 -7.670729051510192e-02 1.626503458010057e-03 -5.533473427271605e-02
7.818400000000000e+10 -8.376782858857677e-02 -4.258322901760454e-02 9.265208195446459e-01 -6.986498873204834e-02 9.225389236006003e-01 -7.676090269298723e-02 1.263596965161896e-03 -5.532493028090882e-02
7.823200000000000e+10 -8.361594561119225e-02 -4.230713743414578e-02 9.265065008698219e-01 -6.991241838864176e-02 9.225180755412355e-01 -7.681449154205762e-02 1.417601173159416e-03 -5.503327132153373e-02
7.828000000000000e+10 -8.354944195202890e-02 -4.218365255159797e-02 9.264918015307840e-01 -6.995971588412181e-02 9.224970796684367e-01 -7.686805274665787e-02 8.100911750955949e-04 -5.504461006343302e-02
7.832800000000000e+10 -8.311911108331553e-02 -4.233180136218426e-02 9.264767257343124e-01 -7.000687895761172e-02 9.224759383332880e-01 -7.692158203525618e-02 1.099377624062746e-03 -5.501086571135694e-02
7.837600000000000e+10 -8.331378911065847e-02 -4.255126692938090e-02 9.264612779870857e-01 -7.005390562103535e-02 9.224546541123496e-01 -7.697507534712793e-02 9.540952322154319e-04 -5.486935344198901e-02
7.842400000000000e+10 -8.248490572339735e-02 -4.299321367556826e-02 9.264454632162079e-01 -7.010079422031791e-02 9.224332298040242e-01 -7.702852864777923e-02 1.035411234193469e-03 -5.445819473100948e-02
7.847200000000000e+10 -8.217455093153327e-02 -4.269134973883717e-02 9.264292868646569e-01 -7.014754348463230e-02 9.224116685815897e-01 -7.708193790927645e-02 1.365674669622575e-03 -5.443833357086012e-02
7.852000000000000e+10 -8.252952532629095e-02 -4.346884454096367e-02 9.264127548546629e-01 -7.019415246759567e-02 9.223899737598328e-01 -7.713529919417277e-02 1.173331945199238e-03 -5.447281358368735e-02
7.856800000000000e+10 -8.216319780122287e-02 -4.288683466878233e-02 9.263958736307293e-01 -7.024062041876748e-02 9.223681488026568e-01 -7.718860879144739e-02 1.489496642890606e-03 -5.423076886636925e-02
7.861600000000000e+10 -8.181621866503673e-02 -4.362976754413504e-02 9.263786500974023e-01 -7.028694698222554e-02 9.223461974786435e-01 -7.724186334720118e-02 1.848102456120721e-03 -5.401985238852250e-02
7.866400000000000e+10 -8.256981402809109e-02 -4.282581562740433e-02 9.263610913775218e-01 -7.033313208292782e-02 9.223241236933589e-01 -7.729505989991962e-02 1.455985446566790e-03 -5.450522048549829e-02
7.871200000000000e+10 -8.240914194791174e-02 -4.316142483950813e-02 9.263432047602235e-01 -7.037917588453868e-02 9.223019312983494e-01 -7.734819594791646e-02 1.414828262571287e-03 -5.406312747256070e-02
7.876000000000000e+10 -8.265661326355292e-02 -4.295677271868546e-02 9.263249977718967e-01 -7.042507880855291e-02 9.222796242210314e-01 -7.740126928181305e-02 1.508729781353376e-03 -5.395092938565334e-02
7.880800000000000e+10 -8.277756702422487e-02 -4.303596038129318e-02 9.263064778959016e-01 -7.047084170156792e-02 9.222572061684940e-01 -7.745427800509092e-02 1.323644628330840e-03 -5.418096471419180e-02
7.885600000000000e+10 -8.283242731373551e-02 -4.296973961738866e-02 9.262876527652171e-01 -7.051646569478598e-02 9.222346808341382e-01 -7.750722037195887e-02 1.247099244725324e-03 -5.395463974088942e-02
7.890400000000000e+10 -8.263937451417878e-02 -4.330821188610087e-02 9.262685300572523e-01 -7.056195224029663e-02 9.222120518314298e-01 -7.756009495986133e-02 1.393062818806820e-03 -5.367787029095118e-02
7.895200000000000e+10 -8.300560652755622e-02 -4.365299911961438e-02 9.262491175251223e-01 -7.060730302182765e-02 9.221893227088809e-01 -7.761290062110730e-02 9.995147735479954e-04 -5.382288661096474e-02
7.900000000000000e+10 -8.328822373395135e-02 -4.375370530649324e-02 9.262294229433228e-01 -7.065251991361983e-02 9.221664967845076e-01 -7.766563654591221e-02 8.704727368885488e-04 -5.368518161890289e-02
7.904800000000000e+10 -8.337655869305127e-02 -4.410280983883314e-02 9.262094541797325e-01 -7.069760496658485e-02 9.221435772380653e-01 -7.771830225939513e-02 9.248443938325062e-04 -5.344539470453041e-02
7.909600000000000e+10 -8.375727021852003e-02 -4.401538968759522e-02 9.261892193658888e-01 -7.074256052631832e-02 9.221205673651623e-01 -7.777089753779552e-02 5.874024524491369e-04 -5.335626861124006e-02
7.914400000000000e+10 -8.300780411896655e-02 -4.419510652863658e-02 9.261687269582917e-01 -7.078738917974355e-02 9.220974705553727e-01 -7.782342242468604e-02 6.440969899588930e-04 -5.333589687219048e-02
7.919200000000000e+10 -8.292224103722705e-02 -4.388999622924130e-02 9.261479857078611e-01 -7.083209385152191e-02 9.220742902554173e-01 -7.787587724436802e-02 9.921864737175465e-04 -5.355264399486349e-02
7.924000000000000e+10 -8.274802424858523e-02 -4.367041037355469e-02 9.261270044321978e-01 -7.087667793233360e-02 9.220510299088135e-01 -7.792826255077602e-02 1.442477247062271e-03 -5.335887944119327e-02
7.928800000000000e+10 -8.264476953458744e-02 -4.385712735712382e-02 9.261057919050961e-01 -7.092114514375115e-02 9.220276929206122e-01 -7.798057896686313e-02 1.409202103205647e-03 -5.358354772213587e-02
7.933600000000000e+10 -8.285791586789291e-02 -4.343255757815485e-02 9.260843566354390e-01 -7.096549949431380e-02 9.220042824640601e-01 -7.803282731105404e-02 1.590109271816734e-03 -5.391005788023762e-02
7.938400000000000e+10 -8.250904595427294e-02 -4.371495107422418e-02 9.260627067270611e-01 -7.100974518916202e-02 9.219808011572510e-01 -7.808500865689204e-02 1.630580884798872e-03 -5.378908814395993e-02
7.943200000000000e+10 -8.309360144424234e-02 -4.352447089372197e-02 9.260408497227085e-01 -7.105388664098956e-02 9.219572511952304e-01 -7.813712419328048e-02 1.110555221863666e-03 -5.353807412684753e-02
7.948000000000000e+10 -8.388700986327211e-02 -4.272693590347949e-02 9.260187928311444e-01 -7.109792827893037e-02 9.219336343467313e-01 -7.818917518619092e-02 6.901001715562702e-04 -5.328849164167242e-02
7.952800000000000e+10 -8.408136648996511e-02 -4.272032286762065e-02 9.259965428161093e-01 -7.114187458703153e-02 9.219099519377948e-01 -7.824116297409146e-02 1.077943099712332e-03 -5.348345543347147e-02
7.957600000000000e+10 -8.406585368705409e-02 -4.185273628448797e-02 9.259741061956538e-01 -7.118573003211373e-02 9.218862049189491e-01 -7.829308891859757e-02 8.151162355012967e-04 -5.323528590149040e-02
7.962400000000000e+10 -8.374342447158553e-02 -4.234144213195291e-02 9.259514892056572e-01 -7.122949910774810e-02 9.218623940659937e-01 -7.834495426088728e-02 9.132297048340457e-04 -5.353578656397931e-02
7.967200000000000e+10 -8.381337056946692e-02 -4.172140614288775e-02 9.259286980314644e-01 -7.127318626246400e-02 9.218385200025305e-01 -7.839676016790528e-02 5.162161421645071e-04 -5.326732943675502e-02
7.972000000000000e+10 -8.403194483560118e-02 -4.227818912900440e-02 9.259057385889338e-01 -7.131679599156808e-02 9.218145831835926e-01 -7.844850775210528e-02 9.211367894834129e-04 -5.348378197060604e-02
7.976800000000000e+10 -8.375156972023909e-02 -4.186163922681203e-02 9.258826164874292e-01 -7.136033285236074e-02 9.217905838622285e-01 -7.850019813274899e-02 1.177844888675903e-03 -5.365611257184811e-02
7.981600000000000e+10 -8.343723486263327e-02 -4.180508213361073e-02 9.258593368656050e-01 -7.140380151171274e-02 9.217665221050079e-01 -7.855183254644199e-02 1.775881202813526e-03 -5.325012574194335e-02
7.986400000000000e+10 -8.388579211326798e-02 -4.141003736374521e-02 9.258359045945584e-01 -7.144720661980024e-02 9.217423979753333e-01 -7.860341232506883e-02 1.952137835727977e-03 -5.327413721165121e-02
7.991200000000000e+10 -8.356450378323305e-02 -4.172244494043235e-02 9.258123237926374e-01 -7.149055278585020e-02 9.217182110716278e-01 -7.865493889191848e-02 2.467470692203415e-03 -5.415074501815000e-02
7.996000000000000e+10 -8.399563476357305e-02 -4.106971569196936e-02 9.257885979476532e-01 -7.153384442152538e-02 9.216939605009132e-01 -7.870641360467112e-02 2.333796675055668e-03 -5.448441327148986e-02
8.000800000000000e+10 -8.374630360879512e-02 -4.153955082448820e-02 9.257647297920369e-01 -7.157708584350890e-02 9.216696449163279e-01 -7.875783772322786e-02 2.008267048109511e-03 -5.365899477525587e-02
8.005600000000000e+10 -8.390519049489312e-02 -4.102396715966911e-02 9.257407214109150e-01 -7.162028114382127e-02 9.216452623937070e-01 -7.880921228158824e-02 1.888703053232593e-03 -5.349067739830556e-02
8.010400000000000e+10 -8.387412735653450e-02 -4.103786038442386e-02 9.257165743594645e-01 -7.166343424379534e-02 9.216208102847124e-01 -7.886053815919862e-02 2.201456831582394e-03 -5.385581617500987e-02
8.015200000000000e+10 -8.382876548100354e-02 -4.132353175050693e-02 9.256922897957903e-01 -7.170654884291916e-02 9.215962855337483e-01 -7.891181577606729e-02 2.746681344843579e-03 -5.367467064428147e-02
8.020000000000000e+10 -8.380092888513797e-02 -4.163603728458380e-02 9.256678685927189e-01 -7.174962837909327e-02 9.215716848732851e-01 -7.896304514588925e-02 2.892708325696678e-03 -5.327464701197444e-02
8.024800000000000e+10 -8.370827693831784e-02 -4.189269307512086e-02 9.256433114863040e-01 -7.179267594036050e-02 9.215470048246064e-01 -7.901422598593705e-02 3.605183203896648e-03 -5.358971398241549e-02
8.029600000000000e+10 -8.409204726375159e-02 -4.147009990659107e-02 9.256186190821125e-01 -7.183569422370482e-02 9.215222416699782e-01 -7.906535780840480e-02 4.505916380423660e-03 -5.446346377365821e-02
8.034400000000000e+10 -8.397967730416794e-02 -4.139526825756529e-02 9.255937919080774e-01 -7.187868561984900e-02 9.214973915171567e-01 -7.911643989267590e-02 4.072445334572908e-03 -5.443892888824604e-02
8.039200000000000e+10 -8.374555743556786e-02 -4.143172779400772e-02 9.255688303833411e-01 -7.192165227715661e-02 9.214724503458328e-01 -7.916747115815641e-02 4.124121579059455e-03 -5.431606308627801e-02
8.044000000000000e+10 -8.351948407581319e-02 -4.132706533606683e-02 9.255437348207183e-01 -7.196459616527445e-02 9.214474140680894e-01 -7.921845016760726e-02 4.178655907058496e-03 -5.512615420503267e-02
8.048800000000000e+10 -8.318868956505762e-02 -4.152463108131128e-02 9.255185055034809e-01 -7.200751919934704e-02 9.214222787529224e-01 -7.926937507611627e-02 4.570845567430892e-03 -5.496306576650699e-02
8.053600000000000e+10 -8.230952862475269e-02 -4.216311738193345e-02 9.254931425716891e-01 -7.205042342344321e-02 9.213970406138712e-01 -7.932024371160033e-02 4.764502058931416e-03 -5.466207796876817e-02
8.058400000000000e+10 -8.256557155454300e-02 -4.217198595954565e-02 9.254676460317506e-01 -7.209331092616864e-02 9.213716961140549e-01 -7.937105358194943e-02 4.810546469597676e-03 -5.532700008384341e-02
8.063200000000000e+10 -8.254376071980810e-02 -4.246408992034263e-02 9.254420155751564e-01 -7.213618374510261e-02 9.213462417726083e-01 -7.942180206389274e-02 4.315469801379168e-03 -5.512467869265006e-02
8.068000000000000e+10 -8.275251248958430e-02 -4.234416588347572e-02 9.254162506660877e-01 -7.217904372948865e-02 9.213206740603819e-01 -7.947248646688708e-02 4.581624918818012e-03 -5.457541540757945e-02
8.072800000000000e+10 -8.266876623520508e-02 -4.261608972384363e-02 9.253903505572406e-01 -7.222189244713380e-02 9.212949893627118e-01 -7.952310406381856e-02 4.880775314873309e-03 -5.443534036156553e-02
8.077600000000000e+10 -8.336451921331695e-02 -4.221672927592367e-02 9.253643144088798e-01 -7.226473104607878e-02 9.212691839361126e-01 -7.957365203118560e-02 4.656545656808330e-03 -5.482509168798864e-02
8.082400000000000e+10 -8.326014666824054e-02 -4.245706113359150e-02 9.253381413362975e-01 -7.230756034220187e-02 9.212432539375098e-01 -7.962412737873011e-02 4.284296542094065e-03 -5.444126140511779e-02
8.087200000000000e+10 -8.316052939946431e-02 -4.247011609221619e-02 9.253118305992206e-01 -7.235038086274043e-02 9.212171954496898e-01 -7.967452697717814e-02 4.610644600515891e-03 -5.418711987865744e-02
8.092000000000000e+10 -8.270996251728198e-02 -4.253427040437598e-02 9.252853814766505e-01 -7.239319294410550e-02 9.211910045047624e-01 -7.972484754276558e-02 5.053940979519623e-03 -5.443372908431279e-02
8.096800000000000e+10 -8.279908839027532e-02 -4.270855445424669e-02 9.252587934171798e-01 -7.243599674648211e-02 9.211646772235925e-01 -7.977508557659102e-02 5.196435987789918e-03 -5.448178224572200e-02
8.101600000000000e+10 -8.254935128942183e-02 -4.303979514806851e-02 9.252320659132059e-01 -7.247879231774876e-02 9.211382097719478e-01 -7.982523744930009e-02 5.114642884377694e-03 -5.430710529719706e-02
8.106400000000000e+10 -8.249066235182362e-02 -4.312187186726259e-02 9.252051985209471e-01 -7.252157966492662e-02 9.211115984463013e-01 -7.987529942590200e-02 5.624873565012714e-03 -5.404214050245340e-02
8.111200000000000e+10 -8.237874916420837e-02 -4.334988519910994e-02 9.251781905384574e-01 -7.256435882088927e-02 9.210848395124124e-01 -7.992526769752580e-02 6.416050935892635e-03 -5.409468824870536e-02
8.116000000000000e+10 -8.282793084403468e-02 -4.309843275689492e-02 9.251510411413659e-01 -7.260712980755485e-02 9.210579294076306e-01 -7.997513832659368e-02 6.361219610146916e-03 -5.493000732208074e-02
8.120800000000000e+10 -8.307785027996129e-02 -4.308063748999385e-02 9.251237490805392e-01 -7.264989264243284e-02 9.210308645283574e-01 -8.002490723253283e-02 6.244932451815687e-03 -5.503952618108068e-02
8.125600000000000e+10 -8.297121598849323e-02 -4.299766135625920e-02 9.250963128064424e-01 -7.269264730360035e-02 9.210036413919989e-01 -8.007457017824855e-02 6.009736574817602e-03 -5.440552732056114e-02
8.130400000000000e+10 -8.287576245754598e-02 -4.305045894529643e-02 9.250687305261551e-01 -7.273539376240373e-02 9.209762566064792e-01 -8.012412278676985e-02 5.865795050384491e-03 -5.430529409506213e-02
8.135200000000000e+10 -8.341107467939816e-02 -4.257372032011822e-02 9.250410000161912e-01 -7.277813193796463e-02 9.209487066556004e-01 -8.017356049436147e-02 6.014923153220313e-03 -5.456272112550174e-02
8.140000000000000e+10 -8.364367670495186e-02 -4.272457577788855e-02 9.250131187467564e-01 -7.282086158329393e-02 9.209209879196228e-01 -8.022287860796572e-02 5.491722771741270e-03 -5.476534182386740e-02
8.144800000000000e+10 -8.418541734176345e-02 -4.242370711451899e-02 9.249850840903395e-01 -7.286358233994573e-02 9.208930968531645e-01 -8.027207247495996e-02 5.156505947376304e-03 -5.490947008621372e-02
8.149600000000000e+10 -8.378042841034185e-02 -4.254906207552524e-02 9.249568936149870e-01 -7.290629369932890e-02 9.208650302754025e-01 -8.032113757109764e-02 4.968302369982092e-03 -5.503545501313582e-02
8.154400000000000e+10 -8.312021171591477e-02 -4.296828135732888e-02 9.249285450285284e-01 -7.294899499790281e-02 9.208367852016124e-01 -8.037006950357485e-02 5.317918658332865e-03 -5.453668081784548e-02
8.159200000000000e+10 -8.355904334652345e-02 -4.290960039454379e-02 9.249000359678980e-01 -7.299168535653462e-02 9.208083586699157e-01 -8.041886382706163e-02 5.631133566171372e-03 -5.457678796202946e-02
8.164000000000000e+10 -8.367721663916355e-02 -4.265848400409974e-02 9.248713643189461e-01 -7.303436364591376e-02 9.207797481368851e-01 -8.046751586321969e-02 6.098988383835820e-03 -5.447073745789129e-02
8.168800000000000e+10 -8.344830419211645e-02 -4.272187607926296e-02 9.248425283483327e-01 -7.307702867870421e-02 9.207509517583068e-01 -8.051602083460062e-02 6.572773639828208e-03 -5.412140896280788e-02
8.173600000000000e+10 -8.376850970240747e-02 -4.227124804675501e-02 9.248135263723155e-01 -7.311967915626294e-02 9.207219680367761e-01 -8.056437373282709e-02 6.334327584638626e-03 -5.485802346099173e-02
8.178400000000000e+10 -8.366188642316776e-02 -4.212819120064588e-02 9.247843566584083e-01 -7.316231374096145e-02 9.206927955905092e-01 -8.061256955580634e-02 6.232503633820903e-03 -5.480724002049991e-02
8.183200000000000e+10 -8.393810548170513e-02 -4.180000582255152e-02 9.247550176080420e-01 -7.320493101570080e-02 9.206634334951278e-01 -8.066060326617397e-02 5.952358070366943e-03 -5.510786453279411e-02
8.188000000000000e+10 -8.353629276735004e-02 -4.239339136026964e-02 9.247255078425769e-01 -7.324752970691163e-02 9.206338813743201e-01 -8.070846998437947e-02 6.264933765833329e-03 -5.449869593629551e-02
8.192800000000000e+10 -8.419879802051156e-02 -4.234702434698419e-02 9.246958263687691e-01 -7.329010857955430e-02 9.206041394356158e-01 -8.075616507015410e-02 6.234105649758462e-03 -5.496713948364795e-02
8.197600000000000e+10 -8.522665672871993e-02 -4.212758470033492e-02 9.246659722955666e-01 -7.333266640322873e-02 9.205742082388803e-01 -8.080368418535905e-02 6.345394732783216e-03 -5.510774594156403e-02
8.202400000000000e+10 -8.565034572266791e-02 -4.181988091462451e-02 9.246359448633295e-01 -7.337520194061967e-02 9.205440887966939e-01 -8.085102324471032e-02 6.296694723495202e-03 -5.503618574335151e-02
8.207200000000000e+10 -8.604149576088659e-02 -4.185420788248963e-02 9.246057433689696e-01 -7.341771400956061e-02 9.205137824774186e-01 -8.089817842758167e-02 6.229183632112372e-03 -5.564730435513597e-02
8.212000000000000e+10 -8.586197728033779e-02 -4.216710272982370e-02 9.245753673221686e-01 -7.346020152373249e-02 9.204832908306181e-01 -8.094514615324072e-02 6.485582488343284e-03 -5.568272301853587e-02
8.216800000000000e+10 -8.547893883395938e-02 -4.229610170931605e-02 9.245448164951775e-01 -7.350266359297336e-02 9.204526155285372e-01 -8.099192315071180e-02 6.938768070434347e-03 -5.568625611663989e-02
8.221600000000000e+10 -8.536709854274162e-02 -4.232891972986527e-02 9.245140909628257e-01 -7.354509948199421e-02 9.204217586738600e-01 -8.103850637268005e-02 7.246982563797833e-03 -5.564119993591086e-02
8.226400000000000e+10 -8.510537668618670e-02 -4.228660468456499e-02 9.244831910323152e-01 -7.358750845165589e-02 9.203907226791681e-01 -8.108489298190301e-02 7.671232423735444e-03 -5.593125460426849e-02
8.231200000000000e+10 -8.440210098547676e-02 -4.234486119046089e-02 9.244521172658808e-01 -7.362988977809425e-02 9.203595103663318e-01 -8.113108037194423e-02 7.820755051547152e-03 -5.623140117937275e-02
8.236000000000000e+10 -8.431962359310453e-02 -4.237290306060069e-02 9.244208704421050e-01 -7.367224267541199e-02 9.203281248349726e-01 -8.117706621123195e-02 8.352629595395589e-03 -5.643027225910995e-02
8.240800000000000e+10 -8.419577171089293e-02 -4.286619479886059e-02 9.243894515807537e-01 -7.371456634045019e-02 9.202965696285964e-01 -8.122284837253639e-02 8.226381686539806e-03 -5.653847688305322e-02
8.245600000000000e+10 -8.438553579465334e-02 -4.299614291568480e-02 9.243578618422945e-01 -7.375685996139730e-02 9.202648485275530e-01 -8.126842493046373e-02 8.297559140991168e-03 -5.631707573333183e-02
8.250400000000000e+10 -8.491334573694237e-02 -4.285789327436104e-02 9.243261024732002e-01 -7.379912283153328e-02 9.202329654441926e-01 -8.131379421458186e-02 7.595034375522904e-03 -5.598973510745874e-02
8.255200000000000e+10 -8.504732039479042e-02 -4.256333949463854e-02 9.242941749056460e-01 -7.384135427367246e-02 9.202009245432961e-01 -8.135895469159918e-02 7.390230254851676e-03 -5.579948907734477e-02
8.260000000000000e+10 -8.579494898889396e-02 -4.243815599061178e-02 9.242620807241739e-01 -7.388355360101166e-02 9.201687301928023e-01 -8.140390504296925e-02 6.502005957456872e-03 -5.566351081845277e-02
8.264800000000000e+10 -8.632897998163525e-02 -4.207223100104616e-02 9.242298218440212e-01 -7.392572005763490e-02 9.201363871009348e-01 -8.144864417837346e-02 6.452646846424067e-03 -5.526864313233967e-02
8.269600000000000e+10 -8.653009454258247e-02 -4.245421796514067e-02 9.241974005020205e-01 -7.396785271955307e-02 9.201039001175204e-01 -8.149317135561333e-02 7.137753079239921e-03 -5.531384540021812e-02
8.274400000000000e+10 -8.625818204404684e-02 -4.247596132924707e-02 9.241648193981348e-01 -7.400995051177413e-02 9.200712745667428e-01 -8.153748609211303e-02 7.471518978410806e-03 -5.549367989603284e-02
8.279200000000000e+10 -8.587636219860703e-02 -4.269855056794125e-02 9.241320817236928e-01 -7.405201241319884e-02 9.200385160904389e-01 -8.158158825918321e-02 8.064117738573524e-03 -5.547385873787725e-02
8.284000000000000e+10 -8.545867166169857e-02 -4.273001960873620e-02 9.240991911200936e-01 -7.409403752593323e-02 9.200056305850385e-01 -8.162547806377464e-02 8.799205708212122e-03 -5.520606412720516e-02
8.288800000000000e+10 -8.524614650480643e-02 -4.285938746674804e-02 9.240661515865678e-01 -7.413602505883266e-02 9.199726242884239e-01 -8.166915610420585e-02 9.355694163441869e-03 -5.571853996467634e-02
8.293600000000000e+10 -8.498817569236061e-02 -4.295402947434875e-02 9.240329674609057e-01 -7.417797439871497e-02 9.199395037595355e-01 -8.171262336667980e-02 9.719999943893427e-03 -5.596494554361275e-02
8.298400000000000e+10 -8.497843661439802e-02 -4.286668836796206e-02 9.239996433038272e-01 -7.421988503714579e-02 9.199062757826115e-01 -8.175588125913237e-02 9.588909220139758e-03 -5.649921850268927e-02
8.303200000000000e+10 -8.495194541126022e-02 -4.300578876346429e-02 9.239661839915243e-01 -7.426175656214597e-02 9.198729474479089e-01 -8.179893147168120e-02 9.153842513302538e-03 -5.661793123996190e-02
8.308000000000000e+10 -8.538337480176970e-02 -4.290255389230796e-02 9.239325945135287e-01 -7.430358867256377e-02 9.198395259771849e-01 -8.184177597003102e-02 8.696321778328679e-03 -5.641327337183586e-02
8.312800000000000e+10 -8.611526677331077e-02 -4.288268505826209e-02 9.238988797650294e-01 -7.434538113939750e-02 9.198060184600541e-01 -8.188441703865276e-02 8.255143094638781e-03 -5.643377232322823e-02
8.317600000000000e+10 -8.665928804755968e-02 -4.289364093815350e-02 9.238650445258747e-01 -7.438713385751933e-02 9.197724319782520e-01 -8.192685723298686e-02 7.519166799328100e-03 -5.663070294862522e-02
8.322400000000000e+10 -8.715875598453715e-02 -4.294071703846114e-02 9.238310935045017e-01 -7.442884672097055e-02 9.197387737743506e-01 -8.196909939454167e-02 7.009717098859876e-03 -5.636801321830616e-02
8.327200000000000e+10 -8.741329104464425e-02 -4.335904737843672e-02 9.237970312537104e-01 -7.447051972438945e-02 9.197050510945337e-01 -8.201114686432324e-02 6.761196505635962e-03 -5.589040414120450e-02
8.332000000000000e+10 -8.803539353937416e-02 -4.324641538354691e-02 9.237628624500502e-01 -7.451215300674344e-02 9.196712712205865e-01 -8.205300354068271e-02 6.681410905603116e-03 -5.564830762045276e-02
8.336800000000000e+10 -8.825794469465377e-02 -4.298842209861106e-02 9.237285920917645e-01 -7.455374684769547e-02 9.196374414592137e-01 -8.209467379598441e-02 7.549472776072023e-03 -5.558758393452305e-02
8.341600000000000e+10 -8.812541242735160e-02 -4.278162435171094e-02 9.236942253937628e-01 -7.459530183819461e-02 9.196035689166363e-01 -8.213616242745728e-02 8.435272430868307e-03 -5.535859949967831e-02
8.346400000000000e+10 -8.757576024747678e-02 -4.298283410644247e-02 9.236597678226121e-01 -7.463681881044114e-02 9.195696604394433e-01 -8.217747447817039e-02 8.507561428066935e-03 -5.584256327259619e-02
8.351200000000000e+10 -8.699207352339447e-02 -4.272681146471469e-02 9.236252250383763e-01 -7.467829890902584e-02 9.195357227697074e-01 -8.221861516190002e-02 8.745664537402203e-03 -5.568792947281381e-02
8.356000000000000e+10 -8.658068225002451e-02 -4.275610095104852e-02 9.235906029893755e-01 -7.471974363006761e-02 9.195017626511859e-01 -8.225958987096701e-02 8.929909489296584e-03 -5.573474403093832e-02
8.360800000000000e+10 -8.619793707318602e-02 -4.271084881490992e-02 9.235559077455188e-01 -7.476115489682984e-02 9.194677866992187e-01 -8.230040424040765e-02 9.145906574279326e-03 -5.562548936578754e-02
8.365600000000000e+10 -8.610274609488382e-02 -4.243275114085776e-02 9.235211453074246e-01 -7.480253490337874e-02 9.194338012808086e-01 -8.234106423184159e-02 9.472694414855829e-03 -5.542677920005626e-02
8.370400000000000e+10 -8.598908282462403e-02 -4.243211073100532e-02 9.234863215523439e-01 -7.484388605156088e-02 9.193998125413014e-01 -8.238157617018924e-02 9.332835170588723e-03 -5.538448761124570e-02
8.375200000000000e+10 -8.678305307766201e-02 -4.246347426841979e-02 9.234514420337160e-01 -7.488521091146179e-02 9.193658263681996e-01 -8.242194666457843e-02 9.104819666626079e-03 -5.534737594377417e-02
8.380000000000000e+10 -8.755238236249326e-02 -4.253304808169616e-02 9.234165118090150e-01 -7.492651215531609e-02 9.193318484062440e-01 -8.246218243695244e-02 8.633328352384987e-03 -5.568728738597487e-02
8.384800000000000e+10 -8.845294014016751e-02 -4.227129312017789e-02 9.233815354574528e-01 -7.496779254834428e-02 9.192978840870250e-01 -8.250229023715966e-02 7.890811324777904e-03 -5.585614927569563e-02
8.389600000000000e+10 -8.913528010499511e-02 -4.205148717969341e-02 9.233465172283170e-01 -7.500905477074656e-02 9.192639388219531e-01 -8.254227675493114e-02 7.535631379847022e-03 -5.567487655415385e-02
8.394400000000000e+10 -8.884526020889988e-02 -4.205240019659208e-02 9.233114612732959e-01 -7.505030141928459e-02 9.192300178907544e-01 -8.258214872913576e-02 7.587298401751726e-03 -5.544950955025988e-02
8.399200000000000e+10 -8.815762781637060e-02 -4.200343685665898e-02 9.232763718980506e-01 -7.509153490614077e-02 9.191961264142796e-01 -8.262191302455728e-02 8.084402066262221e-03 -5.479425268120715e-02
8.404000000000000e+10 -8.725510337438189e-02 -4.229311608515061e-02 9.232412536566780e-01 -7.513275751122141e-02 9.191622693927728e-01 -8.266157665697671e-02 9.021348463465435e-03 -5.455909952142372e-02
8.408800000000000e+10 -8.639608794598948e-02 -4.267842228966869e-02 9.232061115131155e-01 -7.517397131166237e-02 9.191284516847411e-01 -8.270114673237623e-02 9.762507959552922e-03 -5.453494364272054e-02
8.413600000000000e+10 -8.570456673700960e-02 -4.301008313680020e-02 9.231709507292480e-01 -7.521517836012312e-02 9.190946778254540e-01 -8.274063043436000e-02 1.032296658771817e-02 -5.482231046869656e-02
8.418400000000000e+10 -8.524825076607541e-02 -4.321166643584458e-02 9.231357767782373e-01 -7.525638085143020e-02 9.190609520377899e-01 -8.278003483762836e-02 1.082198763237998e-02 -5.459363238167729e-02
8.423200000000000e+10 -8.574127276060448e-02 -4.309491650778092e-02 9.231005953318061e-01 -7.529758128685991e-02 9.190272784589530e-01 -8.281936674806063e-02 1.073433355852240e-02 -5.478039877458538e-02
8.428000000000000e+10 -8.541329580085769e-02 -4.295386940730506e-02 9.230654119929940e-01 -7.533878254348735e-02 9.189936608379758e-01 -8.285863291121902e-02 1.069105087062682e-02 -5.457952942333865e-02
8.432800000000000e+10 -8.608011316649421e-02 -4.293748425619882e-02 9.230302322140033e-01 -7.537998771137012e-02 9.189601026312468e-01 -8.289784004673437e-02 1.041963397650853e-02 -5.455838949564702e-02
8.437600000000000e+10 -8.679344282269257e-02 -4.261152015777445e-02 9.229950609223001e-01 -7.542120015179318e-02 9.189266070066124e-01 -8.293699479115636e-02 9.513123962127536e-03 -5.480291467528953e-02
8.442400000000000e+10 -8.740016500358529e-02 -4.216295214245078e-02 9.229599023665143e-01 -7.546242333163965e-02 9.188931768055644e-01 -8.297610380260288e-02 8.630594172632551e-03 -5.444521823721318e-02
8.447200000000000e+10 -8.788003986989032e-02 -4.253594506656989e-02 9.229247602110094e-01 -7.550366077284403e-02 9.188598145680150e-01 -8.301517377091169e-02 7.929952497207864e-03 -5.424708509277913e-02
8.452000000000000e+10 -8.841592055225798e-02 -4.249998920806040e-02 9.228896378263131e-01 -7.554491605455746e-02 9.188265227732048e-01 -8.305421126521345e-02 7.927476792284465e-03 -5.407994368452423e-02
8.456800000000000e+10 -8.840862544639688e-02 -4.269757795323768e-02 9.228545386220853e-01 -7.558619277512037e-02 9.187933039309177e-01 -8.309322288364714e-02 8.303276562170931e-03 -5.409221606799658e-02
8.461600000000000e+10 -8.785465038526326e-02 -4.280925381167535e-02 9.228194663317706e-01 -7.562749466046617e-02 9.187601605018162e-01 -8.313221514190725e-02 8.929081417878251e-03 -5.392640263105909e-02
8.466400000000000e+10 -8.794606612959420e-02 -4.338648610220202e-02 9.227844252625733e-01 -7.566882558036722e-02 9.187270948160040e-01 -8.317119447201010e-02 9.424001141927596e-03 -5.380606799298766e-02
8.471200000000000e+10 -8.778124794138684e-02 -4.337433862106450e-02 9.227494201720694e-01 -7.571018957845095e-02 9.186941090595065e-01 -8.321016719643123e-02 1.038705872237552e-02 -5.360408400368884e-02
8.476000000000000e+10 -8.744274109103943e-02 -4.321743323638808e-02 9.227144561378678e-01 -7.575159095710488e-02 9.186612052539533e-01 -8.324913963835298e-02 1.079111279897313e-02 -5.355843786589645e-02
8.480800000000000e+10 -8.720234685574350e-02 -4.294355585142286e-02 9.226795385088927e-01 -7.579303422798027e-02 9.186283853375141e-01 -8.328811821167678e-02 1.114470577530526e-02 -5.351419538232263e-02
8.485600000000000e+10 -8.727002475415829e-02 -4.268969278164429e-02 9.226446728943065e-01 -7.583452401906328e-02 9.185956511762249e-01 -8.332710941229253e-02 1.119848770378642e-02 -5.323771138828497e-02
8.490400000000000e+10 -8.701198226375906e-02 -4.288662859732954e-02 9.226098649892693e-01 -7.587606523513028e-02 9.185630045462783e-01 -8.336611975118104e-02 1.097151891847420e-02 -5.349039850140634e-02
8.495200000000000e+10 -8.668993401954626e-02 -4.263155903233610e-02 9.225751202694605e-01 -7.591766323701712e-02 9.185304471509562e-01 -8.340515575389866e-02 1.120128502877384e-02 -5.350621575650206e-02
8.500000000000000e+10 -8.673448842672130e-02 -4.223070550054587e-02 9.225404440273055e-01 -7.595932369022028e-02 9.184979808664223e-01 -8.344422398702343e-02 1.129001149285548e-02 -5.374821676466171e-02
8.504800000000000e+10 -8.737724167790398e-02 -4.289353573398381e-02 9.225058413044027e-01 -7.600105246650687e-02 9.184656078363532e-01 -8.348333108513133e-02 1.047507235870590e-02 -5.388062935296062e-02
8.509600000000000e+10 -8.820115586822438e-02 -4.265521286026515e-02 9.224713164670405e-01 -7.604285542175589e-02 9.184333301936171e-01 -8.352248369567525e-02 1.024077914638730e-02 -5.355372265562918e-02
8.514400000000000e+10 -8.936385243344808e-02 -4.276071087700708e-02 9.224368733158328e-01 -7.608473840985341e-02 9.184011500302455e-01 -8.356168859897382e-02 9.469983244478146e-03 -5.314248492970089e-02
8.519200000000000e+10 -8.890041445692991e-02 -4.194428154949705e-02 9.224025153423981e-01 -7.612670690492714e-02 9.183690694679543e-01 -8.360095262662282e-02 1.047818624415209e-02 -5.355141026216283e-02
8.524000000000000e+10 -8.876983844629097e-02 -4.237993338868739e-02 9.223682462797649e-01 -7.616876612936983e-02 9.183370907095220e-01 -8.364028282700402e-02 1.020875489718260e-02 -5.329785644565443e-02
8.528800000000000e+10 -8.871590510471486e-02 -4.226234216214651e-02 9.223340697661733e-01 -7.621092092116354e-02 9.183052155595411e-01 -8.367968622347172e-02 1.095694913243509e-02 -5.251631099044567e-02
8.533600000000000e+10 -8.827418417449344e-02 -4.217402226998587e-02 9.222999898211272e-01 -7.625317605736281e-02 9.182734455844861e-01 -8.371916970442159e-02 1.147620301867765e-02 -5.255391184249349e-02
8.538400000000000e+10 -8.820966295733833e-02 -4.278994116562786e-02 9.222660110413454e-01 -7.629553599372520e-02 9.182417821936063e-01 -8.375873948531791e-02 1.099246129547533e-02 -5.300074473753650e-02
8.543200000000000e+10 -8.788514667734688e-02 -4.291279234338525e-02 9.222321383288712e-01 -7.633800512692619e-02 9.182102264493143e-01 -8.379840136155330e-02 1.157820002600413e-02 -5.273007102095237e-02
8.548000000000000e+10 -8.822870951371217e-02 -4.286822980216116e-02 9.221983769760065e-01 -7.638058788941383e-02 9.181787793250682e-01 -8.383816107610936e-02 1.237797457446040e-02 -5.261219591005920e-02
8.552800000000000e+10 -8.777391181111197e-02 -4.268629637127854e-02 9.221647323297041e-01 -7.642328866803737e-02 9.181474417848967e-01 -8.387802428759714e-02 1.228428055432026e-02 -5.299333301740777e-02
8.557600000000000e+10 -8.894241411762614e-02 -4.304294196088560e-02 9.221312097133337e-01 -7.646611179614850e-02 9.181162148938070e-01 -8.391799676259011e-02 1.194094297921782e-02 -5.347738421647188e-02
8.562400000000000e+10 -8.884336186615317e-02 -4.272485374090974e-02 9.220978140058542e-01 -7.650906162404222e-02 9.180850994000572e-01 -8.395808432697652e-02 1.180369529194427e-02 -5.319910102426173e-02
8.567200000000000e+10 -8.903165997748162e-02 -4.245931405241070e-02 9.220645498762532e-01 -7.655214247820696e-02 9.180540959581140e-01 -8.399829242509965e-02 1.162017194348907e-02 -5.312905346737126e-02
8.572000000000000e+10 -8.911610222997007e-02 -4.250025066606224e-02 9.220314216006228e-01 -7.659535856029671e-02 9.180232051878721e-01 -8.403862608411906e-02 1.125120993566981e-02 -5.318885941886354e-02
8.576800000000000e+10 -8.952347764920238e-02 -4.143602162974602e-02 9.219984332526634e-01 -7.663871362180509e-02 9.179924277052640e-01 -8.407909002972110e-02 1.204275450161861e-02 -5.208477132223604e-02
8.581600000000000e+10 -8.867192169200247e-02 -4.205905514765457e-02 9.219655885699204e-01 -7.668221100920075e-02 9.179617638513888e-01 -8.411968882720360e-02 1.098994334894959e-02 -5.271538867954550e-02
8.586400000000000e+10 -8.866567925023283e-02 -4.196716818993753e-02 9.219328916581652e-01 -7.672585276097851e-02 9.179312140495910e-01 -8.416042645363567e-02 1.186356908485187e-02 -5.265252924936963e-02
8.591200000000000e+10 -8.818285544552920e-02 -4.279777369058369e-02 9.219003466274511e-01 -7.676964056733787e-02 9.179007785041696e-01 -8.420130750840041e-02 1.219778623571624e-02 -5.256703425700019e-02
8.596000000000000e+10 -8.802498490424236e-02 -4.279875168695562e-02 9.218679578452764e-01 -7.681357566326881e-02 9.178704573655374e-01 -8.424233647493096e-02 1.307853896017891e-02 -5.228736629989171e-02
8.600800000000000e+10 -8.796732556523913e-02 -4.289044770378108e-02 9.218357297661939e-01 -7.685765909858051e-02 9.178402506646908e-01 -8.428351772721340e-02 1.333065146447789e-02 -5.229092614810683e-02
8.605600000000000e+10 -8.784017533306133e-02 -4.263945911247172e-02 9.218036668387448e-01 -7.690189177141349e-02 9.178101582363088e-01 -8.432485538282936e-02 1.370205971104996e-02 -5.243582644669786e-02
8.610400000000000e+10 -8.787095604284455e-02 -4.255269803625530e-02 9.217717733578681e-01 -7.694627441963904e-02 9.177801796922176e-01 -8.436635333098431e-02 1.367291293469336e-02 -5.223556256407432e-02
8.615200000000000e+10 -8.774850292362288e-02 -4.248743298157306e-02 9.217400533837351e-01 -7.699080752190407e-02 9.177503144282717e-01 -8.440801524638258e-02 1.361534594049007e-02 -5.232400703363443e-02
8.620000000000000e+10 -8.751130960885667e-02 -4.227366036950453e-02 9.217085108051970e-01 -7.703549133600888e-02 9.177205616912729e-01 -8.444984463536724e-02 1.338602570737437e-02 -5.262383487758849e-02
8.624800000000000e+10 -8.714136863899304e-02 -4.178042585648717e-02 9.216771492749645e-01 -7.708032604624911e-02 9.176909205878869e-01 -8.449184496274800e-02 1.405438378617492e-02 -5.283813347373830e-02
8.629600000000000e+10 -8.725667713461814e-02 -4.171421994367239e-02 9.216459720758610e-01 -7.712531182262609e-02 9.176613901728256e-01 -8.453401965205914e-02 1.359614898482828e-02 -5.217989989087646e-02
8.634400000000000e+10 -8.617400168876514e-02 -4.198436331094081e-02 9.216149818289872e-01 -7.717044845639671e-02 9.176319690995671e-01 -8.457637198447296e-02 1.426608337229658e-02 -5.149854464240818e-02
8.639200000000000e+10 -8.523547061701889e-02 -4.191860124210840e-02 9.215841809313908e-01 -7.721573530777323e-02 9.176026561578705e-01 -8.461890476864770e-02 1.431250636897428e-02 -5.123458043102388e-02
8.644000000000000e+10 -8.792395491583774e-02 -4.211490764738877e-02 9.215535705222782e-01 -7.726117123580895e-02 9.175734494122298e-01 -8.466162051681891e-02 1.250048874635834e-02 -5.224457104365418e-02
8.648800000000000e+10 -8.742561803232848e-02 -4.233770470070603e-02 9.215231516205887e-01 -7.730675468441629e-02 9.175443469620054e-01 -8.470452147094208e-02 1.386013043520608e-02 -5.207172829003552e-02
8.653600000000000e+10 -8.751683740011056e-02 -4.252425817167767e-02 9.214929248605761e-01 -7.735248384536196e-02 9.175153468019718e-01 -8.474760997154551e-02 1.389872780256170e-02 -5.216888003250995e-02
8.658400000000000e+10 -8.765594097402520e-02 -4.222743619634332e-02 9.214628909535474e-01 -7.739835646265458e-02 9.174864468554862e-01 -8.479088801462370e-02 1.412877274041278e-02 -5.181339714850438e-02
8.663200000000000e+10 -8.725889835009334e-02 -4.265574247110662e-02 9.214330505490184e-01 -7.744437001882583e-02 9.174576450163212e-01 -8.483435733462472e-02 1.346565606542471e-02 -5.177316618856844e-02
8.668000000000000e+10 -8.713989512941414e-02 -4.241561252513112e-02 9.214034039300705e-01 -7.749052171252051e-02 9.174289386208108e-01 -8.487801950944460e-02 1.452752487207430e-02 -5.144868383251904e-02
8.672800000000000e+10 -8.645084494472302e-02 -4.242292918129589e-02 9.213739512150235e-01 -7.753680851954951e-02 9.174003249295523e-01 -8.492187603492925e-02 1.462444117227413e-02 -5.165399178600472e-02
8.677600000000000e+10 -8.637556939853273e-02 -4.241602004395201e-02 9.213446924199432e-01 -7.758322715346076e-02 9.173718016082454e-01 -8.496592800156100e-02 1.452813189032396e-02 -5.171722992328940e-02
8.682400000000000e+10 -8.633383027539585e-02 -4.276664896891153e-02 9.213156272151806e-01 -7.762977425070489e-02 9.173433665930875e-01 -8.501017616287918e-02 1.438058686169568e-02 -5.178284911873169e-02
8.687200000000000e+10 -8.722701602843454e-02 -4.272381150559247e-02 9.212867544772486e-01 -7.767644641545128e-02 9.173150174447114e-01 -8.505462124159359e-02 1.463948516446259e-02 -5.167151654205394e-02
8.692000000000000e+10 -8.711382131651997e-02 -4.294499137713383e-02 9.212580727605553e-01 -7.772324013840110e-02 9.172867513572245e-01 -8.509926357386911e-02 1.457183180420573e-02 -5.159022120105148e-02
8.696800000000000e+10 -8.691552857187598e-02 -4.308123569204887e-02 9.212295800747944e-01 -7.777015184068185e-02 9.172585650650820e-01 -8.514410318996395e-02 1.474920655141597e-02 -5.162133550103774e-02
8.701600000000000e+10 -8.711061393428617e-02 -4.274395253407097e-02 9.212012740625989e-01 -7.781717779454241e-02 9.172304551405418e-01 -8.518913976276862e-02 1.493883855982173e-02 -5.128977580030328e-02
8.706400000000000e+10 -8.715830904710305e-02 -4.277360634522576e-02 9.211731521499591e-01 -7.786431437565876e-02 9.172024182764053e-01 -8.523437279839857e-02 1.490756631554417e-02 -5.138703963550047e-02
8.711200000000000e+10 -8.739074698156210e-02 -4.255718427750712e-02 9.211452117355098e-01 -7.791155777402624e-02 9.171744515779524e-01 -8.527980165295825e-02 1.500972311906879e-02 -5.116943374529800e-02
8.716000000000000e+10 -8.784214007977746e-02 -4.254048426152915e-02 9.211174500482510e-01 -7.795890407129440e-02 9.171465526301901e-01 -8.532542573548534e-02 1.475143232088565e-02 -5.161783458103492e-02
8.720800000000000e+10 -8.720509478850669e-02 -4.274703290727905e-02 9.210898641987787e-01 -7.800634909983029e-02 9.171187193422611e-01 -8.537124416031559e-02 1.500978007446184e-02 -5.137509101505151e-02
8.725600000000000e+10 -8.758650350272654e-02 -4.324017717462818e-02 9.210624514783715e-01 -7.805388871404235e-02 9.170909500021657e-01 -8.541725578477109e-02 1.512467522057592e-02 -5.118352954121785e-02
8.730400000000000e+10 -8.701186913280017e-02 -4.358692111093955e-02 9.210352093057146e-01 -7.810151879435778e-02 9.170632429758814e-01 -8.546345915489661e-02 1.512722207271389e-02 -5.086070654154239e-02
8.735200000000000e+10 -8.735491918302293e-02 -4.350438830332018e-02 9.210081351797474e-01 -7.814923532661618e-02 9.170355964894190e-01 -8.550985267580472e-02 1.587978585571883e-02 -5.120875393277931e-02
8.740000000000000e+10 -8.750289990415218e-02 -4.363457164191695e-02 9.209812265235794e-01 -7.819703440744757e-02 9.170080087315734e-01 -8.555643446678668e-02 1.560430924367592e-02 -5.125002076979283e-02
8.744800000000000e+10 -8.797081140783469e-02 -4.332623665633805e-02 9.209544808504282e-01 -7.824491216244997e-02 9.169804781421619e-01 -8.560320248374119e-02 1.617976833250043e-02 -5.151079181737632e-02
8.749600000000000e+10 -8.739649973239422e-02 -4.307966588362441e-02 9.209278957178579e-01 -7.829286477557518e-02 9.169530035601468e-01 -8.565015461503227e-02 1.625232936771189e-02 -5.145183203013411e-02
8.754400000000000e+10 -8.796839197657753e-02 -4.281886426482573e-02 9.209014685671189e-01 -7.834088851640136e-02 9.169255839982919e-01 -8.569728890501103e-02 1.564776554459368e-02 -5.118836442648312e-02
8.759200000000000e+10 -8.741148718873895e-02 -4.314879851990471e-02 9.208751968400003e-01 -7.838897962226603e-02 9.168982188149357e-01 -8.574460312206986e-02 1.508162601346614e-02 -5.099843098724513e-02
8.764000000000000e+10 -8.788748784681140e-02 -4.317332678379589e-02 9.208490776064074e-01 -7.843713460604525e-02 9.168709074724009e-01 -8.579209495429922e-02 1.541242597928502e-02 -5.066631287346880e-02
8.768800000000000e+10 -8.760979714070168e-02 -4.215049472484057e-02 9.208231077663813e-01 -7.848535016486403e-02 9.168436496247470e-01 -8.583976201709309e-02 1.440083289197391e-02 -5.051677837939393e-02
8.773600000000000e+10 -8.850081430722284e-02 -4.277708263277403e-02 9.207972838980942e-01 -7.853362272712920e-02 9.168164448969079e-01 -8.588760170319795e-02 1.478500099585861e-02 -5.054005115882162e-02
8.778400000000000e+10 -8.832662261349918e-02 -4.325417481699416e-02 9.207716030289586e-01 -7.858194881413551e-02 9.167892935256383e-01 -8.593561133361183e-02 1.476766994416661e-02 -5.093636803277717e-02
8.783200000000000e+10 -8.884625662931540e-02 -4.340593342402216e-02 9.207460624058926e-01 -7.863032477897043e-02 9.167621959696999e-01 -8.598378804711257e-02 1.443903755195380e-02 -5.102480297998292e-02
8.788000000000000e+10 -8.893506368868934e-02 -4.348712740962926e-02 9.207206593456503e-01 -7.867874685674466e-02 9.167351527225959e-01 -8.603212881429154e-02 1.502860714255927e-02 -5.056131127351175e-02
8.792800000000000e+10 -8.916182676593033e-02 -4.321062809700120e-02 9.206953912574977e-01 -7.872721129548578e-02 9.167081643227309e-01 -8.608063054725389e-02 1.474760373484011e-02 -5.048384755191623e-02
8.797600000000000e+10 -8.954372787538593e-02 -4.311034607359700e-02 9.206702557542507e-01 -7.877571441140770e-02 9.166812313491882e-01 -8.612929001251649e-02 1.487330924091016e-02 -5.091996881500466e-02
8.802400000000000e+10 -8.923268432846065e-02 -4.300100309453059e-02 9.206452505037025e-01 -7.882425248384323e-02 9.166543544295868e-01 -8.617810372759746e-02 1.518152665484526e-02 -5.083752193524033e-02
8.807200000000000e+10 -8.866561150184415e-02 -4.294176384801292e-02 9.206203731456170e-01 -7.887282203344842e-02 9.166275340619382e-01 -8.622706813556828e-02 1.543701590119850e-02 -5.078271848312587e-02
8.812000000000000e+10 -8.795386429033043e-02 -4.304671473823646e-02 9.205956212542451e-01 -7.892141956308013e-02 9.166007707510321e-01 -8.627617942705801e-02 1.562564944499373e-02 -5.032966868236445e-02
8.816800000000000e+10 -8.908736794225172e-02 -4.310234623079855e-02 9.205709924935926e-01 -7.897004157899778e-02 9.165740651213683e-01 -8.632543374942976e-02 1.525134136661608e-02 -5.088209840726828e-02
8.821600000000000e+10 -8.821474015000942e-02 -4.246964928839497e-02 9.205464841292190e-01 -7.901868440299177e-02 9.165474176008958e-01 -8.637482709812823e-02 1.503071883958678e-02 -5.112772023178395e-02
8.826400000000000e+10 -8.813806350753473e-02 -4.277151023096696e-02 9.205220931267019e-01 -7.906734460686318e-02 9.165208284932558e-01 -8.642435563220636e-02 1.528261622929259e-02 -5.121537910634525e-02
8.831200000000000e+10 -8.894600097129850e-02 -4.252491370457134e-02 9.204978166845410e-01 -7.911601865751523e-02 9.164942985168506e-01 -8.647401526980510e-02 1.531272201567526e-02 -5.100971623292332e-02
8.836000000000000e+10 -8.915553804946323e-02 -4.252510310313509e-02 9.204736519403242e-01 -7.916470319723812e-02 9.164678284767666e-01 -8.652380194009508e-02 1.514886427410690e-02 -5.111389099564320e-02
8.840800000000000e+10 -8.950315780708433e-02 -4.181866137226828e-02 9.204495960219563e-01 -7.921339492219703e-02 9.164414193092606e-01 -8.657371144950501e-02 1.527354198136785e-02 -5.108685767993563e-02
8.845600000000000e+10 -8.942027703234734e-02 -4.166245703781216e-02 9.204256461668660e-01 -7.926209060506174e-02 9.164150719966861e-01 -8.662373954540310e-02 1.504630111933060e-02 -5.138351887242699e-02
8.850400000000000e+10 -8.988977246846017e-02 -4.156808783002416e-02 9.204017998935778e-01 -7.931078718061450e-02 9.163887877251887e-01 -8.667388201311822e-02 1.423202665480463e-02 -5.106799800857038e-02
8.855200000000000e+10 -8.896623592124572e-02 -4.147024443582161e-02 9.203780550473930e-01 -7.935948168623196e-02 9.163625676930693e-01 -8.672413489185064e-02 1.466114056895944e-02 -5.133349764790506e-02
8.860000000000000e+10 -8.775351846190391e-02 -4.129545937547049e-02 9.203544097692901e-01 -7.940817137874737e-02 9.163364131966493e-01 -8.677449455553878e-02 1.377350797107148e-02 -5.103902445721724e-02
8.864800000000000e+10 -8.660363757179813e-02 -4.254092115063657e-02 9.203308626797436e-01 -7.945685351876378e-02 9.163103255423973e-01 -8.682495760793255e-02 1.080435159372465e-02 -4.835464246563030e-02
8.869600000000000e+10 -8.873940124232463e-02 -3.944002442875327e-02 9.203074126241644e-01 -7.950552491338223e-02 9.162843059354234e-01 -8.687552047751489e-02 1.471329621622525e-02 -4.984459772837590e-02
8.874400000000000e+10 -8.932912232787908e-02 -4.149692154643061e-02 9.202840588816835e-01 -7.955417897737285e-02 9.162583556251502e-01 -8.692617846981045e-02 1.567213907723437e-02 -5.198275148498219e-02
8.879200000000000e+10 -9.029045554076455e-02 -4.140333490805258e-02 9.202608004269264e-01 -7.960280929191919e-02 9.162324758192367e-01 -8.697692655055898e-02 1.578387380522667e-02 -5.224466048097797e-02
8.884000000000000e+10 -8.976431098377952e-02 -4.160228397180012e-02 9.202376361272844e-01 -7.965140980698630e-02 9.162066676174492e-01 -8.702775967940696e-02 1.577598741887501e-02 -5.176625707482779e-02
8.888800000000000e+10 -8.780448007687047e-02 -4.135571182720196e-02 9.202145646331664e-01 -7.969997506786011e-02 9.161809321100933e-01 -8.707867298237407e-02 1.346075623115081e-02 -4.984576076746338e-02
8.893600000000000e+10 -9.047405055405519e-02 -4.005051646533506e-02 9.201915842512478e-01 -7.974849985005175e-02 9.161552702236779e-01 -8.712966200091239e-02 1.578120664047758e-02 -5.118497901104242e-02
8.898400000000000e+10 -9.070545051542975e-02 -4.069530495314656e-02 9.201686932051102e-01 -7.979697698619499e-02 9.161296829445915e-01 -8.718072129300973e-02 1.556551454120020e-02 -5.220497069331666e-02
8.903200000000000e+10 -9.024452101124227e-02 -4.073337261618707e-02 9.201458894247573e-01 -7.984539956837247e-02 9.161041709541545e-01 -8.723184530487690e-02 1.525624401382454e-02 -5.221355578391694e-02
8.908000000000000e+10 -9.114763543207249e-02 -4.039296752163989e-02 9.201231706294221e-01 -7.989376102330098e-02 9.160787349060737e-01 -8.728302844326434e-02 1.427637245468300e-02 -5.247444200828352e-02
8.912800000000000e+10 -9.071168768691487e-02 -4.072186344722498e-02 9.201005345222336e-01 -7.994205483807607e-02 9.160533755740234e-01 -8.733426492922246e-02 1.503603009780586e-02 -5.282479349599915e-02
8.917600000000000e+10 -9.046782215723752e-02 -4.068237829858181e-02 9.200779789235295e-01 -7.999027485006500e-02 9.160280938048163e-01 -8.738554944793034e-02 1.556161015157355e-02 -5.232227682094231e-02
8.922400000000000e+10 -9.080098325005810e-02 -4.112428201080898e-02 9.200555019136660e-01 -8.003841508030020e-02 9.160028902873988e-01 -8.743687703925146e-02 1.563474762072082e-02 -5.217079482855717e-02
8.927200000000000e+10 -9.093013327218917e-02 -4.100093145174801e-02 9.200331019070361e-01 -8.008646981870428e-02 9.159777656727394e-01 -8.748824305641632e-02 1.604253744233770e-02 -5.236301719314350e-02
8.932000000000000e+10 -9.094994605733363e-02 -4.098117003259663e-02 9.200107775099847e-01 -8.013443340563367e-02 9.159527202512199e-01 -8.753964301044866e-02 1.655882765671840e-02 -5.241459970117771e-02
8.936800000000000e+10 -9.044406101752638e-02 -4.082291599945518e-02 9.199885270962066e-01 -8.018230077906550e-02 9.159277539419388e-01 -8.759107242586096e-02 1.665013063704318e-02 -5.231264447586265e-02
8.941600000000000e+10 -9.073788139556926e-02 -4.117202017686505e-02 9.199663490703734e-01 -8.023006707427037e-02 9.159028665010251e-01 -8.764252648360171e-02 1.629410453467128e-02 -5.236137705357535e-02
8.946400000000000e+10 -9.030528485414166e-02 -4.107654752320410e-02 9.199442415954000e-01 -8.027772800339578e-02 9.158780575000112e-01 -8.769400017446052e-02 1.568474434163479e-02 -5.273474169418848e-02
8.951200000000000e+10 -9.077312835571393e-02 -4.103375420247540e-02 9.199222026464915e-01 -8.032527989854847e-02 9.158533263470586e-01 -8.774548856926634e-02 1.605990752845576e-02 -5.283203724499740e-02
8.956000000000000e+10 -9.090032345637795e-02 -4.126809191293712e-02 9.199002297596474e-01 -8.037271980175519e-02 9.158286723006549e-01 -8.779698700800229e-02 1.556058172542411e-02 -5.296845364309629e-02
8.960800000000000e+10 -9.096459570752205e-02 -4.088365979943993e-02 9.198783201005770e-01 -8.042004534134441e-02 9.158040944699065e-01 -8.784849125539043e-02 1.555816600383284e-02 -5.215490501764607e-02
8.965600000000000e+10 -9.075886884066177e-02 -4.132308276812446e-02 9.198564704262815e-01 -8.046725473003424e-02 9.157795918250656e-01 -8.789999744434382e-02 1.608423809132814e-02 -5.232314806421901e-02
8.970400000000000e+10 -9.175819097817726e-02 -4.130637368818319e-02 9.198346771642876e-01 -8.051434644207639e-02 9.157551631609250e-01 -8.795150179783741e-02 1.598744070774106e-02 -5.229621620531571e-02
8.975200000000000e+10 -9.177833966612907e-02 -4.128105912902535e-02 9.198129365591033e-01 -8.056131928790948e-02 9.157308072903116e-01 -8.800300049004248e-02 1.573221996759771e-02 -5.229174529085146e-02
8.980000000000000e+10 -9.206906439251812e-02 -4.094987431785810e-02 9.197912445212687e-01 -8.060817249190050e-02 9.157065228424075e-01 -8.805448970864475e-02 1.598078772287480e-02 -5.168010619369834e-02
8.984800000000000e+10 -9.224430871088281e-02 -4.103738756591527e-02 9.197695969073604e-01 -8.065490557166478e-02 9.156823082495701e-01 -8.810596572171206e-02 1.595024388814448e-02 -5.178069029765585e-02
8.989600000000000e+10 -9.227476521740714e-02 -4.030126312990438e-02 9.197479896165041e-01 -8.070151844246291e-02 9.156581618010676e-01 -8.815742483445826e-02 1.627226050071934e-02 -5.196156664567331e-02
8.994400000000000e+10 -9.132828368480118e-02 -4.127382749963161e-02 9.197264185256402e-01 -8.074801149774753e-02 9.156340815062377e-01 -8.820886354656743e-02 1.622399394348923e-02 -5.120457442739024e-02
8.999200000000000e+10 -9.102664471734621e-02 -4.098318821804749e-02 9.197048798019685e-01 -8.079438547757746e-02 9.156100655316176e-01 -8.826027867000295e-02 1.660821017833139e-02 -5.167672928117500e-02
9.004000000000000e+10 -9.055430508896774e-02 -4.181038958414982e-02 9.196833694385740e-01 -8.084064161534565e-02 9.155861117987395e-01 -8.831166725772820e-02 1.668380514968455e-02 -5.124524079148077e-02
9.008800000000000e+10 -9.023133714432499e-02 -4.173783348350316e-02 9.196618831251385e-01 -8.088678155136400e-02 9.155622178843192e-01 -8.836302656564722e-02 1.691712624808353e-02 -5.052632517248087e-02
9.013600000000000e+10 -9.018475934572587e-02 -4.220192475021727e-02 9.196404160426082e-01 -8.093280729649686e-02 9.155383808564688e-01 -8.841435386897066e-02 1.782489304943051e-02 -5.068052600740579e-02
9.018400000000000e+10 -9.084885763811006e-02 -4.123692415985981e-02 9.196189629864940e-01 -8.097872134200412e-02 9.155145977307504e-01 -8.846564612432441e-02 1.790242038101693e-02 -5.091833290974556e-02
9.023200000000000e+10 -9.085086795416994e-02 -4.157882215167598e-02 9.195975185053256e-01 -8.102452663926046e-02 9.154908654709732e-01 -8.851690025785028e-02 1.709948929767111e-02 -5.046510356683070e-02
9.028000000000000e+10 -9.177464071911592e-02 -4.074010174085059e-02 9.195760769017027e-01 -8.107022631799086e-02 9.154671809181181e-01 -8.856811341201952e-02 1.674993487694852e-02 -5.093403364981210e-02
9.032800000000000e+10 -9.191230811145984e-02 -4.063078736295097e-02 9.195546323068642e-01 -8.111582346181920e-02 9.154435408764290e-01 -8.861928279006646e-02 1.699116915926967e-02 -5.089007166483227e-02
9.037600000000000e+10 -9.154920798678830e-02 -4.071038233233293e-02 9.195331789895175e-01 -8.116132121140250e-02 9.154199422842272e-01 -8.867040578636484e-02 1.648469545669040e-02 -5.048702312403136e-02
9.042400000000000e+10 -9.100583732196244e-02 -4.137455496630060e-02 9.195117114033893e-01 -8.120672275832068e-02 9.153963820191751e-01 -8.872148009412363e-02 1.685180392382089e-02 -5.033036051641335e-02
9.047200000000000e+10 -9.139492153145511e-02 -4.130776688257437e-02 9.194902244054638e-01 -8.125203131506699e-02 9.153728571619554e-01 -8.877250350590651e-02 1.663041016132041e-02 -5.034139883294198e-02
9.052000000000000e+10 -9.099030741036832e-02 -4.217227436582930e-02 9.194687131877229e-01 -8.129725035070265e-02 9.153493649291077e-01 -8.882347380207151e-02 1.774060279721795e-02 -5.002070367910316e-02
9.056800000000000e+10 -9.126106260767940e-02 -4.192513569654431e-02 9.194471734210341e-01 -8.134238349870196e-02 9.153259026814239e-01 -8.887438900182697e-02 1.755999834850601e-02 -4.976163223717100e-02
9.061600000000000e+10 -9.128506911780314e-02 -4.211686812671365e-02 9.194256008783008e-01 -8.138743470351711e-02 9.153024677718604e-01 -8.892524719463220e-02 1.798900763767214e-02 -4.999929165030047e-02
9.066400000000000e+10 -9.094212768400785e-02 -4.173896243421046e-02 9.194039912535353e-01 -8.143240798752648e-02 9.152790574002393e-01 -8.897604636527812e-02 1.851008115810593e-02 -4.991229724596483e-02
9.071200000000000e+10 -9.090804500416332e-02 -4.177236213202362e-02 9.193823403681441e-01 -8.147730732543706e-02 9.152556690096640e-01 -8.902678442759644e-02 1.857531824001735e-02 -4.951286186592961e-02
9.076000000000000e+10 -9.055708564458544e-02 -4.142260343724841e-02 9.193606440322686e-01 -8.152213686605103e-02 9.152322998256338e-01 -8.907745971837519e-02 1.847246890997729e-02 -4.922363440700485e-02
9.080800000000000e+10 -9.039470898160512e-02 -4.155497726420385e-02 9.193388981925723e-01 -8.156690083727063e-02 9.152089469776546e-01 -8.912807054421745e-02 1.862474429506224e-02 -4.940810008571485e-02
9.085600000000000e+10 -9.040896182312615e-02 -4.113872504174797e-02 9.193170990010412e-01 -8.161160355807903e-02 9.151856078258851e-01 -8.917861521076070e-02 1.781923091495879e-02 -4.921577759562057e-02
9.090400000000000e+10 -9.033614886051758e-02 -4.135754644746081e-02 9.192952424962710e-01 -8.165624954032449e-02 9.151622797849122e-01 -8.922909194157234e-02 1.820949232973272e-02 -4.969342445072482e-02
9.095200000000000e+10 -9.104898545827450e-02 -4.058809489341004e-02 9.192733248611137e-01 -8.170084319206798e-02 9.151389604812391e-01 -8.927949882534977e-02 1.834914742888148e-02 -4.991269829567854e-02
9.100000000000000e+10 -9.119244265931570e-02 -4.167295174578985e-02 9.192513424010622e-01 -8.174538893690102e-02 9.151156477977124e-01 -8.932983389117220e-02 1.772802285342242e-02 -4.987576918262062e-02
9.104800000000000e+10 -9.173448708269960e-02 -4.133680708975184e-02 9.192292918182020e-01 -8.178989100026522e-02 9.150923399716934e-01 -8.938009528252987e-02 1.751586351250422e-02 -4.972645384205258e-02
9.109600000000000e+10 -9.225518196286805e-02 -4.166140361201909e-02 9.192071701156782e-01 -8.183435347204807e-02 9.150690355373463e-01 -8.943028144230039e-02 1.832816894698127e-02 -5.010464159705677e-02
9.114400000000000e+10 -9.279478314086873e-02 -4.131736868439750e-02 9.191849748023573e-01 -8.187878028522799e-02 9.150457333871376e-01 -8.948039109644336e-02 1.770711556294280e-02 -4.964668389693388e-02
9.119200000000000e+10 -9.272568487524332e-02 -4.154876001775566e-02 9.191627039667051e-01 -8.192317508715490e-02 9.150224326555138e-01 -8.953042330105214e-02 1.794930016214072e-02 -4.937561191816501e-02
9.124000000000000e+10 -9.255501872670337e-02 -4.154113478876878e-02 9.191403561750727e-01 -8.196754159242950e-02 9.149991325615368e-01 -8.958037743338391e-02 1.838437695240721e-02 -4.945808553910374e-02
9.128800000000000e+10 -9.178939967441950e-02 -4.136135719146489e-02 9.191179304369217e-01 -8.201188345171616e-02 9.149758324064224e-01 -8.963025292492523e-02 1.897425990017444e-02 -4.916595355806397e-02
9.133600000000000e+10 -9.106887778052287e-02 -4.204252589370179e-02 9.190954259265612e-01 -8.205620445288092e-02 9.149525313816398e-01 -8.968004925828837e-02 1.919771001842650e-02 -4.915287086070777e-02
9.138400000000000e+10 -9.123581507716909e-02 -4.150123869158689e-02 9.190728422057154e-01 -8.210050834701338e-02 9.149292288714630e-01 -8.972976576453649e-02 1.940453466803645e-02 -4.922181794256686e-02
9.143200000000000e+10 -9.044125996169186e-02 -4.237788842829730e-02 9.190501789788891e-01 -8.214479898533321e-02 9.149059243842289e-01 -8.977940174694163e-02 1.994768710276354e-02 -4.906588622657567e-02
9.148000000000000e+10 -9.068131423145694e-02 -4.199813384653916e-02 9.190274360726652e-01 -8.218908028265877e-02 9.148826175828989e-01 -8.982895646978718e-02 2.041535255821819e-02 -4.935316033752322e-02
9.152800000000000e+10 -9.115338800675821e-02 -4.227504113759410e-02 9.190046132593245e-01 -8.223335607552901e-02 9.148593081776141e-01 -8.987842911361847e-02 1.993883924070853e-02 -4.945833315050853e-02
9.157600000000000e+10 -9.141311686118772e-02 -4.188073163555131e-02 9.189817103320764e-01 -8.227763011847410e-02 9.148359959321564e-01 -8.992781877351855e-02 1.978938251936229e-02 -4.945115052586178e-02
9.162400000000000e+10 -9.191237402878689e-02 -4.169339720086427e-02 9.189587270530580e-01 -8.232190617134086e-02 9.148126806706374e-01 -8.997712457307189e-02 2.060833190976090e-02 -4.963620523132527e-02
9.167200000000000e+10 -9.258088904347969e-02 -4.110235827416046e-02 9.189356631581121e-01 -8.236618791076487e-02 9.147893622625027e-01 -9.002634564644023e-02 1.974402306437845e-02 -4.976553521419251e-02
9.172000000000000e+10 -9.266669121678620e-02 -4.163079780651729e-02 9.189125185617711e-01 -8.241047879786710e-02 9.147660408419579e-01 -9.007548109224001e-02 1.910907949620484e-02 -4.979987320819534e-02
9.176800000000000e+10 -9.279953447689539e-02 -4.149707811583337e-02 9.188892933487839e-01 -8.245478228638146e-02 9.147427168602230e-01 -9.012453002344432e-02 1.976573585455844e-02 -4.974211467952548e-02
9.181600000000000e+10 -9.302590226266449e-02 -4.153990678186679e-02 9.188659877881555e-01 -8.249910177912789e-02 9.147193910259087e-01 -9.017349168157725e-02 1.966271653263442e-02 -5.009029504238027e-02
9.186400000000000e+10 -9.277570646344710e-02 -4.204934701070261e-02 9.188426023637346e-01 -8.254344067516999e-02 9.146960642512652e-01 -9.022236566755873e-02 1.891140539372335e-02 -4.958705151487122e-02
9.191200000000000e+10 -9.276983529658669e-02 -4.209583318033640e-02 9.188191377012522e-01 -8.258780252609597e-02 9.146727374462977e-01 -9.027115192725728e-02 2.012011769159238e-02 -4.965896258520262e-02
9.196000000000000e+10 -9.302437126037671e-02 -4.242036478976112e-02 9.187955945339815e-01 -8.263219101267084e-02 9.146494114097665e-01 -9.031985064284889e-02 2.054777823360639e-02 -4.960224167326667e-02
9.200800000000000e+10 -9.280863802684304e-02 -4.233377734616968e-02 9.187719736783824e-01 -8.267660981131243e-02 9.146260866281312e-01 -9.036846226678563e-02 2.013327601961739e-02 -4.913105578452871e-02
9.205600000000000e+10 -9.264859159067977e-02 -4.277673850133471e-02 9.187482757805447e-01 -8.272106270656517e-02 9.146027632010065e-01 -9.041698743708190e-02 2.062322556144774e-02 -4.891389699895215e-02
9.210400000000000e+10 -9.266182561280059e-02 -4.218615462508935e-02 9.187245012716261e-01 -8.276555349558143e-02 9.145794408298075e-01 -9.046542689783399e-02 2.132885007505936e-02 -4.905215989613190e-02
9.215200000000000e+10 -9.223777589980796e-02 -4.227064758417034e-02 9.187006502380920e-01 -8.281008608164242e-02 9.145561188778332e-01 -9.051378145536894e-02 2.152355831858045e-02 -4.874540028527193e-02
9.220000000000000e+10 -9.237644798405513e-02 -4.175600932951853e-02 9.186767224366359e-01 -8.285466449193062e-02 9.145327964770449e-01 -9.056205207422893e-02 2.132209167480284e-02 -4.884404733805512e-02
9.224800000000000e+10 -9.200675476940204e-02 -4.253746750042253e-02 9.186527172090779e-01 -8.289929276492987e-02 9.145094723757710e-01 -9.061023974914301e-02 2.132678283189177e-02 -4.921083444026549e-02
9.229600000000000e+10 -9.281295803496789e-02 -4.180796614844180e-02 9.186286335780487e-01 -8.294397484015786e-02 9.144861451239933e-01 -9.065834540286069e-02 2.151650674375350e-02 -4.913275411243589e-02
9.234400000000000e+10 -9.233364110308230e-02 -4.226830440078801e-02 9.186044701118605e-01 -8.298871471460660e-02 9.144628129347638e-01 -9.070637002498626e-02 2.129110603949350e-02 -4.959633574330802e-02
9.239200000000000e+10 -9.274745293503839e-02 -4.177607409947270e-02 9.185802251598315e-01 -8.303351625577263e-02 9.144394739763432e-01 -9.075431461380075e-02 2.156644564135966e-02 -4.932566493767743e-02
9.244000000000000e+10 -9.301958271775211e-02 -4.240119687256449e-02 9.185558968034794e-01 -8.307838323586487e-02 9.144161263795966e-01 -9.080218013930981e-02 2.123875975234125e-02 -4.951593513702635e-02
9.248800000000000e+10 -9.311388672302541e-02 -4.183483239114287e-02 9.185314830424965e-01 -8.312331930130445e-02 9.143927684826648e-01 -9.084996756140432e-02 2.171310126371289e-02 -4.908480048674471e-02
9.253600000000000e+10 -9.285096680549830e-02 -4.204404486761614e-02 9.185069818239484e-01 -8.316832812389668e-02 9.143693987298117e-01 -9.089767791526286e-02 2.225025184040725e-02 -4.904014182019036e-02
9.258400000000000e+10 -9.295662527001292e-02 -4.196683429279028e-02 9.184823911590132e-01 -8.321341330665236e-02 9.143460155394920e-01 -9.094531240555934e-02 2.243729749455280e-02 -4.906586384627004e-02
9.263200000000000e+10 -9.249917916410783e-02 -4.215694814161825e-02 9.184577091292514e-01 -8.325857837133976e-02 9.143226171296441e-01 -9.099287230986522e-02 2.266506138983383e-02 -4.863878000302108e-02
9.268000000000000e+10 -9.182786468145861e-02 -4.228058474535202e-02 9.184329338766134e-01 -8.330382683928121e-02 9.142992014695270e-01 -9.104035892016855e-02 2.300223676923726e-02 -4.858154379096462e-02
9.272800000000000e+10 -9.138435419189186e-02 -4.240216232677169e-02 9.184080635814846e-01 -8.334916219663034e-02 9.142757663022386e-01 -9.108777346173022e-02 2.389457732849464e-02 -4.846815493739325e-02
9.277600000000000e+10 -9.061256501091505e-02 -4.239721674748151e-02 9.183830963955294e-01 -8.339458792462584e-02 9.142523092063604e-01 -9.113511709497044e-02 2.435111982170838e-02 -4.829777657172644e-02
9.282400000000000e+10 -9.040008682113680e-02 -4.271763682506630e-02 9.183580304018641e-01 -8.344010747406902e-02 9.142288277175349e-01 -9.118239085996505e-02 2.464141131914752e-02 -4.846308170507409e-02
9.287200000000000e+10 -9.054151476908120e-02 -4.253513792695979e-02 9.183328636436431e-01 -8.348572419787360e-02 9.142053193996299e-01 -9.122959567147387e-02 2.469389897243381e-02 -4.844940016372053e-02
9.292000000000000e+10 -9.081348745405471e-02 -4.235133139676257e-02 9.183075941339484e-01 -8.353144112808036e-02 9.141817819285555e-01 -9.127673216052616e-02 2.459987863775827e-02 -4.868467177692042e-02
9.296800000000000e+10 -9.147079511251163e-02 -4.212714324683623e-02 9.182822197397201e-01 -8.357726101694082e-02 9.141582129645889e-01 -9.132380090230668e-02 2.472861020413466e-02 -4.877236833982748e-02
9.301600000000000e+10 -9.112407283464387e-02 -4.231723039099967e-02 9.182567379381488e-01 -8.362318647679262e-02 9.141346101558581e-01 -9.137080242913946e-02 2.461672207888888e-02 -4.862991690099390e-02
9.306400000000000e+10 -9.180603036532881e-02 -4.171122486227682e-02 9.182311461410518e-01 -8.366921966599031e-02 9.141109713644625e-01 -9.141773714664314e-02 2.494857385218476e-02 -4.861739692354361e-02
9.311200000000000e+10 -9.148476984839467e-02 -4.166936320354366e-02 9.182054418353851e-01 -8.371536240318181e-02 9.140872948461864e-01 -9.146460538605064e-02 2.459474820537952e-02 -4.853031404921556e-02
9.316000000000000e+10 -9.163993764220203e-02 -4.163055685740646e-02 9.181796227850556e-01 -8.376161616594135e-02 9.140635794053162e-01 -9.151140743857535e-02 2.512475354583399e-02 -4.878811512124168e-02
9.320800000000000e+10 -9.144517874913612e-02 -4.167473431349316e-02 9.181536871777783e-01 -8.380798225189962e-02 9.140398244249420e-01 -9.155814361003510e-02 2.445620986731012e-02 -4.861670650086086e-02
9.325600000000000e+10 -9.155634349529956e-02 -4.181488369370474e-02 9.181276336671579e-01 -8.385446173176650e-02 9.140160299218111e-01 -9.160481412835876e-02 2.495494781785360e-02 -4.873169596316232e-02
9.330400000000000e+10 -9.161166308837802e-02 -4.177420914758732e-02 9.181014614177485e-01 -8.390105537592617e-02 9.139921963119066e-01 -9.165141917185686e-02 2.504112293646548e-02 -4.891381291100516e-02
9.335200000000000e+10 -9.143968404278167e-02 -4.219627370541901e-02 9.180751699531132e-01 -8.394776381711198e-02 9.139683242550038e-01 -9.169795896483371e-02 2.532034499138633e-02 -4.874732867752157e-02
9.340000000000000e+10 -9.142818442872724e-02 -4.200001918429333e-02 9.180487592742447e-01 -8.399458737267669e-02 9.139444145136568e-01 -9.174443385089427e-02 2.567365560140452e-02 -4.825407415643373e-02
9.344800000000000e+10 -9.108894988836010e-02 -4.200532977206207e-02 9.180222296255526e-01 -8.404152625630949e-02 9.139204679795394e-01 -9.179084415668930e-02 2.567778511492244e-02 -4.830756269968726e-02
9.349600000000000e+10 -9.116508432295649e-02 -4.187779407535670e-02 9.179955814764728e-01 -8.408858054507104e-02 9.138964856246666e-01 -9.183719015026477e-02 2.554944185155957e-02 -4.861721744685726e-02
9.354400000000000e+10 -9.111390983457794e-02 -4.153874187690912e-02 9.179688155031248e-01 -8.413575020220673e-02 9.138724687136268e-01 -9.188347193203143e-02 2.604419901688271e-02 -4.880314532505772e-02
9.359200000000000e+10 -9.117767234096978e-02 -4.143899223235102e-02 9.179419325729982e-01 -8.418303501552882e-02 9.138484187531860e-01 -9.192968968352651e-02 2.606408663371341e-02 -4.890548963833782e-02
9.364000000000000e+10 -9.145491472376258e-02 -4.109956084893727e-02 9.179149337361495e-01 -8.423043462909803e-02 9.138243375666596e-01 -9.197584350083307e-02 2.541969468569477e-02 -4.926151606657080e-02
9.368800000000000e+10 -9.179306244191517e-02 -4.074890749419294e-02 9.178878202008228e-01 -8.427794871385411e-02 9.138002274175551e-01 -9.202193353248440e-02 2.492452263498262e-02 -4.975933903398155e-02
9.373600000000000e+10 -9.200333244919681e-02 -4.076649381992480e-02 9.178605934411294e-01 -8.432557667468935e-02 9.137760910171303e-01 -9.206795994328613e-02 2.479178775989702e-02 -5.019115132789987e-02
9.378400000000000e+10 -9.288618517584543e-02 -4.025924647275389e-02 9.178332550145352e-01 -8.437331789997216e-02 9.137519315280618e-01 -9.211392296144315e-02 2.478090208027463e-02 -5.025994660652083e-02
9.383200000000000e+10 -9.289818444536564e-02 -4.035149201124751e-02 9.178058065504331e-01 -8.442117162751422e-02 9.137277524883798e-01 -9.215982301768175e-02 2.406029539441872e-02 -5.061522114244201e-02
9.388000000000000e+10 -9.302650379332013e-02 -4.020480338573176e-02 9.177782498891700e-01 -8.446913696390279e-02 9.137035578209235e-01 -9.220566070574529e-02 2.444711609632227e-02 -5.037994754062090e-02
9.392800000000000e+10 -9.262323446508390e-02 -4.006368885755231e-02 9.177505871396755e-01 -8.451721292002816e-02 9.136793517606556e-01 -9.225143683569266e-02 2.468713653653186e-02 -5.011824460877830e-02
9.397600000000000e+10 -9.258763397802962e-02 -4.016050759605218e-02 9.177228206279791e-01 -8.456539846446538e-02 9.136551386552787e-01 -9.229715246499059e-02 2.515993199885138e-02 -5.005102465343857e-02
9.402400000000000e+10 -9.210628324837118e-02 -4.015977715565626e-02 9.176949530280851e-01 -8.461369253998093e-02 9.136309229251948e-01 -9.234280888540551e-02 2.511735534317247e-02 -4.976922310927389e-02
9.407200000000000e+10 -9.189692974934366e-02 -4.022133687985920e-02 9.176669873779962e-01 -8.466209414774341e-02 9.136067090499598e-01 -9.238840752136576e-02 2.531656558531047e-02 -4.933369329256167e-02
9.412000000000000e+10 -9.156810658706820e-02 -4.024099255492576e-02 9.176389270042679e-01 -8.471060243591745e-02 9.135825015498341e-01 -9.243394990871569e-02 2.590125269025649e-02 -4.969921833430994e-02
9.416800000000000e+10 -9.150739699593102e-02 -4.004560991647973e-02 9.176107755059525e-01 -8.475921658746127e-02 9.135583049366222e-01 -9.247943769130046e-02 2.599903185716446e-02 -4.961171680899242e-02
9.421600000000000e+10 -9.182449928539163e-02 -3.991337385999719e-02 9.175825367616679e-01 -8.480793588083052e-02 9.135341238953261e-01 -9.252487257347236e-02 2.541091095995176e-02 -4.961354511464584e-02
9.426400000000000e+10 -9.170701758970019e-02 -3.989695779080445e-02 9.175542147062654e-01 -8.485675966671520e-02 9.135099632198245e-01 -9.257025626928081e-02 2.504573622219062e-02 -4.999428053739525e-02
9.431200000000000e+10 -9.273446065778833e-02 -3.993717563885979e-02 9.175258132366240e-01 -8.490568739937582e-02 9.134858276718895e-01 -9.261559063841035e-02 2.491351354650608e-02 -5.030077656270426e-02
9.436000000000000e+10 -9.279859166732524e-02 -3.935003010638056e-02 9.174973360859812e-01 -8.495471871922228e-02 9.134617220739202e-01 -9.266087759348761e-02 2.476787544237157e-02 -5.002442356799528e-02
9.440800000000000e+10 -9.282203241781084e-02 -3.934819972680892e-02 9.174687867603871e-01 -8.500385321484862e-02 9.134376511889764e-01 -9.270611918621630e-02 2.457788465572222e-02 -5.006769218785000e-02
9.445600000000000e+10 -9.321503008549407e-02 -3.910251918748321e-02 9.174401685509695e-01 -8.505309044914615e-02 9.134136197839986e-01 -9.275131744200441e-02 2.443168226584780e-02 -5.009201131215177e-02
9.450400000000000e+10 -9.322313030671099e-02 -3.882092654228540e-02 9.174114846323567e-01 -8.510243003762755e-02 9.133896326660954e-01 -9.279647451539599e-02 2.391243149143121e-02 -5.048386126987641e-02
9.455200000000000e+10 -9.348390207198568e-02 -3.875625779524988e-02 9.173827380285920e-01 -8.515187163102447e-02 9.133656946223041e-01 -9.284159264835257e-02 2.406610749407925e-02 -5.020909414783991e-02
9.460000000000000e+10 -9.299276048952798e-02 -3.868381818172120e-02 9.173539318491633e-01 -8.520141489156466e-02 9.133418105125851e-01 -9.288667434257795e-02 2.463683831685715e-02 -5.013512759290889e-02
9.464800000000000e+10 -9.270128946398370e-02 -3.893766489386195e-02 9.173250692550970e-01 -8.525105968055190e-02 9.133179852062265e-01 -9.293172227539589e-02 2.435398910877820e-02 -4.988458240295429e-02
9.469600000000000e+10 -9.223210002484450e-02 -3.872913330275294e-02 9.172961536333415e-01 -8.530080588408899e-02 9.132942235572630e-01 -9.297673924423122e-02 2.459106056222697e-02 -5.019462093715652e-02
9.474400000000000e+10 -9.186570596226092e-02 -3.886492548734043e-02 9.172671884296645e-01 -8.535065372297261e-02 9.132705302291052e-01 -9.302172840079166e-02 2.530388648479205e-02 -5.017954022044354e-02
9.479200000000000e+10 -9.162001419286497e-02 -3.897677691571242e-02 9.172381773173646e-01 -8.540060340026906e-02 9.132469096515463e-01 -9.306669315451313e-02 2.545514400880960e-02 -4.986374037434627e-02
9.484000000000000e+10 -9.148345641516942e-02 -3.892989363833081e-02 9.172091240587498e-01 -8.545065535390448e-02 9.132233660741380e-01 -9.311163713062914e-02 2.589085532331097e-02 -4.968966308125907e-02
9.488800000000000e+10 -9.063935783681688e-02 -3.894832089804063e-02 9.171800323838899e-01 -8.550081030415302e-02 9.131999035005895e-01 -9.315656433822392e-02 2.610005131658662e-02 -4.964999244712996e-02
9.493600000000000e+10 -9.181052226429619e-02 -3.855962693855523e-02 9.171509059536849e-01 -8.555106916041225e-02 9.131765257893596e-01 -9.320147897394047e-02 2.542767783444903e-02 -4.982131285967546e-02
9.498400000000000e+10 -9.115177447387141e-02 -3.787495114505823e-02 9.171217481768823e-01 -8.560143310111007e-02 9.131532366290203e-01 -9.324638558650390e-02 2.611283244415422e-02 -4.950946218459926e-02
9.503200000000000e+10 -9.190640483978779e-02 -3.758218607162830e-02 9.170925617915343e-01 -8.565190355214861e-02 9.131300395239429e-01 -9.329128911713309e-02 2.520894030276664e-02 -4.890029073538188e-02
9.508000000000000e+10 -9.237184405895077e-02 -3.749319115842937e-02 9.170633485800790e-01 -8.570248182366513e-02 9.131069372256696e-01 -9.333619481203498e-02 2.509381256336261e-02 -5.011335188593832e-02
9.512800000000000e+10 -9.279687534879449e-02 -3.780130234193060e-02 9.170341097468185e-01 -8.575316905964395e-02 9.130839320519311e-01 -9.338110790924559e-02 2.490744860641847e-02 -5.012933462971159e-02
9.517600000000000e+10 -9.302864857197699e-02 -3.762121211812185e-02 9.170048459210751e-01 -8.580396650552712e-02 9.130610258701494e-01 -9.342603375882549e-02 2.447820597962108e-02 -5.020352065619545e-02
9.522400000000000e+10 -9.347746887352699e-02 -3.747526306296659e-02 9.169755572182436e-01 -8.585487529376157e-02 9.130382200488696e-01 -9.347097778639517e-02 2.427500556358133e-02 -5.032362590683249e-02
9.527200000000000e+10 -9.324492292468015e-02 -3.774875595712403e-02 9.169462432640592e-01 -8.590589641890743e-02 9.130155153941861e-01 -9.351594564693065e-02 2.436279674692799e-02 -4.994716785497352e-02
9.532000000000000e+10 -9.337391692225347e-02 -3.744720895051953e-02 9.169169032297200e-01 -8.595703079736283e-02 9.129929121527164e-01 -9.356094310985845e-02 2.440725077466173e-02 -4.968334612473389e-02
9.536800000000000e+10 -9.301114224952862e-02 -3.770386327958797e-02 9.168875359459784e-01 -8.600827920386002e-02 9.129704099778625e-01 -9.360597617749458e-02 2.494499360567998e-02 -4.929065505382465e-02
9.541600000000000e+10 -9.267184884111861e-02 -3.769532417810511e-02 9.168581398140548e-01 -8.605964236774580e-02 9.129480077419575e-01 -9.365105112503257e-02 2.525975548562299e-02 -4.886887743641646e-02
9.546400000000000e+10 -9.237570258304342e-02 -3.817419043514456e-02 9.168287129628138e-01 -8.611112085751027e-02 9.129257036041014e-01 -9.369617433383202e-02 2.540966335162562e-02 -4.856745518070813e-02
9.551200000000000e+10 -9.197469884972059e-02 -3.821979779632300e-02 9.167992530662143e-01 -8.616271520434945e-02 9.129034948840321e-01 -9.374135229814748e-02 2.584567417910241e-02 -4.855950027628381e-02
9.556000000000000e+10 -9.163652967624088e-02 -3.799642883108969e-02 9.167697573377417e-01 -8.621442584452843e-02 9.128813781401524e-01 -9.378659163494195e-02 2.580492039476135e-02 -4.848349160540977e-02
9.560800000000000e+10 -9.181657268000697e-02 -3.798065415907443e-02 9.167402224230367e-01 -8.626625316096054e-02 9.128593491565027e-01 -9.383189906509710e-02 2.599942068986236e-02 -4.854712875227152e-02
9.565600000000000e+10 -9.156473802445239e-02 -3.773221596888027e-02 9.167106444654275e-01 -8.631819735884964e-02 9.128374030558857e-01 -9.387728143893252e-02 2.623164806836063e-02 -4.881594384633495e-02
9.570400000000000e+10 -9.187540165216508e-02 -3.771015110713833e-02 9.166810189896670e-01 -8.637025839767076e-02 9.128155342801527e-01 -9.392274576384141e-02 2.651171694960157e-02 -4.885557254680906e-02
9.575200000000000e+10 -9.167979638123137e-02 -3.763658803191508e-02 9.166513408437783e-01 -8.642243605647612e-02 9.127937366030273e-01 -9.396829926001959e-02 2.596807270793069e-02 -4.882893933469053e-02
9.580000000000000e+10 -9.235763113182031e-02 -3.735204656609056e-02 9.166216043519273e-01 -8.647472977101045e-02 9.127720031833576e-01 -9.401394920257025e-02 2.596913633260912e-02 -4.902488989911687e-02
9.584800000000000e+10 -9.228427537736388e-02 -3.713644042445257e-02 9.165918033793030e-01 -8.652713864955490e-02 9.127503265380068e-01 -9.405970292824153e-02 2.561563674839818e-02 -4.912917808835959e-02
9.589600000000000e+10 -9.254626962468722e-02 -3.701371949698816e-02 9.165619314688873e-01 -8.657966157821662e-02 9.127286987499579e-01 -9.410556781771540e-02 2.581129742257190e-02 -4.905334558937751e-02
9.594400000000000e+10 -9.201645652119907e-02 -3.729813157873877e-02 9.165319818643042e-01 -8.663229735239121e-02 9.127071115080735e-01 -9.415155134442246e-02 2.549364355730026e-02 -4.895268144416029e-02
9.599200000000000e+10 -9.221207357514004e-02 -3.754166993319649e-02 9.165019476516106e-01 -8.668504459850834e-02 9.126855562345740e-01 -9.419766093642575e-02 2.564485851567541e-02 -4.888930831877091e-02
9.604000000000000e+10 -9.213871489092069e-02 -3.728015083717446e-02 9.164718218923380e-01 -8.673790170954235e-02 9.126640241147026e-01 -9.424390403033724e-02 2.686540632930496e-02 -4.897020777058188e-02
9.608800000000000e+10 -9.129340116023316e-02 -3.771505838499595e-02 9.164415976129743e-01 -8.679086700155439e-02 9.126425061137670e-01 -9.429028825236034e-02 2.656074461185164e-02 -4.887182970447801e-02
9.613600000000000e+10 -9.151887720675224e-02 -3.801003265418423e-02 9.164112680156735e-01 -8.684393852085660e-02 9.126209930562856e-01 -9.433682121269388e-02 2.694498590160822e-02 -4.794741260048963e-02
9.618400000000000e+10 -9.044891340030679e-02 -3.769039335462605e-02 9.163808265700387e-01 -8.689711402912415e-02 9.125994756618883e-01 -9.438351051021229e-02 2.736105604889884e-02 -4.763434261638219e-02
9.623200000000000e+10 -9.096229004190536e-02 -3.795814921299257e-02 9.163502668806353e-01 -8.695039129707575e-02 9.125779445555471e-01 -9.443036379012140e-02 2.741972912175822e-02 -4.806040372057619e-02
9.628000000000000e+10 -9.059700015734914e-02 -3.802008428603323e-02 9.163195828486628e-01 -8.700376788964587e-02 9.125563903263738e-01 -9.447738868548575e-02 2.711433646006019e-02 -4.754216508318645e-02
9.632800000000000e+10 -9.045754392619013e-02 -3.850747720704482e-02 9.162887684924496e-01 -8.705724143198032e-02 9.125348036597764e-01 -9.452459271326435e-02 2.767691749364250e-02 -4.723578179264267e-02
9.637600000000000e+10 -9.035041655814305e-02 -3.820187274811745e-02 9.162578178645577e-01 -8.711080965882302e-02 9.125131752731431e-01 -9.457198333903859e-02 2.772255194648501e-02 -4.693422513081334e-02
9.642400000000000e+10 -9.054345328770094e-02 -3.828441299998372e-02 9.162267251023436e-01 -8.716447036428623e-02 9.124914959372902e-01 -9.461956807713059e-02 2.735430143948236e-02 -4.711602287609416e-02
9.647200000000000e+10 -9.043580364666182e-02 -3.824135882768550e-02 9.161954843049639e-01 -8.721822139723631e-02 9.124697565064741e-01 -9.466735440710480e-02 2.750845568717153e-02 -4.696141820179352e-02
9.652000000000000e+10 -9.089238365608607e-02 -3.820066324465228e-02 9.161640896265051e-01 -8.727206056682418e-02 9.124479477576064e-01 -9.471534994785519e-02 2.759898886845654e-02 -4.710073865879149e-02
9.656800000000000e+10 -9.027848857273732e-02 -3.807460130924784e-02 9.161325352858978e-01 -8.732598567267502e-02 9.124260604406029e-01 -9.476356235062529e-02 2.716825516038611e-02 -4.629244166048939e-02
9.661600000000000e+10 -9.126936539543842e-02 -3.795372834256164e-02 9.161008157622337e-01 -8.737999444037303e-02 9.124040856129619e-01 -9.481199902695692e-02 2.780027342587079e-02 -4.662518952343718e-02
9.666400000000000e+10 -9.128948430976261e-02 -3.801667154874536e-02 9.160689250888235e-01 -8.743408453859987e-02 9.123820144151046e-01 -9.486066749038298e-02 2.753755455351661e-02 -4.665863107580126e-02
9.671200000000000e+10 -9.102126852734210e-02 -3.809217217221947e-02 9.160368576830759e-01 -8.748825373936016e-02 9.123598381226538e-01 -9.490957545651370e-02 2.745200363240500e-02 -4.667158230204720e-02
9.676000000000000e+10 -9.171811179165157e-02 -3.841867911404893e-02 9.160046084138146e-01 -8.754249982251909e-02 9.123375480527762e-01 -9.495873071066566e-02 2.684900001971355e-02 -4.648970717991611e-02
9.680800000000000e+10 -9.108711556332010e-02 -3.846540103236571e-02 9.159721725319729e-01 -8.759682057120582e-02 9.123151355951599e-01 -9.500814093945173e-02 2.693321918597260e-02 -4.641110099039415e-02
9.685600000000000e+10 -9.120102827704396e-02 -3.826947513011493e-02 9.159395454934537e-01 -8.765121390905975e-02 9.122925919701965e-01 -9.505781400057242e-02 2.738205867550415e-02 -4.575298884831142e-02
9.690400000000000e+10 -9.108689334672657e-02 -3.870326450763665e-02 9.159067229447315e-01 -8.770567781963205e-02 9.122699083816604e-01 -9.510775767161951e-02 2.690556526870863e-02 -4.542823519936161e-02
9.695200000000000e+10 -9.095426143286894e-02 -3.856237870586061e-02 9.158737005865785e-01 -8.776021038849514e-02 9.122470761116169e-01 -9.515797956535184e-02 2.708971302415759e-02 -4.538237229714822e-02
9.700000000000000e+10 -9.065972538852737e-02 -3.850722481043681e-02 9.158404739939758e-01 -8.781480974227625e-02 9.122240862393149e-01 -9.520848730166420e-02 2.779689557212176e-02 -4.545340675342945e-02
9.704800000000000e+10 -9.041481136299785e-02 -3.853153672982845e-02 9.158070386145251e-01 -8.786947398215918e-02 9.122009296975975e-01 -9.525928841522228e-02 2.774604017169900e-02 -4.529034592243236e-02
9.709600000000000e+10 -9.047904617600661e-02 -3.881647053485555e-02 9.157733898212823e-01 -8.792420111106071e-02 9.121775973465157e-01 -9.531039025214372e-02 2.778089535928166e-02 -4.490248233326446e-02
9.714400000000000e+10 -9.009339656006791e-02 -3.883531170716607e-02 9.157395228608080e-01 -8.797898907859025e-02 9.121540799764301e-01 -9.536179986056621e-02 2.777171857001734e-02 -4.515060815004840e-02
9.719200000000000e+10 -9.014918515209723e-02 -3.862195009867239e-02 9.157054327099987e-01 -8.803383575331540e-02 9.121303680146142e-01 -9.541352408292465e-02 2.795580527043688e-02 -4.493403111402126e-02
9.724000000000000e+10 -8.974268642292330e-02 -3.866290212908226e-02 9.156711141921821e-01 -8.808873896520310e-02 9.121064517677931e-01 -9.546556946097412e-02 2.779791415451373e-02 -4.467089113738612e-02
9.728800000000000e+10 -8.983159076670579e-02 -3.838613275356559e-02 9.156365620750234e-01 -8.814369639677982e-02 9.120823214481431e-01 -9.551794216999038e-02 2.746782666693609e-02 -4.460469973243075e-02
9.733600000000000e+10 -8.997644799307965e-02 -3.840052997178277e-02 9.156017712605956e-01 -8.819870559264001e-02 9.120579674414869e-01 -9.557064800770607e-02 2.789315373359037e-02 -4.481278000110270e-02
9.738400000000000e+10 -8.959937234308975e-02 -3.828354797842655e-02 9.155667364923038e-01 -8.825376415915792e-02 9.120333798935957e-01 -9.562369254851105e-02 2.790656827279274e-02 -4.442086614570821e-02
9.743200000000000e+10 -8.995511328685454e-02 -3.852986498342007e-02 9.155314526056718e-01 -8.830886950866626e-02 9.120085489583211e-01 -9.567708090913515e-02 2.771867220912355e-02 -4.400767601846761e-02
9.748000000000000e+10 -8.953620320744388e-02 -3.859924764219478e-02 9.154959146802020e-01 -8.836401880361346e-02 9.119834648143323e-01 -9.573081770967341e-02 2.793603437148997e-02 -4.411678890262299e-02
9.752800000000000e+10 -9.001705551494764e-02 -3.833381820456509e-02 9.154601178510373e-01 -8.841920926536487e-02 9.119581174742610e-01 -9.578490741837958e-02 2.827886593035139e-02 -4.390443214516947e-02
9.757600000000000e+10 -8.965879806227464e-02 -3.852070403700979e-02 9.154240572325195e-01 -8.847443797162009e-02 9.119324968383011e-01 -9.583935410037417e-02 2.819521416110985e-02 -4.364509987020119e-02
9.762400000000000e+10 -9.021538479025087e-02 -3.843428562137303e-02 9.153877279083721e-01 -8.852970198768949e-02 9.119065928470252e-01 -9.589416135180755e-02 2.779274374687198e-02 -4.381560110932102e-02
9.767200000000000e+10 -8.948343570166498e-02 -3.833590576943605e-02 9.153511249037815e-01 -8.858499788675478e-02 9.118803953941738e-01 -9.594933226276672e-02 2.833611021854494e-02 -4.370862404263377e-02
9.772000000000000e+10 -8.982358622992956e-02 -3.856033573939402e-02 9.153142430700227e-01 -8.864032217510723e-02 9.118538942393758e-01 -9.600486958126936e-02 2.840730484791489e-02 -4.357446911661112e-02
9.776800000000000e+10 -9.008858141407849e-02 -3.824501846358844e-02 9.152770771655948e-01 -8.869567100422787e-02 9.118270792481870e-01 -9.606077543408903e-02 2.820891493760658e-02 -4.346943916846425e-02
9.781600000000000e+10 -9.002588440237332e-02 -3.803982527657927e-02 9.152396218547555e-01 -8.875104032612591e-02 9.117999404692404e-01 -9.611705133918939e-02 2.782053320028114e-02 -4.387882058548280e-02
9.786400000000000e+10 -8.897328264127694e-02 -3.839071320192243e-02 9.152018716470977e-01 -8.880642603947482e-02 9.117724681825353e-01 -9.617369849787466e-02 2.831122583874064e-02 -4.382386301732306e-02
9.791200000000000e+10 -8.878618710305460e-02 -3.899960644806361e-02 9.151638206932056e-01 -8.886182384707635e-02 9.117446526831333e-01 -9.623071790406358e-02 2.840114185519988e-02 -4.302574570034296e-02
9.796000000000000e+10 -8.932284251933080e-02 -3.867265239123206e-02 9.151254632870097e-01 -8.891722911213233e-02 9.117164841249570e-01 -9.628811011253752e-02 2.844724114798681e-02 -4.298341832925643e-02
9.800800000000000e+10 -8.955145365555058e-02 -3.890273386777063e-02 9.150867936223124e-01 -8.897263701078705e-02 9.116879525259388e-01 -9.634587495176343e-02 2.842518128868989e-02 -4.356146511973531e-02
9.805600000000000e+10 -8.943783663028711e-02 -3.857242500958332e-02 9.150478060561338e-01 -8.902804251445506e-02 9.116590480216969e-01 -9.640401169271678e-02 2.862090520479473e-02 -4.331088445267725e-02
9.810400000000000e+10 -8.960206136994994e-02 -3.861504481745161e-02 9.150084950109435e-01 -8.908344046063886e-02 9.116297609730394e-01 -9.646251906219225e-02 2.848204546544732e-02 -4.299631331976190e-02
9.815200000000000e+10 -9.004583079738826e-02 -3.851161593221521e-02 9.149688550505937e-01 -8.913882535950376e-02 9.116000821930430e-01 -9.652139510634214e-02 2.847498933368086e-02 -4.366194649757837e-02
9.820000000000000e+10 -8.967553452936705e-02 -3.867277185680112e-02 9.149288809315799e-01 -8.919419141750846e-02 9.115700027881742e-01 -9.658063738750902e-02 2.859467902792928e-02 -4.288799311140473e-02
9.824800000000000e+10 -8.904683586376116e-02 -3.890674143120985e-02 9.148885677903290e-01 -8.924953252842807e-02 9.115395141410800e-01 -9.664024320903211e-02 2.863930871993142e-02 -4.263055982724553e-02
9.829600000000000e+10 -8.931445884538425e-02 -3.882849695446918e-02 9.148479109943398e-01 -8.930484223305446e-02 9.115086078126062e-01 -9.670020932065078e-02 2.842659002518936e-02 -4.297518983397460e-02
9.834400000000000e+10 -8.946594542752090e-02 -3.907275910422294e-02 9.148069061901115e-01 -8.936011382127358e-02 9.114772755184115e-01 -9.676053205010714e-02 2.886081432300231e-02 -4.322486594359249e-02
9.839200000000000e+10 -8.971236375289417e-02 -3.920658196621124e-02 9.147655493716794e-01 -8.941534039878453e-02 9.114455090816557e-01 -9.682120751573293e-02 2.916116388585894e-02 -4.310831895183451e-02
9.844000000000000e+10 -8.934700170773852e-02 -3.974339143338042e-02 9.147238367129116e-01 -8.947051493056489e-02 9.114133004926522e-01 -9.688223138754151e-02 2.913810062220621e-02 -4.302386159758856e-02
9.848800000000000e+10 -8.980045865027823e-02 -3.955615590102731e-02 9.146817645587855e-01 -8.952563028047239e-02 9.113806419767272e-01 -9.694359876875026e-02 2.876827026829761e-02 -4.259644300176146e-02
9.853600000000000e+10 -9.064208996388022e-02 -4.011447340284010e-02 9.146393294714148e-01 -8.958067908398697e-02 9.113475259908778e-01 -9.700530426272620e-02 2.865558376707871e-02 -4.313521867549047e-02
9.858400000000000e+10 -9.084762248331867e-02 -3.951096111104321e-02 9.145965280040673e-01 -8.963565384669812e-02 9.113139448502453e-01 -9.706734216238873e-02 2.842238775484838e-02 -4.280885217977533e-02
9.863200000000000e+10 -9.073496429766457e-02 -3.964099752234032e-02 9.145533564201004e-01 -8.969054693480134e-02 9.112798904209908e-01 -9.712970632716933e-02 2.878052083186247e-02 -4.202317705940595e-02
9.868000000000000e+10 -9.095130904918231e-02 -3.893916589373005e-02 9.145098108882336e-01 -8.974535036028973e-02 9.112453543041500e-01 -9.719239000200493e-02 2.898672036265373e-02 -4.311797149471066e-02
9.872800000000000e+10 -9.096809755805806e-02 -3.903183266879561e-02 9.144658877840405e-01 -8.980005578654808e-02 9.112103281566176e-01 -9.725538551474659e-02 2.886752207157929e-02 -4.346772025610911e-02
9.877600000000000e+10 -9.043602950770785e-02 -3.947019372231963e-02 9.144215837612688e-01 -8.985465479900527e-02 9.111748038704243e-01 -9.731868466629864e-02 2.900937585351916e-02 -4.246580231388582e-02
9.882400000000000e+10 -8.997058592053876e-02 -3.966654930248958e-02 9.143768957250649e-01 -8.990913900234315e-02 9.111387736138318e-01 -9.738227877528170e-02 2.940571766744401e-02 -4.225817284878413e-02
9.887200000000000e+10 -9.020353041494505e-02 -3.959319558937752e-02 9.143318207349885e-01 -8.996349997249022e-02 9.111022297035574e-01 -9.744615824544443e-02 2.970355089171654e-02 -4.261782217741387e-02
9.892000000000000e+10 -9.012572288852085e-02 -3.981177067655770e-02 9.142863561847956e-01 -9.001772915015795e-02 9.110651647232089e-01 -9.751031286276843e-02 2.972800902043961e-02 -4.234905883824228e-02
9.896800000000000e+10 -8.991697565958703e-02 -3.959681329108294e-02 9.142404996862195e-01 -9.007181789763491e-02 9.110275714355432e-01 -9.757473189965465e-02 3.001992247561587e-02 -4.221491340800738e-02
9.901600000000000e+10 -9.008392291060111e-02 -3.993656813435105e-02 9.141942491567204e-01 -9.012575751348993e-02 9.109894428178825e-01 -9.763940413409972e-02 3.039881635871705e-02 -4.237569933274559e-02
9.906400000000000e+10 -9.003947869478039e-02 -3.968522005624200e-02 9.141476028696429e-01 -9.017953922761589e-02 9.109507721802665e-01 -9.770431772036249e-02 3.060763411530456e-02 -4.206549051592118e-02
9.911200000000000e+10 -9.091769755391972e-02 -3.906890749933484e-02 9.141005594477136e-01 -9.023315429430996e-02 9.109115531631310e-01 -9.776946028284238e-02 3.049500443350707e-02 -4.253445729013069e-02
9.916000000000000e+10 -9.043039856168686e-02 -3.902773251368150e-02 9.140531178120938e-01 -9.028659381357493e-02 9.108717797025820e-01 -9.783481885558125e-02 3.028795916460770e-02 -4.234203593783787e-02
9.920800000000000e+10 -8.971049596366613e-02 -3.923178539155968e-02 9.140052773480187e-01 -9.033984899052794e-02 9.108314463245308e-01 -9.790037989188564e-02 3.038734526746574e-02 -4.230553897329315e-02
9.925600000000000e+10 -8.990905771721325e-02 -3.901459343801747e-02 9.139570377981383e-01 -9.039291093787495e-02 9.107905481974726e-01 -9.796612928387891e-02 3.044478954708888e-02 -4.242749758710524e-02
9.930400000000000e+10 -9.031974429801053e-02 -3.852287727177170e-02 9.139083992735816e-01 -9.044577066510871e-02 9.107490812011401e-01 -9.803205246371449e-02 3.079338177985307e-02 -4.287200088135482e-02
9.935200000000000e+10 -9.022451724050348e-02 -3.937402744460639e-02 9.138593623568334e-01 -9.049841918395812e-02 9.107070419595308e-01 -9.809813447952972e-02 3.061174110463151e-02 -4.261804117090269e-02
9.940000000000000e+10 -8.999541044756318e-02 -3.895517018219579e-02 9.138099281700873e-01 -9.055084752318608e-02 9.106644279275845e-01 -9.816435993702118e-02 3.053038817176242e-02 -4.230198639136751e-02
9.944800000000000e+10 -9.060312836680465e-02 -3.888582413949206e-02 9.137600983745588e-01 -9.060304677425685e-02 9.106212371513536e-01 -9.823071325856837e-02 3.086185455892874e-02 -4.285162628342953e-02
9.949600000000000e+10 -9.085836610138036e-02 -3.840236930093515e-02 9.137098752699654e-01 -9.065500790490690e-02 9.105774682977700e-01 -9.829717856173677e-02 3.139678221050676e-02 -4.293098050152916e-02
9.954400000000000e+10 -9.100955840735542e-02 -3.881181386799624e-02 9.136592618939148e-01 -9.070672190923181e-02 9.105331209938896e-01 -9.836373966857506e-02 3.106752757618956e-02 -4.321052018476594e-02
9.959200000000000e+10 -9.102667684392715e-02 -3.883749540246647e-02 9.136082621785724e-01 -9.075817978256104e-02 9.104881960042346e-01 -9.843038014914120e-02 3.120447087732675e-02 -4.317043027867297e-02
9.964000000000000e+10 -9.104313625665275e-02 -3.869253315651529e-02 9.135568808746574e-01 -9.080937270812847e-02 9.104426949243379e-01 -9.849708357955653e-02 3.128891337235504e-02 -4.277550033239832e-02
9.968800000000000e+10 -9.119511161630901e-02 -3.856543805381304e-02 9.135051235890111e-01 -9.086029188397111e-02 9.103966201186177e-01 -9.856383346206793e-02 3.204579189009300e-02 -4.350106662669662e-02
9.973600000000000e+10 -9.095532694887805e-02 -3.865190499308911e-02 9.134529967227454e-01 -9.091092842248978e-02 9.103499747915104e-01 -9.863061303266164e-02 3.139221587340471e-02 -4.304137910298730e-02
9.978400000000000e+10 -9.017459580582263e-02 -3.902227418519648e-02 9.134005074522167e-01 -9.096127342336154e-02 9.103027628966261e-01 -9.869740545953798e-02 3.118756532853780e-02 -4.249024011218824e-02
9.983200000000000e+10 -9.026936940064698e-02 -3.907267486445209e-02 9.133476636756590e-01 -9.101131805443521e-02 9.102549891496816e-01 -9.876419381142297e-02 3.249664743615485e-02 -4.326080871027275e-02
9.988000000000000e+10 -9.091669169346039e-02 -3.885184414221253e-02 9.132944740348596e-01 -9.106105342029705e-02 9.102066590260831e-01 -9.883096102949215e-02 3.289581807722926e-02 -4.354202177914145e-02
9.992800000000000e+10 -9.054788081624389e-02 -3.924700458736267e-02 9.132409475752860e-01 -9.111047068357518e-02 9.101577785690569e-01 -9.889769000011728e-02 3.211995006257571e-02 -4.229803761584858e-02
9.997600000000000e+10 -9.004908017957201e-02 -3.954584895679340e-02 9.131870939533278e-01 -9.115956111326103e-02 9.101083545297529e-01 -9.896436364527009e-02 3.250389325747570e-02 -4.236916549790742e-02
1.000240000000000e+11 -9.086763571611649e-02 -3.898566524699672e-02 9.131329233654896e-01 -9.120831600710498e-02 9.100583943407496e-01 -9.903096474228723e-02 3.336601831432749e-02 -4.346674145362477e-02
1.000720000000000e+11 -9.053949425181283e-02 -3.890457391896981e-02 9.130784462341720e-01 -9.125672666274841e-02 9.100079060471165e-01 -9.909747582359520e-02 3.313961953869680e-02 -4.275342757442547e-02
1.001200000000000e+11 -9.056723021740419e-02 -3.918630397004579e-02 9.130236733896021e-01 -9.130478466438434e-02 9.099568981427341e-01 -9.916387941218419e-02 3.205080964349862e-02 -4.265848241828667e-02
1.001680000000000e+11 -9.127416461431694e-02 -3.856192423289522e-02 9.129686161557721e-01 -9.135248166026382e-02 9.099053796868651e-01 -9.923015792276579e-02 3.282736000568594e-02 -4.329283643648400e-02
1.002160000000000e+11 -9.151374692376731e-02 -3.885076089766514e-02 9.129132863026297e-01 -9.139980947029894e-02 9.098533602693588e-01 -9.929629351143378e-02 3.287457460927819e-02 -4.329902569184080e-02
1.002640000000000e+11 -9.089368554998196e-02 -3.902957736285256e-02 9.128576960502967e-01 -9.144676009226943e-02 9.098008499485356e-01 -9.936226830993843e-02 3.162837238470653e-02 -4.282089480723994e-02
1.003120000000000e+11 -9.086281012545000e-02 -3.888243759327626e-02 9.128018579737208e-01 -9.149332576663786e-02 9.097478591395386e-01 -9.942806445643097e-02 3.293567429649317e-02 -4.320943802755960e-02
1.003600000000000e+11 -9.109201185736533e-02 -3.904845776144689e-02 9.127457850070588e-01 -9.153949901537080e-02 9.096943988082999e-01 -9.949366409384598e-02 3.310462201784660e-02 -4.312579359656777e-02
1.004080000000000e+11 -9.109155641163727e-02 -3.819384997543712e-02 9.126894906322902e-01 -9.158527259952096e-02 9.096404806402217e-01 -9.955904933537985e-02 3.311809875491102e-02 -4.237089968772675e-02
1.004560000000000e+11 -9.090958946646177e-02 -3.896135883882206e-02 9.126329882630630e-01 -9.163063958433688e-02 9.095861168070679e-01 -9.962420237412396e-02 3.325196985289417e-02 -4.309310622620863e-02
1.005040000000000e+11 -9.088112814758947e-02 -3.840145044650304e-02 9.125762916267686e-01 -9.167559313079891e-02 9.095313204832127e-01 -9.968910541960528e-02 3.338492815134611e-02 -4.299322773957482e-02
1.005520000000000e+11 -9.092321486972881e-02 -3.911522684179908e-02 9.125194147058993e-01 -9.172012653851830e-02 9.094761057065863e-01 -9.975374074064064e-02 3.416945198615736e-02 -4.336729126355570e-02
1.006000000000000e+11 -9.086910182552542e-02 -3.819278852161942e-02 9.124623716559196e-01 -9.176423312699097e-02 9.094204869206579e-01 -9.981809072443533e-02 3.349329793307872e-02 -4.281328297758942e-02
1.006480000000000e+11 -9.086551413381916e-02 -3.914803042825873e-02 9.124051766685770e-01 -9.180790658952187e-02 9.093644788002537e-01 -9.988213781691263e-02 3.319642452841651e-02 -4.389630807403900e-02
1.006960000000000e+11 -9.010513298196976e-02 -3.854261398200073e-02 9.123478443846585e-01 -9.185114078879751e-02 9.093080966043473e-01 -9.994586443380904e-02 3.365460023487076e-02 -4.305122467421283e-02
1.007440000000000e+11 -8.960073361418874e-02 -3.908894574371390e-02 9.122903896340541e-01 -9.189393005145395e-02 9.092513559566962e-01 -1.000092532720011e-01 3.370102711016259e-02 -4.284346327164305e-02
1.007920000000000e+11 -9.034775784708744e-02 -3.842161405223399e-02 9.122328277859861e-01 -9.193626864002279e-02 9.091942737129106e-01 -1.000722870376285e-01 3.327284795564211e-02 -4.333837176244668e-02
1.008400000000000e+11 -9.010135283480768e-02 -3.888892595097591e-02 9.121751741034037e-01 -9.197815106795200e-02 9.091368672049295e-01 -1.001349483435448e-01 3.322146827387439e-02 -4.333591146280618e-02
1.008880000000000e+11 -9.078101525479176e-02 -3.913157145158482e-02 9.121174442647699e-01 -9.201957196720469e-02 9.090791544659028e-01 -1.001972199025941e-01 3.383023524599720e-02 -4.317988315298948e-02
1.009360000000000e+11 -9.040871579986653e-02 -3.945557479923417e-02 9.120596542621658e-01 -9.206052625658522e-02 9.090211541451858e-01 -1.002590848043597e-01 3.389464626968972e-02 -4.324143423121431e-02
1.009840000000000e+11 -9.094625173406497e-02 -3.900910313174503e-02 9.120018204631183e-01 -9.210100895247737e-02 9.089628857215972e-01 -1.003205263672422e-01 3.367406678480322e-02 -4.341080540405174e-02
1.010320000000000e+11 -9.174172800625484e-02 -3.898537048129518e-02 9.119439594073198e-01 -9.214101530483429e-02 9.089043693447773e-01 -1.003815281930542e-01 3.366222381289671e-02 -4.386623971514819e-02
1.010800000000000e+11 -9.138487430515892e-02 -3.868837116521961e-02 9.118860878391593e-01 -9.218054068451854e-02 9.088456258913817e-01 -1.004420740951753e-01 3.385714468220789e-02 -4.354418437497001e-02
1.011280000000000e+11 -9.140571678034375e-02 -3.866358444622379e-02 9.118282225764641e-01 -9.221958085668275e-02 9.087866767542651e-01 -1.005021483980953e-01 3.414690751777701e-02 -4.393631655469477e-02
1.011760000000000e+11 -9.164271362912729e-02 -3.855417047686784e-02 9.117703807289741e-01 -9.225813178433541e-02 9.087275440740366e-01 -1.005617358044997e-01 3.343981602910941e-02 -4.381259219373099e-02
1.012240000000000e+11 -9.139684014561877e-02 -3.834439034466014e-02 9.117125795534571e-01 -9.229618978368964e-02 9.086682506651065e-01 -1.006208214235157e-01 3.323433316156791e-02 -4.367178287280213e-02
1.012720000000000e+11 -9.104791709917745e-02 -3.835773532424587e-02 9.116548362577617e-01 -9.233375159488656e-02 9.086088197630482e-01 -1.006793909594594e-01 3.407029070202323e-02 -4.379268918858948e-02
1.013200000000000e+11 -9.075093239595758e-02 -3.831297098972605e-02 9.115971683087077e-01 -9.237081405827142e-02 9.085492751246379e-01 -1.007374305712643e-01 3.400843137546528e-02 -4.364533925670553e-02
1.013680000000000e+11 -9.088326883117975e-02 -3.879717168175757e-02 9.115395932154658e-01 -9.240737443582138e-02 9.084896408412528e-01 -1.007949270075849e-01 3.443595845891975e-02 -4.398790363068127e-02
1.014160000000000e+11 -9.125947459468201e-02 -3.803219325192608e-02 9.114821287924062e-01 -9.244343019457628e-02 9.084299414614646e-01 -1.008518675901466e-01 3.464394675548132e-02 -4.355873265547427e-02
1.014640000000000e+11 -9.164951498329840e-02 -3.803831155395290e-02 9.114247931182781e-01 -9.247897921272399e-02 9.083702018389909e-01 -1.009082404345378e-01 3.476249417615996e-02 -4.385294369668733e-02
1.015120000000000e+11 -9.184209857898953e-02 -3.847948830196786e-02 9.113676043268460e-01 -9.251401963580076e-02 9.083104470679670e-01 -1.009640343650441e-01 3.399710983808293e-02 -4.407809558201554e-02
1.015600000000000e+11 -9.272497921215828e-02 -3.841045632671914e-02 9.113105805006839e-01 -9.254854984249838e-02 9.082507023988243e-01 -1.010192388116972e-01 3.399130522227326e-02 -4.443520655938722e-02
1.016080000000000e+11 -9.196063770779656e-02 -3.795248382756732e-02 9.112537397132267e-01 -9.258256826447944e-02 9.081909930766052e-01 -1.010738438034173e-01 3.336571437367995e-02 -4.357553675830710e-02
1.016560000000000e+11 -9.245426878475549e-02 -3.793157900612335e-02 9.111971002439906e-01 -9.261607359413564e-02 9.081313446743869e-01 -1.011278401038152e-01 3.328805516022520e-02 -4.385933914497856e-02
1.017040000000000e+11 -9.242960090770536e-02 -3.764145779040221e-02 9.111406808146859e-01 -9.264906453555059e-02 9.080717834156882e-01 -1.011812188883020e-01 3.265489575489822e-02 -4.325106364246827e-02
1.017520000000000e+11 -9.255088006324259e-02 -3.797751471071528e-02 9.110845003444090e-01 -9.268154006826196e-02 9.080123358321693e-01 -1.012339718454193e-01 3.326287927287047e-02 -4.331763529284531e-02
1.018000000000000e+11 -9.134767509721825e-02 -3.739327885481223e-02 9.110285781984176e-01 -9.271349934118070e-02 9.079530287573740e-01 -1.012860912120435e-01 3.447822156772544e-02 -4.317955000011271e-02
1.018480000000000e+11 -9.173754364536937e-02 -3.802582073448509e-02 9.109729336767957e-01 -9.274494190461501e-02 9.078938890393857e-01 -1.013375698208639e-01 3.438241215160930e-02 -4.280833040728742e-02
1.018960000000000e+11 -9.180238868439455e-02 -3.873959895482348e-02 9.109175860021558e-01 -9.277586740081516e-02 9.078349433051506e-01 -1.013884009448913e-01 3.423122633794619e-02 -4.264003557671391e-02
1.019440000000000e+11 -9.109898177267363e-02 -3.819711234177663e-02 9.108625545333856e-01 -9.280627562106220e-02 9.077762177689184e-01 -1.014385784444359e-01 3.470659229943981e-02 -4.244900126493310e-02
1.019920000000000e+11 -9.109496270020224e-02 -3.719443484288249e-02 9.108078588995860e-01 -9.283616687317268e-02 9.077177383538302e-01 -1.014880966188541e-01 3.530586687128456e-02 -4.237918144991805e-02
1.020400000000000e+11 -9.072649735953930e-02 -3.726286805426424e-02 9.107535187474743e-01 -9.286554252531419e-02 9.076595312834717e-01 -1.015369501703244e-01 3.417339515204922e-02 -4.162059086968996e-02
1.020880000000000e+11 -9.140846222024207e-02 -3.783531943596082e-02 9.106995533688476e-01 -9.289440414248669e-02 9.076016223776227e-01 -1.015851342827044e-01 3.393797850744563e-02 -4.222308285362224e-02
1.021360000000000e+11 -9.156907618641230e-02 -3.761474477902764e-02 9.106459822797044e-01 -9.292275324235150e-02 9.075440376432314e-01 -1.016326444487665e-01 3.385573992963508e-02 -4.183267176464986e-02
1.021840000000000e+11 -9.128256390659441e-02 -3.719762809373278e-02 9.105928253576894e-01 -9.295059166401154e-02 9.074868035538363e-01 -1.016794764724704e-01 3.457822092411153e-02 -4.204322332923402e-02
1.022320000000000e+11 -9.107866773439244e-02 -3.679775258186314e-02 9.105401029206720e-01 -9.297792153799872e-02 9.074299471436131e-01 -1.017256266443857e-01 3.385125752457012e-02 -4.226579019995733e-02
1.022800000000000e+11 -9.058882156425958e-02 -3.708140401335244e-02 9.104878354368334e-01 -9.300474530630137e-02 9.073734955125823e-01 -1.017710918321159e-01 3.458984430106026e-02 -4.216270177830531e-02
1.023280000000000e+11 -9.026979058798387e-02 -3.736186399562254e-02 9.104360432742320e-01 -9.303106578433654e-02 9.073174755770731e-01 -1.018158693982615e-01 3.534671886488246e-02 -4.201543969658066e-02
1.023760000000000e+11 -9.043625816296118e-02 -3.709038977194246e-02 9.103847466415518e-01 -9.305688585212139e-02 9.072619139830186e-01 -1.018599569899190e-01 3.524707827435844e-02 -4.190253255955717e-02
1.024240000000000e+11 -9.072341674945553e-02 -3.795189885080381e-02 9.103339655693644e-01 -9.308220853694915e-02 9.072068370717516e-01 -1.019033526135038e-01 3.481703229251987e-02 -4.120943835047283e-02
1.024720000000000e+11 -9.083731193472923e-02 -3.775936888443638e-02 9.102837199518180e-01 -9.310703679560628e-02 9.071522708153440e-01 -1.019460543173132e-01 3.526742458760007e-02 -4.069523894562316e-02
1.025200000000000e+11 -9.080988452938780e-02 -3.746526316170944e-02 9.102340296281872e-01 -9.313137389969779e-02 9.070982408620052e-01 -1.019880601309754e-01 3.502712337274776e-02 -4.095284549851497e-02
1.025680000000000e+11 -9.132356697215947e-02 -3.675501874396361e-02 9.101849146089707e-01 -9.315522314815276e-02 9.070447726428201e-01 -1.020293680507567e-01 3.532745804325538e-02 -4.018418571440086e-02
1.026160000000000e+11 -8.960661642686023e-02 -3.643513909549514e-02 9.101363948634320e-01 -9.317858827983445e-02 9.069918913914133e-01 -1.020699760715622e-01 3.467841758846400e-02 -3.952479213074203e-02
1.026640000000000e+11 -9.089695510672166e-02 -3.597127015194176e-02 9.100884905020628e-01 -9.320147312398688e-02 9.069396225209287e-01 -1.021098819341024e-01 3.573127764598580e-02 -3.960064614402729e-02
1.027120000000000e+11 -8.974649466024144e-02 -3.593616454128679e-02 9.100412214500118e-01 -9.322388116993539e-02 9.068879912226883e-01 -1.021490836312014e-01 3.583004502821466e-02 -4.007045312309136e-02
1.027600000000000e+11 -9.040502791666929e-02 -3.617899959241666e-02 9.099946077732161e-01 -9.324581574194238e-02 9.068370227204632e-01 -1.021875791673388e-01 3.622917648933083e-02 -4.003583490279742e-02
1.028080000000000e+11 -8.998241260619858e-02 -3.634874772365076e-02 9.099486693598157e-01 -9.326728045559154e-02 9.067867421843385e-01 -1.022253664181552e-01 3.567829654484757e-02 -4.024233308908116e-02
1.028560000000000e+11 -9.030374662982393e-02 -3.644816836514136e-02 9.099034260366795e-01 -9.328827926463058e-02 9.067371747788515e-01 -1.022624428646470e-01 3.581618478644159e-02 -3.999766899692429e-02
1.029040000000000e+11 -9.062121244084861e-02 -3.633383532077160e-02 9.098588976926419e-01 -9.330881634471544e-02 9.066883456331595e-01 -1.022988057139854e-01 3.578219703489859e-02 -4.027886827499533e-02
1.029520000000000e+11 -9.142314865798551e-02 -3.610007313908905e-02 9.098151043625274e-01 -9.332889611866992e-02 9.066402800357227e-01 -1.023344522320003e-01 3.595100284611936e-02 -4.050869804552673e-02
1.030000000000000e+11 -9.007100691797544e-02 -3.586730785384887e-02 9.097720660535425e-01 -9.334852325227058e-02 9.065930032445567e-01 -1.023693795614886e-01 3.562249160088656e-02 -3.980973237193958e-02
1.030480000000000e+11 -9.169213386460529e-02 -3.519104467414104e-02 9.097298029363782e-01 -9.336770218165512e-02 9.065465405688896e-01 -1.024035846257479e-01 3.515038412262040e-02 -4.048599442024636e-02
1.030960000000000e+11 -9.111509242093149e-02 -3.524099450913131e-02 9.096883354419162e-01 -9.338643672693514e-02 9.065009174079943e-01 -1.024370644583773e-01 3.474403978431745e-02 -4.049094187698169e-02
1.031440000000000e+11 -9.174974638311695e-02 -3.513521732859043e-02 9.096476842914158e-01 -9.340473040309583e-02 9.064561592741771e-01 -1.024698162751105e-01 3.553620677570031e-02 -4.032592817942904e-02
1.031920000000000e+11 -9.056825114547570e-02 -3.544259379477245e-02 9.096078703850698e-01 -9.342258664822652e-02 9.064122917661900e-01 -1.025018373799519e-01 3.478357112987351e-02 -3.976679968540392e-02
1.032400000000000e+11 -9.097884021871407e-02 -3.538546580219890e-02 9.095689149591843e-01 -9.344000868594268e-02 9.063693407543674e-01 -1.025331248540430e-01 3.586397937345524e-02 -3.936601621222302e-02
1.032880000000000e+11 -9.001382428670152e-02 -3.588744833106824e-02 9.095308393423627e-01 -9.345699998689180e-02 9.063273321842931e-01 -1.025636759118095e-01 3.570976169002781e-02 -3.918768386725516e-02
1.033360000000000e+11 -9.062320575747367e-02 -3.641550863251387e-02 9.094936650475677e-01 -9.347356398962134e-02 9.062862920552883e-01 -1.025934877245999e-01 3.670483757406124e-02 -3.932772605040075e-02
1.033840000000000e+11 -8.933459437329866e-02 -3.632078802569576e-02 9.094574136529793e-01 -9.348970411555280e-02 9.062462462855121e-01 -1.026225574240169e-01 3.679076841049592e-02 -3.828632995055228e-02
1.034320000000000e+11 -8.994956602212138e-02 -3.661644726213650e-02 9.094221069627563e-01 -9.350542356898249e-02 9.062072208166863e-01 -1.026508818623451e-01 3.760371461992557e-02 -3.833579281192229e-02
1.034800000000000e+11 -8.929158871783180e-02 -3.653502170905252e-02 9.093877668875914e-01 -9.352072559116020e-02 9.061692415455563e-01 -1.026784579090266e-01 3.776970810904213e-02 -3.809424720254422e-02
1.035280000000000e+11 -8.997517867032950e-02 -3.672203711020888e-02 9.093544154563692e-01 -9.353561341420477e-02 9.061323346427184e-01 -1.027052820653976e-01 3.822176339561246e-02 -3.817923059615754e-02
1.035760000000000e+11 -8.972468922486719e-02 -3.643751012038689e-02 9.093220748916746e-01 -9.355009018688895e-02 9.060965265343768e-01 -1.027313506810161e-01 3.774132842226757e-02 -3.800629140422557e-02
1.036240000000000e+11 -8.987209599491888e-02 -3.630045674023027e-02 9.092907673756599e-01 -9.356415890821802e-02 9.060618438063534e-01 -1.027566600453933e-01 3.789097084427989e-02 -3.823549196895868e-02
1.036720000000000e+11 -9.005073388939110e-02 -3.606229352928898e-02 9.092605150574616e-01 -9.357782248751814e-02 9.060283132967863e-01 -1.027812065865303e-01 3.791391511783732e-02 -3.834265618185151e-02
1.037200000000000e+11 -8.948947228784888e-02 -3.585894066294184e-02 9.092313400696668e-01 -9.359108343409012e-02 9.059959620306401e-01 -1.028049867121206e-01 3.781156392412355e-02 -3.799728784793857e-02
1.037680000000000e+11 -8.995908328532470e-02 -3.616422437028896e-02 9.092032645086424e-01 -9.360394388411103e-02 9.059648170384916e-01 -1.028279969537732e-01 3.799592108628277e-02 -3.809235667169077e-02
1.038160000000000e+11 -8.951187076369845e-02 -3.603700174634362e-02 9.091763103846188e-01 -9.361640557403325e-02 9.059349053078306e-01 -1.028502339351823e-01 3.792637442260340e-02 -3.775515865870548e-02
1.038640000000000e+11 -9.032741572801369e-02 -3.607497003330553e-02 9.091504996464876e-01 -9.362846979047838e-02 9.059062537003046e-01 -1.028716942188924e-01 3.790250242191461e-02 -3.760799797298159e-02
1.039120000000000e+11 -8.983404461573737e-02 -3.595264529663226e-02 9.091258542552280e-01 -9.364013741292145e-02 9.058788889967953e-01 -1.028923740786930e-01 3.799088098813134e-02 -3.730949628299406e-02
1.039600000000000e+11 -9.044700122081242e-02 -3.614444067426635e-02 9.091023960788431e-01 -9.365140901260385e-02 9.058528376604826e-01 -1.029122697301984e-01 3.846043642946041e-02 -3.717861567798907e-02
1.040080000000000e+11 -9.002239691363996e-02 -3.611101395945170e-02 9.090801471754749e-01 -9.366228473886974e-02 9.058281262525989e-01 -1.029313773118100e-01 3.894283333832566e-02 -3.685667973503271e-02
1.040560000000000e+11 -8.996645807832578e-02 -3.632829164377513e-02 9.090591298598212e-01 -9.367276437250197e-02 9.058047811976941e-01 -1.029496930676781e-01 3.923061216907708e-02 -3.654343995247100e-02
1.041040000000000e+11 -8.928649243892071e-02 -3.610833854806617e-02 9.090393667383100e-01 -9.368284719916868e-02 9.057828287135467e-01 -1.029672133221112e-01 3.896014640211840e-02 -3.590245126586795e-02
1.041520000000000e+11 -8.959032300434457e-02 -3.693314612059174e-02 9.090208806402420e-01 -9.369253191650054e-02 9.057622947268685e-01 -1.029839344490843e-01 3.933600177238132e-02 -3.595442926863151e-02
1.042000000000000e+11 -8.854335998655359e-02 -3.663706148208385e-02 9.090036944828120e-01 -9.370181660385869e-02 9.057432048193430e-01 -1.029998526259664e-01 3.906624902319972e-02 -3.574952077241061e-02
1.042480000000000e+11 -8.893283408905668e-02 -3.682945738788490e-02 9.089878312223582e-01 -9.371069896291470e-02 9.057255843843025e-01 -1.030149640724490e-01 3.913014795124335e-02 -3.517925497878573e-02
1.042960000000000e+11 -8.868161416433999e-02 -3.693966444701311e-02 9.089733137190457e-01 -9.371917627020969e-02 9.057094585810800e-01 -1.030292648446745e-01 3.916874151978410e-02 -3.547427997431366e-02
1.043440000000000e+11 -8.992788482468045e-02 -3.706433194063095e-02 9.089601645206928e-01 -9.372724565944954e-02 9.056948523923424e-01 -1.030427508201016e-01 3.908135425573452e-02 -3.579573157822761e-02
1.043920000000000e+11 -8.984710418219861e-02 -3.691306125429729e-02 9.089484059939649e-01 -9.373490392149253e-02 9.056817905550686e-01 -1.030554178774668e-01 3.914398482176150e-02 -3.556234060784173e-02
1.044400000000000e+11 -8.994179670406334e-02 -3.662225265498793e-02 9.089380602510044e-01 -9.374214747553501e-02 9.056702975965246e-01 -1.030672619463634e-01 3.907548263465571e-02 -3.555058791986472e-02
1.044880000000000e+11 -9.003739709347605e-02 -3.609483493070424e-02 9.089291491324492e-01 -9.374897228780728e-02 9.056603977435410e-01 -1.030782790531358e-01 3.917652499949597e-02 -3.532061514627685e-02
1.045360000000000e+11 -8.997684167205804e-02 -3.592268734346255e-02 9.089216942086038e-01 -9.375537385789567e-02 9.056521149756975e-01 -1.030884652107948e-01 3.935847377680268e-02 -3.545019716775059e-02
1.045840000000000e+11 -8.986298937954570e-02 -3.559058376124025e-02 9.089157167927714e-01 -9.376134725694887e-02 9.056454728840082e-01 -1.030978164730709e-01 3.908312004724936e-02 -3.549749247665310e-02
1.046320000000000e+11 -9.016527758748935e-02 -3.542142256212356e-02 9.089112381453101e-01 -9.376688715278179e-02 9.056404948082595e-01 -1.031063289545753e-01 3.886168487683417e-02 -3.546090257391845e-02
1.046800000000000e+11 -8.933255031981811e-02 -3.554779046076553e-02 9.089082794306864e-01 -9.377198786317865e-02 9.056372039533442e-01 -1.031139987022570e-01 3.965781577455364e-02 -3.514328667536900e-02
1.047280000000000e+11 -8.880161328610384e-02 -3.595435637592939e-02 9.089068619212279e-01 -9.377664337192032e-02 9.056356235416536e-01 -1.031208217557326e-01 3.964333705813481e-02 -3.485511827005358e-02
1.047760000000000e+11 -8.821864355843809e-02 -3.613687947158018e-02 9.089070069548953e-01 -9.378084714704256e-02 9.056357765280399e-01 -1.031267943583773e-01 4.066667743560413e-02 -3.461590249129034e-02
1.048240000000000e+11 -8.783595643498292e-02 -3.631220170904173e-02 9.089087358390613e-01 -9.378459228555230e-02 9.056376857207766e-01 -1.031319128911122e-01 4.091312220954491e-02 -3.437052625794849e-02
1.048720000000000e+11 -8.793804481435370e-02 -3.672950178194817e-02 9.089120699208024e-01 -9.378787133590988e-02 9.056413738084523e-01 -1.031361734856084e-01 4.149874823164737e-02 -3.359133893087842e-02
1.049200000000000e+11 -8.794648541251225e-02 -3.668604940427821e-02 9.089170304380436e-01 -9.379067654910497e-02 9.056468630578288e-01 -1.031395722038864e-01 4.131135774428128e-02 -3.345288797172335e-02
1.049680000000000e+11 -8.715408719510498e-02 -3.659731091546225e-02 9.089236385390337e-01 -9.379299971727385e-02 9.056541753823379e-01 -1.031421048448251e-01 4.247493568086860e-02 -3.308485876336859e-02
1.050160000000000e+11 -8.708912053567554e-02 -3.691255923488337e-02 9.089319159260044e-01 -9.379483229295632e-02 9.056633329551499e-01 -1.031437671209809e-01 4.258505354487204e-02 -3.327208216031412e-02
1.050640000000000e+11 -8.699066704377401e-02 -3.681116010858078e-02 9.089418843012731e-01 -9.379616515314383e-02 9.056743581482462e-01 -1.031445543570509e-01 4.266002079969701e-02 -3.314632853232405e-02
1.051120000000000e+11 -8.710271260661524e-02 -3.706460469451495e-02 9.089535654446458e-01 -9.379698876188722e-02 9.056872735554556e-01 -1.031444616387602e-01 4.238245110426202e-02 -3.332228390445800e-02
1.051600000000000e+11 -8.740498715052987e-02 -3.684724947377314e-02 9.089669809910702e-01 -9.379729298943043e-02 9.057021016893131e-01 -1.031434839655044e-01 4.254537812876483e-02 -3.301378881505274e-02
1.052080000000000e+11 -8.729899302591564e-02 -3.692920418820513e-02 9.089821525366809e-01 -9.379706756500379e-02 9.057188650675189e-01 -1.031416162148687e-01 4.201864929720069e-02 -3.322683246544608e-02
1.052560000000000e+11 -8.735818714706242e-02 -3.688408148900315e-02 9.089991016672111e-01 -9.379630202226708e-02 9.057375862160993e-01 -1.031388529016467e-01 4.214578568850132e-02 -3.318779442938356e-02
1.053040000000000e+11 -8.706870611142890e-02 -3.678148402287196e-02 9.090178500688911e-01 -9.379498582246111e-02 9.057582877542528e-01 -1.031351882413780e-01 4.233658533285142e-02 -3.284615327260387e-02
1.053520000000000e+11 -8.741284217230254e-02 -3.692354143510099e-02 9.090384195627441e-01 -9.379310853856364e-02 9.057809923565221e-01 -1.031306161115325e-01 4.284969889483790e-02 -3.253867592256306e-02
1.054000000000000e+11 -8.668776847479383e-02 -3.690991286157514e-02 9.090608322490378e-01 -9.379065974489478e-02 9.058057228779837e-01 -1.031251300620326e-01 4.315717303376824e-02 -3.235500028326215e-02
1.054480000000000e+11 -8.729257254464706e-02 -3.682201174367243e-02 9.090851105884248e-01 -9.378762890823478e-02 9.058325023224068e-01 -1.031187233582439e-01 4.379156271212842e-02 -3.228892871334287e-02
1.054960000000000e+11 -8.643208482957436e-02 -3.676654396347511e-02 9.091112773909947e-01 -9.378400532580629e-02 9.058613537665678e-01 -1.031113890292582e-01 4.361801525071804e-02 -3.191318269980602e-02
1.055440000000000e+11 -8.686995299691637e-02 -3.700253070715404e-02 9.091393559461044e-01 -9.377977804451387e-02 9.058923004595214e-01 -1.031031199778844e-01 4.410975541606610e-02 -3.168625407661071e-02
1.055920000000000e+11 -8.640766929595853e-02 -3.676237028334621e-02 9.091693699458629e-01 -9.377493633160534e-02 9.059253658077798e-01 -1.030939088633109e-01 4.408835295078445e-02 -3.214895396869748e-02
1.056400000000000e+11 -8.647334252290112e-02 -3.699564125842410e-02 9.092013431918193e-01 -9.376946981578681e-02 9.059605734031876e-01 -1.030837480558070e-01 4.422027249020082e-02 -3.195024121193808e-02
1.056880000000000e+11 -8.578154540236281e-02 -3.681212578019021e-02 9.092352999524851e-01 -9.376336843485010e-02 9.059979473605041e-01 -1.030726296945160e-01 4.400542117040247e-02 -3.223553772256949e-02
1.057360000000000e+11 -8.671397641267807e-02 -3.730341495440152e-02 9.092712644715699e-01 -9.375662247240620e-02 9.060375120402219e-01 -1.030605455225166e-01 4.455377933804095e-02 -3.226323680033017e-02
1.057840000000000e+11 -8.537932939297267e-02 -3.738210937819354e-02 9.093092608551605e-01 -9.374922250692609e-02 9.060792919181354e-01 -1.030474871274846e-01 4.480152317558770e-02 -3.157656012334794e-02
1.058320000000000e+11 -8.659380531179713e-02 -3.734196419109050e-02 9.093493134879058e-01 -9.374115923352516e-02 9.061233118339974e-01 -1.030334458329051e-01 4.482657618076061e-02 -3.162760886831007e-02
1.058800000000000e+11 -8.636048133416782e-02 -3.718600249654234e-02 9.093914464733858e-01 -9.373242343684612e-02 9.061695966756043e-01 -1.030184128952946e-01 4.430897149730091e-02 -3.201508888561281e-02
1.059280000000000e+11 -8.734868047266489e-02 -3.689138661990380e-02 9.094356836579356e-01 -9.372300605774905e-02 9.062181714006378e-01 -1.030023793687162e-01 4.505118113595351e-02 -3.154106579510529e-02
1.059760000000000e+11 -8.720789073205082e-02 -3.661039062390666e-02 9.094820486196825e-01 -9.371289817813210e-02 9.062690609878441e-01 -1.029853362151932e-01 4.469323048151615e-02 -3.190695340194441e-02
1.060240000000000e+11 -8.787910723425532e-02 -3.650617556026785e-02 9.095305648279112e-01 -9.370209106888550e-02 9.063222905714055e-01 -1.029672739805908e-01 4.428816277442504e-02 -3.208344604012119e-02
1.060720000000000e+11 -8.709992379106822e-02 -3.668071349568473e-02 9.095812559754620e-01 -9.369057606436759e-02 9.063778856092367e-01 -1.029481828464956e-01 4.485147314496743e-02 -3.146532002512956e-02
1.061200000000000e+11 -8.716231449887608e-02 -3.638473902739453e-02 9.096341458009346e-01 -9.367834498352343e-02 9.064358718046127e-01 -1.029280528577308e-01 4.481208222354162e-02 -3.097718848135398e-02
1.061680000000000e+11 -8.670217700083964e-02 -3.660050807807275e-02 9.096892581791888e-01 -9.366538968817135e-02 9.064962750042750e-01 -1.029068739440581e-01 4.513786665167571e-02 -3.190699327415829e-02
1.062160000000000e+11 -8.714113633690600e-02 -3.702550517822627e-02 9.097466169814681e-01 -9.365170220937205e-02 9.065591210392607e-01 -1.028846361414369e-01 4.455361270945912e-02 -3.122037452735588e-02
1.062640000000000e+11 -8.719750630017258e-02 -3.683898774122225e-02 9.098062463557558e-01 -9.363727458545990e-02 9.066244356739001e-01 -1.028613295928656e-01 4.488968305198066e-02 -3.092269844637574e-02
1.063120000000000e+11 -8.693671962849235e-02 -3.665355555523290e-02 9.098681700750475e-01 -9.362209941625385e-02 9.066922442825368e-01 -1.028369445761988e-01 4.556463892309721e-02 -3.036188584551877e-02
1.063600000000000e+11 -8.737461530194671e-02 -3.684028561680434e-02 9.099324117576983e-01 -9.360616937705904e-02 9.067625720852333e-01 -1.028114713403772e-01 4.553095341330295e-02 -3.116988109888479e-02
1.064080000000000e+11 -8.825441678291396e-02 -3.642363304508949e-02 9.099989944254654e-01 -9.358947758332471e-02 9.068354437568094e-01 -1.027849001090560e-01 4.568256533801995e-02 -3.090556308669178e-02
1.064560000000000e+11 -8.757917958017369e-02 -3.690706164896565e-02 9.100679408011975e-01 -9.357201753764344e-02 9.069108837186302e-01 -1.027572207561757e-01 4.505765660498869e-02 -3.004840874091902e-02
1.065040000000000e+11 -8.816679491209989e-02 -3.474856622669847e-02 9.101392734440668e-01 -9.355378328105401e-02 9.069889165561169e-01 -1.027284232516700e-01 4.475734288081015e-02 -3.044057086875286e-02
1.065520000000000e+11 -8.926305478586975e-02 -3.526530304542305e-02 9.102130138405072e-01 -9.353476905595746e-02 9.070695659489623e-01 -1.026984978402105e-01 4.523883114294153e-02 -3.137297865176732e-02
1.066000000000000e+11 -8.831676295363636e-02 -3.578789431031913e-02 9.102891834708594e-01 -9.351496926248873e-02 9.071528555121768e-01 -1.026674347898336e-01 4.434701151329228e-02 -3.039514893012705e-02
1.066480000000000e+11 -8.943043903916643e-02 -3.520111566648754e-02 9.103678036929767e-01 -9.349437862782770e-02 9.072388089818955e-01 -1.026352244779018e-01 4.399832431663805e-02 -2.991332780652672e-02
1.066960000000000e+11 -8.978736249578857e-02 -3.523487869624017e-02 9.104488949364088e-01 -9.347299220610111e-02 9.073274496743712e-01 -1.026018574905493e-01 4.395826404847911e-02 -3.167347535579917e-02
1.067440000000000e+11 -8.906840282121818e-02 -3.595118846930586e-02 9.105324774684418e-01 -9.345080521350467e-02 9.074188002787017e-01 -1.025673246960057e-01 4.503460818877152e-02 -3.023763415730753e-02
1.067920000000000e+11 -8.937810109194481e-02 -3.563006448070610e-02 9.106185711686915e-01 -9.342781338473834e-02 9.075128831881857e-01 -1.025316169246913e-01 4.467232467049628e-02 -3.082489546019607e-02
1.068400000000000e+11 -8.935692071646259e-02 -3.582227912537899e-02 9.107071953540509e-01 -9.340401265033767e-02 9.076097204825742e-01 -1.024947249795052e-01 4.476816881462126e-02 -3.053279446643007e-02
1.068880000000000e+11 -8.930754449338495e-02 -3.603115658146937e-02 9.107983691382633e-01 -9.337939923259229e-02 9.077093339222106e-01 -1.024566402799379e-01 4.517517102457648e-02 -3.047602373667265e-02
1.069360000000000e+11 -8.917901744002631e-02 -3.583110979719054e-02 9.108921112718947e-01 -9.335396954322996e-02 9.078117448728243e-01 -1.024173548300211e-01 4.609105684094731e-02 -3.057094528105816e-02
1.069840000000000e+11 -8.900195043671989e-02 -3.658264640575942e-02 9.109884401215983e-01 -9.332772032499709e-02 9.079169739591029e-01 -1.023768614042399e-01 4.609138553283167e-02 -2.939559114743394e-02
1.070320000000000e+11 -8.847686199573064e-02 -3.625598978146136e-02 9.110873736904906e-01 -9.330064859497797e-02 9.080250413388826e-01 -1.023351531823018e-01 4.602597419238382e-02 -2.913371213447775e-02
1.070800000000000e+11 -8.848123398964064e-02 -3.639457292490395e-02 9.111889288611408e-01 -9.327275206468137e-02 9.081359661068111e-01 -1.022922239642493e-01 4.613557663358210e-02 -2.941796304793476e-02
1.071280000000000e+11 -8.818194336804087e-02 -3.580652609095718e-02 9.112931214319145e-01 -9.324402890786418e-02 9.082497663905408e-01 -1.022480677255364e-01 4.628756028115528e-02 -3.009040473716923e-02
1.071760000000000e+11 -8.843780381286410e-02 -3.579350672977853e-02 9.113999661748030e-01 -9.321447796306914e-02 9.083664592277251e-01 -1.022026790429530e-01 4.596006950739637e-02 -3.017076084177023e-02
1.072240000000000e+11 -8.858393396570166e-02 -3.569012600497691e-02 9.115094768973385e-01 -9.318409835511614e-02 9.084860606690511e-01 -1.021560527079603e-01 4.571429982727973e-02 -2.984322928276048e-02
1.072720000000000e+11 -8.913531400247271e-02 -3.570910611795792e-02 9.116216663951973e-01 -9.315288959478051e-02 9.086085857458439e-01 -1.021081842240592e-01 4.559719278023361e-02 -3.020274606514967e-02
1.073200000000000e+11 -8.971829101489440e-02 -3.480707529784917e-02 9.117365462771105e-01 -9.312085145999001e-02 9.087340483244569e-01 -1.020590698109869e-01 4.534294758669408e-02 -3.001326591910264e-02
1.073680000000000e+11 -9.005144148943187e-02 -3.509627881063575e-02 9.118541269638785e-01 -9.308798414532699e-02 9.088624610028687e-01 -1.020087063492910e-01 4.563098369007910e-02 -3.018830385310976e-02
1.074160000000000e+11 -9.065957190912735e-02 -3.415983223027413e-02 9.119744178782337e-01 -9.305428821095849e-02 9.089938351331260e-01 -1.019570912546912e-01 4.548800515753737e-02 -3.008447474748489e-02
1.074640000000000e+11 -9.050167678484160e-02 -3.430914024555492e-02 9.120974275369684e-01 -9.301976501378353e-02 9.091281809507251e-01 -1.019042223601283e-01 4.586443954057259e-02 -3.027391073008182e-02
1.075120000000000e+11 -9.004042041355531e-02 -3.419704424156061e-02 9.122231638350394e-01 -9.298441645831022e-02 9.092655078090112e-01 -1.018500980221779e-01 4.520675907888941e-02 -2.946351904539728e-02
1.075600000000000e+11 -9.021248327710818e-02 -3.427875377453140e-02 9.123516338091067e-01 -9.294824508057865e-02 9.094058241085178e-01 -1.017947173161454e-01 4.550551378148597e-02 -2.973480195868575e-02
1.076080000000000e+11 -8.991019772938119e-02 -3.432396702633884e-02 9.124828433687836e-01 -9.291125402134273e-02 9.095491368798405e-01 -1.017380803247037e-01 4.616275368913009e-02 -2.983642113424938e-02
1.076560000000000e+11 -8.871942419216489e-02 -3.466711982863106e-02 9.126167974531503e-01 -9.287344703279993e-02 9.096954516798322e-01 -1.016801882096236e-01 4.702821705916729e-02 -2.951176188869393e-02
1.077040000000000e+11 -8.851095090081559e-02 -3.480282528702454e-02 9.127534997270723e-01 -9.283482868881680e-02 9.098447726229990e-01 -1.016210429832585e-01 4.666326174775666e-02 -2.889637665920396e-02
1.077520000000000e+11 -8.771351867732809e-02 -3.500439686816462e-02 9.128929525651661e-01 -9.279540419714492e-02 9.099971024162555e-01 -1.015606473010059e-01 4.677436794590133e-02 -2.778117356063939e-02
1.078000000000000e+11 -8.794191176263003e-02 -3.551606001391339e-02 9.130351567508089e-01 -9.275517974284564e-02 9.101524420346985e-01 -1.014990053325299e-01 4.765413060405019e-02 -2.787851559986887e-02
1.078480000000000e+11 -8.804459325703405e-02 -3.554908255359754e-02 9.131801112633179e-01 -9.271416256809110e-02 9.103107908287144e-01 -1.014361219203098e-01 4.809400055467561e-02 -2.789065400730575e-02
1.078960000000000e+11 -8.868119480466120e-02 -3.512068557271071e-02 9.133278131670204e-01 -9.267236077993887e-02 9.104721463061101e-01 -1.013720026228437e-01 4.792149978398720e-02 -2.786620523072146e-02
1.079440000000000e+11 -8.851540979917794e-02 -3.374652833113571e-02 9.134782576274758e-01 -9.262978304575994e-02 9.106365040722892e-01 -1.013066536644422e-01 4.761367654290258e-02 -2.771545554605354e-02
1.079920000000000e+11 -8.864040205136835e-02 -3.420912898275062e-02 9.136314379218994e-01 -9.258643853438123e-02 9.108038576544079e-01 -1.012400823295353e-01 4.807447048665479e-02 -2.808563610307046e-02
1.080400000000000e+11 -8.935407293028147e-02 -3.317382280854837e-02 9.137873460021880e-01 -9.254233719062241e-02 9.109741989821625e-01 -1.011722968699219e-01 4.699102806529756e-02 -2.854381649704888e-02
1.080880000000000e+11 -8.922077944349377e-02 -3.293247193241593e-02 9.139459722727320e-01 -9.249748968901153e-02 9.111475182281203e-01 -1.011033066857042e-01 4.724153588201074e-02 -2.897141303104402e-02
1.081360000000000e+11 -8.914929730771465e-02 -3.301661203379227e-02 9.141073058193194e-01 -9.245190752818770e-02 9.113238039545438e-01 -1.010331222588967e-01 4.712707224280954e-02 -2.903114223174988e-02
1.081840000000000e+11 -8.905224737278607e-02 -3.342543541521626e-02 9.142713346510419e-01 -9.240560318048749e-02 9.115030430780439e-01 -1.009617548166677e-01 4.689413086357253e-02 -2.869457991293108e-02
1.082320000000000e+11 -8.918492874259494e-02 -3.371002138442827e-02 9.144380455127834e-01 -9.235859021392809e-02 9.116852211514214e-01 -1.008892165410717e-01 4.682180521069296e-02 -2.884107758079556e-02
1.082800000000000e+11 -8.865183981504428e-02 -3.390846002044817e-02 9.146074234923569e-01 -9.231088302821594e-02 9.118703220692943e-01 -1.008155207681663e-01 4.821824342265128e-02 -2.862684054687497e-02
1.083280000000000e+11 -8.875351277288282e-02 -3.376519187037875e-02 9.147794519602152e-01 -9.226249700057759e-02 9.120583278452348e-01 -1.007406824475072e-01 4.725518984657735e-02 -2.826569883714266e-02
1.083760000000000e+11 -8.831117615155078e-02 -3.407579499470943e-02 9.149541125380880e-01 -9.221344816658865e-02 9.122492184603460e-01 -1.006647180513105e-01 4.848109598718618e-02 -2.784571399465030e-02
1.084240000000000e+11 -8.788705717169142e-02 -3.421193132274939e-02 9.151313849045239e-01 -9.216375371152544e-02 9.124429718378867e-01 -1.005876457155256e-01 4.889607136317867e-02 -2.725107720551474e-02
1.084720000000000e+11 -8.809361340592747e-02 -3.441104764052812e-02 9.153112467095109e-01 -9.211343181730777e-02 9.126395634998559e-01 -1.005094853781697e-01 4.849863350382506e-02 -2.648952799026084e-02
1.085200000000000e+11 -8.803674574939245e-02 -3.351407130861839e-02 9.154936731999890e-01 -9.206250187393633e-02 9.128389662685137e-01 -1.004302583865383e-01 4.834014580321028e-02 -2.673331244653780e-02
1.085680000000000e+11 -8.781904517605071e-02 -3.352657321616307e-02 9.156786373431961e-01 -9.201098415957627e-02 9.130411501359937e-01 -1.003499870680269e-01 4.883240389890842e-02 -2.695933886832242e-02
1.086160000000000e+11 -8.783848276755978e-02 -3.334097531599305e-02 9.158661097741359e-01 -9.195890047736892e-02 9.132460826634400e-01 -1.002686947578723e-01 4.919972375251217e-02 -2.694995479659016e-02
1.086640000000000e+11 -8.779427214554021e-02 -3.322912941420268e-02 9.160560587861795e-01 -9.190627372205531e-02 9.134537289352784e-01 -1.001864062035446e-01 4.962972552470853e-02 -2.730498421632511e-02
1.087120000000000e+11 -8.820711998447930e-02 -3.298307189769988e-02 9.162484503125166e-01 -9.185312775960922e-02 9.136640514965940e-01 -1.001031477355736e-01 4.885076130745481e-02 -2.737906535986397e-02
1.087600000000000e+11 -8.804358179659875e-02 -3.345972624137546e-02 9.164432477631692e-01 -9.179948728873702e-02 9.138770102486233e-01 -1.000189472738258e-01 4.837281991140950e-02 -2.717924779833417e-02
1.088080000000000e+11 -8.910832010788607e-02 -3.266733555074790e-02 9.166404118364024e-01 -9.174537794889066e-02 9.140925623957153e-01 -9.993383461200232e-02 4.966510240139230e-02 -2.715452893303230e-02
1.088560000000000e+11 -8.923266026200413e-02 -3.271729091121830e-02 9.168399007143845e-01 -9.169082609848041e-02 9.143106624564327e-01 -9.984784133681288e-02 5.011388901296701e-02 -2.718746741382033e-02
1.089040000000000e+11 -8.901946975637388e-02 -3.258813157302236e-02 9.170416702057659e-01 -9.163585911505087e-02 9.145312623727488e-01 -9.976100075293109e-02 4.894977393551150e-02 -2.708724476215240e-02
1.089520000000000e+11 -8.981372951562083e-02 -3.313305866323936e-02 9.172456737449697e-01 -9.158050549563521e-02 9.147543114757120e-01 -9.967334793567190e-02 4.959531200025754e-02 -2.729470605071516e-02
1.090000000000000e+11 -8.993150032353424e-02 -3.219980234595476e-02 9.174518624721633e-01 -9.152479487703614e-02 9.149797562603390e-01 -9.958492017730937e-02 4.948868578993020e-02 -2.666162374366710e-02
1.090480000000000e+11 -8.954815987142389e-02 -3.214716587081287e-02 9.176601849901607e-01 -9.146875800319240e-02 9.152075400129400e-01 -9.949575700470412e-02 5.015805649330544e-02 -2.564300943886725e-02
1.090960000000000e+11 -8.872074408881168e-02 -3.260951620439453e-02 9.178705872685501e-01 -9.141242689992375e-02 9.154376028709832e-01 -9.940589996620365e-02 4.958008581223321e-02 -2.663629011254293e-02
1.091440000000000e+11 -8.886786582380871e-02 -3.387475492027493e-02 9.180830126793709e-01 -9.135583393695308e-02 9.156698819184419e-01 -9.931539222475498e-02 5.016201389944174e-02 -2.720515510766301e-02
1.091920000000000e+11 -8.870156755396397e-02 -3.283740443600976e-02 9.182974018306039e-01 -9.129901106133004e-02 9.159043111685411e-01 -9.922427854994326e-02 5.037898415011846e-02 -2.622146781122357e-02
1.092400000000000e+11 -8.842172026482323e-02 -3.272934849681160e-02 9.185136923189764e-01 -9.124198950441847e-02 9.161408213333865e-01 -9.913260509966720e-02 5.115804511880259e-02 -2.539281071290684e-02
1.092880000000000e+11 -8.819785210916832e-02 -3.278995811146498e-02 9.187318183940995e-01 -9.118480144528866e-02 9.163793397354066e-01 -9.904041988375070e-02 5.186056315584133e-02 -2.523307708681136e-02
1.093360000000000e+11 -8.847344058660085e-02 -3.252792565729143e-02 9.189517108252739e-01 -9.112748012358864e-02 9.166197900729446e-01 -9.894777272620307e-02 5.152991059556177e-02 -2.450247088843309e-02
1.093840000000000e+11 -8.834234240513802e-02 -3.254221426045328e-02 9.191732967871250e-01 -9.107005972675722e-02 9.168620921648949e-01 -9.885471548627664e-02 5.119977998333607e-02 -2.432915736709386e-02
1.094320000000000e+11 -8.901697981801671e-02 -3.185440365025650e-02 9.193964998786495e-01 -9.101257520603440e-02 9.171061619709597e-01 -9.876130200480973e-02 5.142936300833954e-02 -2.484413056550391e-02
1.094800000000000e+11 -8.920494749870456e-02 -3.110266452452993e-02 9.196212399629716e-01 -9.095506238032783e-02 9.173519115488953e-01 -9.866758810850378e-02 5.159460815895657e-02 -2.543388410392280e-02
1.095280000000000e+11 -8.982588645146927e-02 -3.011780145121883e-02 9.198474333836554e-01 -9.089755797794037e-02 9.175992491845421e-01 -9.857363177555784e-02 5.076684313553262e-02 -2.521710699898286e-02
1.095760000000000e+11 -8.909474966462821e-02 -3.097357613530327e-02 9.200749932273656e-01 -9.084009965334576e-02 9.178480795659950e-01 -9.847949312893303e-02 5.051614732679362e-02 -2.551524095761725e-02
1.096240000000000e+11 -8.974095777352836e-02 -3.039814325664813e-02 9.203038295337992e-01 -9.078272593527333e-02 9.180983040746568e-01 -9.838523430193756e-02 5.149972835594201e-02 -2.570143598961331e-02
1.096720000000000e+11 -8.939782835560812e-02 -3.045365556949884e-02 9.205338493432430e-01 -9.072547643567051e-02 9.183498209067290e-01 -9.829091961305604e-02 5.185239311220236e-02 -2.489381316408417e-02
1.097200000000000e+11 -8.816559510658993e-02 -3.145714422599345e-02 9.207649562680686e-01 -9.066839187743968e-02 9.186025246914804e-01 -9.819661625812040e-02 5.061098167280838e-02 -2.427182657831497e-02
1.097680000000000e+11 -8.884955211601395e-02 -3.121130545497594e-02 9.209970503932762e-01 -9.061151385004031e-02 9.188563061393192e-01 -9.810239386018077e-02 5.187047864894251e-02 -2.434112906111929e-02
1.098160000000000e+11 -8.957079186809522e-02 -3.074776503192942e-02 9.212300284103838e-01 -9.055488417221398e-02 9.191110521956847e-01 -9.800832369403345e-02 5.292562533802732e-02 -2.411211654359086e-02
1.098640000000000e+11 -8.930429743747970e-02 -3.018119268226213e-02 9.214637833884614e-01 -9.049854562241585e-02 9.193666456227484e-01 -9.791447927264650e-02 5.336186483281175e-02 -2.350173575748700e-02
1.099120000000000e+11 -8.816677166304258e-02 -3.080587080580036e-02 9.216982046662070e-01 -9.044254212771072e-02 9.196229650013517e-01 -9.782093602796822e-02 5.440217518116761e-02 -2.302927783749656e-02
1.099600000000000e+11 -8.795366849436410e-02 -3.074213686759963e-02 9.219331779189022e-01 -9.038691896048354e-02 9.198798847334485e-01 -9.772777133065202e-02 5.433834078570383e-02 -2.242037676796303e-02
1.100080000000000e+11 -8.735824767325563e-02 -3.067288482041609e-02 9.224043038766990e-01 -9.027700167099290e-02 9.203950016828346e-01 -9.754289644171520e-02 5.468110624315396e-02 -2.218438240328769e-02
1.100560000000000e+11 -8.778280836330725e-02 -3.066854362670106e-02 9.228762239045309e-01 -9.016915757540572e-02 9.209109663717564e-01 -9.736047320230683e-02 5.425964605913593e-02 -2.226791409296143e-02
1.101040000000000e+11 -8.804158287760463e-02 -2.989295449795573e-02 9.233480474450800e-01 -9.006372085167420e-02 9.214268014202831e-01 -9.718107074653044e-02 5.482790517333529e-02 -2.286802879516540e-02
1.101520000000000e+11 -8.843223589338567e-02 -2.959109811979923e-02 9.238189300838749e-01 -8.996099792426572e-02 9.219415836937269e-01 -9.700521231209121e-02 5.426895907189450e-02 -2.288555291743159e-02
1.102000000000000e+11 -8.821251193767157e-02 -2.975612162581363e-02 9.242880684173302e-01 -8.986126826597383e-02 9.224544402065432e-01 -9.683338357203085e-02 5.352226713562640e-02 -2.282750903779649e-02
1.102480000000000e+11 -8.906112767891811e-02 -2.925651618280650e-02 9.249868533251168e-01 -8.971784013977194e-02 9.232183251451805e-01 -9.658415868112964e-02 5.511674090472633e-02 -2.268808853441611e-02
1.102960000000000e+11 -8.886615657360925e-02 -2.900432455211311e-02 9.254484387126126e-01 -8.962665028449748e-02 9.237229135069334e-01 -9.642424027650298e-02 5.462555806837946e-02 -2.333488427990298e-02
1.103440000000000e+11 -8.946161654775998e-02 -2.814875919143752e-02 9.259059025894589e-01 -8.953921696431583e-02 9.242230100566293e-01 -9.626968354101334e-02 5.459984252332454e-02 -2.349386989636058e-02
1.103920000000000e+11 -8.922799569182682e-02 -2.832814621835123e-02 9.263586860436792e-01 -8.945570334401122e-02 9.247180178770632e-01 -9.612077761990681e-02 5.399652650479613e-02 -2.374380510370971e-02
1.104400000000000e+11 -8.922864020013900e-02 -2.809218457317734e-02 9.268062694541853e-01 -8.937625366559095e-02 9.252073836647656e-01 -9.597778380170721e-02 5.432761385649006e-02 -2.323026503257128e-02
1.104880000000000e+11 -8.907955776853628e-02 -2.796435460212628e-02 9.272481717477404e-01 -8.930099592453998e-02 9.256905950679145e-01 -9.584093756791386e-02 5.397623662393237e-02 -2.314534718252545e-02
1.105360000000000e+11 -8.953726093807751e-02 -2.760588428215435e-02 9.278994167327532e-01 -8.919621212864012e-02 9.264028484478688e-01 -9.564764694081881e-02 5.426076844132954e-02 -2.300417533828092e-02
1.105840000000000e+11 -9.044816377386715e-02 -2.607414605243000e-02 9.283253033208244e-01 -8.913188632856067e-02 9.268687289641890e-01 -9.552700779211344e-02 5.235280782210149e-02 -2.342447413163894e-02
1.106320000000000e+11 -8.780738757537992e-02 -2.852483295025020e-02 9.287442142869637e-01 -8.907206310350824e-02 9.273270604915973e-01 -9.541308371094179e-02 5.397633947974018e-02 -2.196966572079667e-02
1.106800000000000e+11 -8.753477998234359e-02 -2.827973773280373e-02 9.291558826283642e-01 -8.901679803499511e-02 9.277775513483886e-01 -9.530596541168984e-02 5.519216022078863e-02 -2.176856574094467e-02
1.107280000000000e+11 -8.809491485229413e-02 -2.861025640689776e-02 9.295600685012558e-01 -8.896613846373810e-02 9.282199387133370e-01 -9.520572209571584e-02 5.581151317133007e-02 -2.182920354147890e-02
1.107760000000000e+11 -8.828197775066784e-02 -2.923021854830545e-02 9.301518551362936e-01 -8.889887035940804e-02 9.288678148619596e-01 -9.506834788410451e-02 5.473314269802460e-02 -2.210093854972563e-02
1.108240000000000e+11 -8.866058518257856e-02 -2.879733389473462e-02 9.305364885663263e-01 -8.885986869359783e-02 9.292890037394987e-01 -9.498543786327415e-02 5.490484571649885e-02 -2.151324641650568e-02
1.108720000000000e+11 -8.958537619437336e-02 -2.779173989424669e-02 9.309130857353243e-01 -8.882554120195130e-02 9.297014661499708e-01 -9.490943338302466e-02 5.559076119716209e-02 -2.155408854571684e-02
1.109200000000000e+11 -8.959963564781952e-02 -2.737485153866275e-02 9.312815613719825e-01 -8.879587583602953e-02 9.301051005805395e-01 -9.484028723262439e-02 5.482446525307860e-02 -2.190868723446795e-02
1.109680000000000e+11 -8.961872480073751e-02 -2.752604915869938e-02 9.316418470049508e-01 -8.877085020972973e-02 9.304998232660669e-01 -9.477793640581025e-02 5.453740075825244e-02 -2.249727974539014e-02
1.110160000000000e+11 -9.033721710490457e-02 -2.685348429395611e-02 9.319938899142811e-01 -8.875043177110668e-02 9.308855671982901e-01 -9.472230437667260e-02 5.494131454827952e-02 -2.276037767404154e-02
1.110640000000000e+11 -9.041926166747238e-02 -2.632291359132347e-02 9.325064235389349e-01 -8.872834794683016e-02 9.314472438972325e-01 -9.465125732412136e-02 5.435887950623248e-02 -2.300356115267542e-02
1.111120000000000e+11 -9.030403051691227e-02 -2.673810079966322e-02 9.328377766864722e-01 -8.871923133376959e-02 9.318104039655682e-01 -9.461198843841455e-02 5.460298949166735e-02 -2.330837584986133e-02
1.111600000000000e+11 -8.978185148806141e-02 -2.683531910216697e-02 9.331609296578562e-01 -8.871450865197202e-02 9.321645880565581e-01 -9.457902921143456e-02 5.487183497514826e-02 -2.327602063344139e-02
1.112080000000000e+11 -8.989908682450287e-02 -2.654729664778089e-02 9.334759571209601e-01 -8.871409447447796e-02 9.325098604150359e-01 -9.455222563494514e-02 5.622953934441999e-02 -2.328544109053743e-02
1.112560000000000e+11 -8.934746329628265e-02 -2.684284944267280e-02 9.337829459009438e-01 -8.871789815045064e-02 9.328462970651967e-01 -9.453141387159704e-02 5.552483503452323e-02 -2.299675791702064e-02
1.113040000000000e+11 -8.914028301285840e-02 -2.732630686952975e-02 9.340819931023494e-01 -8.872582540249645e-02 9.331739828862972e-01 -9.451642281541076e-02 5.602719850059878e-02 -2.273043301323557e-02
1.113520000000000e+11 -8.877575725438554e-02 -2.757860873528033e-02 9.345159113366698e-01 -8.874522984897830e-02 9.336493053964122e-01 -9.450446028552008e-02 5.771571790635601e-02 -2.233678137597532e-02
1.114000000000000e+11 -8.892983897500431e-02 -2.732708838731674e-02 9.347956371914211e-01 -8.876300789273368e-02 9.339555710686137e-01 -9.450320977665003e-02 5.814683262063982e-02 -2.142938406461701e-02
1.114480000000000e+11 -8.858807572535460e-02 -2.749262308930138e-02 9.350679371588131e-01 -8.878450652041775e-02 9.342535378185965e-01 -9.450708014092905e-02 5.821426436792777e-02 -2.124141884162262e-02
1.114960000000000e+11 -8.852511756498624e-02 -2.806031748264742e-02 9.353330050020758e-01 -8.880958855916123e-02 9.345433774737976e-01 -9.451584271755356e-02 5.849852675580957e-02 -2.156100826876870e-02
1.115440000000000e+11 -8.843870691635891e-02 -2.743353203535089e-02 9.355910399297399e-01 -8.883811253580745e-02 9.348252662374892e-01 -9.452926506528513e-02 5.872180213464431e-02 -2.111533582815077e-02
1.115920000000000e+11 -8.912171323812849e-02 -2.788025080937013e-02 9.359653503274759e-01 -8.888703124333464e-02 9.352335885586062e-01 -9.455761969220264e-02 5.817114634387915e-02 -2.169107255827403e-02
1.116400000000000e+11 -8.919065303509054e-02 -2.715679488839515e-02 9.362067399092157e-01 -8.892349795219556e-02 9.354964469722429e-01 -9.458163875921309e-02 5.837356371046109e-02 -2.203326136032975e-02
1.116880000000000e+11 -8.933490353908165e-02 -2.688073300808467e-02 9.364419210476094e-01 -8.896284586642374e-02 9.357521137167525e-01 -9.460944336049004e-02 5.878033301893031e-02 -2.182994838734353e-02
1.117360000000000e+11 -8.913397526470053e-02 -2.690451630275965e-02 9.366711636377779e-01 -8.900489861884929e-02 9.360008417869156e-01 -9.464076905509970e-02 5.847019156948760e-02 -2.233221385163391e-02
1.117840000000000e+11 -8.966987458658646e-02 -2.762261907398068e-02 9.368947399513217e-01 -8.904947864109838e-02 9.362428861030767e-01 -9.467535109405173e-02 5.924439128935002e-02 -2.267490279678806e-02
1.118320000000000e+11 -8.946665246160554e-02 -2.746804479537161e-02 9.371129250865283e-01 -8.909640583459594e-02 9.364785047759741e-01 -9.471292380068151e-02 5.996197295395838e-02 -2.220851508254073e-02
1.118800000000000e+11 -8.977025524285610e-02 -2.744128567614292e-02 9.374307055151238e-01 -8.917079810480313e-02 9.368204568199139e-01 -9.477430802960587e-02 5.977668816827676e-02 -2.217371917655002e-02
1.119280000000000e+11 -8.886864611849210e-02 -2.796217271222918e-02 9.376366829304122e-01 -8.922277968912987e-02 9.370412049537724e-01 -9.481817333578756e-02 5.951203638874263e-02 -2.204204246069212e-02
1.119760000000000e+11 -8.918232182335577e-02 -2.793956950017711e-02 9.378383611946821e-01 -8.927643608595467e-02 9.372565608720931e-01 -9.486405183546191e-02 6.172478454752164e-02 -2.182963884190110e-02
1.120240000000000e+11 -8.539348257728924e-02 -2.526591965968357e-02 9.380360881033032e-01 -8.933156620483970e-02 9.374668558065256e-01 -9.491165116706161e-02 5.930952227719498e-02 -2.137491504191569e-02
1.120720000000000e+11 -8.578255611795371e-02 -2.506462495229116e-02 9.382302113248534e-01 -8.938796988348297e-02 9.376724196556325e-01 -9.496067999811687e-02 5.946301926257330e-02 -1.950688658528317e-02
1.121200000000000e+11 -8.465692667958712e-02 -2.543499658299595e-02 9.384210733090195e-01 -8.944544815735522e-02 9.378735755230582e-01 -9.501084873560520e-02 6.003786740716303e-02 -1.929412642677234e-02
1.121680000000000e+11 -8.530617541663044e-02 -2.535103339980673e-02 9.387019873697431e-01 -8.953324196764277e-02 9.381677384935669e-01 -9.508760134276653e-02 6.103760909811760e-02 -1.929715590230162e-02
1.122160000000000e+11 -8.516696746119633e-02 -2.615665728265796e-02 9.388862012944791e-01 -8.959251837697643e-02 9.383593008704294e-01 -9.513932613932752e-02 6.019004148111112e-02 -1.934842278852270e-02
1.122640000000000e+11 -8.536930094928377e-02 -2.675922968978738e-02 9.390684106523636e-01 -8.965214063499714e-02 9.385476573749104e-01 -9.519112715698014e-02 6.062779270181399e-02 -1.957954230095028e-02
1.123120000000000e+11 -8.476416273902426e-02 -2.693272939133679e-02 9.392489880479854e-01 -8.971189374961715e-02 9.387331708679733e-01 -9.524268918973657e-02 6.185779565773990e-02 -1.966269957039463e-02
1.123600000000000e+11 -8.721452320180272e-02 -2.631074597143316e-02 9.394282981730486e-01 -8.977156322657441e-02 9.389161995613544e-01 -9.529369732429548e-02 6.136620567271432e-02 -2.002052454703678e-02
1.124080000000000e+11 -8.685987703202602e-02 -2.671286699690505e-02 9.396066972371883e-01 -8.983093498572997e-02 9.390970994831845e-01 -9.534383845719499e-02 6.187970208877849e-02 -2.013278994654999e-02
1.124560000000000e+11 -8.791893122053365e-02 -2.688453423291121e-02 9.398733363013080e-01 -8.991896277444636e-02 9.393652212673832e-01 -9.541674979988880e-02 6.199661580599700e-02 -2.086331062719783e-02
1.125040000000000e+11 -8.690232409044397e-02 -2.664898131580803e-02 9.400509794751797e-01 -8.997663550913101e-02 9.395423619476279e-01 -9.546336354302758e-02 6.255489818359466e-02 -2.054283517893658e-02
1.125520000000000e+11 -8.803067949800475e-02 -2.737879551194470e-02 9.402289679460838e-01 -9.003323136684190e-02 9.397186836132972e-01 -9.550800720921368e-02 6.308593500137213e-02 -2.111859350781119e-02
1.126000000000000e+11 -8.703855535888470e-02 -2.737256481552709e-02 9.404076674165074e-01 -9.008852309552665e-02 9.398945818744425e-01 -9.555036534467641e-02 6.380503292519035e-02 -2.120739830253796e-02
1.126480000000000e+11 -8.753350834341590e-02 -2.810893033794874e-02 9.405874333200691e-01 -9.014228749046410e-02 9.400704461284634e-01 -9.559012750130523e-02 6.490380052159868e-02 -2.094121944174606e-02
1.126960000000000e+11 -8.667327325685109e-02 -2.862416406582949e-02 9.408598360512223e-01 -9.021959368780683e-02 9.403350134532286e-01 -9.564424029103000e-02 6.521353599286570e-02 -2.207409533000627e-02
1.127440000000000e+11 -8.735377288422476e-02 -2.935137081217053e-02 9.410438002640689e-01 -9.026858480571975e-02 9.405124984518675e-01 -9.567617983152887e-02 6.642448268188389e-02 -2.233306035612322e-02
1.127920000000000e+11 -8.692074914079584e-02 -3.041613644898691e-02 9.412300926946846e-01 -9.031528188682032e-02 9.406913717549685e-01 -9.570444849431183e-02 6.728202471592987e-02 -2.228365225270259e-02
1.128400000000000e+11 -8.799156124101894e-02 -3.168184700066501e-02 9.414190743740121e-01 -9.035947047391403e-02 9.408720560929716e-01 -9.572874668915154e-02 6.837548542316078e-02 -2.302664452398740e-02
1.128880000000000e+11 -8.847897827916086e-02 -3.244118237613074e-02 9.416110934748469e-01 -9.040094078122195e-02 9.410549651111251e-01 -9.574878851678742e-02 6.874654552902015e-02 -2.292130859564047e-02
1.129360000000000e+11 -8.900867292310925e-02 -3.274987033050254e-02 9.418064867453393e-01 -9.043948660569057e-02 9.412405044311412e-01 -9.576430101287982e-02 6.941142464656680e-02 -2.250672971828453e-02
1.129840000000000e+11 -8.912152676633708e-02 -3.232774893411992e-02 9.421066143836812e-01 -9.049138350676977e-02 9.415246101727475e-01 -9.577851032447601e-02 6.927850680219860e-02 -2.258130245857597e-02
1.130320000000000e+11 -8.948387486975448e-02 -3.232941815267237e-02 9.423118883711190e-01 -9.052174183947356e-02 9.417184843374432e-01 -9.578156772366354e-02 6.941370400794451e-02 -2.287603469689678e-02
1.130800000000000e+11 -8.890058220928203e-02 -3.129181192626101e-02 9.425217278724795e-01 -9.054847921524076e-02 9.419164422635455e-01 -9.577919666700421e-02 6.878877399002852e-02 -2.253020122323109e-02
1.131280000000000e+11 -8.980429141783518e-02 -3.133114672773855e-02 9.427364724642134e-01 -9.057141065719114e-02 9.421189070786560e-01 -9.577116049938759e-02 6.918671488404037e-02 -2.355387642462274e-02
1.131760000000000e+11 -8.947579332816791e-02 -3.071781829772543e-02 9.429564448749683e-01 -9.059036198205976e-02 9.423262883070079e-01 -9.575724063801851e-02 6.851194649215157e-02 -2.366410756023337e-02
1.132240000000000e+11 -8.962902490291350e-02 -3.042671705982416e-02 9.431819517513623e-01 -9.060516751524375e-02 9.425389793329303e-01 -9.573723798753307e-02 6.823657111954358e-02 -2.360623779841104e-02
1.132720000000000e+11 -8.919417332158733e-02 -3.004675333075713e-02 9.435312213968188e-01 -9.061926076021004e-02 9.428687887250470e-01 -9.569544127945466e-02 6.827737323071252e-02 -2.394135037056873e-02
1.133200000000000e+11 -9.015500167445294e-02 -3.054333427747523e-02 9.437718475713843e-01 -9.062302348005112e-02 9.430964056192821e-01 -9.565947332470970e-02 6.861235962584410e-02 -2.446310440203235e-02
1.133680000000000e+11 -8.880290007005189e-02 -3.032262398377293e-02 9.440190637211306e-01 -9.062210725990212e-02 9.433306813156241e-01 -9.561684486209272e-02 6.778270663708905e-02 -2.350748170128717e-02
1.134160000000000e+11 -8.932370900993652e-02 -3.094199173226685e-02 9.442731645700777e-01 -9.061637511792847e-02 9.435719940886080e-01 -9.556742671248822e-02 6.888007607391308e-02 -2.350217793847240e-02
1.134640000000000e+11 -8.842814039509192e-02 -3.039518616594918e-02 9.445344230697675e-01 -9.060570083623547e-02 9.438207021214204e-01 -9.551111079358003e-02 6.883225199666586e-02 -2.286265723259295e-02
1.135120000000000e+11 -8.881147763388261e-02 -3.111681170876043e-02 9.449402696649023e-01 -9.058017473246376e-02 9.442083592497083e-01 -9.541351295761763e-02 6.902485094694351e-02 -2.283737764293031e-02
1.135600000000000e+11 -8.747270031120208e-02 -3.097768185283170e-02 9.452205000226710e-01 -9.055666021564535e-02 9.444770158707152e-01 -9.533958611938076e-02 6.882851600078753e-02 -2.187855736281995e-02
1.136080000000000e+11 -8.819396068016985e-02 -3.129617976250087e-02 9.455087507288104e-01 -9.052783541253399e-02 9.447542358872267e-01 -9.525849293176529e-02 6.951780813380411e-02 -2.213433154678683e-02
1.136560000000000e+11 -8.702422056546734e-02 -3.088113044790179e-02 9.458052394757313e-01 -9.049361796386861e-02 9.450403195524008e-01 -9.517019211207596e-02 6.964369105726255e-02 -2.148643124061412e-02
1.137040000000000e+11 -8.733400622535342e-02 -3.119979200829280e-02 9.461101584011845e-01 -9.045393672731623e-02 9.453355387819564e-01 -9.507466466890582e-02 6.963885614016950e-02 -2.203612980323255e-02
1.137520000000000e+11 -8.725909155627781e-02 -3.086818687371235e-02 9.464236728497688e-01 -9.040873266419139e-02 9.456401358381311e-01 -9.497191608013712e-02 6.952501152899600e-02 -2.181229654596964e-02
1.138000000000000e+11 -8.762948547714500e-02 -3.124832693869733e-02 9.469103509964713e-01 -9.033047040851311e-02 9.461150681480917e-01 -9.480432572031297e-02 7.038669718168622e-02 -2.187631465743897e-02
1.138480000000000e+11 -8.802554403127494e-02 -3.094644687365342e-02 9.472459266486235e-01 -9.027126890595977e-02 9.464440053665120e-01 -9.468369138475907e-02 6.988323271406241e-02 -2.202513283577229e-02
1.138960000000000e+11 -8.751287583270460e-02 -3.051710929016731e-02 9.475905445741499e-01 -9.020641175087461e-02 9.467830171705135e-01 -9.455600632381486e-02 6.952907714629636e-02 -2.224910328024359e-02
1.139440000000000e+11 -8.813394846464935e-02 -3.021848031126222e-02 9.479442942203677e-01 -9.013588574596661e-02 9.471322525345406e-01 -9.442136034018256e-02 6.972866023669576e-02 -2.203440543796900e-02
1.139920000000000e+11 -8.812406788271021e-02 -2.991671015062654e-02 9.483072348444493e-01 -9.005969368347702e-02 9.474918220538195e-01 -9.427986291002315e-02 7.002181095302402e-02 -2.194475385035232e-02
1.140400000000000e+11 -8.776487508913713e-02 -2.919214532580523e-02 9.486793947271639e-01 -8.997785494964577e-02 9.478617971491266e-01 -9.413164249386870e-02 6.953083116113913e-02 -2.185129225471731e-02
1.140880000000000e+11 -8.845452971440244e-02 -3.036481417977326e-02 9.492549051227329e-01 -8.984459339026035e-02 9.484363275280261e-01 -9.389703875932942e-02 6.982182311320875e-02 -2.254362322615804e-02
1.141360000000000e+11 -8.769674859500440e-02 -2.947200537361226e-02 9.496500703448406e-01 -8.974882495007509e-02 9.488324053274934e-01 -9.373269302021674e-02 6.936191473722007e-02 -2.204534271867192e-02
1.141840000000000e+11 -8.810595639426927e-02 -3.058502944174408e-02 9.500543995607981e-01 -8.964759023856583e-02 9.492389159866677e-01 -9.356219648177247e-02 7.006683463795731e-02 -2.224229787269709e-02
1.142320000000000e+11 -8.729283135187425e-02 -3.022691527340173e-02 9.504678270521639e-01 -8.954097447658974e-02 9.496557961470592e-01 -9.338574877619837e-02 6.998635797365529e-02 -2.166616260951980e-02
1.142800000000000e+11 -8.698691815437185e-02 -3.040061112941686e-02 9.508902495031809e-01 -8.942908037868709e-02 9.500829339312228e-01 -9.320357218771831e-02 7.008331653812658e-02 -2.139912747260182e-02
1.143280000000000e+11 -8.687947756258689e-02 -3.103156695625309e-02 9.515404254468525e-01 -8.925161260533948e-02 9.507425079094723e-01 -9.292010645523015e-02 7.034057104342793e-02 -2.145106628333605e-02
1.143760000000000e+11 -8.655951229097017e-02 -3.118775347016385e-02 9.519846639047264e-01 -8.912708404377739e-02 9.511945186435560e-01 -9.272470137230383e-02 7.062276153171029e-02 -2.097404492824822e-02
1.144240000000000e+11 -8.679440476906010e-02 -3.102222089885907e-02 9.524373172416656e-01 -8.899775906929674e-02 9.516561036791997e-01 -9.252446009894992e-02 7.089522814692274e-02 -2.060001670728685e-02
1.144720000000000e+11 -8.716957252292977e-02 -3.082575257071037e-02 9.528981484011685e-01 -8.886381313080104e-02 9.521269771188081e-01 -9.231966914477967e-02 7.101525715989948e-02 -2.052398503152825e-02
1.145200000000000e+11 -8.718718739021010e-02 -3.008962447876501e-02 9.533668719263303e-01 -8.872544177751053e-02 9.526067963815058e-01 -9.211063623654991e-02 7.078868879760628e-02 -2.063827514039901e-02
1.145680000000000e+11 -8.751571769653343e-02 -2.996648291056075e-02 9.538431518662592e-01 -8.858285979922638e-02 9.530951601016345e-01 -9.189769150765906e-02 7.075022867449436e-02 -2.052631294622815e-02
1.146160000000000e+11 -8.739672793614423e-02 -2.942465496994198e-02 9.545708758263483e-01 -8.836160709668106e-02 9.538427001791407e-01 -9.157171853560499e-02 7.096340750888078e-02 -2.060807834882024e-02
1.146640000000000e+11 -8.739233021400505e-02 -2.941465775629195e-02 9.550642710214172e-01 -8.820954834639223e-02 9.543503138149324e-01 -9.135056759799985e-02 7.067468187746098e-02 -2.068459822571434e-02
1.147120000000000e+11 -8.771167092852840e-02 -2.949630885475177e-02 9.555637253694119e-01 -8.805414990376124e-02 9.548646871629803e-01 -9.112679039777119e-02 7.042899485037765e-02 -2.099375477760398e-02
1.147600000000000e+11 -8.792557589156960e-02 -2.936138416699112e-02 9.560687151548048e-01 -8.789569518437898e-02 9.553851957408104e-01 -9.090079505734451e-02 6.979507157186605e-02 -2.132648005253136e-02
1.148080000000000e+11 -8.804473283872939e-02 -2.953606023999644e-02 9.565786593611105e-01 -8.773448866796010e-02 9.559111496879691e-01 -9.067301773375816e-02 6.957964888035204e-02 -2.161278809085917e-02
1.148560000000000e+11 -8.767221074441051e-02 -2.951283334948744e-02 9.570929187209766e-01 -8.757085754083310e-02 9.564417941887925e-01 -9.044392510050529e-02 6.993196191786222e-02 -2.104511798652713e-02
1.149040000000000e+11 -8.757051028923164e-02 -2.931519342078515e-02 9.578708562672195e-01 -8.732163892787882e-02 9.572447502585154e-01 -9.009892098469062e-02 6.997894972160247e-02 -2.080162178750256e-02
1.149520000000000e+11 -8.712862428166940e-02 -2.918344597805264e-02 9.583927704713838e-01 -8.715352038224793e-02 9.577834639364486e-01 -8.986877336995598e-02 6.988365953246825e-02 -2.067979752464687e-02
1.150000000000000e+11 -8.740001817914397e-02 -2.979392144550283e-02 9.589164140554591e-01 -8.698427774522602e-02 9.583238700290069e-01 -8.963914487915868e-02 7.019330101712265e-02 -2.054414025026891e-02
