! Generated by Phase I extraction
# Hz S RI R 50
1.100000000000000e+11 1.016494864104135e+00 2.957899467379612e-02
1.100408163265300e+11 1.016438951591356e+00 2.999091895349689e-02
1.100816326530600e+11 1.016383539669443e+00 3.040426841447337e-02
1.101224489795900e+11 1.016328567025275e+00 3.081841649188815e-02
1.101632653061200e+11 1.016273959212847e+00 3.123275552602345e-02
1.102040816326500e+11 1.016219633896973e+00 3.164669261309826e-02
1.102448979591800e+11 1.016192549287425e+00 3.185332881120585e-02
1.102857142857100e+11 1.016138474625131e+00 3.226559375888355e-02
1.103265306122400e+11 1.016084438324097e+00 3.267609110751651e-02
1.103673469387800e+11 1.016030332174431e+00 3.308433788514346e-02
1.104081632653100e+11 1.015976048129972e+00 3.348988095689001e-02
1.104489795918400e+11 1.015921480701907e+00 3.389229557215710e-02
1.104897959183700e+11 1.015866528983059e+00 3.429118510993071e-02
1.105306122449000e+11 1.015838878769070e+00 3.448919136968071e-02
1.105714285714300e+11 1.015783170237976e+00 3.488212083121043e-02
1.106122448979600e+11 1.015726840538647e+00 3.527070095723114e-02
1.106530612244900e+11 1.015669803003288e+00 3.565466655014709e-02
1.106938775510200e+11 1.015611976599083e+00 3.603377658199932e-02
1.107346938775500e+11 1.015553283350190e+00 3.640781526223301e-02
1.107755102040800e+11 1.015523587855563e+00 3.659287137303661e-02
1.108163265306100e+11 1.015463451488830e+00 3.695895740881514e-02
1.108571428571400e+11 1.015402255033610e+00 3.731957167540727e-02
1.108979591836700e+11 1.015339915320608e+00 3.767460612931818e-02
1.109387755102000e+11 1.015276344697153e+00 3.802397285775544e-02
1.109795918367300e+11 1.015211451386357e+00 3.836760040916919e-02
1.110204081632700e+11 1.015145140270024e+00 3.870543309171620e-02
1.110612244898000e+11 1.015111423154584e+00 3.887216282467848e-02
1.111020408163300e+11 1.015042806574299e+00 3.920124039808237e-02
1.111428571428600e+11 1.014972535455348e+00 3.952448731647931e-02
1.111836734693900e+11 1.014900520120895e+00 3.984192602492245e-02
1.112244897959200e+11 1.014826676941581e+00 4.015358965409514e-02
1.112653061224500e+11 1.014750930687207e+00 4.045952151984570e-02
1.113061224489800e+11 1.014673217577101e+00 4.075977331450317e-02
1.113469387755100e+11 1.014633606893141e+00 4.090778666323758e-02
1.113877551020400e+11 1.014552848386534e+00 4.119963845653626e-02
1.114285714285700e+11 1.014470006952930e+00 4.148600871512895e-02
1.114693877551000e+11 1.014385049814852e+00 4.176700006985300e-02
1.115102040816300e+11 1.014297950525561e+00 4.204271935374734e-02
1.115510204081600e+11 1.014208687726924e+00 4.231327813061218e-02
1.115918367346900e+11 1.014163239589902e+00 4.244665760504243e-02
1.116326530612200e+11 1.014070700285189e+00 4.270970210827359e-02
1.116734693877600e+11 1.013975958853847e+00 4.296792712120009e-02
1.117142857142900e+11 1.013879004037352e+00 4.322149416204268e-02
1.117551020408200e+11 1.013779828186656e+00 4.347056956498387e-02
1.117959183673500e+11 1.013678428964304e+00 4.371532294479846e-02
1.118367346938800e+11 1.013574811031255e+00 4.395592404446497e-02
1.118775510204100e+11 1.013522173621766e+00 4.407471997915135e-02
1.119183673469400e+11 1.013415251315628e+00 4.430941996725422e-02
1.119591836734700e+11 1.013306148119257e+00 4.454043519851733e-02
1.120000000000000e+11 1.013194890350947e+00 4.476796689061704e-02
1.120408163265300e+11 1.013081511916388e+00 4.499221252647867e-02
1.120816326530600e+11 1.012966053006623e+00 4.521336312489146e-02
1.121224489795900e+11 1.012848557350968e+00 4.543160299160275e-02
1.121632653061200e+11 1.012789059856964e+00 4.553968633966082e-02
1.122040816326500e+11 1.012668592158481e+00 4.575389824055043e-02
1.122448979591800e+11 1.012546192835341e+00 4.596567317982202e-02
1.122857142857100e+11 1.012421898650272e+00 4.617520581895954e-02
1.123265306122400e+11 1.012295742518176e+00 4.638268336574117e-02
1.123673469387800e+11 1.012167754969622e+00 4.658828727069100e-02
1.124081632653100e+11 1.012037963964290e+00 4.679219356888448e-02
1.124489795918400e+11 1.011972399831734e+00 4.689356264548765e-02
1.124897959183700e+11 1.011839946166447e+00 4.709524576047646e-02
1.125306122449000e+11 1.011705734681017e+00 4.729568723256743e-02
1.125714285714300e+11 1.011569773997628e+00 4.749507991129523e-02
1.126122448979600e+11 1.011432071970441e+00 4.769361096193637e-02
1.126530612244900e+11 1.011292635247422e+00 4.789146251635192e-02
1.126938775510200e+11 1.011222268383119e+00 4.799018856524859e-02
1.127346938775500e+11 1.011080238520580e+00 4.818736184481222e-02
1.127755102040800e+11 1.010936479325935e+00 4.838433825765515e-02
1.128163265306100e+11 1.010790995348371e+00 4.858132127475610e-02
1.128571428571400e+11 1.010643799087103e+00 4.877850502819821e-02
1.128979591836700e+11 1.010494910451322e+00 4.897607060182017e-02
1.129387755102000e+11 1.010344354854468e+00 4.917418718741284e-02
1.129795918367300e+11 1.010268461049719e+00 4.927350132136400e-02
1.130204081632700e+11 1.010115457824079e+00 4.947274696520595e-02
1.130612244898000e+11 1.009960852859719e+00 4.967296781183827e-02
1.131020408163300e+11 1.009804671189656e+00 4.987433572782394e-02
1.131428571428600e+11 1.009646939188058e+00 5.007701408743742e-02
1.131836734693900e+11 1.009487684519935e+00 5.028115693308877e-02
1.132244897959200e+11 1.009326934645860e+00 5.048690626504917e-02
1.132653061224500e+11 1.009246007678039e+00 5.059042339339277e-02
1.133061224489800e+11 1.009083063503324e+00 5.079882797413681e-02
1.133469387755100e+11 1.008918679860402e+00 5.100917974910366e-02
1.133877551020400e+11 1.008752874478564e+00 5.122160649553890e-02
1.134285714285700e+11 1.008585666728240e+00 5.143622388030639e-02
1.134693877551000e+11 1.008417080722613e+00 5.165313785881731e-02
1.135102040816300e+11 1.008332280345675e+00 5.176248519843125e-02
1.135510204081600e+11 1.008161683453934e+00 5.198302541496975e-02
1.135918367346900e+11 1.007989782496417e+00 5.220612046480892e-02
1.136326530612200e+11 1.007816612326540e+00 5.243186644157408e-02
1.136734693877600e+11 1.007642213504391e+00 5.266034222196067e-02
1.137142857142900e+11 1.007466630933307e+00 5.289160824379683e-02
1.137551020408200e+11 1.007289913188379e+00 5.312570500922748e-02
1.137959183673500e+11 1.007201144786022e+00 5.324382159621587e-02
1.138367346938800e+11 1.007022818298880e+00 5.348220832309605e-02
1.138775510204100e+11 1.006843473629186e+00 5.372349476102126e-02
1.139183673469400e+11 1.006663151606834e+00 5.396769585413547e-02
1.139591836734700e+11 1.006481890280903e+00 5.421480610843282e-02
1.140000000000000e+11 1.006299725239984e+00 5.446480009838932e-02
1.140408163265300e+11 1.006116691011945e+00 5.471763154670386e-02
1.140816326530600e+11 1.006024859202674e+00 5.484509013126728e-02
1.141224489795900e+11 1.005840586171633e+00 5.510205237800430e-02
1.141632653061200e+11 1.005655525180693e+00 5.536168985306852e-02
1.142040816326500e+11 1.005469711770162e+00 5.562392000586827e-02
1.142448979591800e+11 1.005283189787915e+00 5.588863731772670e-02
1.142857142857100e+11 1.005096013573066e+00 5.615570999838637e-02
1.143265306122400e+11 1.005002200384504e+00 5.629008018211032e-02
1.143673469387800e+11 1.004814166627909e+00 5.656038899484479e-02
1.144081632653100e+11 1.004625649110785e+00 5.683265569201782e-02
1.144489795918400e+11 1.004436727751918e+00 5.710669242326792e-02
1.144897959183700e+11 1.004247490843486e+00 5.738228234262061e-02
1.145306122449000e+11 1.004058034030411e+00 5.765917949777718e-02
1.145714285714300e+11 1.003868458803420e+00 5.793710939829059e-02
1.146122448979600e+11 1.003773660120705e+00 5.807636783215980e-02
1.146530612244900e+11 1.003584106989205e+00 5.835528306446074e-02
1.146938775510200e+11 1.003394700900506e+00 5.863447577952070e-02
1.147346938775500e+11 1.003205552503033e+00 5.891361378806855e-02
1.147755102040800e+11 1.003016777617435e+00 5.919233656374236e-02
1.148163265306100e+11 1.002828498712398e+00 5.947025485243251e-02
1.148571428571400e+11 1.002640847342236e+00 5.974694866403088e-02
1.148979591836700e+11 1.002547301332694e+00 5.988469593620578e-02
1.149387755102000e+11 1.002360860081261e+00 6.015870583168529e-02
1.149795918367300e+11 1.002175412063100e+00 6.043034613438657e-02
1.150204081632700e+11 1.001991121950567e+00 6.069911038509240e-02
1.150612244898000e+11 1.001899467087150e+00 6.083224307162301e-02
1.151020408163300e+11 1.001808169873413e+00 6.096444789520938e-02
1.151428571428600e+11 1.001717252419591e+00 6.109565628050494e-02
1.151836734693900e+11 1.001626735944125e+00 6.122580167819659e-02
1.152244897959200e+11 1.001536640688004e+00 6.135481955239092e-02
1.152653061224500e+11 1.001446985868504e+00 6.148264745292985e-02
1.153061224489800e+11 1.001357789749554e+00 6.160922504107642e-02
1.153469387755100e+11 1.001269069702379e+00 6.173449415353487e-02
1.153877551020400e+11 1.001180842319491e+00 6.185839890582143e-02
1.154285714285700e+11 1.001093123536334e+00 6.198088567418183e-02
1.154693877551000e+11 1.001005928684522e+00 6.210190304252534e-02
1.155102040816300e+11 1.000919272548827e+00 6.222140170604459e-02
1.155510204081600e+11 1.000833169424586e+00 6.233933442845320e-02
1.155918367346900e+11 1.000747633189959e+00 6.245565601042599e-02
1.156326530612200e+11 1.000662677373171e+00 6.257032310364510e-02
1.156734693877600e+11 1.000578315132423e+00 6.268329403827196e-02
1.157142857142900e+11 1.000494559260240e+00 6.279452875594911e-02
1.157551020408200e+11 1.000411422157482e+00 6.290398867973394e-02
1.157959183673500e+11 1.000328915802878e+00 6.301163650826072e-02
1.158367346938800e+11 1.000247051706089e+00 6.311743609992272e-02
1.158775510204100e+11 1.000165840850406e+00 6.322135245398447e-02
1.159183673469400e+11 1.000085293682306e+00 6.332335162460492e-02
1.159591836734700e+11 1.000005420104955e+00 6.342340068587955e-02
1.160000000000000e+11 9.999262294854746e-01 6.352146773492100e-02
1.160408163265300e+11 9.998477307283091e-01 6.361752196620228e-02
1.160816326530600e+11 9.997699322727186e-01 6.371153374053941e-02
1.161224489795900e+11 9.996928422026260e-01 6.380347459134991e-02
1.161632653061200e+11 9.996164683182176e-01 6.389331725735189e-02
1.162040816326500e+11 9.995408181650498e-01 6.398103575999957e-02
1.162448979591800e+11 9.994658991025624e-01 6.406660541100397e-02
1.162857142857100e+11 9.993917182942398e-01 6.415000280075205e-02
1.163265306122400e+11 9.993182826954770e-01 6.423120580566136e-02
1.163673469387800e+11 9.992455989387520e-01 6.431019359486233e-02
1.164081632653100e+11 9.991736732362769e-01 6.438694662276155e-02
1.164489795918400e+11 9.991025112562408e-01 6.446144661004513e-02
1.164897959183700e+11 9.990321180704335e-01 6.453367661918416e-02
1.165306122449000e+11 9.989624980746460e-01 6.460362100512254e-02
1.165714285714300e+11 9.988936548965145e-01 6.467126542720358e-02
1.166122448979600e+11 9.988255913492291e-01 6.473659686886646e-02
1.166530612244900e+11 9.987583094315892e-01 6.479960363874718e-02
1.166938775510200e+11 9.986918103001766e-01 6.486027542294956e-02
1.167346938775500e+11 9.986260943517175e-01 6.491860317976465e-02
1.167755102040800e+11 9.985611612862325e-01 6.497457902900070e-02
1.168163265306100e+11 9.984970101801833e-01 6.502819616303382e-02
1.168571428571400e+11 9.984336395183988e-01 6.507944883844710e-02
1.168979591836700e+11 9.983710472514735e-01 6.512833225502218e-02
1.169387755102000e+11 9.983092308603018e-01 6.517484252463962e-02
1.169795918367300e+11 9.982481874261881e-01 6.521897658738431e-02
1.170204081632700e+11 9.981879136788320e-01 6.526073210448870e-02
1.170612244898000e+11 9.981284059584232e-01 6.530010748835206e-02
1.171020408163300e+11 9.980696602050296e-01 6.533710191465460e-02
1.171428571428600e+11 9.980116720400517e-01 6.537171524623171e-02
1.171836734693900e+11 9.979544366782872e-01 6.540394803156192e-02
1.172244897959200e+11 9.978979488605841e-01 6.543380159857590e-02
1.172653061224500e+11 9.978422028663302e-01 6.546127818504596e-02
1.173061224489800e+11 9.977871925074061e-01 6.548638096666853e-02
1.173469387755100e+11 9.977329111776421e-01 6.550911409473925e-02
1.173877551020400e+11 9.976793519117869e-01 6.552948273395591e-02
1.174285714285700e+11 9.976265074910826e-01 6.554749306165158e-02
1.174693877551000e+11 9.975743705106156e-01 6.556315227123084e-02
1.175102040816300e+11 9.975229333588725e-01 6.557646852537409e-02
1.175510204081600e+11 9.974721882467666e-01 6.558745092075258e-02
1.175918367346900e+11 9.974221271825410e-01 6.559610937388702e-02
1.176326530612200e+11 9.973727419838415e-01 6.560245461819125e-02
1.176734693877600e+11 9.973240243250624e-01 6.560649807455289e-02
1.177142857142900e+11 9.972759657261309e-01 6.560825181351630e-02
1.177551020408200e+11 9.972285575105465e-01 6.560772846778393e-02
1.177959183673500e+11 9.971817907612098e-01 6.560494106347103e-02
1.178367346938800e+11 9.971356561644423e-01 6.559990314402631e-02
1.178775510204100e+11 9.970901440057025e-01 6.559262889813490e-02
1.179183673469400e+11 9.970452441596340e-01 6.558313317349668e-02
1.179591836734700e+11 9.970009461644629e-01 6.557143146968687e-02
1.180000000000000e+11 9.969572392929420e-01 6.555753981779212e-02
1.180408163265300e+11 9.969141125828023e-01 6.554147476904831e-02
1.180816326530600e+11 9.968715548941331e-01 6.552325339063812e-02
1.181224489795900e+11 9.968295552210090e-01 6.550289340022035e-02
1.181632653061200e+11 9.967881027548315e-01 6.548041309898295e-02
1.182040816326500e+11 9.967471869017827e-01 6.545583132393080e-02
1.182448979591800e+11 9.967067972162780e-01 6.542916747669164e-02
1.182857142857100e+11 9.966669235004496e-01 6.540044149692924e-02
1.183265306122400e+11 9.966275558069285e-01 6.536967381327911e-02
1.183673469387800e+11 9.965886844214052e-01 6.533688530261780e-02
1.184081632653100e+11 9.965502997841527e-01 6.530209729902423e-02
1.184489795918400e+11 9.965123924330981e-01 6.526533162853994e-02
1.184897959183700e+11 9.964749529277347e-01 6.522661064870139e-02
1.185306122449000e+11 9.964379718337970e-01 6.518595729977569e-02
1.185714285714300e+11 9.964014397489609e-01 6.514339510219365e-02
1.186122448979600e+11 9.963653473138739e-01 6.509894813801245e-02
1.186530612244900e+11 9.963296852556650e-01 6.505264105105689e-02
1.186938775510200e+11 9.962944444243594e-01 6.500449900902913e-02
1.187346938775500e+11 9.962596158305229e-01 6.495454768742602e-02
1.187755102040800e+11 9.962251907164024e-01 6.490281323714858e-02
1.188163265306100e+11 9.961911605907443e-01 6.484932220925123e-02
1.188571428571400e+11 9.961575172826834e-01 6.479410148300359e-02
1.188979591836700e+11 9.961242529349433e-01 6.473717813712286e-02
1.189387755102000e+11 9.960913600444791e-01 6.467857943294955e-02
1.189795918367300e+11 9.960588314136717e-01 6.461833271961157e-02
1.190204081632700e+11 9.960266601346647e-01 6.455646534220942e-02
1.190612244898000e+11 9.959948395384529e-01 6.449300469498978e-02
1.191020408163300e+11 9.959633631568201e-01 6.442797824985409e-02
1.191428571428600e+11 9.959322246866249e-01 6.436141354142683e-02
1.191836734693900e+11 9.959014179724140e-01 6.429333826918814e-02
1.192244897959200e+11 9.958709369642650e-01 6.422378033631404e-02
1.192653061224500e+11 9.958407757615654e-01 6.415276782016122e-02
1.193061224489800e+11 9.958109287112951e-01 6.408032893362368e-02
1.193469387755100e+11 9.957813903970759e-01 6.400649207252521e-02
1.193877551020400e+11 9.957521556306280e-01 6.393128579824942e-02
1.194285714285700e+11 9.957232194523497e-01 6.385473881287779e-02
1.194693877551000e+11 9.956945771257261e-01 6.377687993891930e-02
1.195102040816300e+11 9.956662241632489e-01 6.369773801320176e-02
1.195510204081600e+11 9.956381563526070e-01 6.361734189641959e-02
1.195918367346900e+11 9.956103697421678e-01 6.353572046216112e-02
1.196326530612200e+11 9.955828606065349e-01 6.345290248262356e-02
1.196734693877600e+11 9.955556254420368e-01 6.336891655270506e-02
1.197142857142900e+11 9.955286608809676e-01 6.328379092663924e-02
1.197551020408200e+11 9.955019636849319e-01 6.319755356480952e-02
1.197959183673500e+11 9.954755307190951e-01 6.311023215744289e-02
1.198367346938800e+11 9.954493588620639e-01 6.302185417688315e-02
1.198775510204100e+11 9.954234449774759e-01 6.293244691054890e-02
1.199183673469400e+11 9.953977859188081e-01 6.284203748826533e-02
1.199591836734700e+11 9.953723785703169e-01 6.275065284903031e-02
1.200000000000000e+11 9.953472199135150e-01 6.265831978630519e-02
1.200408163265300e+11 9.953223070829664e-01 6.256506487319154e-02
1.200816326530600e+11 9.952976374166976e-01 6.247091447243527e-02
1.201224489795900e+11 9.952732085015301e-01 6.237589476461723e-02
1.201632653061200e+11 9.952490181546253e-01 6.228003172399681e-02
1.202040816326500e+11 9.952250644188289e-01 6.218335108616027e-02
1.202448979591800e+11 9.952013455460006e-01 6.208587828442230e-02
1.202857142857100e+11 9.951778599898411e-01 6.198763843675060e-02
1.203265306122400e+11 9.951546062515697e-01 6.188865640324133e-02
1.203673469387800e+11 9.951315828403643e-01 6.178895684751588e-02
1.204081632653100e+11 9.951087883133155e-01 6.168856427011256e-02
1.204489795918400e+11 9.950862213008812e-01 6.158750284450160e-02
1.204897959183700e+11 9.950638803196279e-01 6.148579646954018e-02
1.205306122449000e+11 9.950417636181258e-01 6.138346903946383e-02
1.205714285714300e+11 9.950198691938611e-01 6.128054464542999e-02
1.206122448979600e+11 9.949981949414823e-01 6.117704765059888e-02
1.206530612244900e+11 9.949767388301630e-01 6.107300249839401e-02
1.206938775510200e+11 9.949554989564718e-01 6.096843360488707e-02
1.207346938775500e+11 9.949344735484118e-01 6.086336528054819e-02
1.207755102040800e+11 9.949136609905356e-01 6.075782163798345e-02
1.208163265306100e+11 9.948930598761139e-01 6.065182641602657e-02
1.208571428571400e+11 9.948726689731927e-01 6.054540282586753e-02
1.208979591836700e+11 9.948524871789101e-01 6.043857337675843e-02
1.209387755102000e+11 9.948325134296426e-01 6.033135974015172e-02
1.209795918367300e+11 9.948127466839991e-01 6.022378255813514e-02
1.210204081632700e+11 9.947931858620465e-01 6.011586131925702e-02
1.210612244898000e+11 9.947738297305061e-01 6.000761434434991e-02
1.211020408163300e+11 9.947546768672068e-01 5.989905881914253e-02
1.211428571428600e+11 9.947357256682947e-01 5.979021075009042e-02
1.211836734693900e+11 9.947169743728966e-01 5.968108503072487e-02
1.212244897959200e+11 9.946984211078148e-01 5.957169552200691e-02
1.212653061224500e+11 9.946800639141143e-01 5.946205510437810e-02
1.213061224489800e+11 9.946619008105078e-01 5.935217586671335e-02
1.213469387755100e+11 9.946439298092405e-01 5.924206917526456e-02
1.213877551020400e+11 9.946261489934292e-01 5.913174575658363e-02
1.214285714285700e+11 9.946085565892011e-01 5.902121568827097e-02
1.214693877551000e+11 9.945911510516285e-01 5.891048842081025e-02
1.215102040816300e+11 9.945739311351117e-01 5.879957276390187e-02
1.215510204081600e+11 9.945568958749157e-01 5.868847669302434e-02
1.215918367346900e+11 9.945400444136654e-01 5.857720714252322e-02
1.216326530612200e+11 9.945233759359305e-01 5.846577011448952e-02
1.216734693877600e+11 9.945068896111581e-01 5.835417070004777e-02
1.217142857142900e+11 9.944905845360309e-01 5.824241300997761e-02
1.217551020408200e+11 9.944744596131829e-01 5.813050024503541e-02
1.217959183673500e+11 9.944585134379765e-01 5.801843477751059e-02
1.218367346938800e+11 9.944427442628244e-01 5.790621827018136e-02
1.218775510204100e+11 9.944271499742263e-01 5.779385177704913e-02
1.219183673469400e+11 9.944117281066938e-01 5.768133590034420e-02
1.219591836734700e+11 9.943964759052610e-01 5.756867091740976e-02
1.220000000000000e+11 9.943813904459200e-01 5.745585676435933e-02
1.220408163265300e+11 9.943664687712634e-01 5.734289299569536e-02
1.220816326530600e+11 9.943517079993892e-01 5.722977881243057e-02
1.221224489795900e+11 9.943371054660201e-01 5.711651300494079e-02
1.221632653061200e+11 9.943226587451094e-01 5.700309399228025e-02
1.222040816326500e+11 9.943083656287027e-01 5.688951977326785e-02
1.222448979591800e+11 9.942942240103988e-01 5.677578786094905e-02
1.222857142857100e+11 9.942802318413781e-01 5.666189527691759e-02
1.223265306122400e+11 9.942663870350995e-01 5.654783858801161e-02
1.223673469387800e+11 9.942526873326173e-01 5.643361397428241e-02
1.224081632653100e+11 9.942391301661108e-01 5.631921734850701e-02
1.224489795918400e+11 9.942257126529425e-01 5.620464443786911e-02
1.224897959183700e+11 9.942124315126705e-01 5.608989083998548e-02
1.225306122449000e+11 9.941992830561442e-01 5.597495218565933e-02
1.225714285714300e+11 9.941862632521823e-01 5.585982422451428e-02
1.226122448979600e+11 9.941733676715038e-01 5.574450291318986e-02
1.226530612244900e+11 9.941605916047318e-01 5.562898452268721e-02
1.226938775510200e+11 9.941479301774361e-01 5.551326559246759e-02
1.227346938775500e+11 9.941353784621971e-01 5.539734288868776e-02
1.227755102040800e+11 9.941229315721631e-01 5.528121331740337e-02
1.228163265306100e+11 9.941105847725821e-01 5.516487388354671e-02
1.228571428571400e+11 9.940983334493673e-01 5.504832156042580e-02
1.228979591836700e+11 9.940861731225654e-01 5.493155312335813e-02
1.229387755102000e+11 9.940740994317068e-01 5.481456502707742e-02
1.229795918367300e+11 9.940621080561413e-01 5.469735329183599e-02
1.230204081632700e+11 9.940501946707131e-01 5.457991352199146e-02
1.230612244898000e+11 9.940383547670918e-01 5.446224081441144e-02
1.231020408163300e+11 9.940265835675903e-01 5.434432991733026e-02
1.231428571428600e+11 9.940148760581797e-01 5.422617540162898e-02
1.231836734693900e+11 9.940032270160530e-01 5.410777171688951e-02
1.232244897959200e+11 9.939916309742608e-01 5.398911331883224e-02
1.232653061224500e+11 9.939800822991822e-01 5.387019484898935e-02
1.233061224489800e+11 9.939685752572629e-01 5.375101124821199e-02
1.233469387755100e+11 9.939571042045448e-01 5.363155773398103e-02
1.233877551020400e+11 9.939456636078567e-01 5.351182990846375e-02
1.234285714285700e+11 9.939342481608187e-01 5.339182382801562e-02
1.234693877551000e+11 9.939228528353672e-01 5.327153597464307e-02
1.235102040816300e+11 9.939114729782060e-01 5.315096322331519e-02
1.235510204081600e+11 9.939001043320815e-01 5.303010275535696e-02
1.235918367346900e+11 9.938887430023380e-01 5.290895198861777e-02
1.236326530612200e+11 9.938773854264986e-01 5.278750844285948e-02
1.236734693877600e+11 9.938660282654695e-01 5.266576971215776e-02
1.237142857142900e+11 9.938546683145603e-01 5.254373336180589e-02
1.237551020408200e+11 9.938433024177521e-01 5.242139688586205e-02
1.237959183673500e+11 9.938319273926673e-01 5.229875775752599e-02
1.238367346938800e+11 9.938205399538140e-01 5.217581342993809e-02
1.238775510204100e+11 9.938091366502163e-01 5.205256134355808e-02
1.239183673469400e+11 9.937977139286667e-01 5.192899894689443e-02
1.239591836734700e+11 9.937862681748635e-01 5.180512366841466e-02
1.240000000000000e+11 9.937747957734928e-01 5.168093303531406e-02
1.240408163265300e+11 9.937632932155124e-01 5.155642478846275e-02
1.240816326530600e+11 9.937517571887345e-01 5.143159675717304e-02
1.241224489795900e+11 9.937401846766400e-01 5.130644681501059e-02
1.241632653061200e+11 9.937285730949122e-01 5.118097274345870e-02
1.242040816326500e+11 9.937169203537037e-01 5.105517209095029e-02
1.242448979591800e+11 9.937052248752007e-01 5.092904212811085e-02
1.242857142857100e+11 9.936934855811943e-01 5.080257974777769e-02
1.243265306122400e+11 9.936817017872072e-01 5.067578148434258e-02
1.243673469387800e+11 9.936698731001553e-01 5.054864344733904e-02
1.244081632653100e+11 9.936579993382496e-01 5.042116137897793e-02
1.244489795918400e+11 9.936460804601075e-01 5.029333069675967e-02
1.244897959183700e+11 9.936341165108735e-01 5.016514653527607e-02
1.245306122449000e+11 9.936221075491496e-01 5.003660387631580e-02
1.245714285714300e+11 9.936100536250162e-01 4.990769760127966e-02
1.246122448979600e+11 9.935979547943201e-01 4.977842254850384e-02
1.246530612244900e+11 9.935858111484913e-01 4.964877364171667e-02
1.246938775510200e+11 9.935736228243964e-01 4.951874597876987e-02
1.247346938775500e+11 9.935613900417904e-01 4.938833489328093e-02
1.247755102040800e+11 9.935491131900603e-01 4.925753595592557e-02
1.248163265306100e+11 9.935367929535660e-01 4.912634496671278e-02
1.248571428571400e+11 9.935244303922124e-01 4.899475791058165e-02
1.248979591836700e+11 9.935120269436460e-01 4.886277082382296e-02
1.249387755102000e+11 9.934995844703893e-01 4.873037960872516e-02
1.249795918367300e+11 9.934871052955192e-01 4.859757998104604e-02
1.250204081632700e+11 9.934745921242077e-01 4.846436751536935e-02
1.250612244898000e+11 9.934620478677607e-01 4.833073763836537e-02
1.251020408163300e+11 9.934494755524214e-01 4.819668552640279e-02
1.251428571428600e+11 9.934368782982412e-01 4.806220597589277e-02
1.251836734693900e+11 9.934242592238037e-01 4.792729338506188e-02
1.252244897959200e+11 9.934116213647868e-01 4.779194187717611e-02
1.252653061224500e+11 9.933989676456393e-01 4.765614530287130e-02
1.253061224489800e+11 9.933863008865834e-01 4.751989733379956e-02
1.253469387755100e+11 9.933736238373613e-01 4.738319144122419e-02
1.253877551020400e+11 9.933609392287042e-01 4.724602109255594e-02
1.254285714285700e+11 9.933482497994757e-01 4.710837986109750e-02
1.254693877551000e+11 9.933355583954971e-01 4.697026137339891e-02
1.255102040816300e+11 9.933228681135602e-01 4.683165927602018e-02
1.255510204081600e+11 9.933101823152533e-01 4.669256730726533e-02
1.255918367346900e+11 9.932975046238132e-01 4.655297938138366e-02
1.256326530612200e+11 9.932848389128535e-01 4.641288969727372e-02
1.256734693877600e+11 9.932721893556232e-01 4.627229260892990e-02
1.257142857142900e+11 9.932595603960280e-01 4.613118251954977e-02
1.257551020408200e+11 9.932469566592905e-01 4.598955373084623e-02
1.257959183673500e+11 9.932343828605539e-01 4.584740041333273e-02
1.258367346938800e+11 9.932218436277648e-01 4.570471665503810e-02
1.258775510204100e+11 9.932093434119648e-01 4.556149652184224e-02
1.259183673469400e+11 9.931968864327739e-01 4.541773417551755e-02
1.259591836734700e+11 9.931844766867752e-01 4.527342384553622e-02
1.260000000000000e+11 9.931721178656173e-01 4.512855989584764e-02
1.260408163265300e+11 9.931598133936853e-01 4.498313689891813e-02
1.260816326530600e+11 9.931475665324998e-01 4.483714971422215e-02
1.261224489795900e+11 9.931353804944576e-01 4.469059347366695e-02
1.261632653061200e+11 9.931232584959786e-01 4.454346352675680e-02
1.262040816326500e+11 9.931112038540839e-01 4.439575537851428e-02
1.262448979591800e+11 9.930992200076154e-01 4.424746466577709e-02
1.262857142857100e+11 9.930873105671896e-01 4.409858713996481e-02
1.263265306122400e+11 9.930754792908373e-01 4.394911865581245e-02
1.263673469387800e+11 9.930637300693848e-01 4.379905514186842e-02
1.264081632653100e+11 9.930520669415267e-01 4.364839260529165e-02
1.264489795918400e+11 9.930404940572772e-01 4.349712715567845e-02
1.264897959183700e+11 9.930290155424047e-01 4.334525502724904e-02
1.265306122449000e+11 9.930176354310229e-01 4.319277264708749e-02
1.265714285714300e+11 9.930063575690733e-01 4.303967662215062e-02
1.266122448979600e+11 9.929951856372560e-01 4.288596391685980e-02
1.266530612244900e+11 9.929841231673732e-01 4.273163178330118e-02
1.266938775510200e+11 9.929731734776157e-01 4.257667785899093e-02
1.267346938775500e+11 9.929623397442539e-01 4.242110021944071e-02
1.267755102040800e+11 9.929516249855684e-01 4.226489746061377e-02
1.268163265306100e+11 9.929410320908246e-01 4.210806876092254e-02
1.268571428571400e+11 9.929305639069392e-01 4.195061393539845e-02
1.268979591836700e+11 9.929202232488201e-01 4.179253345071325e-02
1.269387755102000e+11 9.929100129274842e-01 4.163382842102289e-02
1.269795918367300e+11 9.928999358740856e-01 4.147450050118646e-02
1.270204081632700e+11 9.928899951302282e-01 4.131455183490450e-02
1.270612244898000e+11 9.928801938502312e-01 4.115398498683860e-02
1.271020408163300e+11 9.928705352327571e-01 4.099280293045566e-02
1.271428571428600e+11 9.928610224291357e-01 4.083100896168716e-02
1.271836734693900e+11 9.928516584706577e-01 4.066860661373563e-02
1.272244897959200e+11 9.928424461912519e-01 4.050559968184583e-02
1.272653061224500e+11 9.928333881933386e-01 4.034199216495381e-02
1.273061224489800e+11 9.928244867271012e-01 4.017778820290023e-02
1.273469387755100e+11 9.928157436387220e-01 4.001299218173273e-02
1.273877551020400e+11 9.928071603758143e-01 3.984760881599352e-02
1.274285714285700e+11 9.927987380881368e-01 3.968164309458840e-02
1.274693877551000e+11 9.927904777174119e-01 3.951510038729746e-02
1.275102040816300e+11 9.927823800163990e-01 3.934798646457714e-02
1.275510204081600e+11 9.927744455963122e-01 3.918030748463707e-02
1.275918367346900e+11 9.927666749346212e-01 3.901206995809244e-02
1.276326530612200e+11 9.927590685066582e-01 3.884328067402493e-02
1.276734693877600e+11 9.927516268276703e-01 3.867394665396983e-02
1.277142857142900e+11 9.927443505017023e-01 3.850407513496452e-02
1.277551020408200e+11 9.927372401645865e-01 3.833367358500751e-02
1.277959183673500e+11 9.927302964208661e-01 3.816274976380311e-02
1.278367346938800e+11 9.927235198124452e-01 3.799131167635367e-02
1.278775510204100e+11 9.927169107775351e-01 3.781936757113000e-02
1.279183673469400e+11 9.927104696362786e-01 3.764692597989929e-02
1.279591836734700e+11 9.927041965930853e-01 3.747399579077491e-02
1.280000000000000e+11 9.926980917363620e-01 3.730058622924860e-02
1.280408163265300e+11 9.926921550977150e-01 3.712670687842487e-02
1.280816326530600e+11 9.926863866497467e-01 3.695236764115757e-02
1.281224489795900e+11 9.926807863361917e-01 3.677757875877763e-02
1.281632653061200e+11 9.926753540398660e-01 3.660235078133677e-02
1.282040816326500e+11 9.926700896634191e-01 3.642669453724406e-02
1.282448979591800e+11 9.926649930727025e-01 3.625062110410091e-02
1.282857142857100e+11 9.926600641232405e-01 3.607414176056930e-02
1.283265306122400e+11 9.926553027202832e-01 3.589726790330566e-02
1.283673469387800e+11 9.926507087912451e-01 3.572001099383900e-02
1.284081632653100e+11 9.926462823462757e-01 3.554238256827136e-02
1.284489795918400e+11 9.926420234046160e-01 3.536439418951280e-02
1.284897959183700e+11 9.926379320072442e-01 3.518605743011159e-02
1.285306122449000e+11 9.926340081809207e-01 3.500738394551002e-02
1.285714285714300e+11 9.926302519286796e-01 3.482838549248863e-02
1.286122448979600e+11 9.926266631544267e-01 3.464907393821317e-02
1.286530612244900e+11 9.926232416896360e-01 3.446946134791046e-02
1.286938775510200e+11 9.926199872373975e-01 3.428956005586164e-02
1.287346938775500e+11 9.926168993690103e-01 3.410938267024680e-02
1.287755102040800e+11 9.926139775313937e-01 3.392894215146543e-02
1.288163265306100e+11 9.926112211081015e-01 3.374825194195932e-02
1.288571428571400e+11 9.926086294915384e-01 3.356732590364377e-02
1.288979591836700e+11 9.926062021159140e-01 3.338617835355099e-02
1.289387755102000e+11 9.926039384414402e-01 3.320482398329689e-02
1.289795918367300e+11 9.926018379216874e-01 3.302327774390360e-02
1.290204081632700e+11 9.925998999365059e-01 3.284155479835566e-02
1.290612244898000e+11 9.925981236549540e-01 3.265967051164615e-02
1.291020408163300e+11 9.925965080752811e-01 3.247764041716857e-02
1.291428571428600e+11 9.925950520017219e-01 3.229548019005644e-02
1.291836734693900e+11 9.925937540026168e-01 3.211320561506689e-02
1.292244897959200e+11 9.925926123590645e-01 3.193083249192608e-02
1.292653061224500e+11 9.925916250792018e-01 3.174837658842900e-02
1.293061224489800e+11 9.925907898448647e-01 3.156585359469003e-02
1.293469387755100e+11 9.925901040282608e-01 3.138327913269492e-02
1.293877551020400e+11 9.925895648351039e-01 3.120066872952994e-02
1.294285714285700e+11 9.925891692748797e-01 3.101803778717730e-02
1.294693877551000e+11 9.925889141067424e-01 3.083540151305119e-02
1.295102040816300e+11 9.925887958568280e-01 3.065277496084775e-02
1.295510204081600e+11 9.925888109566509e-01 3.047017300861813e-02
1.295918367346900e+11 9.925889558037723e-01 3.028761031705273e-02
1.296326530612200e+11 9.925892268791821e-01 3.010510129981054e-02
1.296734693877600e+11 9.925896206593197e-01 2.992266009418605e-02
1.297142857142900e+11 9.925901336895813e-01 2.974030059318882e-02
1.297551020408200e+11 9.925907626505015e-01 2.955803645718381e-02
1.297959183673500e+11 9.925915043564242e-01 2.937588109370731e-02
1.298367346938800e+11 9.925923557292332e-01 2.919384768202405e-02
1.298775510204100e+11 9.925933137783396e-01 2.901194924163682e-02
1.299183673469400e+11 9.925943754987515e-01 2.883019866951848e-02
1.299591836734700e+11 9.925955379011074e-01 2.864860890071493e-02
1.300000000000000e+11 9.925967980031147e-01 2.846719303572500e-02
1.300408163265300e+11 9.925981528218580e-01 2.828596436143302e-02
1.300816326530600e+11 9.925995993858379e-01 2.810493641251046e-02
1.301224489795900e+11 9.926011346950750e-01 2.792412304611570e-02
1.301632653061200e+11 9.926027557608016e-01 2.774353847828284e-02
1.302040816326500e+11 9.926044595351793e-01 2.756319726772677e-02
1.302448979591800e+11 9.926062429470849e-01 2.738311431794073e-02
1.302857142857100e+11 9.926081029749337e-01 2.720330488596190e-02
1.303265306122400e+11 9.926100366527750e-01 2.702378465601115e-02
1.303673469387800e+11 9.926120410945386e-01 2.684456961113481e-02
1.304081632653100e+11 9.926141134723444e-01 2.666567577901430e-02
1.304489795918400e+11 9.926162510474318e-01 2.648711918371807e-02
1.304897959183700e+11 9.926184512055581e-01 2.630891576341777e-02
1.305306122449000e+11 9.926207114183021e-01 2.613108127108511e-02
1.305714285714300e+11 9.926230291916521e-01 2.595363119716394e-02
1.306122448979600e+11 9.926254019982487e-01 2.577658065749893e-02
1.306530612244900e+11 9.926278271965832e-01 2.559994432292743e-02
1.306938775510200e+11 9.926303020047151e-01 2.542373642606045e-02
1.307346938775500e+11 9.926328234778871e-01 2.524797078189206e-02
1.307755102040800e+11 9.926353884941168e-01 2.507266083064207e-02
1.308163265306100e+11 9.926379937611264e-01 2.489781968169083e-02
1.308571428571400e+11 9.926406358415830e-01 2.472346014757132e-02
1.308979591836700e+11 9.926433112089449e-01 2.454959481825049e-02
1.309387755102000e+11 9.926460163309548e-01 2.437623610196298e-02
1.309795918367300e+11 9.926487477412264e-01 2.420339625909224e-02
1.310204081632700e+11 9.926515021609731e-01 2.403108746085987e-02
1.310612244898000e+11 9.926542765511120e-01 2.385932175501006e-02
1.311020408163300e+11 9.926570681403175e-01 2.368811098007617e-02
1.311428571428600e+11 9.926598745137865e-01 2.351746669593679e-02
1.311836734693900e+11 9.926626936409291e-01 2.334740008979771e-02
1.312244897959200e+11 9.926655238113876e-01 2.317792195882964e-02
1.312653061224500e+11 9.926683636049846e-01 2.300904262510885e-02
1.313061224489800e+11 9.926712118535831e-01 2.284077195918829e-02
1.313469387755100e+11 9.926740675848744e-01 2.267311928098506e-02
1.313877551020400e+11 9.926769299144204e-01 2.250609334090220e-02
1.314285714285700e+11 9.926797979939525e-01 2.233970233437780e-02
1.314693877551000e+11 9.926826710110233e-01 2.217395396245015e-02
1.315102040816300e+11 9.926855481246614e-01 2.200885554377112e-02
1.315510204081600e+11 9.926884284142098e-01 2.184441410568891e-02
1.315918367346900e+11 9.926913108793868e-01 2.168063637959586e-02
1.316326530612200e+11 9.926941944943503e-01 2.151752884523962e-02
1.316734693877600e+11 9.926970782289164e-01 2.135509776273733e-02
1.317142857142900e+11 9.926999611352014e-01 2.119334922630953e-02
1.317551020408200e+11 9.927028424226403e-01 2.103228917848701e-02
1.317959183673500e+11 9.927057214732318e-01 2.087192335154425e-02
1.318367346938800e+11 9.927085978745009e-01 2.071225724624934e-02
1.318775510204100e+11 9.927114714350850e-01 2.055329604719664e-02
1.319183673469400e+11 9.927143422263469e-01 2.039504465811277e-02
1.319591836734700e+11 9.927172105602182e-01 2.023750769586291e-02
1.320000000000000e+11 9.927200769004404e-01 2.008068950078419e-02
1.320408163265300e+11 9.927229418666754e-01 1.992459395590411e-02
1.320816326530600e+11 9.927258061995471e-01 1.976922440522469e-02
1.321224489795900e+11 9.927286706894656e-01 1.961458372179165e-02
1.321632653061200e+11 9.927315361424562e-01 1.946067421470532e-02
1.322040816326500e+11 9.927344033745057e-01 1.930749763478734e-02
1.322448979591800e+11 9.927372731912699e-01 1.915505518787818e-02
1.322857142857100e+11 9.927401463747243e-01 1.900334751521260e-02
1.323265306122400e+11 9.927430236533841e-01 1.885237470957822e-02
1.323673469387800e+11 9.927459056985150e-01 1.870213633493070e-02
1.324081632653100e+11 9.927487932424000e-01 1.855263156817552e-02
1.324489795918400e+11 9.927516870993172e-01 1.840385925093755e-02
1.324897959183700e+11 9.927545882627938e-01 1.825581798904542e-02
1.325306122449000e+11 9.927574979315245e-01 1.810850597933440e-02
1.325714285714300e+11 9.927604175873889e-01 1.796192081945973e-02
1.326122448979600e+11 9.927633490204543e-01 1.781605955202867e-02
1.326530612244900e+11 9.927662943222471e-01 1.767091852330302e-02
1.326938775510200e+11 9.927692558793979e-01 1.752649329286677e-02
1.327346938775500e+11 9.927722362709005e-01 1.738277852228710e-02
1.327755102040800e+11 9.927752382496955e-01 1.723976789490166e-02
1.328163265306100e+11 9.927782645985446e-01 1.709745424372845e-02
1.328571428571400e+11 9.927813181536066e-01 1.695582933878412e-02
1.328979591836700e+11 9.927844017434289e-01 1.681488404119207e-02
1.329387755102000e+11 9.927875180587008e-01 1.667460827373483e-02
1.329795918367300e+11 9.927906696181076e-01 1.653499099815751e-02
1.330204081632700e+11 9.927938587019751e-01 1.639602033619536e-02
1.330612244898000e+11 9.927970873869815e-01 1.625768383834768e-02
1.331020408163300e+11 9.928003575506396e-01 1.611996864848791e-02
1.331428571428600e+11 9.928036708983938e-01 1.598286167910058e-02
1.331836734693900e+11 9.928070290248630e-01 1.584634973963648e-02
1.332244897959200e+11 9.928104335369072e-01 1.571041964751967e-02
1.332653061224500e+11 9.928138861685256e-01 1.557505829831993e-02
1.333061224489800e+11 9.928173888726703e-01 1.544025261587805e-02
1.333469387755100e+11 9.928209439107830e-01 1.530598959816836e-02
1.333877551020400e+11 9.928245538871517e-01 1.517225630669346e-02
1.334285714285700e+11 9.928282217298721e-01 1.503903985899842e-02
1.334693877551000e+11 9.928319506713482e-01 1.490632730615817e-02
1.335102040816300e+11 9.928357441579606e-01 1.477410562975552e-02
1.335510204081600e+11 9.928396057114409e-01 1.464236172004996e-02
1.335918367346900e+11 9.928435388054098e-01 1.451108227279569e-02
1.336326530612200e+11 9.928475467542967e-01 1.438025369708679e-02
1.336734693877600e+11 9.928516326116915e-01 1.424986212982986e-02
1.337142857142900e+11 9.928557990783922e-01 1.411989342224801e-02
1.337551020408200e+11 9.928600484452698e-01 1.399033309140175e-02
1.337959183673500e+11 9.928643825508986e-01 1.386116643803734e-02
1.338367346938800e+11 9.928688027919228e-01 1.373237867436138e-02
1.338775510204100e+11 9.928733102282737e-01 1.360395496579320e-02
1.339183673469400e+11 9.928779056062160e-01 1.347588044467416e-02
1.339591836734700e+11 9.928825894833991e-01 1.334814019809440e-02
1.340000000000000e+11 9.928873623252137e-01 1.322071909275109e-02
1.340408163265300e+11 9.928922246978332e-01 1.309360173766566e-02
1.340816326530600e+11 9.928971773094821e-01 1.296677238865777e-02
1.341224489795900e+11 9.929022210197821e-01 1.284021483075080e-02
1.341632653061200e+11 9.929073568565200e-01 1.271391223228289e-02
1.342040816326500e+11 9.929125860220306e-01 1.258784712960372e-02
1.342448979591800e+11 9.929179099049537e-01 1.246200133975590e-02
1.342857142857100e+11 9.929233300295949e-01 1.233635595174819e-02
1.343265306122400e+11 9.929288479280965e-01 1.221089127860218e-02
1.343673469387800e+11 9.929344649993945e-01 1.208558684826509e-02
1.344081632653100e+11 9.929401824380307e-01 1.196042162874034e-02
1.344489795918400e+11 9.929460011902433e-01 1.183537423489736e-02
1.344897959183700e+11 9.929519217744215e-01 1.171042308955728e-02
1.345306122449000e+11 9.929579442841865e-01 1.158554641692713e-02
1.345714285714300e+11 9.929640684224844e-01 1.146072229931263e-02
1.346122448979600e+11 9.929702935313005e-01 1.133592881546633e-02
1.346530612244900e+11 9.929766186656585e-01 1.121114430747643e-02
1.346938775510200e+11 9.929830427139678e-01 1.108634745672401e-02
1.347346938775500e+11 9.929895645091062e-01 1.096151737471111e-02
1.347755102040800e+11 9.929961828602650e-01 1.083663374344404e-02
1.348163265306100e+11 9.930028966807640e-01 1.071167685108152e-02
1.348571428571400e+11 9.930097051783590e-01 1.058662747448813e-02
1.348979591836700e+11 9.930166079142422e-01 1.046146669538726e-02
1.349387755102000e+11 9.930236048323905e-01 1.033617591181038e-02
1.349795918367300e+11 9.930306961811572e-01 1.021073674670732e-02
1.350204081632700e+11 9.930378824830373e-01 1.008513099339924e-02
1.350612244898000e+11 9.930451645120044e-01 9.959340569936054e-03
1.351020408163300e+11 9.930525432024619e-01 9.833347541905213e-03
1.351428571428600e+11 9.930600195103463e-01 9.707134032318416e-03
1.351836734693900e+11 9.930675942629729e-01 9.580682293323445e-03
1.352244897959200e+11 9.930752680907593e-01 9.453974841432200e-03
1.352653061224500e+11 9.930830413030848e-01 9.326994533195701e-03
1.353061224489800e+11 9.930909139813227e-01 9.199724575600116e-03
1.353469387755100e+11 9.930988859558567e-01 9.072148671020264e-03
1.353877551020400e+11 9.931069567294660e-01 8.944251263339828e-03
1.354285714285700e+11 9.931151255679369e-01 8.816017485419316e-03
1.354693877551000e+11 9.931233915997234e-01 8.687433254393100e-03
1.355102040816300e+11 9.931317539045814e-01 8.558485324611691e-03
1.355510204081600e+11 9.931402116038914e-01 8.429161210143192e-03
1.355918367346900e+11 9.931487638852905e-01 8.299449311378347e-03
1.356326530612200e+11 9.931574101415683e-01 8.169338845720971e-03
1.356734693877600e+11 9.931661500874834e-01 8.038819756404341e-03
1.357142857142900e+11 9.931749838937632e-01 7.907882573724137e-03
1.357551020408200e+11 9.931839121439092e-01 7.776518406469972e-03
1.357959183673500e+11 9.931929357797185e-01 7.644718751076606e-03
1.358367346938800e+11 9.932020560293355e-01 7.512475408166440e-03
1.358775510204100e+11 9.932112743353070e-01 7.379780447091040e-03
1.359183673469400e+11 9.932205921483088e-01 7.246626224455362e-03
1.359591836734700e+11 9.932300107970539e-01 7.113005337782890e-03
1.360000000000000e+11 9.932395313803694e-01 6.978910567345097e-03
1.360408163265300e+11 9.932491546664449e-01 6.844334953465051e-03
1.360816326530600e+11 9.932588811296359e-01 6.709271865535851e-03
1.361224489795900e+11 9.932687109380152e-01 6.573715043627657e-03
1.361632653061200e+11 9.932786439642975e-01 6.437658629252456e-03
1.362040816326500e+11 9.932886798953222e-01 6.301097005427757e-03
1.362448979591800e+11 9.932988182239788e-01 6.164024921195244e-03
1.362857142857100e+11 9.933090583356624e-01 6.026437590913659e-03
1.363265306122400e+11 9.933193996149641e-01 5.888330593799671e-03
1.363673469387800e+11 9.933298415768196e-01 5.749699891417014e-03
1.364081632653100e+11 9.933403839886777e-01 5.610541851308613e-03
1.364489795918400e+11 9.933510269244281e-01 5.470853220408402e-03
1.364897959183700e+11 9.933617707977090e-01 5.330630962444806e-03
1.365306122449000e+11 9.933726163181735e-01 5.189872169766396e-03
1.365714285714300e+11 9.933835643667270e-01 5.048574100724955e-03
1.366122448979600e+11 9.933946159097391e-01 4.906734201956068e-03
1.366530612244900e+11 9.934057719057594e-01 4.764350095165182e-03
1.366938775510200e+11 9.934170332015023e-01 4.621419487490452e-03
1.367346938775500e+11 9.934284004198726e-01 4.477940228587333e-03
1.367755102040800e+11 9.934398738608778e-01 4.333910355550813e-03
1.368163265306100e+11 9.934514534965384e-01 4.189328183865090e-03
1.368571428571400e+11 9.934631389090210e-01 4.044192274602267e-03
1.368979591836700e+11 9.934749292856057e-01 3.898501536391658e-03
1.369387755102000e+11 9.934868235241192e-01 3.752255340211106e-03
1.369795918367300e+11 9.934988202965646e-01 3.605453433813662e-03
1.370204081632700e+11 9.935109180140294e-01 3.458096005638163e-03
1.370612244898000e+11 9.935231149202924e-01 3.310183692085487e-03
1.371020408163300e+11 9.935354092110564e-01 3.161717539329656e-03
1.371428571428600e+11 9.935477991044547e-01 3.012699110203194e-03
1.371836734693900e+11 9.935602829248597e-01 2.863130489384306e-03
1.372244897959200e+11 9.935728591300583e-01 2.713014133205629e-03
1.372653061224500e+11 9.935855263111616e-01 2.562352824209065e-03
1.373061224489800e+11 9.935982832088593e-01 2.411149713306270e-03
1.373469387755100e+11 9.936111287095574e-01 2.259408398355375e-03
1.373877551020400e+11 9.936240618529734e-01 2.107132716643033e-03
1.374285714285700e+11 9.936370817573951e-01 1.954326603536811e-03
1.374693877551000e+11 9.936501874738765e-01 1.800994109128686e-03
1.375102040816300e+11 9.936633778701698e-01 1.647139493182263e-03
1.375510204081600e+11 9.936766515656269e-01 1.492767078676019e-03
1.375918367346900e+11 9.936900069008935e-01 1.337881170476566e-03
1.376326530612200e+11 9.937034419214670e-01 1.182486235861935e-03
1.376734693877600e+11 9.937169543925936e-01 1.026587024768499e-03
1.377142857142900e+11 9.937305418000689e-01 8.701885468910002e-04
1.377551020408200e+11 9.937442013669736e-01 7.132959564285385e-04
1.377959183673500e+11 9.937579301217397e-01 5.559146041260080e-04
1.378367346938800e+11 9.937717250016952e-01 3.980501410053448e-04
1.378775510204100e+11 9.937855829190054e-01 2.397084321991509e-04
1.379183673469400e+11 9.937995008405003e-01 8.089548509453322e-05
1.379591836734700e+11 9.938134758748731e-01 -7.838249128813631e-05
1.380000000000000e+11 9.938275053177197e-01 -2.381190870030581e-04
1.380408163265300e+11 9.938415866727663e-01 -3.983077529813445e-04
1.380816326530600e+11 9.938557176259597e-01 -5.589419852508649e-04
1.381224489795900e+11 9.938698960009387e-01 -7.200152400011672e-04
1.381632653061200e+11 9.938841196930398e-01 -8.815210761275677e-04
1.382040816326500e+11 9.938983866124264e-01 -1.043453159551814e-03
1.382448979591800e+11 9.939126945993340e-01 -1.205805218698350e-03
1.382857142857100e+11 9.939270414093748e-01 -1.368571033118763e-03
1.383265306122400e+11 9.939414246612488e-01 -1.531744417582580e-03
1.383673469387800e+11 9.939558417387524e-01 -1.695319256145244e-03
1.384081632653100e+11 9.939702897681150e-01 -1.859289483486285e-03
1.384489795918400e+11 9.939847656152681e-01 -2.023648976852006e-03
1.384897959183700e+11 9.939992658980826e-01 -2.188391437639481e-03
1.385306122449000e+11 9.940137870359675e-01 -2.353510315831163e-03
1.385714285714300e+11 9.940283253266092e-01 -2.518998811953159e-03
1.386122448979600e+11 9.940428770700496e-01 -2.684849868825630e-03
1.386530612244900e+11 9.940574386051617e-01 -2.851056223084711e-03
1.386938775510200e+11 9.940720064048021e-01 -3.017610310492469e-03
1.387346938775500e+11 9.940865771279290e-01 -3.184504236217852e-03
1.387755102040800e+11 9.941011476088186e-01 -3.351729947153339e-03
1.388163265306100e+11 9.941157148918826e-01 -3.519279189208565e-03
1.388571428571400e+11 9.941302762299626e-01 -3.687143498977452e-03
1.388979591836700e+11 9.941448290023506e-01 -3.855314264487156e-03
1.389387755102000e+11 9.941593706279372e-01 -4.023782743869547e-03
1.389795918367300e+11 9.941738984237539e-01 -4.192540159740737e-03
1.390204081632700e+11 9.941884095297371e-01 -4.361577553174236e-03
1.390612244898000e+11 9.942029008984901e-01 -4.530885716404046e-03
1.391020408163300e+11 9.942173692397733e-01 -4.700455124642086e-03
1.391428571428600e+11 9.942318110210744e-01 -4.870275891862809e-03
1.391836734693900e+11 9.942462224208110e-01 -5.040337860241982e-03
1.392244897959200e+11 9.942605993643916e-01 -5.210630630589379e-03
1.392653061224500e+11 9.942749376252152e-01 -5.381143551819637e-03
1.393061224489800e+11 9.942892329128054e-01 -5.551865615234644e-03
1.393469387755100e+11 9.943034809381331e-01 -5.722785505371959e-03
1.393877551020400e+11 9.943176775056953e-01 -5.893891683846022e-03
1.394285714285700e+11 9.943318186262728e-01 -6.065172383410499e-03
1.394693877551000e+11 9.943459006360036e-01 -6.236615657986163e-03
1.395102040816300e+11 9.943599202464986e-01 -6.408209479585936e-03
1.395510204081600e+11 9.943738744644939e-01 -6.579941845807986e-03
1.395918367346900e+11 9.943877605194581e-01 -6.751800989784316e-03
1.396326530612200e+11 9.944015758862443e-01 -6.923775405666134e-03
1.396734693877600e+11 9.944153182486587e-01 -7.095853847567221e-03
1.397142857142900e+11 9.944289854634772e-01 -7.268025307278316e-03
1.397551020408200e+11 9.944425754606303e-01 -7.440278891010363e-03
1.397959183673500e+11 9.944560861586175e-01 -7.612603973748791e-03
1.398367346938800e+11 9.944695154465447e-01 -7.784990162610247e-03
1.398775510204100e+11 9.944828612010645e-01 -7.957427156266093e-03
1.399183673469400e+11 9.944961211692330e-01 -8.129904838181405e-03
1.399591836734700e+11 9.945092929446073e-01 -8.302413102547120e-03
1.400000000000000e+11 9.945223739250947e-01 -8.474941864023868e-03
1.400408163265300e+11 9.945353614109761e-01 -8.647481024223058e-03
1.400816326530600e+11 9.945482527436547e-01 -8.820020303874037e-03
1.401224489795900e+11 9.945610453642298e-01 -8.992549344440590e-03
1.401632653061200e+11 9.945737368860129e-01 -9.165057719958616e-03
1.402040816326500e+11 9.945863251221314e-01 -9.337535116391186e-03
1.402448979591800e+11 9.945988081458336e-01 -9.509971316252927e-03
1.402857142857100e+11 9.946111843874577e-01 -9.682356206010620e-03
1.403265306122400e+11 9.946234526915603e-01 -9.854679748508531e-03
1.403673469387800e+11 9.946356123422758e-01 -1.002693201177260e-02
1.404081632653100e+11 9.946476629875507e-01 -1.019910323183804e-02
1.404489795918400e+11 9.946596046473664e-01 -1.037118367542224e-02
1.404897959183700e+11 9.946714376524677e-01 -1.054316370397333e-02
1.405306122449000e+11 9.946831626523980e-01 -1.071503385008312e-02
1.405714285714300e+11 9.946947805402818e-01 -1.088678472023093e-02
1.406122448979600e+11 9.947062923764235e-01 -1.105840706966384e-02
1.406530612244900e+11 9.947176992807757e-01 -1.122989184225747e-02
1.406938775510200e+11 9.947290023591557e-01 -1.140123016738176e-02
1.407346938775500e+11 9.947402027351595e-01 -1.157241324810256e-02
1.407755102040800e+11 9.947513016112298e-01 -1.174343229988008e-02
1.408163265306100e+11 9.947623002876524e-01 -1.191427863855766e-02
1.408571428571400e+11 9.947732001922638e-01 -1.208494365853705e-02
1.408979591836700e+11 9.947840029757190e-01 -1.225541886021027e-02
1.409387755102000e+11 9.947947104870928e-01 -1.242569589232857e-02
1.409795918367300e+11 9.948053248168797e-01 -1.259576676906044e-02
1.410204081632700e+11 9.948158483017269e-01 -1.276562393651355e-02
1.410612244898000e+11 9.948262834888598e-01 -1.293526022851250e-02
1.411020408163300e+11 9.948366331024882e-01 -1.310466892341323e-02
1.411428571428600e+11 9.948468999614974e-01 -1.327384389788525e-02
1.411836734693900e+11 9.948570869463814e-01 -1.344277960124591e-02
1.412244897959200e+11 9.948671969920776e-01 -1.361147103189477e-02
1.412653061224500e+11 9.948772330105228e-01 -1.377991370152584e-02
1.413061224489800e+11 9.948871978599306e-01 -1.394810367507927e-02
1.413469387755100e+11 9.948970943255494e-01 -1.411603766204299e-02
1.413877551020400e+11 9.949069251567645e-01 -1.428371290683288e-02
1.414285714285700e+11 9.949166930140934e-01 -1.445112732324781e-02
1.414693877551000e+11 9.949264004238040e-01 -1.461827937380731e-02
1.415102040816300e+11 9.949360498054999e-01 -1.478516800962102e-02
1.415510204081600e+11 9.949456434658941e-01 -1.495179258723400e-02
1.415918367346900e+11 9.949551836991503e-01 -1.511815286277738e-02
1.416326530612200e+11 9.949646727531215e-01 -1.528424906071903e-02
1.416734693877600e+11 9.949741128469651e-01 -1.545008191184863e-02
1.417142857142900e+11 9.949835062150825e-01 -1.561565262521894e-02
1.417551020408200e+11 9.949928551306724e-01 -1.578096285701177e-02
1.417959183673500e+11 9.950021619384306e-01 -1.594601473160883e-02
1.418367346938800e+11 9.950114290489505e-01 -1.611081098573502e-02
1.418775510204100e+11 9.950206590305261e-01 -1.627535479987955e-02
1.419183673469400e+11 9.950298545637898e-01 -1.643964990296760e-02
1.419591836734700e+11 9.950390183948494e-01 -1.660370066730193e-02
1.420000000000000e+11 9.950481532644859e-01 -1.676751206642819e-02
1.420408163265300e+11 9.950572619392911e-01 -1.693108968191803e-02
1.420816326530600e+11 9.950663471257948e-01 -1.709443971936153e-02
1.421224489795900e+11 9.950754114993134e-01 -1.725756886171695e-02
1.421632653061200e+11 9.950844577198834e-01 -1.742048423246835e-02
1.422040816326500e+11 9.950934884234919e-01 -1.758319342738450e-02
1.422448979591800e+11 9.951025061933989e-01 -1.774570451324970e-02
1.422857142857100e+11 9.951115135227144e-01 -1.790802608427629e-02
1.423265306122400e+11 9.951205128304147e-01 -1.807016718740287e-02
1.423673469387800e+11 9.951295065129395e-01 -1.823213726594761e-02
1.424081632653100e+11 9.951384969264873e-01 -1.839394623328609e-02
1.424489795918400e+11 9.951474864200882e-01 -1.855560443814483e-02
1.424897959183700e+11 9.951564772613848e-01 -1.871712268508639e-02
1.425306122449000e+11 9.951654716387555e-01 -1.887851219305967e-02
1.425714285714300e+11 9.951744716273077e-01 -1.903978459289184e-02
1.426122448979600e+11 9.951834791729871e-01 -1.920095174230018e-02
1.426530612244900e+11 9.951924960851450e-01 -1.936202575453735e-02
1.426938775510200e+11 9.952015239786169e-01 -1.952301907522535e-02
1.427346938775500e+11 9.952105642843252e-01 -1.968394447077549e-02
1.427755102040800e+11 9.952196182459729e-01 -1.984481511290332e-02
1.428163265306100e+11 9.952286869155145e-01 -2.000564446744401e-02
1.428571428571400e+11 9.952377711524237e-01 -2.016644614600084e-02
1.428979591836700e+11 9.952468716258104e-01 -2.032723365336421e-02
1.429387755102000e+11 9.952559889300330e-01 -2.048802041881832e-02
1.429795918367300e+11 9.952651237266606e-01 -2.064881976777243e-02
1.430204081632700e+11 9.952742768232899e-01 -2.080964497177219e-02
1.430612244898000e+11 9.952834491958028e-01 -2.097050937068801e-02
1.431020408163300e+11 9.952926420835529e-01 -2.113142621874979e-02
1.431428571428600e+11 9.953018570754947e-01 -2.129240861231873e-02
1.431836734693900e+11 9.953110961631849e-01 -2.145346969167906e-02
1.432244897959200e+11 9.953203616609793e-01 -2.161462281902807e-02
1.432653061224500e+11 9.953296561644195e-01 -2.177588164101926e-02
1.433061224489800e+11 9.953389825463629e-01 -2.193725992189562e-02
1.433469387755100e+11 9.953483438813207e-01 -2.209877137907792e-02
1.433877551020400e+11 9.953577433310743e-01 -2.226042976587496e-02
1.434285714285700e+11 9.953671840611655e-01 -2.242224897967723e-02
1.434693877551000e+11 9.953766692153651e-01 -2.258424309059363e-02
1.435102040816300e+11 9.953862018077431e-01 -2.274642632849717e-02
1.435510204081600e+11 9.953957846902824e-01 -2.290881269651715e-02
1.435918367346900e+11 9.954054206650442e-01 -2.307141635002350e-02
1.436326530612200e+11 9.954151123745663e-01 -2.323425136172413e-02
1.436734693877600e+11 9.954248623187439e-01 -2.339733154105701e-02
1.437142857142900e+11 9.954346729687553e-01 -2.356067036288182e-02
1.437551020408200e+11 9.954445468684184e-01 -2.372428107747518e-02
1.437959183673500e+11 9.954544866708288e-01 -2.388817668530924e-02
1.438367346938800e+11 9.954644952197045e-01 -2.405236998823350e-02
1.438775510204100e+11 9.954745756110980e-01 -2.421687363436897e-02
1.439183673469400e+11 9.954847311134655e-01 -2.438170025957662e-02
1.439591836734700e+11 9.954949652596187e-01 -2.454686247955214e-02
1.440000000000000e+11 9.955052818275631e-01 -2.471237291952773e-02
1.440408163265300e+11 9.955156848508980e-01 -2.487824425902163e-02
1.440816326530600e+11 9.955261785241021e-01 -2.504448926323454e-02
1.441224489795900e+11 9.955367672196609e-01 -2.521112082684476e-02
1.441632653061200e+11 9.955474553874343e-01 -2.537815198181146e-02
1.442040816326500e+11 9.955582474475355e-01 -2.554559589009945e-02
1.442448979591800e+11 9.955691475979846e-01 -2.571346591654740e-02
1.442857142857100e+11 9.955801599173452e-01 -2.588177556263890e-02
1.443265306122400e+11 9.955912882972107e-01 -2.605053842715212e-02
1.443673469387800e+11 9.956025364496776e-01 -2.621976807443168e-02
1.444081632653100e+11 9.956139078714976e-01 -2.638947814466446e-02
1.444489795918400e+11 9.956254058368970e-01 -2.655968235930259e-02
1.444897959183700e+11 9.956370334403668e-01 -2.673039438549468e-02
1.445306122449000e+11 9.956487937020023e-01 -2.690162781292997e-02
1.445714285714300e+11 9.956606896472463e-01 -2.707339610791028e-02
1.446122448979600e+11 9.956727243905874e-01 -2.724571265823402e-02
1.446530612244900e+11 9.956849011831513e-01 -2.741859084414283e-02
1.446938775510200e+11 9.956972234650245e-01 -2.759204404621685e-02
1.447346938775500e+11 9.957096948936005e-01 -2.776608561335080e-02
1.447755102040800e+11 9.957223193595095e-01 -2.794072914631315e-02
1.448163265306100e+11 9.957351009616033e-01 -2.811598839022747e-02
1.448571428571400e+11 9.957480439554761e-01 -2.829187720361353e-02
1.448979591836700e+11 9.957611526444760e-01 -2.846840953477001e-02
1.449387755102000e+11 9.957744312828222e-01 -2.864559934104150e-02
1.449795918367300e+11 9.957878839899530e-01 -2.882346065285729e-02
1.450204081632700e+11 9.958015146202094e-01 -2.900200755164395e-02
1.450612244898000e+11 9.958153266979288e-01 -2.918125413266102e-02
1.451020408163300e+11 9.958293233193739e-01 -2.936121450893874e-02
1.451428571428600e+11 9.958435071357704e-01 -2.954190276327461e-02
1.451836734693900e+11 9.958578803256338e-01 -2.972333284993714e-02
1.452244897959200e+11 9.958724446275236e-01 -2.990551851244053e-02
1.452653061224500e+11 9.958872015054405e-01 -3.008847313090480e-02
1.453061224489800e+11 9.959021522260175e-01 -3.027220983063125e-02
1.453469387755100e+11 9.959172979842527e-01 -3.045674143333604e-02
1.453877551020400e+11 9.959326399217603e-01 -3.064208039352470e-02
1.454285714285700e+11 9.959481792058990e-01 -3.082823865911753e-02
1.454693877551000e+11 9.959639171648137e-01 -3.101522769008979e-02
1.455102040816300e+11 9.959798553371364e-01 -3.120305844869742e-02
1.455510204081600e+11 9.959959954153742e-01 -3.139174157940547e-02
1.455918367346900e+11 9.960123392983754e-01 -3.158128745037826e-02
1.456326530612200e+11 9.960288890501582e-01 -3.177170614248828e-02
1.456734693877600e+11 9.960456468485269e-01 -3.196300746765884e-02
1.457142857142900e+11 9.960626148819431e-01 -3.215520092554462e-02
1.457551020408200e+11 9.960797951519181e-01 -3.234829570156349e-02
1.457959183673500e+11 9.960971893295510e-01 -3.254230081631881e-02
1.458367346938800e+11 9.961147986993243e-01 -3.273722497319415e-02
1.458775510204100e+11 9.961326241622547e-01 -3.293307627659742e-02
1.459183673469400e+11 9.961506662445911e-01 -3.312986212773519e-02
1.459591836734700e+11 9.961689250425536e-01 -3.332758915961010e-02
1.460000000000000e+11 9.961874002353820e-01 -3.352626326175371e-02
1.460408163265300e+11 9.962060911176029e-01 -3.372588957909625e-02
1.460816326530600e+11 9.962249967062400e-01 -3.392647237209315e-02
1.461224489795900e+11 9.962441158630622e-01 -3.412801499111556e-02
1.461632653061200e+11 9.962634472543876e-01 -3.433051981456534e-02
1.462040816326500e+11 9.962829894197066e-01 -3.453398830798009e-02
1.462448979591800e+11 9.963027408247151e-01 -3.473842093173896e-02
1.462857142857100e+11 9.963227000242723e-01 -3.494381703854639e-02
1.463265306122400e+11 9.963428657824017e-01 -3.515017479048355e-02
1.463673469387800e+11 9.963632371605866e-01 -3.535749116287052e-02
1.464081632653100e+11 9.963838134088187e-01 -3.556576211150599e-02
1.464489795918400e+11 9.964045937534405e-01 -3.577498267314510e-02
1.464897959183700e+11 9.964255773366014e-01 -3.598514673723114e-02
1.465306122449000e+11 9.964467631219603e-01 -3.619624704551440e-02
1.465714285714300e+11 9.964681498939868e-01 -3.640827514397935e-02
1.466122448979600e+11 9.964897361533236e-01 -3.662122158817214e-02
1.466530612244900e+11 9.965115200714199e-01 -3.683507580757154e-02
1.466938775510200e+11 9.965334994136767e-01 -3.704982606288341e-02
1.467346938775500e+11 9.965556714635877e-01 -3.726545951387117e-02
1.467755102040800e+11 9.965780331070099e-01 -3.748196212848912e-02
1.468163265306100e+11 9.966005808613281e-01 -3.769931847230576e-02
1.468571428571400e+11 9.966233109388938e-01 -3.791751145276962e-02
1.468979591836700e+11 9.966462192944356e-01 -3.813652239171494e-02
1.469387755102000e+11 9.966693016795840e-01 -3.835633096873368e-02
1.469795918367300e+11 9.966925537799729e-01 -3.857691508135219e-02
1.470204081632700e+11 9.967159712496382e-01 -3.879825096189267e-02
1.470612244898000e+11 9.967395499059272e-01 -3.902031341441314e-02
1.471020408163300e+11 9.967632856706665e-01 -3.924307599857583e-02
1.471428571428600e+11 9.967871745714343e-01 -3.946651077890437e-02
1.471836734693900e+11 9.968112127775517e-01 -3.969058832551509e-02
1.472244897959200e+11 9.968353965924286e-01 -3.991527782648150e-02
1.472653061224500e+11 9.968597222743688e-01 -4.014054732363963e-02
1.473061224489800e+11 9.968841859714834e-01 -4.036636378744084e-02
1.473469387755100e+11 9.969087836496155e-01 -4.059269302147996e-02
1.473877551020400e+11 9.969335109887574e-01 -4.081949967990183e-02
1.474285714285700e+11 9.969583633475353e-01 -4.104674727286085e-02
1.474693877551000e+11 9.969833356459664e-01 -4.127439797324201e-02
1.475102040816300e+11 9.970084224248584e-01 -4.150241259973345e-02
1.475510204081600e+11 9.970336178805996e-01 -4.173075059965682e-02
1.475918367346900e+11 9.970589159368405e-01 -4.195937000601636e-02
1.476326530612200e+11 9.970843102277225e-01 -4.218822756545942e-02
1.476734693877600e+11 9.971097942192308e-01 -4.241727883388142e-02
1.477142857142900e+11 9.971353612988099e-01 -4.264647813869752e-02
1.477551020408200e+11 9.971610048668460e-01 -4.287577863316776e-02
1.477959183673500e+11 9.971867184170000e-01 -4.310513231976490e-02
1.478367346938800e+11 9.972124955930065e-01 -4.333448989718542e-02
1.478775510204100e+11 9.972383301741555e-01 -4.356380104684811e-02
1.479183673469400e+11 9.972642162319577e-01 -4.379301485289700e-02
1.479591836734700e+11 9.972901480607755e-01 -4.402207986880956e-02
1.480000000000000e+11 9.973161201437530e-01 -4.425094419157943e-02
1.480408163265300e+11 9.973421271261023e-01 -4.447955535542748e-02
1.480816326530600e+11 9.973681637154418e-01 -4.470786051692073e-02
1.481224489795900e+11 9.973942245801688e-01 -4.493580664364474e-02
1.481632653061200e+11 9.974203042447176e-01 -4.516334040140857e-02
1.482040816326500e+11 9.974463969719148e-01 -4.539040809707254e-02
1.482448979591800e+11 9.974724966935342e-01 -4.561695562058678e-02
1.482857142857100e+11 9.974985970039711e-01 -4.584292851201726e-02
1.483265306122400e+11 9.975246911659088e-01 -4.606827174471950e-02
1.483673469387800e+11 9.975507721506879e-01 -4.629292955554855e-02
1.484081632653100e+11 9.975768326401827e-01 -4.651684532157303e-02
1.484489795918400e+11 9.976028651288489e-01 -4.673996155444243e-02
1.484897959183700e+11 9.976288619394916e-01 -4.696221995834218e-02
1.485306122449000e+11 9.976548152903126e-01 -4.718356165835590e-02
1.485714285714300e+11 9.976807172872607e-01 -4.740392732789762e-02
1.486122448979600e+11 9.977065600216205e-01 -4.762325699942822e-02
1.486530612244900e+11 9.977323355513193e-01 -4.784149010355187e-02
1.486938775510200e+11 9.977580358446999e-01 -4.805856563101824e-02
1.487346938775500e+11 9.977836527319569e-01 -4.827442230865993e-02
1.487755102040800e+11 9.978091778807147e-01 -4.848899882008980e-02
1.488163265306100e+11 9.978346026673253e-01 -4.870223409530706e-02
1.488571428571400e+11 9.978599181163079e-01 -4.891406737951610e-02
1.488979591836700e+11 9.978851148749855e-01 -4.912443839915569e-02
1.489387755102000e+11 9.979101831400637e-01 -4.933328742097966e-02
1.489795918367300e+11 9.979351125174445e-01 -4.954055536118696e-02
1.490204081632700e+11 9.979598919538597e-01 -4.974618385686846e-02
1.490612244898000e+11 9.979845095980128e-01 -4.995011547411143e-02
1.491020408163300e+11 9.980089528710095e-01 -5.015229352630278e-02
1.491428571428600e+11 9.980332084005875e-01 -5.035266191852398e-02
1.491836734693900e+11 9.980572620687770e-01 -5.055116516873540e-02
1.492244897959200e+11 9.980810990899955e-01 -5.074774856214172e-02
1.492653061224500e+11 9.981047041567325e-01 -5.094235827737111e-02
1.493061224489800e+11 9.981280615688037e-01 -5.113494139484621e-02
1.493469387755100e+11 9.981511553750069e-01 -5.132544566103522e-02
1.493877551020400e+11 9.981739693636283e-01 -5.151381958623125e-02
1.494285714285700e+11 9.981964871586736e-01 -5.170001251744633e-02
1.494693877551000e+11 9.982186923139330e-01 -5.188397470224895e-02
1.495102040816300e+11 9.982405683945837e-01 -5.206565734986347e-02
1.495510204081600e+11 9.982620989673980e-01 -5.224501273128029e-02
1.495918367346900e+11 9.982832676240919e-01 -5.242199421031132e-02
1.496326530612200e+11 9.983040578731547e-01 -5.259655653401407e-02
1.496734693877600e+11 9.983244532087572e-01 -5.276865561000420e-02
1.497142857142900e+11 9.983444370858041e-01 -5.293824833912471e-02
1.497551020408200e+11 9.983639928366960e-01 -5.310529250402084e-02
1.497959183673500e+11 9.983831035135674e-01 -5.326974687836352e-02
1.498367346938800e+11 9.984017518981704e-01 -5.343157116408333e-02
1.498775510204100e+11 9.984199204093492e-01 -5.359072594905832e-02
1.499183673469400e+11 9.984375911223922e-01 -5.374717249752515e-02
1.499591836734700e+11 9.984547457428052e-01 -5.390087268387093e-02
1.500000000000000e+11 9.984713656297000e-01 -5.405178892381288e-02
1.500408163265300e+11 9.984874318162168e-01 -5.419988404612210e-02
1.500816326530600e+11 9.985029250747490e-01 -5.434512113890954e-02
1.501224489795900e+11 9.985178258521763e-01 -5.448746351240068e-02
1.501632653061200e+11 9.985321142312377e-01 -5.462687485578067e-02
1.502040816326500e+11 9.985457700445902e-01 -5.476331942329826e-02
1.502448979591800e+11 9.985587730041581e-01 -5.489676216508921e-02
1.502857142857100e+11 9.985711027190086e-01 -5.502716889577750e-02
1.503265306122400e+11 9.985827386917852e-01 -5.515450638052968e-02
1.503673469387800e+11 9.985936602695886e-01 -5.527874247185029e-02
1.504081632653100e+11 9.986038467020215e-01 -5.539984620451210e-02
1.504489795918400e+11 9.986132770445951e-01 -5.551778799655153e-02
1.504897959183700e+11 9.986219302719727e-01 -5.563253975271288e-02
1.505306122449000e+11 9.986297851381658e-01 -5.574407522698607e-02
1.505714285714300e+11 9.986368201574882e-01 -5.585237004265185e-02
1.506122448979600e+11 9.986430135437725e-01 -5.595740170673760e-02
1.506530612244900e+11 9.986483431321362e-01 -5.605914950326736e-02
1.506938775510200e+11 9.986527863422854e-01 -5.615759467046234e-02
1.507346938775500e+11 9.986563203317740e-01 -5.625272031919024e-02
1.507755102040800e+11 9.986589221430914e-01 -5.634451149044949e-02
1.508163265306100e+11 9.986605686867686e-01 -5.643295527710565e-02
1.508571428571400e+11 9.986612368565264e-01 -5.651804069154539e-02
1.508979591836700e+11 9.986609035115364e-01 -5.659975865636420e-02
1.509387755102000e+11 9.986595455351104e-01 -5.667810194340085e-02
1.509795918367300e+11 9.986571399669432e-01 -5.675306510985725e-02
1.510204081632700e+11 9.986536642104710e-01 -5.682464446114050e-02
1.510612244898000e+11 9.986490960781813e-01 -5.689283810993326e-02
1.511020408163300e+11 9.986434138143604e-01 -5.695764587758340e-02
1.511428571428600e+11 9.986365961732854e-01 -5.701906943289537e-02
1.511836734693900e+11 9.986286224421790e-01 -5.707711239177850e-02
1.512244897959200e+11 9.986194725089739e-01 -5.713178040839786e-02
1.512653061224500e+11 9.986091268095569e-01 -5.718308120093307e-02
1.513061224489800e+11 9.985975662253646e-01 -5.723102450951086e-02
1.513469387755100e+11 9.985847721645517e-01 -5.727562202737808e-02
1.513877551020400e+11 9.985707264088300e-01 -5.731688749126028e-02
1.514285714285700e+11 9.985554111072487e-01 -5.735483675827691e-02
1.514693877551000e+11 9.985388087474645e-01 -5.738948765302282e-02
1.515102040816300e+11 9.985209021559451e-01 -5.742085967726493e-02
1.515510204081600e+11 9.985016744516246e-01 -5.744897389090189e-02
1.515918367346900e+11 9.984811090767439e-01 -5.747385271716082e-02
1.516326530612200e+11 9.984591897897720e-01 -5.749551999201544e-02
1.516734693877600e+11 9.984359007197795e-01 -5.751400106440616e-02
1.517142857142900e+11 9.984112263708906e-01 -5.752932271134563e-02
1.517551020408200e+11 9.983851517787895e-01 -5.754151295326508e-02
1.517959183673500e+11 9.983576626619951e-01 -5.755060096066771e-02
1.518367346938800e+11 9.983287453930124e-01 -5.755661716401316e-02
1.518775510204100e+11 9.982983869793453e-01 -5.755959338230272e-02
1.519183673469400e+11 9.982665750954001e-01 -5.755956300360306e-02
1.519591836734700e+11 9.982332980512532e-01 -5.755656086278811e-02
1.520000000000000e+11 9.981985447271001e-01 -5.755062330511203e-02
1.520408163265300e+11 9.981623045813877e-01 -5.754178818873440e-02
1.520816326530600e+11 9.981245676421580e-01 -5.753009514136073e-02
1.521224489795900e+11 9.980853244184313e-01 -5.751558567588206e-02
1.521632653061200e+11 9.980445657316996e-01 -5.749830308756177e-02
1.522040816326500e+11 9.980022827802393e-01 -5.747829249544617e-02
1.522448979591800e+11 9.979584671295737e-01 -5.745560106721841e-02
1.522857142857100e+11 9.979131106152387e-01 -5.743027775664478e-02
1.523265306122400e+11 9.978662053777685e-01 -5.740237331336266e-02
1.523673469387800e+11 9.978177438161672e-01 -5.737194033866958e-02
1.524081632653100e+11 9.977677187059351e-01 -5.733903313918923e-02
1.524489795918400e+11 9.977161232671241e-01 -5.730370758198487e-02
1.524897959183700e+11 9.976629512474775e-01 -5.726602128050649e-02
1.525306122449000e+11 9.976081969598251e-01 -5.722603329083119e-02
1.525714285714300e+11 9.975518553186089e-01 -5.718380430108302e-02
1.526122448979600e+11 9.974939217994355e-01 -5.713939674297453e-02
1.526530612244900e+11 9.974343926023144e-01 -5.709287480666096e-02
1.526938775510200e+11 9.973732646926772e-01 -5.704430444896379e-02
1.527346938775500e+11 9.973105358272987e-01 -5.699375327827712e-02
1.527755102040800e+11 9.972462046606337e-01 -5.694129077046417e-02
1.528163265306100e+11 9.971802707081590e-01 -5.688698844445874e-02
1.528571428571400e+11 9.971127343594569e-01 -5.683091987425090e-02
1.528979591836700e+11 9.970435968646558e-01 -5.677316059694689e-02
1.529387755102000e+11 9.969728603520467e-01 -5.671378783241671e-02
1.529795918367300e+11 9.969005278693375e-01 -5.665288049770398e-02
1.530204081632700e+11 9.968266032696504e-01 -5.659051931217152e-02
1.530612244898000e+11 9.967510912014818e-01 -5.652678675055144e-02
1.531020408163300e+11 9.966739970920949e-01 -5.646176682095955e-02
1.531428571428600e+11 9.965953272007850e-01 -5.639554458511414e-02
1.531836734693900e+11 9.965150886653765e-01 -5.632820616995882e-02
1.532244897959200e+11 9.964332895866863e-01 -5.625983878321004e-02
1.532653061224500e+11 9.963499389346875e-01 -5.619053030325743e-02
1.533061224489800e+11 9.962650466842806e-01 -5.612036916507748e-02
1.533469387755100e+11 9.961786239055760e-01 -5.604944405482100e-02
1.533877551020400e+11 9.960906826952516e-01 -5.597784380503799e-02
1.534285714285700e+11 9.960012362535414e-01 -5.590565729852853e-02
1.534693877551000e+11 9.959102989130190e-01 -5.583297332231132e-02
1.535102040816300e+11 9.958178861894587e-01 -5.575988036390580e-02
1.535510204081600e+11 9.957240147418528e-01 -5.568646676055786e-02
1.535918367346900e+11 9.956287022530201e-01 -5.561282072351095e-02
1.536326530612200e+11 9.955319674257650e-01 -5.553903021937651e-02
1.536734693877600e+11 9.954338299002733e-01 -5.546518289495334e-02
1.537142857142900e+11 9.953343103383909e-01 -5.539136595261077e-02
1.537551020408200e+11 9.952334302558851e-01 -5.531766603838435e-02
1.537959183673500e+11 9.951312119564203e-01 -5.524416939256294e-02
1.538367346938800e+11 9.950276784380884e-01 -5.517096171305236e-02
1.538775510204100e+11 9.949228532961666e-01 -5.509812817210225e-02
1.539183673469400e+11 9.948167606229364e-01 -5.502575338862780e-02
1.539591836734700e+11 9.947094250920266e-01 -5.495392147757945e-02
1.540000000000000e+11 9.946008719423373e-01 -5.488271594312588e-02
1.540408163265300e+11 9.944911270316462e-01 -5.481221987498225e-02
1.540816326530600e+11 9.943802168780941e-01 -5.474251592812374e-02
1.541224489795900e+11 9.942681686750373e-01 -5.467368613344654e-02
1.541632653061200e+11 9.941550104073160e-01 -5.460581212222957e-02
1.542040816326500e+11 9.940407709735080e-01 -5.453897511545513e-02
1.542448979591800e+11 9.939254800783492e-01 -5.447325608673218e-02
1.542857142857100e+11 9.938091683679703e-01 -5.440873572721727e-02
1.543265306122400e+11 9.936918674632192e-01 -5.434549425041767e-02
1.543673469387800e+11 9.935736100408367e-01 -5.428361130433259e-02
1.544081632653100e+11 9.934544298000847e-01 -5.422316599395213e-02
1.544489795918400e+11 9.933343614191538e-01 -5.416423685045470e-02
1.544897959183700e+11 9.932134405644826e-01 -5.410690157442347e-02
1.545306122449000e+11 9.930917039291413e-01 -5.405123679035859e-02
1.545714285714300e+11 9.929691892210954e-01 -5.399731799555706e-02
1.546122448979600e+11 9.928459351175152e-01 -5.394521934352136e-02
1.546530612244900e+11 9.927219812634380e-01 -5.389501347381637e-02
1.546938775510200e+11 9.925973682494882e-01 -5.384677122418606e-02
1.547346938775500e+11 9.924721376756160e-01 -5.380056146200953e-02
1.547755102040800e+11 9.923463321542146e-01 -5.375645084874824e-02
1.548163265306100e+11 9.922199954090475e-01 -5.371450343274798e-02
1.548571428571400e+11 9.920931722297324e-01 -5.367478053584999e-02
1.548979591836700e+11 9.919659083318291e-01 -5.363734070800018e-02
1.549387755102000e+11 9.918382504220957e-01 -5.360223977461932e-02
1.549795918367300e+11 9.917102461784045e-01 -5.356953066994665e-02
1.550204081632700e+11 9.915819444308375e-01 -5.353926316199749e-02
1.550612244898000e+11 9.914533951203239e-01 -5.351148391240912e-02
1.551020408163300e+11 9.913246481838647e-01 -5.348623601354766e-02
1.551428571428600e+11 9.911957531490256e-01 -5.346355981761666e-02
1.551836734693900e+11 9.910667591431703e-01 -5.344349288910830e-02
1.552244897959200e+11 9.909377149039522e-01 -5.342606990071350e-02
1.552653061224500e+11 9.908086686631240e-01 -5.341132281297259e-02
1.553061224489800e+11 9.906796679778339e-01 -5.339928086147402e-02
1.553469387755100e+11 9.905507597637124e-01 -5.338997024203086e-02
1.553877551020400e+11 9.904219902118978e-01 -5.338341438255207e-02
1.554285714285700e+11 9.902934048035653e-01 -5.337963388035155e-02
1.554693877551000e+11 9.901650483037132e-01 -5.337864658727764e-02
1.555102040816300e+11 9.900369648408568e-01 -5.338046762619134e-02
1.555510204081600e+11 9.899091979538055e-01 -5.338510929273850e-02
1.555918367346900e+11 9.897817905470506e-01 -5.339258117765559e-02
1.556326530612200e+11 9.896547850035096e-01 -5.340289029539830e-02
1.556734693877600e+11 9.895282231878936e-01 -5.341604099316285e-02
1.557142857142900e+11 9.894021465051386e-01 -5.343203494558747e-02
1.557551020408200e+11 9.892765959021099e-01 -5.345087114763677e-02
1.557959183673500e+11 9.891516118820923e-01 -5.347254590046257e-02
1.558367346938800e+11 9.890272344429694e-01 -5.349705282194172e-02
1.558775510204100e+11 9.889035031222891e-01 -5.352438270321797e-02
1.559183673469400e+11 9.887804569571088e-01 -5.355452340419622e-02
1.559591836734700e+11 9.886581344824497e-01 -5.358745978164951e-02
1.560000000000000e+11 9.885365736441090e-01 -5.362317383473397e-02
1.560408163265300e+11 9.884158117026169e-01 -5.366164476300846e-02
1.560816326530600e+11 9.882958851633720e-01 -5.370284866532846e-02
1.561224489795900e+11 9.881768298178984e-01 -5.374675827901362e-02
1.561632653061200e+11 9.880586805826066e-01 -5.379334294229508e-02
1.562040816326500e+11 9.879414714126143e-01 -5.384256907445321e-02
1.562448979591800e+11 9.878252352359634e-01 -5.389440004667268e-02
1.562857142857100e+11 9.877100039425631e-01 -5.394879566355713e-02
1.563265306122400e+11 9.875958084160450e-01 -5.400571197037864e-02
1.563673469387800e+11 9.874826786343138e-01 -5.406510157800151e-02
1.564081632653100e+11 9.873706436624422e-01 -5.412691405046964e-02
1.564489795918400e+11 9.872597316227648e-01 -5.419109576333931e-02
1.564897959183700e+11 9.871499697114805e-01 -5.425758966136805e-02
1.565306122449000e+11 9.870413841361382e-01 -5.432633529261701e-02
1.565714285714300e+11 9.869340002168998e-01 -5.439726898487451e-02
1.566122448979600e+11 9.868278423468423e-01 -5.447032407903028e-02
1.566530612244900e+11 9.867229339703467e-01 -5.454543117860472e-02
1.566938775510200e+11 9.866192975314249e-01 -5.462251814199141e-02
1.567346938775500e+11 9.865169544678944e-01 -5.470151033920987e-02
1.567755102040800e+11 9.864159251862225e-01 -5.478233069705124e-02
1.568163265306100e+11 9.863162290469453e-01 -5.486489978218700e-02
1.568571428571400e+11 9.862178843307583e-01 -5.494913592136638e-02
1.568979591836700e+11 9.861209082498129e-01 -5.503495544647284e-02
1.569387755102000e+11 9.860253169286139e-01 -5.512227252534657e-02
1.569795918367300e+11 9.859311254509461e-01 -5.521099890712245e-02
1.570204081632700e+11 9.858383478695063e-01 -5.530104406804627e-02
1.570612244898000e+11 9.857469971455092e-01 -5.539231542163859e-02
1.571020408163300e+11 9.856570851013834e-01 -5.548471856200927e-02
1.571428571428600e+11 9.855686225142634e-01 -5.557815732219208e-02
1.571836734693900e+11 9.854816192433052e-01 -5.567253349092723e-02
1.572244897959200e+11 9.853960843304387e-01 -5.576774656469698e-02
1.572653061224500e+11 9.853120259164866e-01 -5.586369387848446e-02
1.573061224489800e+11 9.852294512319053e-01 -5.596027082081309e-02
1.573469387755100e+11 9.851483665341660e-01 -5.605737104662271e-02
1.573877551020400e+11 9.850687771830751e-01 -5.615488635037941e-02
1.574285714285700e+11 9.849906876796393e-01 -5.625270665952079e-02
1.574693877551000e+11 9.849141016119685e-01 -5.635072038278686e-02
1.575102040816300e+11 9.848390216114962e-01 -5.644881457639865e-02
1.575510204081600e+11 9.847654492253886e-01 -5.654687511881309e-02
1.575918367346900e+11 9.846933848277075e-01 -5.664478660191387e-02
1.576326530612200e+11 9.846228276232005e-01 -5.674243242013965e-02
1.576734693877600e+11 9.845537755356486e-01 -5.683969485468598e-02
1.577142857142900e+11 9.844862250618294e-01 -5.693645532269769e-02
1.577551020408200e+11 9.844201712403730e-01 -5.703259410549883e-02
1.577959183673500e+11 9.843556076290129e-01 -5.712799042415304e-02
1.578367346938800e+11 9.842925262677339e-01 -5.722252255950923e-02
1.578775510204100e+11 9.842309176230385e-01 -5.731606791584189e-02
1.579183673469400e+11 9.841707705858299e-01 -5.740850302547379e-02
1.579591836734700e+11 9.841120725758772e-01 -5.749970358736257e-02
1.580000000000000e+11 9.840548096521443e-01 -5.758954453569450e-02
1.580408163265300e+11 9.839989666621818e-01 -5.767789998996375e-02
1.580816326530600e+11 9.839445272992888e-01 -5.776464327805540e-02
1.581224489795900e+11 9.838914741132243e-01 -5.784964719817761e-02
1.581632653061200e+11 9.838397886275229e-01 -5.793278424547410e-02
1.582040816326500e+11 9.837894513465525e-01 -5.801392698331805e-02
1.582448979591800e+11 9.837404417466485e-01 -5.809294788612795e-02
1.582857142857100e+11 9.836927382890676e-01 -5.816971955030420e-02
1.583265306122400e+11 9.836463184862193e-01 -5.824411510808469e-02
1.583673469387800e+11 9.836011588599980e-01 -5.831600818656787e-02
1.584081632653100e+11 9.835572348235295e-01 -5.838527302692709e-02
1.584489795918400e+11 9.835145205952730e-01 -5.845178463325943e-02
1.584897959183700e+11 9.834729892068160e-01 -5.851541876567504e-02
1.585306122449000e+11 9.834326124755463e-01 -5.857605191211863e-02
1.585714285714300e+11 9.833933608633212e-01 -5.863356126726971e-02
1.586122448979600e+11 9.833552034796831e-01 -5.868782478193040e-02
1.586530612244900e+11 9.833181080896083e-01 -5.873872115994035e-02
1.586938775510200e+11 9.832820412316831e-01 -5.878612990306262e-02
1.587346938775500e+11 9.832469682726821e-01 -5.882993126608303e-02
1.587755102040800e+11 9.832128535560752e-01 -5.887000618471552e-02
1.588163265306100e+11 9.831796605276980e-01 -5.890623661801726e-02
1.588571428571400e+11 9.831473517390622e-01 -5.893850581822460e-02
1.588979591836700e+11 9.831158890007770e-01 -5.896669826665059e-02
1.589387755102000e+11 9.830852334991949e-01 -5.899069986299887e-02
1.589795918367300e+11 9.830553458426514e-01 -5.901039807047077e-02
1.590204081632700e+11 9.830261860344077e-01 -5.902568228037806e-02
1.590612244898000e+11 9.829977135391498e-01 -5.903644415114774e-02
1.591020408163300e+11 9.829698873402608e-01 -5.904257790768574e-02
1.591428571428600e+11 9.829426660373877e-01 -5.904398051388091e-02
1.591836734693900e+11 9.829160077271664e-01 -5.904055185632223e-02
1.592244897959200e+11 9.828898699393952e-01 -5.903219485510212e-02
1.592653061224500e+11 9.828642096163147e-01 -5.901881579246979e-02
1.593061224489800e+11 9.828389830969689e-01 -5.900032436561230e-02
1.593469387755100e+11 9.828141460241325e-01 -5.897663366627533e-02
1.593877551020400e+11 9.827896534492412e-01 -5.894766016346051e-02
1.594285714285700e+11 9.827654600865144e-01 -5.891332360789876e-02
1.594693877551000e+11 9.827415203219784e-01 -5.887354726100329e-02
1.595102040816300e+11 9.827177882586324e-01 -5.882825789200097e-02
1.595510204081600e+11 9.826942177914941e-01 -5.877738554612465e-02
1.595918367346900e+11 9.826707627024283e-01 -5.872086338745405e-02
1.596326530612200e+11 9.826473766953753e-01 -5.865862778482473e-02
1.596734693877600e+11 9.826240134573642e-01 -5.859061835751222e-02
1.597142857142900e+11 9.826006267288028e-01 -5.851677795757670e-02
1.597551020408200e+11 9.825771703333167e-01 -5.843705252966096e-02
1.597959183673500e+11 9.825535981495132e-01 -5.835139126437151e-02
1.598367346938800e+11 9.825298641087291e-01 -5.825974660684095e-02
1.598775510204100e+11 9.825059221663179e-01 -5.816207442152365e-02
1.599183673469400e+11 9.824817263203509e-01 -5.805833394398401e-02
1.599591836734700e+11 9.824572305128879e-01 -5.794848788500099e-02
1.600000000000000e+11 9.824323885473901e-01 -5.783250279803270e-02
1.600408163265300e+11 9.824071539428861e-01 -5.771034938155613e-02
1.600816326530600e+11 9.823814795979335e-01 -5.758200265964450e-02
1.601224489795900e+11 9.823553175146298e-01 -5.744744185300833e-02
1.601632653061200e+11 9.823286188311433e-01 -5.730665033824066e-02
1.602040816326500e+11 9.823013337249340e-01 -5.715961592764120e-02
1.602448979591800e+11 9.822734113778938e-01 -5.700633086619591e-02
1.602857142857100e+11 9.822448000359667e-01 -5.684679204678583e-02
1.603265306122400e+11 9.822154471446849e-01 -5.668100112497641e-02
1.603673469387800e+11 9.821852994596736e-01 -5.650896457343711e-02
1.604081632653100e+11 9.821543032320980e-01 -5.633069372539488e-02
1.604489795918400e+11 9.821224043648800e-01 -5.614620504447788e-02
1.604897959183700e+11 9.820895485714338e-01 -5.595552020200980e-02
1.605306122449000e+11 9.820556815262760e-01 -5.575866600232951e-02
1.605714285714300e+11 9.820207489701227e-01 -5.555567462527417e-02
1.606122448979600e+11 9.819846969098908e-01 -5.534658363713858e-02
1.606530612244900e+11 9.819474717243364e-01 -5.513143638660643e-02
1.606938775510200e+11 9.819090201423383e-01 -5.491028199919149e-02
1.607346938775500e+11 9.818692893636618e-01 -5.468317536927539e-02
1.607755102040800e+11 9.818282271167188e-01 -5.445017742769103e-02
1.608163265306100e+11 9.817857817036646e-01 -5.421135509586216e-02
1.608571428571400e+11 9.817419019379301e-01 -5.396678130349665e-02
1.608979591836700e+11 9.816965372611037e-01 -5.371653466647796e-02
1.609387755102000e+11 9.816496376352066e-01 -5.346069914419546e-02
1.609795918367300e+11 9.816011534614010e-01 -5.319936386338148e-02
1.610204081632700e+11 9.815510354678917e-01 -5.293262307562309e-02
1.610612244898000e+11 9.814992347372784e-01 -5.266057565385734e-02
1.611020408163300e+11 9.814457028093341e-01 -5.238332482077007e-02
1.611428571428600e+11 9.813903919511178e-01 -5.210097762194231e-02
1.611836734693900e+11 9.813332553058715e-01 -5.181364480953779e-02
1.612244897959200e+11 9.812742470073108e-01 -5.152144056386602e-02
1.612653061224500e+11 9.812133222809042e-01 -5.122448229715242e-02
1.613061224489800e+11 9.811504376622274e-01 -5.092289031179392e-02
1.613469387755100e+11 9.810855508003938e-01 -5.061678776863685e-02
1.613877551020400e+11 9.810186205698003e-01 -5.030630039640129e-02
1.614285714285700e+11 9.809496069082723e-01 -4.999155646052297e-02
1.614693877551000e+11 9.808784707826996e-01 -4.967268700324323e-02
1.615102040816300e+11 9.808051741365427e-01 -4.934982572804222e-02
1.615510204081600e+11 9.807296798725231e-01 -4.902310902940023e-02
1.615918367346900e+11 9.806519517949716e-01 -4.869267624223950e-02
1.616326530612200e+11 9.805719545380480e-01 -4.835866979156717e-02
1.616734693877600e+11 9.804896535804168e-01 -4.802123540462660e-02
1.617142857142900e+11 9.804050150920598e-01 -4.768052235699114e-02
1.617551020408200e+11 9.803180057961020e-01 -4.733668367379843e-02
1.617959183673500e+11 9.802285929649666e-01 -4.698987631210508e-02
1.618367346938800e+11 9.801367443653588e-01 -4.664026104612486e-02
1.618775510204100e+11 9.800424283248345e-01 -4.628800241720058e-02
1.619183673469400e+11 9.799456137388740e-01 -4.593326877211400e-02
1.619591836734700e+11 9.798462701325097e-01 -4.557623218550057e-02
1.620000000000000e+11 9.797443676767063e-01 -4.521706821464458e-02
1.620408163265300e+11 9.796398774594489e-01 -4.485595588826895e-02
1.620816326530600e+11 9.795327717525287e-01 -4.449307750353863e-02
1.621224489795900e+11 9.794230241885890e-01 -4.412861845218513e-02
1.621632653061200e+11 9.793106099799528e-01 -4.376276716244578e-02
1.622040816326500e+11 9.791955060243213e-01 -4.339571515369699e-02
1.622448979591800e+11 9.790776911030842e-01 -4.302765683239160e-02
1.622857142857100e+11 9.789571458610832e-01 -4.265878925939282e-02
1.623265306122400e+11 9.788338529083878e-01 -4.228931197224662e-02
1.623673469387800e+11 9.787077969514372e-01 -4.191942663486321e-02
1.624081632653100e+11 9.785789648225037e-01 -4.154933704344738e-02
1.624489795918400e+11 9.784473454343808e-01 -4.117924909484635e-02
1.624897959183700e+11 9.783129297837908e-01 -4.080937081452318e-02
1.625306122449000e+11 9.781757109518876e-01 -4.043991195419552e-02
1.625714285714300e+11 9.780356840669356e-01 -4.007108362945789e-02
1.626122448979600e+11 9.778928462416425e-01 -3.970309801350039e-02
1.626530612244900e+11 9.777471964719341e-01 -3.933616813437157e-02
1.626938775510200e+11 9.775987357398461e-01 -3.897050767566634e-02
1.627346938775500e+11 9.774474672173031e-01 -3.860633047660134e-02
1.627755102040800e+11 9.772933961175704e-01 -3.824384978275915e-02
1.628163265306100e+11 9.771365293879717e-01 -3.788327811145878e-02
1.628571428571400e+11 9.769768754760164e-01 -3.752482696974083e-02
1.628979591836700e+11 9.768144443298329e-01 -3.716870650923228e-02
1.629387755102000e+11 9.766492473533710e-01 -3.681512528286372e-02
1.629795918367300e+11 9.764812973746499e-01 -3.646428998324326e-02
1.630204081632700e+11 9.763106087170500e-01 -3.611640528821727e-02
1.630612244898000e+11 9.761371972935784e-01 -3.577167362977433e-02
1.631020408163300e+11 9.759610805656351e-01 -3.543029538672274e-02
1.631428571428600e+11 9.757822774701899e-01 -3.509246896029936e-02
1.631836734693900e+11 9.756008082476435e-01 -3.475839070465489e-02
1.632244897959200e+11 9.754166943403885e-01 -3.442825481002937e-02
1.632653061224500e+11 9.752299584158780e-01 -3.410225335132829e-02
1.633061224489800e+11 9.750406243697946e-01 -3.378057636918621e-02
1.633469387755100e+11 9.748487173296712e-01 -3.346341186150808e-02
1.633877551020400e+11 9.746542634206892e-01 -3.315094574852565e-02
1.634285714285700e+11 9.744572897788258e-01 -3.284336182001940e-02
1.634693877551000e+11 9.742578245529809e-01 -3.254084179164393e-02
1.635102040816300e+11 9.740558969040702e-01 -3.224356535701671e-02
1.635510204081600e+11 9.738515370280356e-01 -3.195171019121920e-02
1.635918367346900e+11 9.736447761243948e-01 -3.166545182682575e-02
1.636326530612200e+11 9.734356463412052e-01 -3.138496357705479e-02
1.636734693877600e+11 9.732241807622055e-01 -3.111041646826734e-02
1.637142857142900e+11 9.730104134233953e-01 -3.084197904797785e-02
1.637551020408200e+11 9.727943794616634e-01 -3.057981725719835e-02
1.637959183673500e+11 9.725761151471271e-01 -3.032409431635340e-02
1.638367346938800e+11 9.723556578653956e-01 -3.007497096225972e-02
1.638775510204100e+11 9.721330460839899e-01 -2.983260538483395e-02
1.639183673469400e+11 9.719083194288026e-01 -2.959715299451976e-02
1.639591836734700e+11 9.716815189030338e-01 -2.936876642579600e-02
1.640000000000000e+11 9.714526867751513e-01 -2.914759569415385e-02
1.640408163265300e+11 9.712218664265576e-01 -2.893378839630434e-02
1.640816326530600e+11 9.709891022719555e-01 -2.872748972174818e-02
1.641224489795900e+11 9.707544397341034e-01 -2.852884238958486e-02
1.641632653061200e+11 9.705179252129114e-01 -2.833798661504762e-02
1.642040816326500e+11 9.702796060320459e-01 -2.815506017430542e-02
1.642448979591800e+11 9.700395304332536e-01 -2.798019831411262e-02
1.642857142857100e+11 9.697977475478082e-01 -2.781353342022125e-02
1.643265306122400e+11 9.695543073456958e-01 -2.765519467242983e-02
1.643673469387800e+11 9.693092605646203e-01 -2.750530770251984e-02
1.644081632653100e+11 9.690626586375567e-01 -2.736399447599748e-02
1.644489795918400e+11 9.688145537195708e-01 -2.723137290005433e-02
1.644897959183700e+11 9.685649987109439e-01 -2.710755637489366e-02
1.645306122449000e+11 9.683140470919281e-01 -2.699265343911194e-02
1.645714285714300e+11 9.680617529424673e-01 -2.688676777940202e-02
1.646122448979600e+11 9.678081708573713e-01 -2.678999816893222e-02
1.646530612244900e+11 9.675533559020633e-01 -2.670243801130743e-02
1.646938775510200e+11 9.672973635745521e-01 -2.662417502290663e-02
1.647346938775500e+11 9.670402497783850e-01 -2.655529115122738e-02
1.647755102040800e+11 9.667820707654764e-01 -2.649586242782928e-02
1.648163265306100e+11 9.665228829134150e-01 -2.644595880957182e-02
1.648571428571400e+11 9.662627424828263e-01 -2.640564414703122e-02
1.648979591836700e+11 9.660017055725709e-01 -2.637497616694985e-02
1.649387755102000e+11 9.657398279900899e-01 -2.635400668170278e-02
1.649795918367300e+11 9.654771652062468e-01 -2.634278138346702e-02
1.650204081632700e+11 9.652137721867337e-01 -2.634133974392780e-02
1.650612244898000e+11 9.649497031925340e-01 -2.634971513071709e-02
1.651020408163300e+11 9.646850116257486e-01 -2.636793493396320e-02
1.651428571428600e+11 9.644197500040226e-01 -2.639602066910556e-02
1.651836734693900e+11 9.641539699194233e-01 -2.643398809030567e-02
1.652244897959200e+11 9.638877220282956e-01 -2.648184731903962e-02
1.652653061224500e+11 9.636210560036322e-01 -2.653960289982250e-02
1.653061224489800e+11 9.633540206189656e-01 -2.660725367643308e-02
1.653469387755100e+11 9.630866638666594e-01 -2.668479318826626e-02
1.653877551020400e+11 9.628190330548277e-01 -2.677220995052381e-02
1.654285714285700e+11 9.625511749274414e-01 -2.686948776988180e-02
1.654693877551000e+11 9.622831356947521e-01 -2.697660608223660e-02
1.655102040816300e+11 9.620149611096924e-01 -2.709354012460160e-02
1.655510204081600e+11 9.617466965704412e-01 -2.722026115475745e-02
1.655918367346900e+11 9.614783872966189e-01 -2.735673672619333e-02
1.656326530612200e+11 9.612100784077333e-01 -2.750293104779739e-02
1.656734693877600e+11 9.609418149987784e-01 -2.765880514572513e-02
1.657142857142900e+11 9.606736420654157e-01 -2.782431723715567e-02
1.657551020408200e+11 9.604056045288828e-01 -2.799942289737344e-02
1.657959183673500e+11 9.601377472892070e-01 -2.818407505914315e-02
1.658367346938800e+11 9.598701151499118e-01 -2.837822397187468e-02
1.658775510204100e+11 9.596027527983176e-01 -2.858181702131235e-02
1.659183673469400e+11 9.593357048304265e-01 -2.879479869474611e-02
1.659591836734700e+11 9.590690157102751e-01 -2.901711045625657e-02
1.660000000000000e+11 9.588027298243795e-01 -2.924869054851003e-02
1.660408163265300e+11 9.585368915030219e-01 -2.948947354516588e-02
1.660816326530600e+11 9.582715451175683e-01 -2.973939009539407e-02
1.661224489795900e+11 9.580067351543665e-01 -2.999836661651360e-02
1.661632653061200e+11 9.577425062252610e-01 -3.026632511438940e-02
1.662040816326500e+11 9.574789029756963e-01 -3.054318318101988e-02
1.662448979591800e+11 9.572159700472914e-01 -3.082885396381529e-02
1.662857142857100e+11 9.569537519697505e-01 -3.112324637682804e-02
1.663265306122400e+11 9.566922930722036e-01 -3.142626499988687e-02
1.663673469387800e+11 9.564316374379019e-01 -3.173781008781732e-02
1.664081632653100e+11 9.561718286817786e-01 -3.205777771198819e-02
1.664489795918400e+11 9.559129098389275e-01 -3.238605986485214e-02
1.664897959183700e+11 9.556549231257675e-01 -3.272254468066259e-02
1.665306122449000e+11 9.553979097131836e-01 -3.306711672931719e-02
1.665714285714300e+11 9.551419095562109e-01 -3.341965720692137e-02
1.666122448979600e+11 9.548869612874914e-01 -3.378004411962297e-02
1.666530612244900e+11 9.546331020233269e-01 -3.414815255670945e-02
1.666938775510200e+11 9.543803672170615e-01 -3.452385489597491e-02
1.667346938775500e+11 9.541287905996286e-01 -3.490702088957758e-02
1.667755102040800e+11 9.538784042547714e-01 -3.529751775027269e-02
1.668163265306100e+11 9.536292386548255e-01 -3.569521029614139e-02
1.668571428571400e+11 9.533813227073105e-01 -3.609996109677489e-02
1.668979591836700e+11 9.531346838035026e-01 -3.651163063394874e-02
1.669387755102000e+11 9.528893479539998e-01 -3.693007753364314e-02
1.669795918367300e+11 9.526453399941642e-01 -3.735515882456746e-02
1.670204081632700e+11 9.524026836468392e-01 -3.778673033504224e-02
1.670612244898000e+11 9.521614015756371e-01 -3.822464697492984e-02
1.671020408163300e+11 9.519215154590458e-01 -3.866876276077020e-02
1.671428571428600e+11 9.516830459640079e-01 -3.911893114809000e-02
1.671836734693900e+11 9.514460128104050e-01 -3.957500522999280e-02
1.672244897959200e+11 9.512104346619181e-01 -4.003683816208995e-02
1.672653061224500e+11 9.509763291701990e-01 -4.050428315122284e-02
1.673061224489800e+11 9.507437129157688e-01 -4.097719354101388e-02
1.673469387755100e+11 9.505126013833362e-01 -4.145542302773701e-02
1.673877551020400e+11 9.502830087798478e-01 -4.193882596882717e-02
1.674285714285700e+11 9.500549478703059e-01 -4.242725743826028e-02
1.674693877551000e+11 9.498284299515571e-01 -4.292057315631424e-02
1.675102040816300e+11 9.496034648044808e-01 -4.341862936261841e-02
1.675510204081600e+11 9.493800605208830e-01 -4.392128294556641e-02
1.675918367346900e+11 9.491582234302252e-01 -4.442839159674550e-02
1.676326530612200e+11 9.489379578832988e-01 -4.493981399134645e-02
1.676734693877600e+11 9.487192662121945e-01 -4.545540975458847e-02
1.677142857142900e+11 9.485021487893384e-01 -4.597503934535896e-02
1.677551020408200e+11 9.482866040146181e-01 -4.649856400044646e-02
1.677959183673500e+11 9.480726282427824e-01 -4.702584589075105e-02
1.678367346938800e+11 9.478602157263717e-01 -4.755674838061333e-02
1.678775510204100e+11 9.476493585988048e-01 -4.809113632812177e-02
1.679183673469400e+11 9.474400469182239e-01 -4.862887621092787e-02
1.679591836734700e+11 9.472322685808445e-01 -4.916983607144788e-02
1.680000000000000e+11 9.470260093136201e-01 -4.971388568290187e-02
1.680408163265300e+11 9.468212528046706e-01 -5.026089685651990e-02
1.680816326530600e+11 9.466179809339741e-01 -5.081074364783885e-02
1.681224489795900e+11 9.464161739090348e-01 -5.136330265313107e-02
1.681632653061200e+11 9.462158102725136e-01 -5.191845327131299e-02
1.682040816326500e+11 9.460168669026258e-01 -5.247607806261153e-02
1.682448979591800e+11 9.458193189470665e-01 -5.303606268103488e-02
1.682857142857100e+11 9.456231399427854e-01 -5.359829560088248e-02
1.683265306122400e+11 9.454283018991372e-01 -5.416266798274690e-02
1.683673469387800e+11 9.452347753772546e-01 -5.472907370156331e-02
1.684081632653100e+11 9.450425295847940e-01 -5.529740938178319e-02
1.684489795918400e+11 9.448515324769856e-01 -5.586757428293974e-02
1.684897959183700e+11 9.446617508911835e-01 -5.643947016330719e-02
1.685306122449000e+11 9.444731506957786e-01 -5.701300124824345e-02
1.685714285714300e+11 9.442856968838754e-01 -5.758807394404757e-02
1.686122448979600e+11 9.440993536947019e-01 -5.816459683158198e-02
1.686530612244900e+11 9.439140846452636e-01 -5.874248057720508e-02
1.686938775510200e+11 9.437298525975383e-01 -5.932163805701419e-02
1.687346938775500e+11 9.435466197874873e-01 -5.990198451777619e-02
1.687755102040800e+11 9.433643479340054e-01 -6.048343744130772e-02
1.688163265306100e+11 9.431829981924720e-01 -6.106591659796701e-02
1.688571428571400e+11 9.430025311715655e-01 -6.164934429469485e-02
1.688979591836700e+11 9.428229069140051e-01 -6.223364569418466e-02
1.689387755102000e+11 9.426440849922418e-01 -6.281874886948359e-02
1.689795918367300e+11 9.424660245006833e-01 -6.340458485208300e-02
1.690204081632700e+11 9.422886840491578e-01 -6.399108772315723e-02
1.690612244898000e+11 9.421120219045053e-01 -6.457819471398135e-02
1.691020408163300e+11 9.419359961238974e-01 -6.516584640800883e-02
1.691428571428600e+11 9.417605646886515e-01 -6.575398681202553e-02
1.691836734693900e+11 9.415856855497673e-01 -6.634256331892170e-02
1.692244897959200e+11 9.414113168288909e-01 -6.693152668333359e-02
1.692653061224500e+11 9.412374170647423e-01 -6.752083113740258e-02
1.693061224489800e+11 9.410639454510520e-01 -6.811043441869336e-02
1.693469387755100e+11 9.408908619499012e-01 -6.870029772036894e-02
1.693877551020400e+11 9.407181275899611e-01 -6.929038540328847e-02
1.694285714285700e+11 9.405457046912423e-01 -6.988066498485090e-02
1.694693877551000e+11 9.403735570058614e-01 -7.047110704630483e-02
1.695102040816300e+11 9.402016499252648e-01 -7.106168518886360e-02
1.695510204081600e+11 9.400299507339503e-01 -7.165237594686349e-02
1.695918367346900e+11 9.398584288314512e-01 -7.224315851122501e-02
1.696326530612200e+11 9.396870557650741e-01 -7.283401460193049e-02
1.696734693877600e+11 9.395158053948488e-01 -7.342492821063071e-02
1.697142857142900e+11 9.393446539703990e-01 -7.401588553648868e-02
1.697551020408200e+11 9.391735801450930e-01 -7.460687495798952e-02
1.697959183673500e+11 9.390025651038745e-01 -7.519788692384341e-02
1.698367346938800e+11 9.388315925490814e-01 -7.578891390690966e-02
1.698775510204100e+11 9.386606486724219e-01 -7.637995029555275e-02
1.699183673469400e+11 9.384897222237275e-01 -7.697099201821361e-02
1.699591836734700e+11 9.383188046054890e-01 -7.756203625255058e-02
1.700000000000000e+11 9.381478899948509e-01 -7.815308127159766e-02
