! Generated by Phase I extraction
# Hz S RI R 50
6.700000000000000e+10 -1.008628389568160e+00 -2.717876554611491e-02
6.704800000000000e+10 -1.008626427341778e+00 -2.708677391357107e-02
6.709600000000000e+10 -1.008623832729882e+00 -2.699529142040123e-02
6.714400000000000e+10 -1.008620603278209e+00 -2.690437755781966e-02
6.719200000000000e+10 -1.008616737130913e+00 -2.681408834587376e-02
6.724000000000000e+10 -1.008612233159991e+00 -2.672447755588984e-02
6.728800000000000e+10 -1.008607090153431e+00 -2.663559675101077e-02
6.733600000000000e+10 -1.008601307523241e+00 -2.654749499848559e-02
6.738400000000000e+10 -1.008594884485895e+00 -2.646021976285842e-02
6.743200000000000e+10 -1.008587820386376e+00 -2.637381680249216e-02
6.748000000000000e+10 -1.008580115350140e+00 -2.628833010063875e-02
6.752800000000000e+10 -1.008571770316015e+00 -2.620380067620023e-02
6.757600000000000e+10 -1.008562787289860e+00 -2.612026668822064e-02
6.762400000000000e+10 -1.008553169383301e+00 -2.603776372147400e-02
6.767200000000000e+10 -1.008542919802704e+00 -2.595632534172591e-02
6.772000000000000e+10 -1.008532041895493e+00 -2.587598334388858e-02
6.776800000000000e+10 -1.008520539123436e+00 -2.579676781738614e-02
6.781600000000000e+10 -1.008508414917796e+00 -2.571870710694542e-02
6.786400000000000e+10 -1.008495672802636e+00 -2.564182759526369e-02
6.791200000000000e+10 -1.008482316460723e+00 -2.556615334414689e-02
6.796000000000000e+10 -1.008468349597441e+00 -2.549170625836544e-02
6.800800000000000e+10 -1.008453775551005e+00 -2.541850573302206e-02
6.805600000000000e+10 -1.008438597801764e+00 -2.534656963043055e-02
6.810400000000000e+10 -1.008422820117568e+00 -2.527591442445478e-02
6.815200000000000e+10 -1.008406446692534e+00 -2.520655482242411e-02
6.820000000000000e+10 -1.008389482284090e+00 -2.513850358064319e-02
6.824800000000000e+10 -1.008371932024418e+00 -2.507177147341368e-02
6.829600000000000e+10 -1.008353801152404e+00 -2.500636765927088e-02
6.834400000000000e+10 -1.008335094958052e+00 -2.494229963253658e-02
6.839200000000000e+10 -1.008315818921314e+00 -2.487957351307181e-02
6.844000000000000e+10 -1.008295978536468e+00 -2.481819416972330e-02
6.848800000000000e+10 -1.008275579427423e+00 -2.475816497126363e-02
6.853600000000000e+10 -1.008254627004671e+00 -2.469948764853479e-02
6.858400000000000e+10 -1.008233127081096e+00 -2.464216230431792e-02
6.863200000000000e+10 -1.008211085972456e+00 -2.458618800954200e-02
6.868000000000000e+10 -1.008188510777235e+00 -2.453156296906645e-02
6.872800000000000e+10 -1.008165409340116e+00 -2.447828484624768e-02
6.877600000000000e+10 -1.008141790002143e+00 -2.442635044732680e-02
6.882400000000000e+10 -1.008117661366177e+00 -2.437575530902828e-02
6.887200000000000e+10 -1.008093032122982e+00 -2.432649359765771e-02
6.892000000000000e+10 -1.008067910884451e+00 -2.427855824668579e-02
6.896800000000000e+10 -1.008042306433010e+00 -2.423194113545200e-02
6.901600000000000e+10 -1.008016227895079e+00 -2.418663370569826e-02
6.906400000000000e+10 -1.007989685059919e+00 -2.414262701994413e-02
6.911200000000000e+10 -1.007962688491937e+00 -2.409991188444604e-02
6.916000000000000e+10 -1.007935249437182e+00 -2.405847871279970e-02
6.920800000000000e+10 -1.007907379549047e+00 -2.401831730197029e-02
6.925600000000000e+10 -1.007879090626330e+00 -2.397941683481982e-02
6.930400000000000e+10 -1.007850394495079e+00 -2.394176603679216e-02
6.935200000000000e+10 -1.007821302986592e+00 -2.390535361749617e-02
6.940000000000000e+10 -1.007791828307248e+00 -2.387016842523536e-02
6.944800000000000e+10 -1.007761982920736e+00 -2.383619955151876e-02
6.949600000000000e+10 -1.007731779718069e+00 -2.380343605483451e-02
6.954400000000000e+10 -1.007701231790542e+00 -2.377186719378644e-02
6.959200000000000e+10 -1.007670352412630e+00 -2.374148236129030e-02
6.964000000000000e+10 -1.007639155162916e+00 -2.371227118764065e-02
6.968800000000000e+10 -1.007607654016652e+00 -2.368422373742842e-02
6.973600000000000e+10 -1.007575863369230e+00 -2.365733065264596e-02
6.978400000000000e+10 -1.007543798171868e+00 -2.363158315325753e-02
6.983200000000000e+10 -1.007511473708628e+00 -2.360697282326349e-02
6.988000000000000e+10 -1.007478905557630e+00 -2.358349152578954e-02
6.992800000000000e+10 -1.007446109615361e+00 -2.356113126766413e-02
6.997600000000000e+10 -1.007413101897188e+00 -2.353988421784679e-02
7.002400000000000e+10 -1.007379898644637e+00 -2.351974286124183e-02
7.007200000000000e+10 -1.007346516477639e+00 -2.350069994437392e-02
7.012000000000000e+10 -1.007312972659909e+00 -2.348274876136444e-02
7.016800000000000e+10 -1.007279285262475e+00 -2.346588293916325e-02
7.021600000000000e+10 -1.007245473039870e+00 -2.345009604829476e-02
7.026400000000000e+10 -1.007211555356899e+00 -2.343538175033293e-02
7.031200000000000e+10 -1.007177552021876e+00 -2.342173356739085e-02
7.036000000000000e+10 -1.007143483151703e+00 -2.340914524536272e-02
7.040800000000000e+10 -1.007109369303349e+00 -2.339761076693184e-02
7.045600000000000e+10 -1.007075231417641e+00 -2.338712461369702e-02
7.050400000000000e+10 -1.007041091093118e+00 -2.337768131983372e-02
7.055200000000000e+10 -1.007006970395395e+00 -2.336927578283843e-02
7.060000000000000e+10 -1.006972892025913e+00 -2.336190284619197e-02
7.064800000000000e+10 -1.006938879291197e+00 -2.335555735791740e-02
7.069600000000000e+10 -1.006904955950594e+00 -2.335023413869526e-02
7.074400000000000e+10 -1.006871146419493e+00 -2.334592786495131e-02
7.079200000000000e+10 -1.006837475289601e+00 -2.334263321877286e-02
7.084000000000000e+10 -1.006803967721452e+00 -2.334034449562181e-02
7.088800000000000e+10 -1.006770648848788e+00 -2.333905588084447e-02
7.093600000000000e+10 -1.006737544192531e+00 -2.333876096054229e-02
7.098400000000000e+10 -1.006704678935010e+00 -2.333945280023603e-02
7.103200000000000e+10 -1.006672078358712e+00 -2.334112392406288e-02
7.108000000000000e+10 -1.006639767299433e+00 -2.334376635727999e-02
7.112800000000000e+10 -1.006607770375648e+00 -2.334737165037143e-02
7.117600000000000e+10 -1.006576111797491e+00 -2.335193106009573e-02
7.122400000000000e+10 -1.006544815487941e+00 -2.335743542108643e-02
7.127200000000000e+10 -1.006513904996154e+00 -2.336387528374275e-02
7.132000000000000e+10 -1.006483403019026e+00 -2.337124080221419e-02
7.136800000000000e+10 -1.006453331828064e+00 -2.337952180165914e-02
7.141600000000000e+10 -1.006423712683243e+00 -2.338870774306516e-02
7.146400000000000e+10 -1.006394566519152e+00 -2.339878784723388e-02
7.151200000000000e+10 -1.006365913238807e+00 -2.340975119487717e-02
7.156000000000000e+10 -1.006337772329914e+00 -2.342158690238795e-02
7.160800000000000e+10 -1.006310162299144e+00 -2.343428381219921e-02
7.165600000000000e+10 -1.006283101236323e+00 -2.344783074279644e-02
7.170400000000000e+10 -1.006256606164015e+00 -2.346221615585728e-02
7.175200000000000e+10 -1.006230693493369e+00 -2.347742828369170e-02
7.180000000000000e+10 -1.006205378592136e+00 -2.349345520827929e-02
7.184800000000000e+10 -1.006180676098856e+00 -2.351028529010298e-02
7.189600000000000e+10 -1.006156599615136e+00 -2.352790698372661e-02
7.194400000000000e+10 -1.006133161835145e+00 -2.354630877947565e-02
7.199200000000000e+10 -1.006110374480443e+00 -2.356547904278893e-02
7.204000000000000e+10 -1.006088248679988e+00 -2.358540638419429e-02
7.208800000000000e+10 -1.006066794722795e+00 -2.360607931364832e-02
7.213600000000000e+10 -1.006046022001261e+00 -2.362748663698695e-02
7.218400000000000e+10 -1.006025939263543e+00 -2.364961739268463e-02
7.223200000000000e+10 -1.006006554617120e+00 -2.367246104796540e-02
7.228000000000000e+10 -1.005987875694444e+00 -2.369600744552567e-02
7.232800000000000e+10 -1.005969909759814e+00 -2.372024698230427e-02
7.237600000000000e+10 -1.005952663884091e+00 -2.374517060430539e-02
7.242400000000000e+10 -1.005936144572927e+00 -2.377076942996432e-02
7.247200000000000e+10 -1.005920357775652e+00 -2.379703473651824e-02
7.252000000000000e+10 -1.005905308664645e+00 -2.382395788947864e-02
7.256800000000000e+10 -1.005891001327604e+00 -2.385153022594178e-02
7.261600000000000e+10 -1.005877439646640e+00 -2.387974352249230e-02
7.266400000000000e+10 -1.005864626749194e+00 -2.390858912320777e-02
7.271200000000000e+10 -1.005852565514932e+00 -2.393805834034353e-02
7.276000000000000e+10 -1.005841257975918e+00 -2.396814207610317e-02
7.280800000000000e+10 -1.005830705426277e+00 -2.399883090687621e-02
7.285600000000000e+10 -1.005820908341687e+00 -2.403011503840623e-02
7.290400000000000e+10 -1.005811866343094e+00 -2.406198430476778e-02
7.295200000000000e+10 -1.005803578349137e+00 -2.409442830520626e-02
7.300000000000000e+10 -1.005796042714473e+00 -2.412743646464855e-02
7.304800000000000e+10 -1.005789257338287e+00 -2.416099814841592e-02
7.309600000000000e+10 -1.005783219870601e+00 -2.419510287595676e-02
7.314400000000000e+10 -1.005777927563297e+00 -2.422974010485169e-02
7.319200000000000e+10 -1.005773377407161e+00 -2.426489935583494e-02
7.324000000000000e+10 -1.005769565724256e+00 -2.430056985965205e-02
7.328800000000000e+10 -1.005766488471131e+00 -2.433674096803765e-02
7.333600000000000e+10 -1.005764140893120e+00 -2.437340197183912e-02
7.338400000000000e+10 -1.005762517746313e+00 -2.441054280834593e-02
7.343200000000000e+10 -1.005761613186907e+00 -2.444815354878500e-02
7.348000000000000e+10 -1.005761420642129e+00 -2.448622443010950e-02
7.352800000000000e+10 -1.005761932508662e+00 -2.452474938940371e-02
7.357600000000000e+10 -1.005763140062091e+00 -2.456372247210620e-02
7.362400000000000e+10 -1.005765033373429e+00 -2.460313799406912e-02
7.367200000000000e+10 -1.005767601359933e+00 -2.464299062512972e-02
7.372000000000000e+10 -1.005770831789974e+00 -2.468327543257888e-02
7.376800000000000e+10 -1.005774711279646e+00 -2.472398791992705e-02
7.381600000000000e+10 -1.005779225325394e+00 -2.476512552622503e-02
7.386400000000000e+10 -1.005784358292980e+00 -2.480668603512841e-02
7.391200000000000e+10 -1.005790093318395e+00 -2.484866752029259e-02
7.396000000000000e+10 -1.005796412326837e+00 -2.489106844366179e-02
7.400800000000000e+10 -1.005803296305175e+00 -2.493388685776762e-02
7.405600000000000e+10 -1.005810725343643e+00 -2.497712050073618e-02
7.410400000000000e+10 -1.005818678769018e+00 -2.502076719367459e-02
7.415200000000000e+10 -1.005827135113612e+00 -2.506482476706509e-02
7.420000000000000e+10 -1.005836072222235e+00 -2.510929124297450e-02
7.424800000000000e+10 -1.005845467270917e+00 -2.515416493264436e-02
7.429600000000000e+10 -1.005855297030976e+00 -2.519944474267235e-02
7.434400000000000e+10 -1.005865537663465e+00 -2.524512984205058e-02
7.439200000000000e+10 -1.005876165007483e+00 -2.529121991118127e-02
7.444000000000000e+10 -1.005887154393897e+00 -2.533771499458122e-02
7.448800000000000e+10 -1.005898480840331e+00 -2.538461556546623e-02
7.453600000000000e+10 -1.005910119028310e+00 -2.543192245426987e-02
7.458400000000000e+10 -1.005922043262959e+00 -2.547963682576976e-02
7.463200000000000e+10 -1.005934227567911e+00 -2.552775995084622e-02
7.468000000000000e+10 -1.005946645592234e+00 -2.557629309592647e-02
7.472800000000000e+10 -1.005959270857802e+00 -2.562523739148033e-02
7.477600000000000e+10 -1.005972076811521e+00 -2.567459375374553e-02
7.482400000000000e+10 -1.005985036879665e+00 -2.572436297711689e-02
7.487200000000000e+10 -1.005998124676349e+00 -2.577454589535087e-02
7.492000000000000e+10 -1.006011314070057e+00 -2.582514342027108e-02
7.496800000000000e+10 -1.006024579342426e+00 -2.587615672386835e-02
7.501600000000000e+10 -1.006037895350900e+00 -2.592758684049980e-02
7.506400000000000e+10 -1.006051237607583e+00 -2.597943479700889e-02
7.511200000000000e+10 -1.006064582286019e+00 -2.603170152431090e-02
7.516000000000000e+10 -1.006077906148978e+00 -2.608438786491307e-02
7.520800000000000e+10 -1.006091186722754e+00 -2.613749477571101e-02
7.525600000000000e+10 -1.006104402271434e+00 -2.619102299076156e-02
7.530400000000000e+10 -1.006117531857629e+00 -2.624497312960097e-02
7.535200000000000e+10 -1.006130555287311e+00 -2.629934557764684e-02
7.540000000000000e+10 -1.006143453343148e+00 -2.635414091502860e-02
7.544800000000000e+10 -1.006156207708544e+00 -2.640935961953858e-02
7.549600000000000e+10 -1.006168801138252e+00 -2.646500195565013e-02
7.554400000000000e+10 -1.006181217261766e+00 -2.652106781519733e-02
7.559200000000000e+10 -1.006193440490363e+00 -2.657755681110250e-02
7.564000000000000e+10 -1.006205455826487e+00 -2.663446833310800e-02
7.568800000000000e+10 -1.006217248942307e+00 -2.669180156216486e-02
7.573600000000000e+10 -1.006228806196632e+00 -2.674955539126764e-02
7.578400000000000e+10 -1.006240114772999e+00 -2.680772847866919e-02
7.583200000000000e+10 -1.006251162830470e+00 -2.686631894134858e-02
7.588000000000000e+10 -1.006261939555843e+00 -2.692532444259634e-02
7.592800000000000e+10 -1.006272435236956e+00 -2.698474207589600e-02
7.597600000000000e+10 -1.006282641481036e+00 -2.704456857057992e-02
7.602400000000000e+10 -1.006292551052989e+00 -2.710479994625799e-02
7.607200000000000e+10 -1.006302157852385e+00 -2.716543176521690e-02
7.612000000000000e+10 -1.006311456977129e+00 -2.722645919329323e-02
7.616800000000000e+10 -1.006320444561902e+00 -2.728787688118153e-02
7.621600000000000e+10 -1.006329117626210e+00 -2.734967890296140e-02
7.626400000000000e+10 -1.006337474088400e+00 -2.741185882257173e-02
7.631200000000000e+10 -1.006345512618273e+00 -2.747440949912412e-02
7.636000000000000e+10 -1.006353232654172e+00 -2.753732328790220e-02
7.640800000000000e+10 -1.006360634310653e+00 -2.760059202122943e-02
7.645600000000000e+10 -1.006367718463519e+00 -2.766420715920925e-02
7.650400000000000e+10 -1.006374486671319e+00 -2.772815975197246e-02
7.655200000000000e+10 -1.006380941287525e+00 -2.779244051943705e-02
7.660000000000000e+10 -1.006387085366256e+00 -2.785703988251936e-02
7.664800000000000e+10 -1.006392922512667e+00 -2.792194795583293e-02
7.669600000000000e+10 -1.006398456820840e+00 -2.798715456001002e-02
7.674400000000000e+10 -1.006403692757047e+00 -2.805264927964770e-02
7.679200000000000e+10 -1.006408635255999e+00 -2.811842144128661e-02
7.684000000000000e+10 -1.006413289608069e+00 -2.818446001995974e-02
7.688800000000000e+10 -1.006417661701052e+00 -2.825075385018308e-02
7.693600000000000e+10 -1.006421757926693e+00 -2.831729151424652e-02
7.698400000000000e+10 -1.006425585387123e+00 -2.838406133522971e-02
7.703200000000000e+10 -1.006429151898388e+00 -2.845105131501795e-02
7.708000000000000e+10 -1.006432466099166e+00 -2.851824917874569e-02
7.712800000000000e+10 -1.006435537265991e+00 -2.858564248391830e-02
7.717600000000000e+10 -1.006438375168207e+00 -2.865321872012799e-02
7.722400000000000e+10 -1.006440989879131e+00 -2.872096546349737e-02
7.727200000000000e+10 -1.006443391935059e+00 -2.878887063633863e-02
7.732000000000000e+10 -1.006445592326673e+00 -2.885692288099827e-02
7.736800000000000e+10 -1.006447602592099e+00 -2.892511161844174e-02
7.741600000000000e+10 -1.006449434720367e+00 -2.899342698614596e-02
7.746400000000000e+10 -1.006451101104640e+00 -2.906185957670282e-02
7.751200000000000e+10 -1.006452614324628e+00 -2.913040006557380e-02
7.756000000000000e+10 -1.006453987190976e+00 -2.919903928453018e-02
7.760800000000000e+10 -1.006455232677573e+00 -2.926776838564409e-02
7.765600000000000e+10 -1.006456363969282e+00 -2.933657848022766e-02
7.770400000000000e+10 -1.006457394559680e+00 -2.940546055317497e-02
7.775200000000000e+10 -1.006458338334411e+00 -2.947440559824378e-02
7.780000000000000e+10 -1.006459209339301e+00 -2.954340401049898e-02
7.784800000000000e+10 -1.006460022049984e+00 -2.961244571936323e-02
7.789600000000000e+10 -1.006460791336609e+00 -2.968152015484203e-02
7.794400000000000e+10 -1.006461532420658e+00 -2.975061622195891e-02
7.799200000000000e+10 -1.006462260947246e+00 -2.981972235772426e-02
7.804000000000000e+10 -1.006462993129839e+00 -2.988882640915783e-02
7.808800000000000e+10 -1.006463745808263e+00 -2.995791560303689e-02
7.813600000000000e+10 -1.006464536367195e+00 -3.002697641607684e-02
7.818400000000000e+10 -1.006465382834761e+00 -3.009599460145555e-02
7.823200000000000e+10 -1.006466303680120e+00 -3.016495505957807e-02
7.828000000000000e+10 -1.006467317701882e+00 -3.023384181015805e-02
7.832800000000000e+10 -1.006468443865945e+00 -3.030263805774626e-02
7.837600000000000e+10 -1.006469701057670e+00 -3.037132641876227e-02
7.842400000000000e+10 -1.006471108085177e+00 -3.043988898095193e-02
7.847200000000000e+10 -1.006472683633934e+00 -3.050830738862450e-02
7.852000000000000e+10 -1.006474446270428e+00 -3.057656316696234e-02
7.856800000000000e+10 -1.006476414304172e+00 -3.064463764269964e-02
7.861600000000000e+10 -1.006478605969988e+00 -3.071251211862904e-02
7.866400000000000e+10 -1.006481039036345e+00 -3.078016773070554e-02
7.871200000000000e+10 -1.006483731044065e+00 -3.084758556423587e-02
7.876000000000000e+10 -1.006486699059976e+00 -3.091474650809877e-02
7.880800000000000e+10 -1.006489959833652e+00 -3.098163133403568e-02
7.885600000000000e+10 -1.006493529525479e+00 -3.104822044742325e-02
7.890400000000000e+10 -1.006497423809682e+00 -3.111449406749923e-02
7.895200000000000e+10 -1.006501657828459e+00 -3.118043224821355e-02
7.900000000000000e+10 -1.006506246251092e+00 -3.124601473337761e-02
7.904800000000000e+10 -1.006511203202800e+00 -3.131122098772977e-02
7.909600000000000e+10 -1.006516542385488e+00 -3.137603036544872e-02
7.914400000000000e+10 -1.006522277238935e+00 -3.144042217150333e-02
7.919200000000000e+10 -1.006528420737159e+00 -3.150437577937872e-02
7.924000000000000e+10 -1.006534985331142e+00 -3.156787103566269e-02
7.928800000000000e+10 -1.006541982795569e+00 -3.163088850435139e-02
7.933600000000000e+10 -1.006549424145398e+00 -3.169340957601528e-02
7.938400000000000e+10 -1.006557319621646e+00 -3.175541666283783e-02
7.943200000000000e+10 -1.006565678547938e+00 -3.181689323358898e-02
7.948000000000000e+10 -1.006574509346148e+00 -3.187782384754009e-02
7.952800000000000e+10 -1.006583819649869e+00 -3.193819426459834e-02
7.957600000000000e+10 -1.006593616315094e+00 -3.199799122220592e-02
7.962400000000000e+10 -1.006603905793108e+00 -3.205720242764674e-02
7.967200000000000e+10 -1.006614693873427e+00 -3.211581646820495e-02
7.972000000000000e+10 -1.006625985982306e+00 -3.217382287088741e-02
7.976800000000000e+10 -1.006637786766981e+00 -3.223121220922946e-02
7.981600000000000e+10 -1.006650100406789e+00 -3.228797611859240e-02
7.986400000000000e+10 -1.006662930506620e+00 -3.234410726026847e-02
7.991200000000000e+10 -1.006676280503622e+00 -3.239959916586849e-02
7.996000000000000e+10 -1.006690153355734e+00 -3.245444609136498e-02
8.000800000000000e+10 -1.006704551548058e+00 -3.250864290567743e-02
8.005600000000000e+10 -1.006719476984857e+00 -3.256218484188467e-02
8.010400000000000e+10 -1.006734931052423e+00 -3.261506738962022e-02
8.015200000000000e+10 -1.006750914554087e+00 -3.266728627937052e-02
8.020000000000000e+10 -1.006767428025743e+00 -3.271883763907309e-02
8.024800000000000e+10 -1.006784471862206e+00 -3.276971794415066e-02
8.029600000000000e+10 -1.006802046320217e+00 -3.281992405820704e-02
8.034400000000000e+10 -1.006820151464789e+00 -3.286945300320336e-02
8.039200000000000e+10 -1.006838787059528e+00 -3.291830193482740e-02
8.044000000000000e+10 -1.006857952508796e+00 -3.296646824415348e-02
8.048800000000000e+10 -1.006877647014217e+00 -3.301394974986788e-02
8.053600000000000e+10 -1.006897869379471e+00 -3.306074479483392e-02
8.058400000000000e+10 -1.006918617928733e+00 -3.310685232429414e-02
8.063200000000000e+10 -1.006939890505370e+00 -3.315227195026343e-02
8.068000000000000e+10 -1.006961684227327e+00 -3.319700375529416e-02
8.072800000000000e+10 -1.006983995602155e+00 -3.324104844485287e-02
8.077600000000000e+10 -1.007006820372263e+00 -3.328440714942222e-02
8.082400000000000e+10 -1.007030153731166e+00 -3.332708130816958e-02
8.087200000000000e+10 -1.007053990042682e+00 -3.336907245061389e-02
8.092000000000000e+10 -1.007078323039644e+00 -3.341038241426216e-02
8.096800000000000e+10 -1.007103145683424e+00 -3.345101324043737e-02
8.101600000000000e+10 -1.007128450256803e+00 -3.349096728756078e-02
8.106400000000000e+10 -1.007154228196394e+00 -3.353024714470779e-02
8.111200000000000e+10 -1.007180470409042e+00 -3.356885601009197e-02
8.116000000000000e+10 -1.007207167295664e+00 -3.360679757982005e-02
8.120800000000000e+10 -1.007234308804660e+00 -3.364407601065853e-02
8.125600000000000e+10 -1.007261884185089e+00 -3.368069572690468e-02
8.130400000000000e+10 -1.007289882008581e+00 -3.371666145033984e-02
8.135200000000000e+10 -1.007318290135366e+00 -3.375197799447015e-02
8.140000000000000e+10 -1.007347095780413e+00 -3.378665037326332e-02
8.144800000000000e+10 -1.007376285492641e+00 -3.382068377509084e-02
8.149600000000000e+10 -1.007405845177460e+00 -3.385408396621988e-02
8.154400000000000e+10 -1.007435760221021e+00 -3.388685711084376e-02
8.159200000000000e+10 -1.007466015452800e+00 -3.391901006687207e-02
8.164000000000000e+10 -1.007496595363144e+00 -3.395055069751205e-02
8.168800000000000e+10 -1.007527483953106e+00 -3.398148783055574e-02
8.173600000000000e+10 -1.007558664739559e+00 -3.401183104605273e-02
8.178400000000000e+10 -1.007590120887816e+00 -3.404159081695471e-02
8.183200000000000e+10 -1.007621834730865e+00 -3.407077850106133e-02
8.188000000000000e+10 -1.007653787953726e+00 -3.409940651144754e-02
8.192800000000000e+10 -1.007685961680911e+00 -3.412748834989554e-02
8.197600000000000e+10 -1.007718336860828e+00 -3.415503852204575e-02
8.202400000000000e+10 -1.007750894490292e+00 -3.418207232910633e-02
8.207200000000000e+10 -1.007783615837608e+00 -3.420860559427804e-02
8.212000000000000e+10 -1.007816482530112e+00 -3.423465434619265e-02
8.216800000000000e+10 -1.007849476625603e+00 -3.426023473947299e-02
8.221600000000000e+10 -1.007882580611589e+00 -3.428536306747071e-02
8.226400000000000e+10 -1.007915777451476e+00 -3.431005555166284e-02
8.231200000000000e+10 -1.007949050564536e+00 -3.433432837886698e-02
8.236000000000000e+10 -1.007982383785600e+00 -3.435819751982846e-02
8.240800000000000e+10 -1.008015761208716e+00 -3.438167855840062e-02
8.245600000000000e+10 -1.008049167077823e+00 -3.440478661290144e-02
8.250400000000000e+10 -1.008082585818377e+00 -3.442753656815097e-02
8.255200000000000e+10 -1.008116001990780e+00 -3.444994312601220e-02
8.260000000000000e+10 -1.008149400424355e+00 -3.447202091232077e-02
8.264800000000000e+10 -1.008182766229047e+00 -3.449378450811675e-02
8.269600000000000e+10 -1.008216084886908e+00 -3.451524871166546e-02
8.274400000000000e+10 -1.008249342596206e+00 -3.453642850759944e-02
8.279200000000000e+10 -1.008282526401688e+00 -3.455733904308368e-02
8.284000000000000e+10 -1.008315624209265e+00 -3.457799571764458e-02
8.288800000000000e+10 -1.008348624632027e+00 -3.459841405771564e-02
8.293600000000000e+10 -1.008381516931419e+00 -3.461860969924545e-02
8.298400000000000e+10 -1.008414290678840e+00 -3.463859814186344e-02
8.303200000000000e+10 -1.008446935588423e+00 -3.465839472001137e-02
8.308000000000000e+10 -1.008479441295614e+00 -3.467801440474931e-02
8.312800000000000e+10 -1.008511797037818e+00 -3.469747167013870e-02
8.317600000000000e+10 -1.008543991651629e+00 -3.471678045209029e-02
8.322400000000000e+10 -1.008576013496939e+00 -3.473595405486055e-02
8.327200000000000e+10 -1.008607850804428e+00 -3.475500524698568e-02
8.332000000000000e+10 -1.008639491856749e+00 -3.477394613945804e-02
8.336800000000000e+10 -1.008670925251636e+00 -3.479278809026341e-02
8.341600000000000e+10 -1.008702140131486e+00 -3.481154191911129e-02
8.346400000000000e+10 -1.008733126383281e+00 -3.483021758424703e-02
8.351200000000000e+10 -1.008763874634011e+00 -3.484882404448008e-02
8.356000000000000e+10 -1.008794376051643e+00 -3.486736935574748e-02
8.360800000000000e+10 -1.008824622175083e+00 -3.488586084337040e-02
8.365600000000000e+10 -1.008854604643051e+00 -3.490430515183397e-02
8.370400000000000e+10 -1.008884315094329e+00 -3.492270825426342e-02
8.375200000000000e+10 -1.008913745041467e+00 -3.494107532609980e-02
8.380000000000000e+10 -1.008942885977743e+00 -3.495941101411201e-02
8.384800000000000e+10 -1.008971729668762e+00 -3.497771965723781e-02
8.389600000000000e+10 -1.009000268240579e+00 -3.499600527474298e-02
8.394400000000000e+10 -1.009028494489585e+00 -3.501427144988185e-02
8.399200000000000e+10 -1.009056402060696e+00 -3.503252148449466e-02
8.404000000000000e+10 -1.009083985563367e+00 -3.505075843696324e-02
8.408800000000000e+10 -1.009111240483798e+00 -3.506898521291584e-02
8.413600000000000e+10 -1.009138163113328e+00 -3.508720459530364e-02
8.418400000000000e+10 -1.009164750143520e+00 -3.510541936054929e-02
8.423200000000000e+10 -1.009190998268385e+00 -3.512363225291255e-02
8.428000000000000e+10 -1.009216904041772e+00 -3.514184603867506e-02
8.432800000000000e+10 -1.009242463416709e+00 -3.516006321055372e-02
8.437600000000000e+10 -1.009267671876138e+00 -3.517828630066583e-02
8.442400000000000e+10 -1.009292524381187e+00 -3.519651749689007e-02
8.447200000000000e+10 -1.009317015402460e+00 -3.521475857151765e-02
8.452000000000000e+10 -1.009341139104241e+00 -3.523301071555448e-02
8.456800000000000e+10 -1.009364889606399e+00 -3.525127475170742e-02
8.461600000000000e+10 -1.009388261244661e+00 -3.526955126907783e-02
8.466400000000000e+10 -1.009411248805719e+00 -3.528784062843048e-02
8.471200000000000e+10 -1.009433847720212e+00 -3.530614303793814e-02
8.476000000000000e+10 -1.009456054119780e+00 -3.532445858626123e-02
8.480800000000000e+10 -1.009477864835122e+00 -3.534278704762589e-02
8.485600000000000e+10 -1.009499277234432e+00 -3.536112779699458e-02
8.490400000000000e+10 -1.009520288986689e+00 -3.537948011626869e-02
8.495200000000000e+10 -1.009540897913719e+00 -3.539784343911849e-02
8.500000000000000e+10 -1.009561101890314e+00 -3.541621738524724e-02
8.504800000000000e+10 -1.009580898848173e+00 -3.543460171773651e-02
8.509600000000000e+10 -1.009600287009022e+00 -3.545299614133252e-02
8.514400000000000e+10 -1.009619264860703e+00 -3.547140048474591e-02
8.519200000000000e+10 -1.009637831747000e+00 -3.548981462831977e-02
8.524000000000000e+10 -1.009655987528812e+00 -3.550823924750697e-02
8.528800000000000e+10 -1.009673733223228e+00 -3.552667427895876e-02
8.533600000000000e+10 -1.009691070776873e+00 -3.554511961823020e-02
8.538400000000000e+10 -1.009708002824744e+00 -3.556357506318328e-02
8.543200000000000e+10 -1.009724532994296e+00 -3.558203993618519e-02
8.548000000000000e+10 -1.009740665225835e+00 -3.560051361057448e-02
8.552800000000000e+10 -1.009756403806592e+00 -3.561899556519473e-02
8.557600000000000e+10 -1.009771753427260e+00 -3.563748524399506e-02
8.562400000000000e+10 -1.009786719102462e+00 -3.565598229493916e-02
8.567200000000000e+10 -1.009801305819569e+00 -3.567448600824959e-02
8.572000000000000e+10 -1.009815518765882e+00 -3.569299571100410e-02
8.576800000000000e+10 -1.009829363392387e+00 -3.571151082724256e-02
8.581600000000000e+10 -1.009842845705678e+00 -3.573003094404401e-02
8.586400000000000e+10 -1.009855972097308e+00 -3.574855551272903e-02
8.591200000000000e+10 -1.009868749522395e+00 -3.576708437505754e-02
8.596000000000000e+10 -1.009881185365129e+00 -3.578561733558561e-02
8.600800000000000e+10 -1.009893287567052e+00 -3.580415439634111e-02
8.605600000000000e+10 -1.009905064433997e+00 -3.582269561916621e-02
8.610400000000000e+10 -1.009916524482154e+00 -3.584124133390538e-02
8.615200000000000e+10 -1.009927676522466e+00 -3.585979177544896e-02
8.620000000000000e+10 -1.009938529530123e+00 -3.587834731964604e-02
8.624800000000000e+10 -1.009949092534492e+00 -3.589690864012858e-02
8.629600000000000e+10 -1.009959374531608e+00 -3.591547683950587e-02
8.634400000000000e+10 -1.009969385033804e+00 -3.593404853797672e-02
8.639200000000000e+10 -1.009979133339136e+00 -3.595261995527681e-02
8.644000000000000e+10 -1.009988629190072e+00 -3.597118722964984e-02
8.648800000000000e+10 -1.009997882094345e+00 -3.598974640463742e-02
8.653600000000000e+10 -1.010006901743328e+00 -3.600829360071085e-02
8.658400000000000e+10 -1.010015698060894e+00 -3.602682455873259e-02
8.663200000000000e+10 -1.010024281209168e+00 -3.604533469028357e-02
8.668000000000000e+10 -1.010032661546291e+00 -3.606381882190423e-02
8.672800000000000e+10 -1.010040849411073e+00 -3.608227165908849e-02
8.677600000000000e+10 -1.010048854924150e+00 -3.610068765051062e-02
8.682400000000000e+10 -1.010056688225824e+00 -3.611906074692071e-02
8.687200000000000e+10 -1.010064359137464e+00 -3.613738437758894e-02
8.692000000000000e+10 -1.010071877033796e+00 -3.615565171859712e-02
8.696800000000000e+10 -1.010079251094400e+00 -3.617385547321504e-02
8.701600000000000e+10 -1.010086490186450e+00 -3.619198790386675e-02
8.706400000000000e+10 -1.010093602857365e+00 -3.621004094004580e-02
8.711200000000000e+10 -1.010100597202014e+00 -3.622800599646022e-02
8.716000000000000e+10 -1.010107480987185e+00 -3.624587411985458e-02
8.720800000000000e+10 -1.010114261759614e+00 -3.626363558591532e-02
8.725600000000000e+10 -1.010120946789453e+00 -3.628128030700720e-02
8.730400000000000e+10 -1.010127543077326e+00 -3.629879788006778e-02
8.735200000000000e+10 -1.010134057219797e+00 -3.631617789597030e-02
8.740000000000000e+10 -1.010140495309291e+00 -3.633341029863391e-02
8.744800000000000e+10 -1.010146862630003e+00 -3.635048516207860e-02
8.749600000000000e+10 -1.010153163530566e+00 -3.636739294945417e-02
8.754400000000000e+10 -1.010159401563486e+00 -3.638412400237086e-02
8.759200000000000e+10 -1.010165579345344e+00 -3.640066874780977e-02
8.764000000000000e+10 -1.010171698889457e+00 -3.641701781850777e-02
8.768800000000000e+10 -1.010177761431052e+00 -3.643316242009582e-02
8.773600000000000e+10 -1.010183767590932e+00 -3.644909395224278e-02
8.778400000000000e+10 -1.010189717060961e+00 -3.646480441875906e-02
8.783200000000000e+10 -1.010195609001488e+00 -3.648028608214426e-02
8.788000000000000e+10 -1.010201442150997e+00 -3.649553187419236e-02
8.792800000000000e+10 -1.010207214594978e+00 -3.651053556458118e-02
8.797600000000000e+10 -1.010212923954395e+00 -3.652529153560966e-02
8.802400000000000e+10 -1.010218567310062e+00 -3.653979489383875e-02
8.807200000000000e+10 -1.010224141211928e+00 -3.655404156078927e-02
8.812000000000000e+10 -1.010229641648551e+00 -3.656802812938248e-02
8.816800000000000e+10 -1.010235064018137e+00 -3.658175208550907e-02
8.821600000000000e+10 -1.010240403208115e+00 -3.659521178445214e-02
8.826400000000000e+10 -1.010245653600339e+00 -3.660840707086518e-02
8.831200000000000e+10 -1.010250809147935e+00 -3.662133911412392e-02
8.836000000000000e+10 -1.010255863570617e+00 -3.663401031070700e-02
8.840800000000000e+10 -1.010260810321895e+00 -3.664642409434025e-02
8.845600000000000e+10 -1.010265642613558e+00 -3.665858507875367e-02
8.850400000000000e+10 -1.010270353501560e+00 -3.667049891459337e-02
8.855200000000000e+10 -1.010274936002370e+00 -3.668217229553414e-02
8.860000000000000e+10 -1.010279382930605e+00 -3.669361325616783e-02
8.864800000000000e+10 -1.010283687210097e+00 -3.670483065880675e-02
8.869600000000000e+10 -1.010287841939888e+00 -3.671583354431125e-02
8.874400000000000e+10 -1.010291840320237e+00 -3.672663342236827e-02
8.879200000000000e+10 -1.010295676066828e+00 -3.673724132710384e-02
8.884000000000000e+10 -1.010299343234472e+00 -3.674766951947913e-02
8.888800000000000e+10 -1.010302836116913e+00 -3.675793125542507e-02
8.893600000000000e+10 -1.010306149325872e+00 -3.676804073514686e-02
8.898400000000000e+10 -1.010309277413148e+00 -3.677801390765242e-02
8.903200000000000e+10 -1.010312215340607e+00 -3.678786759559059e-02
8.908000000000000e+10 -1.010314958432523e+00 -3.679761956858475e-02
8.912800000000000e+10 -1.010317502552214e+00 -3.680728844997871e-02
8.917600000000000e+10 -1.010319844154322e+00 -3.681689355920607e-02
8.922400000000000e+10 -1.010321980393502e+00 -3.682645479620464e-02
8.927200000000000e+10 -1.010323909206025e+00 -3.683599264272944e-02
8.932000000000000e+10 -1.010325629344812e+00 -3.684552791039473e-02
8.936800000000000e+10 -1.010327140296368e+00 -3.685508179799736e-02
8.941600000000000e+10 -1.010328442237116e+00 -3.686467555699046e-02
8.946400000000000e+10 -1.010329535983546e+00 -3.687433079063705e-02
8.951200000000000e+10 -1.010330423010720e+00 -3.688406931609666e-02
8.956000000000000e+10 -1.010331105627044e+00 -3.689391339731941e-02
8.960800000000000e+10 -1.010331586856241e+00 -3.690388543359482e-02
8.965600000000000e+10 -1.010331870554598e+00 -3.691400825200791e-02
8.970400000000000e+10 -1.010331961336118e+00 -3.692430456835369e-02
8.975200000000000e+10 -1.010331864753945e+00 -3.693479721466270e-02
8.980000000000000e+10 -1.010331587372172e+00 -3.694550876898670e-02
8.984800000000000e+10 -1.010331136700718e+00 -3.695646160512568e-02
8.989600000000000e+10 -1.010330521239858e+00 -3.696767744481922e-02
8.994400000000000e+10 -1.010329750539903e+00 -3.697917736449152e-02
8.999200000000000e+10 -1.010328834891045e+00 -3.699098159549889e-02
9.004000000000000e+10 -1.010327785257834e+00 -3.700310975550349e-02
9.008800000000000e+10 -1.010326612866020e+00 -3.701558069018867e-02
9.013600000000000e+10 -1.010325329289855e+00 -3.702841262114031e-02
9.018400000000000e+10 -1.010323946232166e+00 -3.704162293782812e-02
9.023200000000000e+10 -1.010322475794603e+00 -3.705522812322919e-02
9.028000000000000e+10 -1.010320930024947e+00 -3.706924357183774e-02
9.032800000000000e+10 -1.010319320869823e+00 -3.708368331978114e-02
9.037600000000000e+10 -1.010317660193227e+00 -3.709856036666198e-02
9.042400000000000e+10 -1.010315960030475e+00 -3.711388669960112e-02
9.047200000000000e+10 -1.010314232553518e+00 -3.712967343549661e-02
9.052000000000000e+10 -1.010312490342074e+00 -3.714593095503912e-02
9.056800000000000e+10 -1.010310746368559e+00 -3.716266889825078e-02
9.061600000000000e+10 -1.010309014252127e+00 -3.717989606870082e-02
9.066400000000000e+10 -1.010307307957555e+00 -3.719762015877738e-02
9.071200000000000e+10 -1.010305641582466e+00 -3.721584768883531e-02
9.076000000000000e+10 -1.010304029070992e+00 -3.723458441632053e-02
9.080800000000000e+10 -1.010302484201809e+00 -3.725383510779492e-02
9.085600000000000e+10 -1.010301020440290e+00 -3.727360380508105e-02
9.090400000000000e+10 -1.010299650822343e+00 -3.729389375192398e-02
9.095200000000000e+10 -1.010298387792656e+00 -3.731470749399959e-02
9.100000000000000e+10 -1.010297243349096e+00 -3.733604703833258e-02
9.104800000000000e+10 -1.010296229067820e+00 -3.735791393054613e-02
9.109600000000000e+10 -1.010295356561754e+00 -3.738030936000569e-02
9.114400000000000e+10 -1.010294637358110e+00 -3.740323386026778e-02
9.119200000000000e+10 -1.010294083345247e+00 -3.742668732440315e-02
9.124000000000000e+10 -1.010293706623136e+00 -3.745066900798552e-02
9.128800000000000e+10 -1.010293519490381e+00 -3.747517730933798e-02
9.133600000000000e+10 -1.010293534355561e+00 -3.750020996638984e-02
9.138400000000000e+10 -1.010293763404445e+00 -3.752576396265806e-02
9.143200000000000e+10 -1.010294218708147e+00 -3.755183588139484e-02
9.148000000000000e+10 -1.010294911808412e+00 -3.757842177305589e-02
9.152800000000000e+10 -1.010295853757202e+00 -3.760551721978666e-02
9.157600000000000e+10 -1.010297054953921e+00 -3.763311733632038e-02
9.162400000000000e+10 -1.010298525277905e+00 -3.766121663204772e-02
9.167200000000000e+10 -1.010300274103888e+00 -3.768980909004394e-02
9.172000000000000e+10 -1.010302310347585e+00 -3.771888807960012e-02
9.176800000000000e+10 -1.010304642602281e+00 -3.774844648084995e-02
9.181600000000000e+10 -1.010307279267747e+00 -3.777847659148167e-02
9.186400000000000e+10 -1.010310228707759e+00 -3.780897033806613e-02
9.191200000000000e+10 -1.010313499302401e+00 -3.783991929060244e-02
9.196000000000000e+10 -1.010317099538273e+00 -3.787131469114904e-02
9.200800000000000e+10 -1.010321037966965e+00 -3.790314738519710e-02
9.205600000000000e+10 -1.010325323206349e+00 -3.793540774282157e-02
9.210400000000000e+10 -1.010329963636259e+00 -3.796808542176432e-02
9.215200000000000e+10 -1.010334967355403e+00 -3.800116967639123e-02
9.220000000000000e+10 -1.010340341925932e+00 -3.803464921536333e-02
9.224800000000000e+10 -1.010346094490470e+00 -3.806851229541432e-02
9.229600000000000e+10 -1.010352231464814e+00 -3.810274677568411e-02
9.234400000000000e+10 -1.010358758802285e+00 -3.813734044835754e-02
9.239200000000000e+10 -1.010365681868065e+00 -3.817228069760614e-02
9.244000000000000e+10 -1.010373005696052e+00 -3.820755460849472e-02
9.248800000000000e+10 -1.010380734846563e+00 -3.824314886415159e-02
9.253600000000000e+10 -1.010388873550123e+00 -3.827904973364400e-02
9.258400000000000e+10 -1.010397425731181e+00 -3.831524317121678e-02
9.263200000000000e+10 -1.010406395122559e+00 -3.835171454975158e-02
9.268000000000000e+10 -1.010415785235471e+00 -3.838844882366223e-02
9.272800000000000e+10 -1.010425599142678e+00 -3.842543053785392e-02
9.277600000000000e+10 -1.010435839439053e+00 -3.846264393566491e-02
9.282400000000000e+10 -1.010446508131043e+00 -3.850007302937247e-02
9.287200000000000e+10 -1.010457606503455e+00 -3.853770161693196e-02
9.292000000000000e+10 -1.010469135121101e+00 -3.857551331243627e-02
9.296800000000000e+10 -1.010481093809100e+00 -3.861349157943075e-02
9.301600000000000e+10 -1.010493481732006e+00 -3.865161988373438e-02
9.306400000000000e+10 -1.010506297385849e+00 -3.868988129843164e-02
9.311200000000000e+10 -1.010519538736133e+00 -3.872825888215961e-02
9.316000000000000e+10 -1.010533203227006e+00 -3.876673528520134e-02
9.320800000000000e+10 -1.010547287828165e+00 -3.880529317338971e-02
9.325600000000000e+10 -1.010561789057619e+00 -3.884391509681090e-02
9.330400000000000e+10 -1.010576702962260e+00 -3.888258361324247e-02
9.335200000000000e+10 -1.010592025259361e+00 -3.892128134241661e-02
9.340000000000000e+10 -1.010607751279375e+00 -3.895999096133568e-02
9.344800000000000e+10 -1.010623875975701e+00 -3.899869538701115e-02
9.349600000000000e+10 -1.010640393757937e+00 -3.903737763936969e-02
9.354400000000000e+10 -1.010657298467212e+00 -3.907602098906639e-02
9.359200000000000e+10 -1.010674583327377e+00 -3.911460895829055e-02
9.364000000000000e+10 -1.010692240975225e+00 -3.915312523286262e-02
9.368800000000000e+10 -1.010710263224972e+00 -3.919155381466449e-02
9.373600000000000e+10 -1.010728641079367e+00 -3.922987903961308e-02
9.378400000000000e+10 -1.010747364973797e+00 -3.926808576555119e-02
9.383200000000000e+10 -1.010766424985285e+00 -3.930615938583232e-02
9.388000000000000e+10 -1.010785810941087e+00 -3.934408569856543e-02
9.392800000000000e+10 -1.010805512505522e+00 -3.938185094459727e-02
9.397600000000000e+10 -1.010825519299674e+00 -3.941944172709461e-02
9.402400000000000e+10 -1.010845820909917e+00 -3.945684494391435e-02
9.407200000000000e+10 -1.010866406851307e+00 -3.949404805052965e-02
9.412000000000000e+10 -1.010887266415217e+00 -3.953103896976843e-02
9.416800000000000e+10 -1.010908388691518e+00 -3.956780629346435e-02
9.421600000000000e+10 -1.010929762459491e+00 -3.960433930232569e-02
9.426400000000000e+10 -1.010951376212475e+00 -3.964062821710146e-02
9.431200000000000e+10 -1.010973218156310e+00 -3.967666398917472e-02
9.436000000000000e+10 -1.010995276331828e+00 -3.971243863760362e-02
9.440800000000000e+10 -1.011017538822393e+00 -3.974794490694716e-02
9.445600000000000e+10 -1.011039993729196e+00 -3.978317639048572e-02
9.450400000000000e+10 -1.011062629299428e+00 -3.981812738427251e-02
9.455200000000000e+10 -1.011085434025490e+00 -3.985279306588466e-02
9.460000000000000e+10 -1.011108396615189e+00 -3.988716937079920e-02
9.464800000000000e+10 -1.011131506104450e+00 -3.992125316394688e-02
9.469600000000000e+10 -1.011154751801888e+00 -3.995504212153220e-02
9.474400000000000e+10 -1.011178123386828e+00 -3.998853492063428e-02
9.479200000000000e+10 -1.011201610861421e+00 -4.002173116729472e-02
9.484000000000000e+10 -1.011225204590149e+00 -4.005463148769590e-02
9.488800000000000e+10 -1.011248895226707e+00 -4.008723763399091e-02
9.493600000000000e+10 -1.011272673526367e+00 -4.011955200937416e-02
9.498400000000000e+10 -1.011296530267110e+00 -4.015157779053717e-02
9.503200000000000e+10 -1.011320455910681e+00 -4.018331932684162e-02
9.508000000000000e+10 -1.011344441363253e+00 -4.021478142689227e-02
9.512800000000000e+10 -1.011368477538531e+00 -4.024596910341096e-02
9.517600000000000e+10 -1.011392555492196e+00 -4.027688828610605e-02
9.522400000000000e+10 -1.011416666719104e+00 -4.030754571321507e-02
9.527200000000000e+10 -1.011440803306634e+00 -4.033794883534091e-02
9.532000000000000e+10 -1.011464958085412e+00 -4.036810573998761e-02
9.536800000000000e+10 -1.011489124686465e+00 -4.039802501076457e-02
9.541600000000000e+10 -1.011513297578042e+00 -4.042771566687069e-02
9.546400000000000e+10 -1.011537471913432e+00 -4.045718713082633e-02
9.551200000000000e+10 -1.011561643503088e+00 -4.048644930521735e-02
9.556000000000000e+10 -1.011585808582486e+00 -4.051551251101759e-02
9.560800000000000e+10 -1.011609963823531e+00 -4.054438747526724e-02
9.565600000000000e+10 -1.011634106272577e+00 -4.057308547896337e-02
9.570400000000000e+10 -1.011658233329612e+00 -4.060161816062206e-02
9.575200000000000e+10 -1.011682342783319e+00 -4.062999759238874e-02
9.580000000000000e+10 -1.011706432893658e+00 -4.065823599060181e-02
9.584800000000000e+10 -1.011730502503052e+00 -4.068634570529550e-02
9.589600000000000e+10 -1.011754551072024e+00 -4.071433899464350e-02
9.594400000000000e+10 -1.011778578718803e+00 -4.074222802130712e-02
9.599200000000000e+10 -1.011802586346711e+00 -4.077002473701638e-02
9.604000000000000e+10 -1.011826575674539e+00 -4.079774094700041e-02
9.608800000000000e+10 -1.011850549304999e+00 -4.082538821119813e-02
9.613600000000000e+10 -1.011874510704784e+00 -4.085297764396149e-02
9.618400000000000e+10 -1.011898464133610e+00 -4.088052001258786e-02
9.623200000000000e+10 -1.011922414547445e+00 -4.090802555515580e-02
9.628000000000000e+10 -1.011946367532694e+00 -4.093550415075468e-02
9.632800000000000e+10 -1.011970329184725e+00 -4.096296522788392e-02
9.637600000000000e+10 -1.011994306008395e+00 -4.099041794817872e-02
9.642400000000000e+10 -1.012018304900613e+00 -4.101787122178636e-02
9.647200000000000e+10 -1.012042333068139e+00 -4.104533374473782e-02
9.652000000000000e+10 -1.012066397955283e+00 -4.107281389279011e-02
9.656800000000000e+10 -1.012090507306129e+00 -4.110031969205639e-02
9.661600000000000e+10 -1.012114669096580e+00 -4.112785865101106e-02
9.666400000000000e+10 -1.012138891936766e+00 -4.115543831660946e-02
9.671200000000000e+10 -1.012163184908215e+00 -4.118306543169493e-02
9.676000000000000e+10 -1.012187557497992e+00 -4.121074611461850e-02
9.680800000000000e+10 -1.012212019574118e+00 -4.123848570050020e-02
9.685600000000000e+10 -1.012236581283782e+00 -4.126628865461643e-02
9.690400000000000e+10 -1.012261253024247e+00 -4.129415874625266e-02
9.695200000000000e+10 -1.012286045310784e+00 -4.132209881464306e-02
9.700000000000000e+10 -1.012310968776033e+00 -4.135011120018296e-02
9.704800000000000e+10 -1.012336034025314e+00 -4.137819757166702e-02
9.709600000000000e+10 -1.012361251641072e+00 -4.140635892413107e-02
9.714400000000000e+10 -1.012386632051048e+00 -4.143459570248809e-02
9.719200000000000e+10 -1.012412185510317e+00 -4.146290784002499e-02
9.724000000000000e+10 -1.012437922087355e+00 -4.149129484396220e-02
9.728800000000000e+10 -1.012463851553656e+00 -4.151975567512847e-02
9.733600000000000e+10 -1.012489983276019e+00 -4.154828879018260e-02
9.738400000000000e+10 -1.012516326260557e+00 -4.157689229134037e-02
9.743200000000000e+10 -1.012542889098448e+00 -4.160556367687263e-02
9.748000000000000e+10 -1.012569680089236e+00 -4.163430008825750e-02
9.752800000000000e+10 -1.012596707000408e+00 -4.166309805265987e-02
9.757600000000000e+10 -1.012623977237565e+00 -4.169195382521274e-02
9.762400000000000e+10 -1.012651497677662e+00 -4.172086290976430e-02
9.767200000000000e+10 -1.012679274779318e+00 -4.174982046909941e-02
9.772000000000000e+10 -1.012707314483088e+00 -4.177882118155948e-02
9.776800000000000e+10 -1.012735622350011e+00 -4.180785951149164e-02
9.781600000000000e+10 -1.012764203415152e+00 -4.183692945260899e-02
9.786400000000000e+10 -1.012793062221476e+00 -4.186602488669366e-02
9.791200000000000e+10 -1.012822202454740e+00 -4.189513936936434e-02
9.796000000000000e+10 -1.012851627163661e+00 -4.192426665386925e-02
9.800800000000000e+10 -1.012881338988827e+00 -4.195340049319424e-02
9.805600000000000e+10 -1.012911340098785e+00 -4.198253451478522e-02
9.810400000000000e+10 -1.012941632265364e+00 -4.201166235771264e-02
9.815200000000000e+10 -1.012972216767177e+00 -4.204077746496692e-02
9.820000000000000e+10 -1.013003094294290e+00 -4.206987316458040e-02
9.824800000000000e+10 -1.013034265084718e+00 -4.209894248486121e-02
9.829600000000000e+10 -1.013065728803353e+00 -4.212797821977184e-02
9.834400000000000e+10 -1.013097484480714e+00 -4.215697289308935e-02
9.839200000000000e+10 -1.013129530473896e+00 -4.218591907510168e-02
9.844000000000000e+10 -1.013161864494929e+00 -4.221480917426076e-02
9.848800000000000e+10 -1.013194483489540e+00 -4.224363557858721e-02
9.853600000000000e+10 -1.013227383783928e+00 -4.227239066854994e-02
9.858400000000000e+10 -1.013260561035180e+00 -4.230106684897610e-02
9.863200000000000e+10 -1.013294010337860e+00 -4.232965650806372e-02
9.868000000000000e+10 -1.013327726200996e+00 -4.235815213660397e-02
9.872800000000000e+10 -1.013361702630589e+00 -4.238654613218206e-02
9.877600000000000e+10 -1.013395933162051e+00 -4.241483104597842e-02
9.882400000000000e+10 -1.013430410956718e+00 -4.244299975016282e-02
9.887200000000000e+10 -1.013465128845855e+00 -4.247104564265318e-02
9.892000000000000e+10 -1.013500079463486e+00 -4.249896236110819e-02
9.896800000000000e+10 -1.013535255296298e+00 -4.252674379644211e-02
9.901600000000000e+10 -1.013570648483113e+00 -4.255438397257436e-02
9.906400000000000e+10 -1.013606250843504e+00 -4.258187709504383e-02
9.911200000000000e+10 -1.013642053871419e+00 -4.260921742316447e-02
9.916000000000000e+10 -1.013678048852544e+00 -4.263639930857390e-02
9.920800000000000e+10 -1.013714226839400e+00 -4.266341713670432e-02
9.925600000000000e+10 -1.013750578666551e+00 -4.269026543413777e-02
9.930400000000000e+10 -1.013787095143487e+00 -4.271693879449598e-02
9.935200000000000e+10 -1.013823766971940e+00 -4.274343208185299e-02
9.940000000000000e+10 -1.013860584913377e+00 -4.276974035602205e-02
9.944800000000000e+10 -1.013897539934296e+00 -4.279585891220655e-02
9.949600000000000e+10 -1.013934623100847e+00 -4.282178312043945e-02
9.954400000000000e+10 -1.013971825861633e+00 -4.284750855106172e-02
9.959200000000000e+10 -1.014009139853577e+00 -4.287303073246557e-02
9.964000000000000e+10 -1.014046556952673e+00 -4.289834524651370e-02
9.968800000000000e+10 -1.014084069211919e+00 -4.292344772344529e-02
9.973600000000000e+10 -1.014121668934858e+00 -4.294833365271792e-02
9.978400000000000e+10 -1.014159348649541e+00 -4.297299841156311e-02
9.983200000000000e+10 -1.014197100940793e+00 -4.299743722939686e-02
9.988000000000000e+10 -1.014234918291908e+00 -4.302164550975528e-02
9.992800000000000e+10 -1.014272793017267e+00 -4.304561859610610e-02
9.997600000000000e+10 -1.014310717207583e+00 -4.306935203055127e-02
1.000240000000000e+11 -1.014348682795922e+00 -4.309284139363578e-02
1.000720000000000e+11 -1.014386681682155e+00 -4.311608221809659e-02
1.001200000000000e+11 -1.014424705371606e+00 -4.313907007919554e-02
1.001680000000000e+11 -1.014462745433604e+00 -4.316180054057561e-02
1.002160000000000e+11 -1.014500793110258e+00 -4.318426902223676e-02
1.002640000000000e+11 -1.014538839543086e+00 -4.320647122948488e-02
1.003120000000000e+11 -1.014576875714043e+00 -4.322840281933397e-02
1.003600000000000e+11 -1.014614892578887e+00 -4.325005994229963e-02
1.004080000000000e+11 -1.014652881142972e+00 -4.327143885691718e-02
1.004560000000000e+11 -1.014690832541696e+00 -4.329253620439561e-02
1.005040000000000e+11 -1.014728738132901e+00 -4.331334864308579e-02
1.005520000000000e+11 -1.014766589750361e+00 -4.333387287360625e-02
1.006000000000000e+11 -1.014804378895725e+00 -4.335410570351506e-02
1.006480000000000e+11 -1.014842097207692e+00 -4.337404398312528e-02
1.006960000000000e+11 -1.014879736115927e+00 -4.339368454599647e-02
1.007440000000000e+11 -1.014917286760819e+00 -4.341302461429594e-02
1.007920000000000e+11 -1.014954740236453e+00 -4.343206124658235e-02
1.008400000000000e+11 -1.014992087985820e+00 -4.345079165246640e-02
1.008880000000000e+11 -1.015029321116015e+00 -4.346921304292799e-02
1.009360000000000e+11 -1.015066430648360e+00 -4.348732287550423e-02
1.009840000000000e+11 -1.015103407561791e+00 -4.350511853885673e-02
1.010320000000000e+11 -1.015140242950622e+00 -4.352259736512624e-02
1.010800000000000e+11 -1.015176928025718e+00 -4.353975632979232e-02
1.011280000000000e+11 -1.015213454049844e+00 -4.355659225249710e-02
1.011760000000000e+11 -1.015249812317291e+00 -4.357310175185835e-02
1.012240000000000e+11 -1.015285994163722e+00 -4.358928115951052e-02
1.012720000000000e+11 -1.015321990880224e+00 -4.360512690635666e-02
1.013200000000000e+11 -1.015357793811563e+00 -4.362063516211036e-02
1.013680000000000e+11 -1.015393394411198e+00 -4.363580212753047e-02
1.014160000000000e+11 -1.015428784204667e+00 -4.365062417123398e-02
1.014640000000000e+11 -1.015463954857442e+00 -4.366509767496637e-02
1.015120000000000e+11 -1.015498897976165e+00 -4.367921920264752e-02
1.015600000000000e+11 -1.015533605394980e+00 -4.369298511913741e-02
1.016080000000000e+11 -1.015568069217684e+00 -4.370639145946061e-02
1.016560000000000e+11 -1.015602281537386e+00 -4.371943363802860e-02
1.017040000000000e+11 -1.015636234255695e+00 -4.373210694772705e-02
1.017520000000000e+11 -1.015669919120783e+00 -4.374440636985746e-02
1.018000000000000e+11 -1.015703327648469e+00 -4.375632682556648e-02
1.018480000000000e+11 -1.015736451894456e+00 -4.376786342001204e-02
1.018960000000000e+11 -1.015769284653021e+00 -4.377901084212907e-02
1.019440000000000e+11 -1.015801819011212e+00 -4.378976324901492e-02
1.019920000000000e+11 -1.015834047794664e+00 -4.380011420404468e-02
1.020400000000000e+11 -1.015865964041928e+00 -4.381005793505990e-02
1.020880000000000e+11 -1.015897561431282e+00 -4.381958839724781e-02
1.021360000000000e+11 -1.015928833634065e+00 -4.382869878829829e-02
1.021840000000000e+11 -1.015959774203110e+00 -4.383738185359033e-02
1.022320000000000e+11 -1.015990376440882e+00 -4.384563062472167e-02
1.022800000000000e+11 -1.016020633951626e+00 -4.385343843369396e-02
1.023280000000000e+11 -1.016050540865547e+00 -4.386079896626660e-02
1.023760000000000e+11 -1.016080091955204e+00 -4.386770598878856e-02
1.024240000000000e+11 -1.016109282780398e+00 -4.387415376420342e-02
1.024720000000000e+11 -1.016138109652070e+00 -4.388013581745948e-02
1.025200000000000e+11 -1.016166569074266e+00 -4.388564537726126e-02
1.025680000000000e+11 -1.016194657654219e+00 -4.389067497688155e-02
1.026160000000000e+11 -1.016222372439449e+00 -4.389521713783528e-02
1.026640000000000e+11 -1.016249710565592e+00 -4.389926390207014e-02
1.027120000000000e+11 -1.016276669725976e+00 -4.390280763362165e-02
1.027600000000000e+11 -1.016303247871146e+00 -4.390584005639610e-02
1.028080000000000e+11 -1.016329443908569e+00 -4.390835256031973e-02
1.028560000000000e+11 -1.016355257221081e+00 -4.391033622430147e-02
1.029040000000000e+11 -1.016380687902856e+00 -4.391178209699079e-02
1.029520000000000e+11 -1.016405736403596e+00 -4.391268148937227e-02
1.030000000000000e+11 -1.016430403884643e+00 -4.391302534545807e-02
1.030480000000000e+11 -1.016454692044469e+00 -4.391280404346245e-02
1.030960000000000e+11 -1.016478603315325e+00 -4.391200786180190e-02
1.031440000000000e+11 -1.016502140689471e+00 -4.391062612056659e-02
1.031920000000000e+11 -1.016525308094082e+00 -4.390864796072440e-02
1.032400000000000e+11 -1.016548110201966e+00 -4.390606159968629e-02
1.032880000000000e+11 -1.016570552650321e+00 -4.390285537122769e-02
1.033360000000000e+11 -1.016592641869400e+00 -4.389901688597745e-02
1.033840000000000e+11 -1.016614385246424e+00 -4.389453360828401e-02
1.034320000000000e+11 -1.016635790810410e+00 -4.388939213086623e-02
1.034800000000000e+11 -1.016656867303967e+00 -4.388357887417550e-02
1.035280000000000e+11 -1.016677624040698e+00 -4.387707955266341e-02
1.035760000000000e+11 -1.016698070824392e+00 -4.386987954954052e-02
1.036240000000000e+11 -1.016718217918411e+00 -4.386196339380151e-02
1.036720000000000e+11 -1.016738076022433e+00 -4.385331516388703e-02
1.037200000000000e+11 -1.016757656200422e+00 -4.384391841293230e-02
1.037680000000000e+11 -1.016776969896256e+00 -4.383375611714934e-02
1.038160000000000e+11 -1.016796028968256e+00 -4.382281098480032e-02
1.038640000000000e+11 -1.016814845707774e+00 -4.381106506177986e-02
1.039120000000000e+11 -1.016833432938582e+00 -4.379849980487639e-02
1.039600000000000e+11 -1.016851804009520e+00 -4.378509611271756e-02
1.040080000000000e+11 -1.016869972811824e+00 -4.377083428674028e-02
1.040560000000000e+11 -1.016887953782830e+00 -4.375569391385358e-02
1.041040000000000e+11 -1.016905761731857e+00 -4.373965393057711e-02
1.041520000000000e+11 -1.016923411775790e+00 -4.372269244098095e-02
1.042000000000000e+11 -1.016940919337873e+00 -4.370478680178402e-02
1.042480000000000e+11 -1.016958299705174e+00 -4.368591377691961e-02
1.042960000000000e+11 -1.016975568201482e+00 -4.366604987685394e-02
1.043440000000000e+11 -1.016992740163141e+00 -4.364517109870604e-02
1.043920000000000e+11 -1.017009830884636e+00 -4.362325307083343e-02
1.044400000000000e+11 -1.017026855479606e+00 -4.360027074761830e-02
1.044880000000000e+11 -1.017043828932570e+00 -4.357619884081958e-02
1.045360000000000e+11 -1.017060766112611e+00 -4.355101159391487e-02
1.045840000000000e+11 -1.017077681925920e+00 -4.352468305873016e-02
1.046320000000000e+11 -1.017094591366668e+00 -4.349718700584868e-02
1.046800000000000e+11 -1.017111509623063e+00 -4.346849655373512e-02
1.047280000000000e+11 -1.017128451812353e+00 -4.343858468577681e-02
1.047760000000000e+11 -1.017145433402665e+00 -4.340742384071922e-02
1.048240000000000e+11 -1.017162470037166e+00 -4.337498614177630e-02
1.048720000000000e+11 -1.017179577504732e+00 -4.334124314273372e-02
1.049200000000000e+11 -1.017196771861418e+00 -4.330616652525931e-02
1.049680000000000e+11 -1.017214069264628e+00 -4.326972770383271e-02
1.050160000000000e+11 -1.017231485208627e+00 -4.323189766684059e-02
1.050640000000000e+11 -1.017249035100358e+00 -4.319264699438712e-02
1.051120000000000e+11 -1.017266733959417e+00 -4.315194608476377e-02
1.051600000000000e+11 -1.017284596606455e+00 -4.310976525783893e-02
1.052080000000000e+11 -1.017302637375841e+00 -4.306607473837501e-02
1.052560000000000e+11 -1.017320870294912e+00 -4.302084466488858e-02
1.053040000000000e+11 -1.017339309059405e+00 -4.297404536056211e-02
1.053520000000000e+11 -1.017357967244817e+00 -4.292564721581076e-02
1.054000000000000e+11 -1.017376858325168e+00 -4.287562063774564e-02
1.054480000000000e+11 -1.017395995774434e+00 -4.282393582245433e-02
1.054960000000000e+11 -1.017415393060131e+00 -4.277056312267263e-02
1.055440000000000e+11 -1.017435063531123e+00 -4.271547253176011e-02
1.055920000000000e+11 -1.017455020471339e+00 -4.265863434281469e-02
1.056400000000000e+11 -1.017475277086850e+00 -4.260001878338548e-02
1.056880000000000e+11 -1.017495846235589e+00 -4.253959645900843e-02
1.057360000000000e+11 -1.017516740768945e+00 -4.247733782247794e-02
1.057840000000000e+11 -1.017537973485224e+00 -4.241321390622654e-02
1.058320000000000e+11 -1.017559556927512e+00 -4.234719590574940e-02
1.058800000000000e+11 -1.017581503736825e+00 -4.227925561239351e-02
1.059280000000000e+11 -1.017603826388942e+00 -4.220936476677067e-02
1.059760000000000e+11 -1.017626537076962e+00 -4.213749554961290e-02
1.060240000000000e+11 -1.017649647629891e+00 -4.206362006696634e-02
1.060720000000000e+11 -1.017673169573461e+00 -4.198771068748171e-02
1.061200000000000e+11 -1.017697113980218e+00 -4.190973984375330e-02
1.061680000000000e+11 -1.017721491816850e+00 -4.182968035343933e-02
1.062160000000000e+11 -1.017746313799355e+00 -4.174750543770791e-02
1.062640000000000e+11 -1.017771590574837e+00 -4.166318877034070e-02
1.063120000000000e+11 -1.017797332710564e+00 -4.157670475822662e-02
1.063600000000000e+11 -1.017823550651103e+00 -4.148802796474367e-02
1.064080000000000e+11 -1.017850254724227e+00 -4.139713329646651e-02
1.064560000000000e+11 -1.017877454847290e+00 -4.130399577117027e-02
1.065040000000000e+11 -1.017905160436260e+00 -4.120859073783790e-02
1.065520000000000e+11 -1.017933381059984e+00 -4.111089411429476e-02
1.066000000000000e+11 -1.017962125791775e+00 -4.101088166288071e-02
1.066480000000000e+11 -1.017991403383100e+00 -4.090852922570194e-02
1.066960000000000e+11 -1.018021222559464e+00 -4.080381338963571e-02
1.067440000000000e+11 -1.018051591635232e+00 -4.069671095146379e-02
1.067920000000000e+11 -1.018082518248623e+00 -4.058719946012490e-02
1.068400000000000e+11 -1.018114009794563e+00 -4.047525682644816e-02
1.068880000000000e+11 -1.018146073313490e+00 -4.036086169017258e-02
1.069360000000000e+11 -1.018178715511786e+00 -4.024399333453232e-02
1.069840000000000e+11 -1.018211942737859e+00 -4.012463183569698e-02
1.070320000000000e+11 -1.018245760587850e+00 -4.000275788440830e-02
1.070800000000000e+11 -1.018280174070242e+00 -3.987835283149024e-02
1.071280000000000e+11 -1.018315187373441e+00 -3.975139875401082e-02
1.071760000000000e+11 -1.018350803815590e+00 -3.962187866402665e-02
1.072240000000000e+11 -1.018387025878904e+00 -3.948977667974408e-02
1.072720000000000e+11 -1.018423855310301e+00 -3.935507777856222e-02
1.073200000000000e+11 -1.018461293231777e+00 -3.921776793374128e-02
1.073680000000000e+11 -1.018499340289640e+00 -3.907783397324900e-02
1.074160000000000e+11 -1.018537996627999e+00 -3.893526331761841e-02
1.074640000000000e+11 -1.018577262033560e+00 -3.879004406550972e-02
1.075120000000000e+11 -1.018617135662228e+00 -3.864216506260398e-02
1.075600000000000e+11 -1.018657616349110e+00 -3.849161603911654e-02
1.076080000000000e+11 -1.018698702662174e+00 -3.833838775232052e-02
1.076560000000000e+11 -1.018740392683802e+00 -3.818247206217728e-02
1.077040000000000e+11 -1.018782684068234e+00 -3.802386230795178e-02
1.077520000000000e+11 -1.018825574136034e+00 -3.786255334650554e-02
1.078000000000000e+11 -1.018869059763865e+00 -3.769854189714329e-02
1.078480000000000e+11 -1.018913137351158e+00 -3.753182601373253e-02
1.078960000000000e+11 -1.018957802656973e+00 -3.736240503421243e-02
1.079440000000000e+11 -1.019003050702356e+00 -3.719027949592187e-02
1.079920000000000e+11 -1.019048875680815e+00 -3.701545110231607e-02
1.080400000000000e+11 -1.019095270803527e+00 -3.683792280045067e-02
1.080880000000000e+11 -1.019142228624373e+00 -3.665769892595703e-02
1.081360000000000e+11 -1.019189741036002e+00 -3.647478535747634e-02
1.081840000000000e+11 -1.019237799462671e+00 -3.628918962096396e-02
1.082320000000000e+11 -1.019286394935851e+00 -3.610092091552090e-02
1.082800000000000e+11 -1.019335518377998e+00 -3.590999029445004e-02
1.083280000000000e+11 -1.019385160517727e+00 -3.571641072212869e-02
1.083760000000000e+11 -1.019435312065616e+00 -3.552019708702070e-02
1.084240000000000e+11 -1.019485963535376e+00 -3.532136642309392e-02
1.084720000000000e+11 -1.019537105315257e+00 -3.511993777873676e-02
1.085200000000000e+11 -1.019588727434556e+00 -3.491593213058099e-02
1.085680000000000e+11 -1.019640819316777e+00 -3.470937190550769e-02
1.086160000000000e+11 -1.019693369604068e+00 -3.450028154115040e-02
1.086640000000000e+11 -1.019746366318367e+00 -3.428868735130643e-02
1.087120000000000e+11 -1.019799796834896e+00 -3.407461771192998e-02
1.087600000000000e+11 -1.019853648177430e+00 -3.385810335337106e-02
1.088080000000000e+11 -1.019907907170178e+00 -3.363917701658483e-02
1.088560000000000e+11 -1.019962560594302e+00 -3.341787325419480e-02
1.089040000000000e+11 -1.020017595144541e+00 -3.319422833871275e-02
1.089520000000000e+11 -1.020072997712412e+00 -3.296828040964440e-02
1.090000000000000e+11 -1.020128755137946e+00 -3.274006934363914e-02
1.090480000000000e+11 -1.020184854277072e+00 -3.250963657102011e-02
1.090960000000000e+11 -1.020241281598117e+00 -3.227702538599343e-02
1.091440000000000e+11 -1.020298023537014e+00 -3.204228056714755e-02
1.091920000000000e+11 -1.020355066314687e+00 -3.180544814613805e-02
1.092400000000000e+11 -1.020412396109533e+00 -3.156657509600481e-02
1.092880000000000e+11 -1.020469999008933e+00 -3.132571073313149e-02
1.093360000000000e+11 -1.020527861075615e+00 -3.108290676274563e-02
1.093840000000000e+11 -1.020585968174347e+00 -3.083821713460582e-02
1.094320000000000e+11 -1.020644305776482e+00 -3.059169787747107e-02
1.094800000000000e+11 -1.020702859053206e+00 -3.034340714555065e-02
1.095280000000000e+11 -1.020761612871645e+00 -3.009340531083815e-02
1.095760000000000e+11 -1.020820551937479e+00 -2.984175653963024e-02
1.096240000000000e+11 -1.020879660757724e+00 -2.958852695318375e-02
1.096720000000000e+11 -1.020938923762700e+00 -2.933378490970131e-02
1.097200000000000e+11 -1.020998325645148e+00 -2.907760053018926e-02
1.097680000000000e+11 -1.021057851353610e+00 -2.882004589035943e-02
1.098160000000000e+11 -1.021117485931081e+00 -2.856119474470371e-02
1.098640000000000e+11 -1.021177214560068e+00 -2.830112285087824e-02
1.099120000000000e+11 -1.021237022544386e+00 -2.803990798496852e-02
1.099600000000000e+11 -1.021296895016673e+00 -2.777762986603871e-02
1.100080000000000e+11 -1.021416773444356e+00 -2.725021302593934e-02
1.100560000000000e+11 -1.021536728491721e+00 -2.671953702747397e-02
1.101040000000000e+11 -1.021656641768597e+00 -2.618626478533925e-02
1.101520000000000e+11 -1.021776396505122e+00 -2.565104518406366e-02
1.102000000000000e+11 -1.021895875382727e+00 -2.511451166925486e-02
1.102480000000000e+11 -1.022074317694441e+00 -2.430856869869876e-02
1.102960000000000e+11 -1.022192589906777e+00 -2.377131789427784e-02
1.103440000000000e+11 -1.022310176270655e+00 -2.323468875532586e-02
1.103920000000000e+11 -1.022426965828403e+00 -2.269915223994143e-02
1.104400000000000e+11 -1.022542851189177e+00 -2.216514859313294e-02
1.104880000000000e+11 -1.022657729485405e+00 -2.163308912730776e-02
1.105360000000000e+11 -1.022827944382817e+00 -2.083947416012621e-02
1.105840000000000e+11 -1.022939883932323e+00 -2.031386223827268e-02
1.106320000000000e+11 -1.023050492036935e+00 -1.979135332477536e-02
1.106800000000000e+11 -1.023159688346648e+00 -1.927220303293047e-02
1.107280000000000e+11 -1.023267397033283e+00 -1.875664542563656e-02
1.107760000000000e+11 -1.023426011312716e+00 -1.799051120784284e-02
1.108240000000000e+11 -1.023529688616743e+00 -1.748480877867090e-02
1.108720000000000e+11 -1.023631636881219e+00 -1.698330483576746e-02
1.109200000000000e+11 -1.023731791647701e+00 -1.648611485144090e-02
1.109680000000000e+11 -1.023830089124453e+00 -1.599333852590439e-02
1.110160000000000e+11 -1.023926465911332e+00 -1.550506090870381e-02
1.110640000000000e+11 -1.024067293419798e+00 -1.478123640157674e-02
1.111120000000000e+11 -1.024158600569948e+00 -1.430447059307763e-02
1.111600000000000e+11 -1.024247780253374e+00 -1.383233904970574e-02
1.112080000000000e+11 -1.024334780106141e+00 -1.336483648154270e-02
1.112560000000000e+11 -1.024419551540067e+00 -1.290194937711540e-02
1.113040000000000e+11 -1.024502051423506e+00 -1.244365566178446e-02
1.113520000000000e+11 -1.024621461778333e+00 -1.176475558546790e-02
1.114000000000000e+11 -1.024698131318578e+00 -1.131775408155956e-02
1.114480000000000e+11 -1.024772421944585e+00 -1.087511497764436e-02
1.114960000000000e+11 -1.024844312580488e+00 -1.043672496496618e-02
1.115440000000000e+11 -1.024913784551886e+00 -1.000246206663259e-02
1.115920000000000e+11 -1.025013423256227e+00 -9.358521800437678e-03
1.116400000000000e+11 -1.025076786787917e+00 -8.933968995378639e-03
1.116880000000000e+11 -1.025137694238899e+00 -8.512997857277087e-03
1.117360000000000e+11 -1.025196145824046e+00 -8.095429849274326e-03
1.117840000000000e+11 -1.025252147746855e+00 -7.681090660418342e-03
1.118320000000000e+11 -1.025305713702760e+00 -7.269810216375881e-03
1.118800000000000e+11 -1.025381544301613e+00 -6.658265548797246e-03
1.119280000000000e+11 -1.025429131200070e+00 -6.253897169597756e-03
1.119760000000000e+11 -1.025474390769824e+00 -5.851974391320466e-03
1.120240000000000e+11 -1.025517370962081e+00 -5.452324838985292e-03
1.120720000000000e+11 -1.025558124403809e+00 -5.054785377352843e-03
1.121200000000000e+11 -1.025596703884768e+00 -4.659203155723856e-03
1.121680000000000e+11 -1.025650608938143e+00 -4.069174139852964e-03
1.122160000000000e+11 -1.025683974708748e+00 -3.677809466546635e-03
1.122640000000000e+11 -1.025715336681511e+00 -3.287820605611620e-03
1.123120000000000e+11 -1.025744734708969e+00 -2.899028706219748e-03
1.123600000000000e+11 -1.025772203134124e+00 -2.511259322496957e-03
1.124080000000000e+11 -1.025797772267332e+00 -2.124342600256129e-03
1.124560000000000e+11 -1.025832619543175e+00 -1.545196787741910e-03
1.125040000000000e+11 -1.025853541264149e+00 -1.159637912611290e-03
1.125520000000000e+11 -1.025872630915595e+00 -7.742617304626862e-04
1.126000000000000e+11 -1.025889897670561e+00 -3.888582198568232e-04
1.126480000000000e+11 -1.025905347662703e+00 -3.221302041023781e-06
1.126960000000000e+11 -1.025925123477062e+00 5.761060268480883e-04
1.127440000000000e+11 -1.025936042364655e+00 9.632187688546956e-04
1.127920000000000e+11 -1.025945149964421e+00 1.351313067772065e-03
1.128400000000000e+11 -1.025952449942867e+00 1.740607879138577e-03
1.128880000000000e+11 -1.025957948948934e+00 2.131314847185852e-03
1.129360000000000e+11 -1.025961655779494e+00 2.523638266338074e-03
1.129840000000000e+11 -1.025963877006441e+00 3.115573314271384e-03
1.130320000000000e+11 -1.025963142960720e+00 3.512794295916295e-03
1.130800000000000e+11 -1.025960644273856e+00 3.912339914941089e-03
1.131280000000000e+11 -1.025956386952677e+00 4.314403972468838e-03
1.131760000000000e+11 -1.025950378854702e+00 4.719159228266730e-03
1.132240000000000e+11 -1.025942629758261e+00 5.126760632827463e-03
1.132720000000000e+11 -1.025927771102561e+00 5.743790582063767e-03
1.133200000000000e+11 -1.025915730415127e+00 6.159098744408553e-03
1.133680000000000e+11 -1.025902002210062e+00 6.577737911170355e-03
1.134160000000000e+11 -1.025886608973968e+00 6.999832201431398e-03
1.134640000000000e+11 -1.025869578667946e+00 7.425483500795087e-03
1.135120000000000e+11 -1.025841038027679e+00 8.070806053539189e-03
1.135600000000000e+11 -1.025820068480625e+00 8.505704335399804e-03
1.136080000000000e+11 -1.025797590745597e+00 8.944447687237261e-03
1.136560000000000e+11 -1.025773647380209e+00 9.387094748557402e-03
1.137040000000000e+11 -1.025748282588590e+00 9.833680788422238e-03
1.137520000000000e+11 -1.025721541470876e+00 1.028421485300485e-02
1.138000000000000e+11 -1.025678948291305e+00 1.096737491732049e-02
1.138480000000000e+11 -1.025648961850716e+00 1.142768200515861e-02
1.138960000000000e+11 -1.025617751549916e+00 1.189184236724079e-02
1.139440000000000e+11 -1.025585359397002e+00 1.235978818859017e-02
1.139920000000000e+11 -1.025551827679321e+00 1.283142058177036e-02
1.140400000000000e+11 -1.025517199963894e+00 1.330661073898127e-02
1.140880000000000e+11 -1.025463302353706e+00 1.402570853235987e-02
1.141360000000000e+11 -1.025426132112428e+00 1.450906111664977e-02
1.141840000000000e+11 -1.025388022670297e+00 1.499536297072430e-02
1.142320000000000e+11 -1.025349020106034e+00 1.548439338564109e-02
1.142800000000000e+11 -1.025309172396430e+00 1.597590012274977e-02
1.143280000000000e+11 -1.025247926078429e+00 1.671716666207361e-02
1.143760000000000e+11 -1.025206184633843e+00 1.721357131907121e-02
1.144240000000000e+11 -1.025163771924512e+00 1.771138628041122e-02
1.144720000000000e+11 -1.025120738458176e+00 1.821025151883530e-02
1.145200000000000e+11 -1.025077135702712e+00 1.870976938562522e-02
1.145680000000000e+11 -1.025033016256004e+00 1.920950331638719e-02
1.146160000000000e+11 -1.024965986412083e+00 1.995845431430617e-02
1.146640000000000e+11 -1.024920812110353e+00 2.045658946489969e-02
1.147120000000000e+11 -1.024875312361774e+00 2.095318188885362e-02
1.147600000000000e+11 -1.024829544484322e+00 2.144766006085413e-02
1.148080000000000e+11 -1.024783567243928e+00 2.193940776494226e-02
1.148560000000000e+11 -1.024737440810461e+00 2.242776318109206e-02
1.149040000000000e+11 -1.024668106817210e+00 2.315237127126148e-02
1.149520000000000e+11 -1.024621878743194e+00 2.362907592023304e-02
1.150000000000000e+11 -1.024575719144148e+00 2.409978566148737e-02
