! Generated by Phase I extraction
# Hz S RI R 50
1.000000000000000e+07 -9.977979079791544e-01 8.428916552472427e-03
5.186875000000000e+07 -9.978729277593336e-01 8.205005672112681e-03
9.373750000000000e+07 -9.979479339603810e-01 7.981121744145099e-03
1.356062500000000e+08 -9.980229165768857e-01 7.757290988372064e-03
1.774750000000000e+08 -9.980978638763029e-01 7.533541336579253e-03
2.193437500000000e+08 -9.981727605918589e-01 7.309896219289691e-03
2.612125000000000e+08 -9.982475902171797e-01 7.086375715230163e-03
3.030812500000000e+08 -9.983223366856544e-01 6.862997993825745e-03
3.449500000000000e+08 -9.983969817386283e-01 6.639778417110533e-03
3.868187500000000e+08 -9.984715075351559e-01 6.416729881550087e-03
4.286875000000000e+08 -9.985458961936913e-01 6.193860899861917e-03
4.705562500000000e+08 -9.986201319124470e-01 5.971179097759980e-03
5.124250000000000e+08 -9.986941994718429e-01 5.748692369077002e-03
5.542937500000000e+08 -9.987680839935734e-01 5.526408600134530e-03
5.961625000000000e+08 -9.988417718840334e-01 5.304337928594985e-03
6.380312500000000e+08 -9.989152502550293e-01 5.082491007140540e-03
6.799000000000000e+08 -9.989885064253999e-01 4.860879246779152e-03
7.217687500000000e+08 -9.990615278368639e-01 4.639514537987343e-03
7.636375000000000e+08 -9.991343022572325e-01 4.418409874103191e-03
8.055062500000000e+08 -9.992068180410505e-01 4.197578382773523e-03
8.473750000000000e+08 -9.992790632010127e-01 3.977032345370413e-03
8.892437500000000e+08 -9.993510248773095e-01 3.756783271476615e-03
9.311125000000000e+08 -9.994226900055719e-01 3.536843324331938e-03
9.729812500000000e+08 -9.994940459306128e-01 3.317224838941794e-03
1.014850000000000e+09 -9.995650813092901e-01 3.097940020983818e-03
1.056718750000000e+09 -9.996357851323652e-01 2.879001554618370e-03
1.098587500000000e+09 -9.997061472415897e-01 2.660423530072378e-03
1.140456250000000e+09 -9.997761582967788e-01 2.442221291173540e-03
1.182325000000000e+09 -9.998458099871231e-01 2.224410897846560e-03
1.224193750000000e+09 -9.999150945926291e-01 2.007008686388439e-03
1.266062500000000e+09 -9.999840039804150e-01 1.790031556435160e-03
1.307931250000000e+09 -1.000052529700044e+00 1.573497441987092e-03
1.349800000000000e+09 -1.000120663685715e+00 1.357424980854436e-03
1.391668750000000e+09 -1.000188398037965e+00 1.141832962441295e-03
1.433537500000000e+09 -1.000255725268314e+00 9.267396695019808e-04
1.475406250000000e+09 -1.000322638059893e+00 7.121627353728817e-04
1.517275000000000e+09 -1.000389129254389e+00 4.981188479677908e-04
1.559143750000000e+09 -1.000455191904061e+00 2.846237893243836e-04
1.601012500000000e+09 -1.000520819327112e+00 7.169316999495772e-05
1.642881250000000e+09 -1.000586005555394e+00 -1.406577061763862e-04
1.684750000000000e+09 -1.000650745220271e+00 -3.524145004919563e-04
1.726618750000000e+09 -1.000715032427429e+00 -5.635636420515462e-04
1.768487500000000e+09 -1.000778861262987e+00 -7.740915283650676e-04
1.810356250000000e+09 -1.000842226206908e+00 -9.839852977462835e-04
1.852225000000000e+09 -1.000905121841480e+00 -1.193233006036906e-03
1.894093750000000e+09 -1.000967542796903e+00 -1.401823404147142e-03
1.935962500000000e+09 -1.001029483992107e+00 -1.609745775258430e-03
1.977831250000000e+09 -1.001090940752279e+00 -1.816989998557015e-03
2.019700000000000e+09 -1.001151908530773e+00 -2.023546594681569e-03
2.061568750000000e+09 -1.001212382952611e+00 -2.229406945216409e-03
2.103437500000000e+09 -1.001272359890203e+00 -2.434562813996877e-03
2.145306250000000e+09 -1.001331835732642e+00 -2.639006808431495e-03
2.187175000000000e+09 -1.001390807179442e+00 -2.842731990478503e-03
2.229043750000000e+09 -1.001449271342260e+00 -3.045731591719864e-03
2.270912500000000e+09 -1.001507225872667e+00 -3.247999150251954e-03
2.312781250000000e+09 -1.001564668764899e+00 -3.449528791137912e-03
2.354650000000000e+09 -1.001621598288261e+00 -3.650314996215149e-03
2.396518750000000e+09 -1.001678012685001e+00 -3.850352504143799e-03
2.438387500000000e+09 -1.001733910598110e+00 -4.049636275301727e-03
2.480256250000000e+09 -1.001789290867182e+00 -4.248161667460571e-03
2.522125000000000e+09 -1.001844152246640e+00 -4.445924509827906e-03
2.563993750000000e+09 -1.001898493718795e+00 -4.642920610289157e-03
2.605862500000000e+09 -1.001952314344921e+00 -4.839146022535593e-03
2.647731250000000e+09 -1.002005613272859e+00 -5.034597419423472e-03
2.689600000000000e+09 -1.002058389675365e+00 -5.229271710763738e-03
2.731468750000000e+09 -1.002110643148260e+00 -5.423166058432656e-03
2.773337500000000e+09 -1.002162373293123e+00 -5.616277702587977e-03
2.815206250000000e+09 -1.002213579759454e+00 -5.808603778038557e-03
2.857075000000000e+09 -1.002264262400652e+00 -6.000141513309693e-03
2.898943750000000e+09 -1.002314421174705e+00 -6.190888430778100e-03
2.940812500000000e+09 -1.002364056289194e+00 -6.380842416112358e-03
2.982681250000000e+09 -1.002413167838677e+00 -6.570001792241344e-03
3.024550000000000e+09 -1.002461756151758e+00 -6.758365032966312e-03
3.066418750000000e+09 -1.002509821626691e+00 -6.945930823637252e-03
3.108287500000000e+09 -1.002557364596836e+00 -7.132698062582581e-03
3.150156250000000e+09 -1.002604385261222e+00 -7.318665673372981e-03
3.192025000000000e+09 -1.002650883685374e+00 -7.503832713260427e-03
3.233893750000000e+09 -1.002696860049323e+00 -7.688198493146469e-03
3.275762500000000e+09 -1.002742314645021e+00 -7.871762762477310e-03
3.317631250000000e+09 -1.002787247897189e+00 -8.054525836500365e-03
3.359500000000000e+09 -1.002831660072405e+00 -8.236488226846061e-03
3.401368750000000e+09 -1.002875551433117e+00 -8.417650419002493e-03
3.443237500000000e+09 -1.002918922532158e+00 -8.598012590456890e-03
3.485106250000000e+09 -1.002961774309765e+00 -8.777575055286965e-03
3.526975000000000e+09 -1.003004107934799e+00 -8.956338560127191e-03
3.568843750000000e+09 -1.003045924532551e+00 -9.134304133845932e-03
3.610712500000000e+09 -1.003087225324511e+00 -9.311472675174865e-03
3.652581250000000e+09 -1.003128011828368e+00 -9.487845105154205e-03
3.694450000000000e+09 -1.003168285777078e+00 -9.663422709521715e-03
3.736318750000000e+09 -1.003208048930059e+00 -9.838207177421834e-03
3.778187500000000e+09 -1.003247302983602e+00 -1.001220039471005e-02
3.820056250000000e+09 -1.003286049569990e+00 -1.018540419422922e-02
3.861925000000000e+09 -1.003324290219368e+00 -1.035782046781149e-02
3.903793750000000e+09 -1.003362026549241e+00 -1.052945114708690e-02
3.945662500000000e+09 -1.003399260305814e+00 -1.070029867066579e-02
3.987531250000000e+09 -1.003435993250860e+00 -1.087036615377272e-02
4.029400000000000e+09 -1.003472226962175e+00 -1.103965692200548e-02
4.071268750000000e+09 -1.003507963181150e+00 -1.120817453082559e-02
4.113137500000000e+09 -1.003543203808169e+00 -1.137592307887966e-02
4.155006250000000e+09 -1.003577950871430e+00 -1.154290696630124e-02
4.196875000000000e+09 -1.003612206588453e+00 -1.170913098797216e-02
4.238743750000000e+09 -1.003645973165694e+00 -1.187460032118163e-02
4.280612500000000e+09 -1.003679252628233e+00 -1.203932022209565e-02
4.322481250000000e+09 -1.003712047225162e+00 -1.220329596011743e-02
4.364350000000000e+09 -1.003744359469079e+00 -1.236653329088935e-02
4.406218750000000e+09 -1.003776191967612e+00 -1.252903843874908e-02
4.448087500000000e+09 -1.003807547298375e+00 -1.269081792351125e-02
4.489956250000000e+09 -1.003838428099198e+00 -1.285187829774267e-02
4.531825000000000e+09 -1.003868837257470e+00 -1.301222617853717e-02
4.573693750000000e+09 -1.003898777856427e+00 -1.317186825139306e-02
4.615562500000000e+09 -1.003928253131341e+00 -1.333081145826062e-02
4.657431250000000e+09 -1.003957266389607e+00 -1.348906306924320e-02
4.699300000000000e+09 -1.003985820874491e+00 -1.364663057040508e-02
4.741168750000000e+09 -1.004013920080643e+00 -1.380352153870455e-02
4.783037500000000e+09 -1.004041567652496e+00 -1.395974379768956e-02
4.824906250000000e+09 -1.004068767347094e+00 -1.411530524777111e-02
4.866775000000000e+09 -1.004095523008047e+00 -1.427021382484026e-02
4.908643750000000e+09 -1.004121838647268e+00 -1.442447768668589e-02
4.950512500000000e+09 -1.004147718329089e+00 -1.457810495592282e-02
4.992381250000000e+09 -1.004173166254624e+00 -1.473110367256466e-02
5.034250000000000e+09 -1.004198186723306e+00 -1.488348187272024e-02
5.076118750000000e+09 -1.004222784049125e+00 -1.503524771391029e-02
5.117987500000000e+09 -1.004246962638096e+00 -1.518640948625509e-02
5.159856250000000e+09 -1.004270727049365e+00 -1.533697552494141e-02
5.201725000000000e+09 -1.004294081974627e+00 -1.548695439551169e-02
5.243593750000000e+09 -1.004317032192232e+00 -1.563635479342939e-02
5.285462500000000e+09 -1.004339582635813e+00 -1.578518555259586e-02
5.327331250000000e+09 -1.004361738482151e+00 -1.593345556287381e-02
5.369200000000000e+09 -1.004383505040583e+00 -1.608117382790183e-02
5.411068750000000e+09 -1.004404887816051e+00 -1.622834939668709e-02
5.452937500000000e+09 -1.004425892364631e+00 -1.637499143350619e-02
5.494806250000000e+09 -1.004446524406014e+00 -1.652110913715771e-02
5.536675000000000e+09 -1.004466789760884e+00 -1.666671157739493e-02
5.578543750000000e+09 -1.004486694319275e+00 -1.681180771138399e-02
5.620412500000000e+09 -1.004506243932047e+00 -1.695640638475319e-02
5.662281250000000e+09 -1.004525444373051e+00 -1.710051651058543e-02
5.704150000000000e+09 -1.004544301559297e+00 -1.724414698239726e-02
5.746018750000000e+09 -1.004562821480574e+00 -1.738730649656280e-02
5.787887500000000e+09 -1.004581010313350e+00 -1.753000354357179e-02
5.829756250000000e+09 -1.004598874255594e+00 -1.767224642730592e-02
5.871625000000000e+09 -1.004616419565107e+00 -1.781404320108313e-02
5.913493750000000e+09 -1.004633652522753e+00 -1.795540147932420e-02
5.955362500000000e+09 -1.004650579392415e+00 -1.809632852402969e-02
5.997231250000000e+09 -1.004667206389645e+00 -1.823683134998950e-02
6.039100000000000e+09 -1.004683539538801e+00 -1.837691687835686e-02
6.080968750000000e+09 -1.004699584801822e+00 -1.851659186089256e-02
6.122837500000000e+09 -1.004715347888473e+00 -1.865586272880184e-02
6.164706250000000e+09 -1.004730834285360e+00 -1.879473552744631e-02
6.206575000000000e+09 -1.004746049205779e+00 -1.893321593508861e-02
6.248443750000000e+09 -1.004760997660604e+00 -1.907130954746998e-02
6.290312500000000e+09 -1.004775684558216e+00 -1.920902187338958e-02
6.332181250000000e+09 -1.004790114584669e+00 -1.934635847492203e-02
6.374050000000000e+09 -1.004804292359004e+00 -1.948332472646687e-02
6.415918750000000e+09 -1.004818222377695e+00 -1.961992588496644e-02
6.457787500000000e+09 -1.004831909050301e+00 -1.975616715227104e-02
6.499656250000000e+09 -1.004845356532936e+00 -1.989205351774124e-02
6.541525000000000e+09 -1.004858568843253e+00 -2.002758981692311e-02
6.583393750000000e+09 -1.004871549806821e+00 -2.016278078847128e-02
6.625262500000000e+09 -1.004884302979571e+00 -2.029763117520906e-02
6.667131250000000e+09 -1.004896831746936e+00 -2.043214558853134e-02
6.709000000000000e+09 -1.004909139221539e+00 -2.056632873009285e-02
6.750868750000000e+09 -1.004921228172191e+00 -2.070018546276388e-02
6.792737500000000e+09 -1.004933101160208e+00 -2.083372064384136e-02
6.834606250000000e+09 -1.004944760604879e+00 -2.096693928813561e-02
6.876475000000000e+09 -1.004956208781661e+00 -2.109984636884112e-02
6.918343750000000e+09 -1.004967447791626e+00 -2.123244687408039e-02
6.960212500000000e+09 -1.004978479565998e+00 -2.136474593954386e-02
7.002081250000000e+09 -1.004989305873963e+00 -2.149674892076316e-02
7.043950000000000e+09 -1.004999928368767e+00 -2.162846144130764e-02
7.085818750000000e+09 -1.005010348619380e+00 -2.175988938254781e-02
7.127687500000000e+09 -1.005020568143174e+00 -2.189103906745373e-02
7.169556250000000e+09 -1.005030588368792e+00 -2.202191723273792e-02
7.211425000000000e+09 -1.005040410721425e+00 -2.215253097208400e-02
7.253293750000000e+09 -1.005050036700483e+00 -2.228288778241060e-02
7.295162500000000e+09 -1.005059467878547e+00 -2.241299551326200e-02
7.337031250000000e+09 -1.005068705919827e+00 -2.254286255467047e-02
7.378900000000000e+09 -1.005077752741075e+00 -2.267249771249254e-02
7.420768750000000e+09 -1.005086610571916e+00 -2.280191009963271e-02
7.462637500000000e+09 -1.005095281991734e+00 -2.293110883613920e-02
7.504506250000000e+09 -1.005103769970020e+00 -2.306010285065361e-02
7.546375000000000e+09 -1.005112077780971e+00 -2.318890065994540e-02
7.588243750000000e+09 -1.005120208898602e+00 -2.331751021918893e-02
7.630112500000000e+09 -1.005128166925962e+00 -2.344593884994973e-02
7.671981250000000e+09 -1.005135955290858e+00 -2.357419332840384e-02
7.713850000000000e+09 -1.005143577193896e+00 -2.370228015338972e-02
7.755718750000000e+09 -1.005151035771932e+00 -2.383020582204851e-02
7.797587500000000e+09 -1.005158334142567e+00 -2.395797661759003e-02
7.839456250000000e+09 -1.005165475303062e+00 -2.408559850440763e-02
7.881325000000000e+09 -1.005172462295638e+00 -2.421307737105853e-02
7.923193750000000e+09 -1.005179298185951e+00 -2.434041891992084e-02
7.965062500000000e+09 -1.005185986099535e+00 -2.446762860953106e-02
8.006931250000000e+09 -1.005192529183983e+00 -2.459471150222889e-02
8.048800000000000e+09 -1.005198930601709e+00 -2.472167228704726e-02
8.090668750000000e+09 -1.005205193560041e+00 -2.484851524852313e-02
8.132537500000000e+09 -1.005211321234084e+00 -2.497524445295096e-02
8.174406250000000e+09 -1.005217316727004e+00 -2.510186352524888e-02
8.216275000000000e+09 -1.005223183049901e+00 -2.522837577972707e-02
8.258143750000000e+09 -1.005228923095607e+00 -2.535478433428445e-02
8.300012500000000e+09 -1.005234539645707e+00 -2.548109203167158e-02
8.341881250000000e+09 -1.005240035463893e+00 -2.560730153706730e-02
8.383750000000000e+09 -1.005245413216310e+00 -2.573341513666138e-02
8.425618750000000e+09 -1.005250675474732e+00 -2.585943479958342e-02
8.467487500000000e+09 -1.005255824678428e+00 -2.598536233187434e-02
8.509356250000000e+09 -1.005260863066275e+00 -2.611119934798225e-02
8.551225000000000e+09 -1.005265792749659e+00 -2.623694727942668e-02
8.593093750000000e+09 -1.005270615679078e+00 -2.636260743905578e-02
8.634962500000000e+09 -1.005275333671148e+00 -2.648818107548189e-02
8.676831250000000e+09 -1.005279948440105e+00 -2.661366940262488e-02
8.718700000000000e+09 -1.005284461621839e+00 -2.673907370274868e-02
8.760568750000000e+09 -1.005288874822617e+00 -2.686439525333675e-02
8.802437500000000e+09 -1.005293189627369e+00 -2.698963528506100e-02
8.844306250000000e+09 -1.005297407542714e+00 -2.711479493639667e-02
8.886175000000000e+09 -1.005301529944316e+00 -2.723987523823269e-02
8.928043750000000e+09 -1.005305558114886e+00 -2.736487710097919e-02
8.969912500000000e+09 -1.005309493177248e+00 -2.748980123347716e-02
9.011781250000000e+09 -1.005313335955808e+00 -2.761464835202995e-02
9.053650000000000e+09 -1.005317087009106e+00 -2.773941930978312e-02
9.095518750000000e+09 -1.005320746710919e+00 -2.786411521373836e-02
9.137387500000000e+09 -1.005324315244702e+00 -2.798873746599955e-02
9.179256250000000e+09 -1.005327792677915e+00 -2.811328793043119e-02
9.221125000000000e+09 -1.005331179091228e+00 -2.823776898624107e-02
9.262993750000000e+09 -1.005334474520930e+00 -2.836218345214625e-02
9.304862500000000e+09 -1.005337679044050e+00 -2.848653471717144e-02
9.346731250000000e+09 -1.005340792789727e+00 -2.861082657840360e-02
9.388600000000000e+09 -1.005343816085194e+00 -2.873506315486355e-02
9.430468750000000e+09 -1.005346749480319e+00 -2.885924897934346e-02
9.472337500000000e+09 -1.005349593701953e+00 -2.898338896932286e-02
9.514206250000000e+09 -1.005352349818519e+00 -2.910748828784334e-02
9.556075000000000e+09 -1.005355019145268e+00 -2.923155216270732e-02
9.597943750000000e+09 -1.005357603262095e+00 -2.935558569572900e-02
9.639812500000000e+09 -1.005360104008674e+00 -2.947959416713423e-02
9.681681250000000e+09 -1.005362523573546e+00 -2.960358295411528e-02
9.723550000000000e+09 -1.005364864502910e+00 -2.972755718225172e-02
9.765418750000000e+09 -1.005367129607408e+00 -2.985152149998623e-02
9.807287500000000e+09 -1.005369321896752e+00 -2.997548015737099e-02
9.849156250000000e+09 -1.005371444558880e+00 -3.009943692145794e-02
9.891025000000000e+09 -1.005373500931053e+00 -3.022339524447745e-02
9.932893750000000e+09 -1.005375494400354e+00 -3.034735835376236e-02
9.974762500000000e+09 -1.005377428379729e+00 -3.047132911643358e-02
1.001663125000000e+10 -1.005379306311135e+00 -3.059531015890756e-02
1.005850000000000e+10 -1.005381131688748e+00 -3.071930398170181e-02
1.010036875000000e+10 -1.005382908173737e+00 -3.084331277228666e-02
1.014223750000000e+10 -1.005384639488187e+00 -3.096733828033018e-02
1.018410625000000e+10 -1.005386329250196e+00 -3.109138166499599e-02
1.022597500000000e+10 -1.005387980848619e+00 -3.121544381126595e-02
1.026784375000000e+10 -1.005389597343593e+00 -3.133952522486132e-02
1.030971250000000e+10 -1.005391181492643e+00 -3.146362594265435e-02
1.035158125000000e+10 -1.005392735787562e+00 -3.158774571244247e-02
1.039345000000000e+10 -1.005394262291981e+00 -3.171188381862049e-02
1.043531875000000e+10 -1.005395762575970e+00 -3.183603936653597e-02
1.047718750000000e+10 -1.005397237883938e+00 -3.196021159456326e-02
1.051905625000000e+10 -1.005398689302297e+00 -3.208439996513650e-02
1.056092500000000e+10 -1.005400117832787e+00 -3.220860414338059e-02
1.060279375000000e+10 -1.005401524323273e+00 -3.233282413272252e-02
1.064466250000000e+10 -1.005402909568993e+00 -3.245706019097620e-02
1.068653125000000e+10 -1.005404274349114e+00 -3.258131261745421e-02
1.072840000000000e+10 -1.005405619367347e+00 -3.270558184338631e-02
1.077026875000000e+10 -1.005406945303257e+00 -3.282986829446593e-02
1.081213750000000e+10 -1.005408252770135e+00 -3.295417234920930e-02
1.085400625000000e+10 -1.005409542238909e+00 -3.307849450280576e-02
1.089587500000000e+10 -1.005410814034369e+00 -3.320283556008945e-02
1.093774375000000e+10 -1.005412068534626e+00 -3.332719661351393e-02
1.097961250000000e+10 -1.005413306140316e+00 -3.345157907225180e-02
1.102148125000000e+10 -1.005414527277494e+00 -3.357598472426816e-02
1.106335000000000e+10 -1.005415732496241e+00 -3.370041548236069e-02
1.110521875000000e+10 -1.005416922545307e+00 -3.382487325071902e-02
1.114708750000000e+10 -1.005418098280959e+00 -3.394935972829246e-02
1.118895625000000e+10 -1.005419260592701e+00 -3.407387638713522e-02
1.123082500000000e+10 -1.005420410400481e+00 -3.419842442659698e-02
1.127269375000000e+10 -1.005421548632940e+00 -3.432300488879134e-02
1.131456250000000e+10 -1.005422676250154e+00 -3.444761867761231e-02
1.135643125000000e+10 -1.005423794202790e+00 -3.457226652898091e-02
1.139830000000000e+10 -1.005424903371464e+00 -3.469694924906414e-02
1.144016875000000e+10 -1.005426004692457e+00 -3.482166767193657e-02
1.148203750000000e+10 -1.005427099221368e+00 -3.494642268008278e-02
1.152390625000000e+10 -1.005428188047172e+00 -3.507121507249975e-02
1.156577500000000e+10 -1.005429272125759e+00 -3.519604554881128e-02
1.160764375000000e+10 -1.005430352197203e+00 -3.532091498228861e-02
1.164951250000000e+10 -1.005431428899413e+00 -3.544582438322207e-02
1.169138125000000e+10 -1.005432502961773e+00 -3.557077481444938e-02
1.173325000000000e+10 -1.005433575116473e+00 -3.569576743622620e-02
1.177511875000000e+10 -1.005434646106542e+00 -3.582080373446089e-02
1.181698750000000e+10 -1.005435716953106e+00 -3.594588565835241e-02
1.185885625000000e+10 -1.005436788945279e+00 -3.607101520733257e-02
1.190072500000000e+10 -1.005437863669211e+00 -3.619619438165147e-02
1.194259375000000e+10 -1.005438942954554e+00 -3.632142525185521e-02
1.198446250000000e+10 -1.005440028954591e+00 -3.644670992997683e-02
1.202633125000000e+10 -1.005441124160172e+00 -3.657205021237780e-02
1.206820000000000e+10 -1.005442231341734e+00 -3.669744768600279e-02
1.211006875000000e+10 -1.005443353715068e+00 -3.682290395695410e-02
1.215193750000000e+10 -1.005444495243340e+00 -3.694842018784362e-02
1.219380625000000e+10 -1.005445660581761e+00 -3.707399639274540e-02
1.223567500000000e+10 -1.005446854595084e+00 -3.719963112278128e-02
1.227754375000000e+10 -1.005448082052936e+00 -3.732532175825162e-02
1.231941250000000e+10 -1.005449347556265e+00 -3.745106493796752e-02
1.236128125000000e+10 -1.005450655554294e+00 -3.757685675613089e-02
1.240315000000000e+10 -1.005452010391852e+00 -3.770269295146055e-02
1.244501875000000e+10 -1.005453416341318e+00 -3.782856894373695e-02
1.248688750000000e+10 -1.005454877636102e+00 -3.795448008811724e-02
1.252875625000000e+10 -1.005456398607738e+00 -3.808042161837569e-02
1.257062500000000e+10 -1.005457983774657e+00 -3.820638819714015e-02
1.261249375000000e+10 -1.005459637778336e+00 -3.833237378765666e-02
1.265436250000000e+10 -1.005461365225009e+00 -3.845837183981896e-02
1.269623125000000e+10 -1.005463170676776e+00 -3.858437510227975e-02
1.273810000000000e+10 -1.005465058736749e+00 -3.871037545543414e-02
1.277996875000000e+10 -1.005467033935528e+00 -3.883636341204036e-02
1.282183750000000e+10 -1.005469100355015e+00 -3.896232776606006e-02
1.286370625000000e+10 -1.005471260724690e+00 -3.908825553370945e-02
1.290557500000000e+10 -1.005473516018119e+00 -3.921413322781348e-02
1.294744375000000e+10 -1.005475865785529e+00 -3.933994736079988e-02
1.298931250000000e+10 -1.005478308232752e+00 -3.946568470939193e-02
1.303118125000000e+10 -1.005480840197409e+00 -3.959133290365793e-02
1.307305000000000e+10 -1.005483457596960e+00 -3.971688112489650e-02
1.311491875000000e+10 -1.005486156142134e+00 -3.984232014329032e-02
1.315678750000000e+10 -1.005488931574170e+00 -3.996764210226766e-02
1.319865625000000e+10 -1.005491779982977e+00 -4.009284051853668e-02
1.324052500000000e+10 -1.005494698113072e+00 -4.021790978876807e-02
1.328239375000000e+10 -1.005497683339709e+00 -4.034284464754325e-02
1.332426250000000e+10 -1.005500733672778e+00 -4.046763984062025e-02
1.336613125000000e+10 -1.005503847762487e+00 -4.059228970932461e-02
1.340800000000000e+10 -1.005507024665085e+00 -4.071678815263171e-02
1.344986875000000e+10 -1.005510263836609e+00 -4.084112863955103e-02
1.349173750000000e+10 -1.005513565021875e+00 -4.096530387908171e-02
1.353360625000000e+10 -1.005516928076549e+00 -4.108930595188206e-02
1.357547500000000e+10 -1.005520353005248e+00 -4.121312663710335e-02
1.361734375000000e+10 -1.005523839836211e+00 -4.133675733867855e-02
1.365921250000000e+10 -1.005527388605215e+00 -4.146018963551895e-02
1.370108125000000e+10 -1.005530999659740e+00 -4.158341523638161e-02
1.374295000000000e+10 -1.005534673651961e+00 -4.170642536835333e-02
1.378481875000000e+10 -1.005538411297143e+00 -4.182921049927196e-02
1.382668750000000e+10 -1.005542212903834e+00 -4.195176087838084e-02
1.386855625000000e+10 -1.005546078582918e+00 -4.207406710977833e-02
1.391042500000000e+10 -1.005550008556834e+00 -4.219612003582764e-02
1.395229375000000e+10 -1.005554003209636e+00 -4.231791035370985e-02
1.399416250000000e+10 -1.005558062970836e+00 -4.243942837602906e-02
1.403603125000000e+10 -1.005562188096027e+00 -4.256066416235285e-02
1.407790000000000e+10 -1.005566378722205e+00 -4.268160816269836e-02
1.411976875000000e+10 -1.005570635268668e+00 -4.280225129403996e-02
1.416163750000000e+10 -1.005574958760761e+00 -4.292258446972975e-02
1.420350625000000e+10 -1.005579350687295e+00 -4.304259798421111e-02
1.424537500000000e+10 -1.005583812945468e+00 -4.316228147647572e-02
1.428724375000000e+10 -1.005588347888581e+00 -4.328162361913319e-02
1.432911250000000e+10 -1.005592958046563e+00 -4.340061177514287e-02
1.437098125000000e+10 -1.005597645715566e+00 -4.351923224237271e-02
1.441285000000000e+10 -1.005602413014518e+00 -4.363747087274487e-02
1.445471875000000e+10 -1.005607262076255e+00 -4.375531311423234e-02
1.449658750000000e+10 -1.005612194994785e+00 -4.387274376263426e-02
1.453845625000000e+10 -1.005617213654534e+00 -4.398974672949706e-02
1.458032500000000e+10 -1.005622319250993e+00 -4.410630514542201e-02
1.462219375000000e+10 -1.005627511966216e+00 -4.422240205343043e-02
1.466406250000000e+10 -1.005632791363542e+00 -4.433802102422930e-02
1.470593125000000e+10 -1.005638156543411e+00 -4.445314577947672e-02
1.474780000000000e+10 -1.005643605945474e+00 -4.456775996790435e-02
1.478966875000000e+10 -1.005649137204754e+00 -4.468184754578983e-02
1.483153750000000e+10 -1.005654747234844e+00 -4.479539329716253e-02
1.487340625000000e+10 -1.005660432679741e+00 -4.490838290134035e-02
1.491527500000000e+10 -1.005666190202284e+00 -4.502080247167503e-02
1.495714375000000e+10 -1.005672016331181e+00 -4.513263851399786e-02
1.499901250000000e+10 -1.005677907416135e+00 -4.524387817739961e-02
1.504088125000000e+10 -1.005683859798287e+00 -4.535450955633360e-02
1.508275000000000e+10 -1.005689870045808e+00 -4.546452157372864e-02
1.512461875000000e+10 -1.005695935164826e+00 -4.557390364722470e-02
1.516648750000000e+10 -1.005702052681007e+00 -4.568264549825166e-02
1.520835625000000e+10 -1.005708220738876e+00 -4.579073705669953e-02
1.525022500000000e+10 -1.005714438059577e+00 -4.589816821147977e-02
1.529209375000000e+10 -1.005720703986208e+00 -4.600492858213764e-02
1.533396250000000e+10 -1.005727018411119e+00 -4.611100733024383e-02
1.537583125000000e+10 -1.005733381725481e+00 -4.621639288124512e-02
1.541770000000000e+10 -1.005739794594641e+00 -4.632107275475999e-02
1.545956875000000e+10 -1.005746257873380e+00 -4.642503353034360e-02
1.550143750000000e+10 -1.005752772698503e+00 -4.652826073781292e-02
1.554330625000000e+10 -1.005759340437845e+00 -4.663073851779283e-02
1.558517500000000e+10 -1.005765962455739e+00 -4.673244927130206e-02
1.562704375000000e+10 -1.005772639678117e+00 -4.683337373025079e-02
1.566891250000000e+10 -1.005779372350119e+00 -4.693349121051230e-02
1.571078125000000e+10 -1.005786159457750e+00 -4.703278062138787e-02
1.575265000000000e+10 -1.005792999437819e+00 -4.713122127651439e-02
1.579451875000000e+10 -1.005799890542898e+00 -4.722879289266500e-02
1.583638750000000e+10 -1.005806830905883e+00 -4.732547535034618e-02
1.587825625000000e+10 -1.005813818557486e+00 -4.742124876749552e-02
1.592012500000000e+10 -1.005820851455518e+00 -4.751609322201005e-02
1.596199375000000e+10 -1.005827927405021e+00 -4.760998877685798e-02
1.600386250000000e+10 -1.005835044129308e+00 -4.770291569960250e-02
1.604573125000000e+10 -1.005842199486916e+00 -4.779485445466061e-02
1.608760000000000e+10 -1.005849391535393e+00 -4.788578539128967e-02
1.612946875000000e+10 -1.005856618364612e+00 -4.797568850744960e-02
1.617133750000000e+10 -1.005863878100885e+00 -4.806454350071207e-02
1.621320625000000e+10 -1.005871168881900e+00 -4.815232976307899e-02
1.625507500000000e+10 -1.005878488777937e+00 -4.823902607214912e-02
1.629694375000000e+10 -1.005885835428095e+00 -4.832461047696427e-02
1.633881250000000e+10 -1.005893205905650e+00 -4.840906097169631e-02
1.638068125000000e+10 -1.005900596974754e+00 -4.849235571331680e-02
1.642255000000000e+10 -1.005908005254663e+00 -4.857447274392721e-02
1.646441875000000e+10 -1.005915426889001e+00 -4.865538975693579e-02
1.650628750000000e+10 -1.005922857340356e+00 -4.873508436536438e-02
1.654815625000000e+10 -1.005930291477196e+00 -4.881353454632240e-02
1.659002500000000e+10 -1.005937723590554e+00 -4.889071859791828e-02
1.663189375000000e+10 -1.005945147200737e+00 -4.896661522251806e-02
1.667376250000000e+10 -1.005952555051984e+00 -4.904120417994365e-02
1.671563125000000e+10 -1.005959939582415e+00 -4.911446671791624e-02
1.675750000000000e+10 -1.005967293140129e+00 -4.918638510518283e-02
1.679936875000000e+10 -1.005974607854677e+00 -4.925694270143695e-02
1.684123750000000e+10 -1.005981875730570e+00 -4.932612437070832e-02
1.688310625000000e+10 -1.005989088896073e+00 -4.939391663279002e-02
1.692497500000000e+10 -1.005996239923910e+00 -4.946030741698085e-02
1.696684375000000e+10 -1.006003321775735e+00 -4.952528600802752e-02
1.700871250000000e+10 -1.006010328037108e+00 -4.958884310622274e-02
1.705058125000000e+10 -1.006017253506502e+00 -4.965097012784016e-02
1.709245000000000e+10 -1.006024094238700e+00 -4.971165819191085e-02
1.713431875000000e+10 -1.006030846736462e+00 -4.977089703899645e-02
1.717618750000000e+10 -1.006037507077913e+00 -4.982867523392282e-02
1.721805625000000e+10 -1.006044070548558e+00 -4.988498101255449e-02
1.725992500000000e+10 -1.006050532190507e+00 -4.993980333966418e-02
1.730179375000000e+10 -1.006056887373218e+00 -4.999313233262944e-02
1.734366250000000e+10 -1.006063131941729e+00 -5.004495873169449e-02
1.738553125000000e+10 -1.006069262179202e+00 -5.009527397729741e-02
1.742740000000000e+10 -1.006075274976465e+00 -5.014407012540738e-02
1.746926875000000e+10 -1.006081168013199e+00 -5.019133965494797e-02
1.751113750000000e+10 -1.006086939685536e+00 -5.023707486834332e-02
1.755300625000000e+10 -1.006092588772766e+00 -5.028126804924055e-02
1.759487500000000e+10 -1.006098114789143e+00 -5.032391143769172e-02
1.763674375000000e+10 -1.006103517918037e+00 -5.036499684553072e-02
1.767861250000000e+10 -1.006108798937258e+00 -5.040451533683740e-02
1.772048125000000e+10 -1.006113958806793e+00 -5.044245717510956e-02
1.776235000000000e+10 -1.006118998635551e+00 -5.047881243002514e-02
1.780421875000000e+10 -1.006123919810955e+00 -5.051357117106083e-02
1.784608750000000e+10 -1.006128724211400e+00 -5.054672346349253e-02
1.788795625000000e+10 -1.006133414427320e+00 -5.057825893838441e-02
1.792982500000000e+10 -1.006137993418226e+00 -5.060816643803366e-02
1.797169375000000e+10 -1.006142464680451e+00 -5.063643440930392e-02
1.801356250000000e+10 -1.006146832431926e+00 -5.066305076860394e-02
1.805543125000000e+10 -1.006151101431780e+00 -5.068800216040520e-02
1.809730000000000e+10 -1.006155276649943e+00 -5.071127373302199e-02
1.813916875000000e+10 -1.006159362814038e+00 -5.073284973838430e-02
1.818103750000000e+10 -1.006163364521502e+00 -5.075271423732078e-02
1.822290625000000e+10 -1.006167286733830e+00 -5.077085124963647e-02
1.826477500000000e+10 -1.006171134798725e+00 -5.078724390824858e-02
1.830664375000000e+10 -1.006174914251704e+00 -5.080187438158871e-02
1.834851250000000e+10 -1.006178630712084e+00 -5.081472350662868e-02
1.839038125000000e+10 -1.006182289325620e+00 -5.082577096899955e-02
1.843225000000000e+10 -1.006185894745748e+00 -5.083499591537358e-02
1.847411875000000e+10 -1.006189451151841e+00 -5.084237715988294e-02
1.851598750000000e+10 -1.006192962374695e+00 -5.084789347799997e-02
1.855785625000000e+10 -1.006196432027658e+00 -5.085152295092998e-02
1.859972500000000e+10 -1.006199863131629e+00 -5.085324322457442e-02
1.864159375000000e+10 -1.006203258183198e+00 -5.085303149676952e-02
1.868346250000000e+10 -1.006206618834216e+00 -5.085086464916352e-02
1.872533125000000e+10 -1.006209945611567e+00 -5.084672028071477e-02
1.876720000000000e+10 -1.006213238389566e+00 -5.084057714455376e-02
1.880906875000000e+10 -1.006216496483713e+00 -5.083241509198798e-02
1.885093750000000e+10 -1.006219718816845e+00 -5.082221549417550e-02
1.889280625000000e+10 -1.006222904275273e+00 -5.080996129910187e-02
1.893467500000000e+10 -1.006226052012253e+00 -5.079563648663410e-02
1.897654375000000e+10 -1.006229161324719e+00 -5.077922530842308e-02
1.901841250000000e+10 -1.006232231466788e+00 -5.076071202251018e-02
1.906028125000000e+10 -1.006235260999288e+00 -5.074008128927576e-02
1.910215000000000e+10 -1.006238248097101e+00 -5.071731887736500e-02
1.914401875000000e+10 -1.006241190607556e+00 -5.069241203389458e-02
1.918588750000000e+10 -1.006244086198566e+00 -5.066534963315509e-02
1.922775625000000e+10 -1.006246932702028e+00 -5.063612233605642e-02
1.926962500000000e+10 -1.006249728190420e+00 -5.060472248250193e-02
1.931149375000000e+10 -1.006252471204487e+00 -5.057114368307391e-02
1.935336250000000e+10 -1.006255160336129e+00 -5.053538052228140e-02
1.939523125000000e+10 -1.006257794336647e+00 -5.049742955941434e-02
1.943710000000000e+10 -1.006260372821686e+00 -5.045728883571383e-02
1.947896875000000e+10 -1.006262896033441e+00 -5.041495729750259e-02
1.952083750000000e+10 -1.006265365004824e+00 -5.037043498717546e-02
1.956270625000000e+10 -1.006267781732571e+00 -5.032372238239004e-02
1.960457500000000e+10 -1.006270149031885e+00 -5.027481989472047e-02
1.964644375000000e+10 -1.006272470287314e+00 -5.022372747054416e-02
1.968831250000000e+10 -1.006274749176992e+00 -5.017044466443221e-02
1.973018125000000e+10 -1.006276989537793e+00 -5.011497040979866e-02
1.977205000000000e+10 -1.006279194662478e+00 -5.005730323638476e-02
1.981391875000000e+10 -1.006281367360868e+00 -4.999744232400714e-02
1.985578750000000e+10 -1.006283510443524e+00 -4.993538791330469e-02
1.989765625000000e+10 -1.006285627134762e+00 -4.987114117049150e-02
1.993952500000000e+10 -1.006287720961353e+00 -4.980470408428293e-02
1.998139375000000e+10 -1.006289796311002e+00 -4.973607915338731e-02
2.002326250000000e+10 -1.006291858456823e+00 -4.966526845140201e-02
2.006513125000000e+10 -1.006293913188017e+00 -4.959227250720723e-02
2.010700000000000e+10 -1.006295965675517e+00 -4.951709034743788e-02
2.014886875000000e+10 -1.006298020101303e+00 -4.943972035850493e-02
2.019073750000000e+10 -1.006300079952222e+00 -4.936016126349121e-02
2.023260625000000e+10 -1.006302148500257e+00 -4.927841206633078e-02
2.027447500000000e+10 -1.006304228425761e+00 -4.919447203991640e-02
2.031634375000000e+10 -1.006306321876961e+00 -4.910834137800852e-02
2.035821250000000e+10 -1.006308430751332e+00 -4.902002171538411e-02
2.040008125000000e+10 -1.006310557076018e+00 -4.892951590552689e-02
2.044195000000000e+10 -1.006312703021754e+00 -4.883682782704148e-02
2.048381875000000e+10 -1.006314870896506e+00 -4.874196244206960e-02
2.052568750000000e+10 -1.006317062991098e+00 -4.864492596164283e-02
2.056755625000000e+10 -1.006319281802481e+00 -4.854572558193205e-02
2.060942500000000e+10 -1.006321529898767e+00 -4.844436933835861e-02
2.065129375000000e+10 -1.006323810035001e+00 -4.834086623643852e-02
2.069316250000000e+10 -1.006326125463598e+00 -4.823522591686068e-02
2.073503125000000e+10 -1.006328479925952e+00 -4.812745781228538e-02
2.077690000000000e+10 -1.006330877050784e+00 -4.801757077646313e-02
2.081876875000000e+10 -1.006333319901263e+00 -4.790557401778158e-02
2.086063750000000e+10 -1.006335811334245e+00 -4.779147760580212e-02
2.090250625000000e+10 -1.006338354371636e+00 -4.767529231798649e-02
2.094437500000000e+10 -1.006340952247271e+00 -4.755702907560767e-02
2.098624375000000e+10 -1.006343607754069e+00 -4.743669851093315e-02
2.102811250000000e+10 -1.006346322794452e+00 -4.731431164548813e-02
2.106998125000000e+10 -1.006349098579445e+00 -4.718988037650373e-02
2.111185000000000e+10 -1.006351935653410e+00 -4.706341767426449e-02
2.115371875000000e+10 -1.006354833979305e+00 -4.693493799671706e-02
2.119558750000000e+10 -1.006357792968104e+00 -4.680445723570652e-02
2.123745625000000e+10 -1.006360811459766e+00 -4.667199293001717e-02
2.127932500000000e+10 -1.006363887609991e+00 -4.653756517388563e-02
2.132119375000000e+10 -1.006367019971004e+00 -4.640119718832639e-02
2.136306250000000e+10 -1.006370207543776e+00 -4.626291456598272e-02
2.140493125000000e+10 -1.006373449672437e+00 -4.612274460197009e-02
2.144680000000000e+10 -1.006376746062857e+00 -4.598071590375541e-02
2.148866875000000e+10 -1.006380096593723e+00 -4.583685812043244e-02
2.153053750000000e+10 -1.006383501141570e+00 -4.569120202429811e-02
2.157240625000000e+10 -1.006386959280789e+00 -4.554377981115099e-02
2.161427500000000e+10 -1.006390470633745e+00 -4.539462512714600e-02
2.165614375000000e+10 -1.006394035054400e+00 -4.524377302580984e-02
2.169801250000000e+10 -1.006397652521535e+00 -4.509125932201254e-02
2.173988125000000e+10 -1.006401322708465e+00 -4.493712066216901e-02
2.178175000000000e+10 -1.006405044503994e+00 -4.478139512674186e-02
2.182361875000000e+10 -1.006408816008139e+00 -4.462412294065941e-02
2.186548750000000e+10 -1.006412635086906e+00 -4.446534692706467e-02
2.190735625000000e+10 -1.006416499554938e+00 -4.430511250186995e-02
2.194922500000000e+10 -1.006420407498178e+00 -4.414346749685802e-02
2.199109375000000e+10 -1.006424357156684e+00 -4.398046258269118e-02
2.203296250000000e+10 -1.006428347654670e+00 -4.381615129533569e-02
2.207483125000000e+10 -1.006432379204909e+00 -4.365058865443737e-02
2.211670000000000e+10 -1.006436452595090e+00 -4.348383053526965e-02
2.215856875000000e+10 -1.006440568616082e+00 -4.331593394375720e-02
2.220043750000000e+10 -1.006444727917009e+00 -4.314695722897652e-02
2.224230625000000e+10 -1.006448930961153e+00 -4.297696071484500e-02
2.228417500000000e+10 -1.006453178384052e+00 -4.280600701382402e-02
2.232604375000000e+10 -1.006457471298133e+00 -4.263416040264445e-02
2.236791250000000e+10 -1.006461811262352e+00 -4.246148673362651e-02
2.240978125000000e+10 -1.006466200110383e+00 -4.228805294155494e-02
2.245165000000000e+10 -1.006470639332766e+00 -4.211392690066467e-02
2.249351875000000e+10 -1.006475129676915e+00 -4.193917825370579e-02
2.253538750000000e+10 -1.006479671141400e+00 -4.176387912703118e-02
2.257725625000000e+10 -1.006484263659930e+00 -4.158810416686671e-02
2.261912500000000e+10 -1.006488907093939e+00 -4.141193006938314e-02
2.266099375000000e+10 -1.006493601459545e+00 -4.123543630751712e-02
2.270286250000000e+10 -1.006498347750555e+00 -4.105870342120190e-02
2.274473125000000e+10 -1.006503147386229e+00 -4.088181313061499e-02
2.278660000000000e+10 -1.006508002085547e+00 -4.070484656678567e-02
2.282846875000000e+10 -1.006512914842823e+00 -4.052788230361191e-02
2.287033750000000e+10 -1.006517889540771e+00 -4.035099611128465e-02
2.291220625000000e+10 -1.006522930370694e+00 -4.017426125814911e-02
2.295407500000000e+10 -1.006528042439766e+00 -3.999774866593498e-02
2.299594375000000e+10 -1.006533231466818e+00 -3.982152626353184e-02
2.303781250000000e+10 -1.006538503596624e+00 -3.964565992620939e-02
2.307968125000000e+10 -1.006543865631527e+00 -3.947021292110370e-02
2.312155000000000e+10 -1.006549325030770e+00 -3.929524587435259e-02
2.316341875000000e+10 -1.006554889967811e+00 -3.912081639967882e-02
2.320528750000000e+10 -1.006560568608489e+00 -3.894697865698009e-02
2.324715625000000e+10 -1.006566368269001e+00 -3.877378415195235e-02
2.328902500000000e+10 -1.006572295602364e+00 -3.860128254893701e-02
2.333089375000000e+10 -1.006578356765722e+00 -3.842952250562107e-02
2.337276250000000e+10 -1.006584557888623e+00 -3.825855176706418e-02
2.341463125000000e+10 -1.006590905664886e+00 -3.808841761190240e-02
2.345650000000000e+10 -1.006597407849283e+00 -3.791916576234429e-02
2.349836875000000e+10 -1.006604072703469e+00 -3.775083994273491e-02
2.354023750000000e+10 -1.006610908999815e+00 -3.758348201084336e-02
2.358210625000000e+10 -1.006617926032471e+00 -3.741713160385734e-02
2.362397500000000e+10 -1.006625133398872e+00 -3.725182614363423e-02
2.366584375000000e+10 -1.006632540893069e+00 -3.708760121199637e-02
2.370771250000000e+10 -1.006640158396578e+00 -3.692449027948667e-02
2.374958125000000e+10 -1.006647995697286e+00 -3.676252485626846e-02
2.379145000000000e+10 -1.006656062725443e+00 -3.660173450867939e-02
2.383331875000000e+10 -1.006664369701419e+00 -3.644214656462947e-02
2.387518750000000e+10 -1.006672926825218e+00 -3.628378594841185e-02
2.391705625000000e+10 -1.006681744064117e+00 -3.612667516793203e-02
2.395892500000000e+10 -1.006690830496159e+00 -3.597083412267268e-02
2.400079375000000e+10 -1.006700193646923e+00 -3.581628151539631e-02
2.404266250000000e+10 -1.006709840464955e+00 -3.566303624182892e-02
2.408453125000000e+10 -1.006719778239228e+00 -3.551111680266857e-02
2.412640000000000e+10 -1.006730014597285e+00 -3.536054018917365e-02
2.416826875000000e+10 -1.006740557103970e+00 -3.521132202358467e-02
2.421013750000000e+10 -1.006751413592604e+00 -3.506347614768942e-02
2.425200625000000e+10 -1.006762591474200e+00 -3.491701434593886e-02
2.429387500000000e+10 -1.006774097630664e+00 -3.477194671852484e-02
2.433574375000000e+10 -1.006785938295023e+00 -3.462828141076129e-02
2.437761250000000e+10 -1.006798118912974e+00 -3.448602532417126e-02
2.441948125000000e+10 -1.006810644320627e+00 -3.434518427020284e-02
2.446135000000000e+10 -1.006823518514060e+00 -3.420576288051010e-02
2.450321875000000e+10 -1.006836744333307e+00 -3.406776530620404e-02
2.454508750000000e+10 -1.006850324017784e+00 -3.393119531274992e-02
2.458695625000000e+10 -1.006864258938606e+00 -3.379605635133752e-02
2.462882500000000e+10 -1.006878550434418e+00 -3.366235195542819e-02
2.467069375000000e+10 -1.006893199471825e+00 -3.353008562210617e-02
2.471256250000000e+10 -1.006908206901140e+00 -3.339926112279723e-02
2.475443125000000e+10 -1.006923573719345e+00 -3.326988265888556e-02
2.479630000000000e+10 -1.006939301256090e+00 -3.314195453870467e-02
2.483816875000000e+10 -1.006955391232625e+00 -3.301548127288737e-02
2.488003750000000e+10 -1.006971845943645e+00 -3.289046738574180e-02
2.492190625000000e+10 -1.006988668301930e+00 -3.276691698483603e-02
2.496377500000000e+10 -1.007005861463530e+00 -3.264483376936963e-02
2.500564375000000e+10 -1.007023429048442e+00 -3.252422114540508e-02
2.504751250000000e+10 -1.007041375437396e+00 -3.240508164775689e-02
2.508938125000000e+10 -1.007059705490189e+00 -3.228741643257396e-02
2.513125000000000e+10 -1.007078424207317e+00 -3.217122529932397e-02
2.517311875000000e+10 -1.007097536654214e+00 -3.205650637487339e-02
2.521498750000000e+10 -1.007117047433487e+00 -3.194325617357836e-02
2.525685625000000e+10 -1.007136960694144e+00 -3.183147000209852e-02
2.529872500000000e+10 -1.007157279841502e+00 -3.172114236717939e-02
2.534059375000000e+10 -1.007178007626633e+00 -3.161226729437670e-02
2.538246250000000e+10 -1.007199146024607e+00 -3.150483853131041e-02
2.542433125000000e+10 -1.007220696344075e+00 -3.139884994297117e-02
2.546620000000000e+10 -1.007242659063027e+00 -3.129429624060154e-02
2.550806875000000e+10 -1.007265034501588e+00 -3.119117350456911e-02
2.554993750000000e+10 -1.007287823683179e+00 -3.108947943834553e-02
2.559180625000000e+10 -1.007311028268615e+00 -3.098921257688763e-02
2.563367500000000e+10 -1.007334650768398e+00 -3.089037238788650e-02
2.567554375000000e+10 -1.007358694695293e+00 -3.079295900277061e-02
2.571741250000000e+10 -1.007383164450305e+00 -3.069697243523309e-02
2.575928125000000e+10 -1.007408064611027e+00 -3.060241218476574e-02
2.580115000000000e+10 -1.007433399977480e+00 -3.050927782779241e-02
2.584301875000000e+10 -1.007459175558244e+00 -3.041756883519389e-02
2.588488750000000e+10 -1.007485396603239e+00 -3.032728450443982e-02
2.592675625000000e+10 -1.007512068269050e+00 -3.023842366969783e-02
2.596862500000000e+10 -1.007539195338714e+00 -3.015098508194044e-02
2.601049375000000e+10 -1.007566781757780e+00 -3.006496769105663e-02
2.605236250000000e+10 -1.007594830672882e+00 -2.998037145319308e-02
2.609423125000000e+10 -1.007623345173095e+00 -2.989719798807070e-02
2.613610000000000e+10 -1.007652328455660e+00 -2.981544979430759e-02
2.617796875000000e+10 -1.007681783833272e+00 -2.973513045901681e-02
2.621983750000000e+10 -1.007711714666285e+00 -2.965624391701690e-02
2.626170625000000e+10 -1.007742124272008e+00 -2.957879443108865e-02
2.630357500000000e+10 -1.007773016034825e+00 -2.950278662366428e-02
2.634544375000000e+10 -1.007804393331899e+00 -2.942822518544527e-02
2.638731250000000e+10 -1.007836259540361e+00 -2.935511482589574e-02
2.642918125000000e+10 -1.007868618140179e+00 -2.928346021178812e-02
2.647105000000000e+10 -1.007901472813337e+00 -2.921326541135565e-02
2.651291875000000e+10 -1.007934826740847e+00 -2.914453359479017e-02
2.655478750000000e+10 -1.007968682524573e+00 -2.907726712864461e-02
2.659665625000000e+10 -1.008003042183275e+00 -2.901146827908753e-02
2.663852500000000e+10 -1.008037907464531e+00 -2.894713863259955e-02
2.668039375000000e+10 -1.008073279863673e+00 -2.888427929052421e-02
2.672226250000000e+10 -1.008109160822810e+00 -2.882289121181260e-02
2.676413125000000e+10 -1.008145552467171e+00 -2.876297481447831e-02
2.680600000000000e+10 -1.008182457396229e+00 -2.870452871914420e-02
2.684786875000000e+10 -1.008219878000716e+00 -2.864754987634536e-02
2.688973750000000e+10 -1.008257816247904e+00 -2.859203364155493e-02
2.693160625000000e+10 -1.008296273461557e+00 -2.853797424502404e-02
2.697347500000000e+10 -1.008335250616025e+00 -2.848536544355188e-02
2.701534375000000e+10 -1.008374748717906e+00 -2.843420070507514e-02
2.705721250000000e+10 -1.008414768995476e+00 -2.838447261830846e-02
2.709908125000000e+10 -1.008455312617820e+00 -2.833617202922452e-02
2.714095000000000e+10 -1.008496379801072e+00 -2.828928790808996e-02
2.718281875000000e+10 -1.008537969183470e+00 -2.824380816636587e-02
2.722468750000000e+10 -1.008580077724178e+00 -2.819972085975923e-02
2.726655625000000e+10 -1.008622701159760e+00 -2.815701441887779e-02
2.730842500000000e+10 -1.008665834437255e+00 -2.811567767506148e-02
2.735029375000000e+10 -1.008709471686742e+00 -2.807570004154526e-02
2.739216250000000e+10 -1.008753606666959e+00 -2.803707166111240e-02
2.743403125000000e+10 -1.008798232874746e+00 -2.799978342193735e-02
2.747590000000000e+10 -1.008843343484769e+00 -2.796382682434554e-02
2.751776875000000e+10 -1.008888931646024e+00 -2.792919361627092e-02
2.755963750000000e+10 -1.008934990406134e+00 -2.789587516277009e-02
2.760150625000000e+10 -1.008981511905008e+00 -2.786386268610032e-02
2.764337500000000e+10 -1.009028487541537e+00 -2.783314763397203e-02
2.768524375000000e+10 -1.009075908190489e+00 -2.780372172317044e-02
2.772711250000000e+10 -1.009123764049034e+00 -2.777557727256374e-02
2.776898125000000e+10 -1.009172044907899e+00 -2.774870786880607e-02
2.781085000000000e+10 -1.009220740829883e+00 -2.772310869806148e-02
2.785271875000000e+10 -1.009269842704353e+00 -2.769877631082793e-02
2.789458750000000e+10 -1.009319342203747e+00 -2.767570756210454e-02
2.793645625000000e+10 -1.009369231553501e+00 -2.765389921365151e-02
2.797832500000000e+10 -1.009419503659427e+00 -2.763334798895902e-02
2.802019375000000e+10 -1.009470152232713e+00 -2.761404980742380e-02
2.806206250000000e+10 -1.009521170981124e+00 -2.759599989020412e-02
2.810393125000000e+10 -1.009572553628947e+00 -2.757919363486439e-02
2.814580000000000e+10 -1.009624293965128e+00 -2.756362671674831e-02
2.818766875000000e+10 -1.009676386301593e+00 -2.754929449511374e-02
2.822953750000000e+10 -1.009728824864273e+00 -2.753619132488590e-02
2.827140625000000e+10 -1.009781603616940e+00 -2.752431083090890e-02
2.831327500000000e+10 -1.009834716541627e+00 -2.751364606114548e-02
2.835514375000000e+10 -1.009888157279553e+00 -2.750418955510424e-02
2.839701250000000e+10 -1.009941919071447e+00 -2.749593368640465e-02
2.843888125000000e+10 -1.009995994950607e+00 -2.748887074404416e-02
2.848075000000000e+10 -1.010050377789517e+00 -2.748299292749923e-02
2.852261875000000e+10 -1.010105060534276e+00 -2.747829203642607e-02
2.856448750000000e+10 -1.010160035684472e+00 -2.747475922910786e-02
2.860635625000000e+10 -1.010215295158146e+00 -2.747238543314852e-02
2.864822500000000e+10 -1.010270830126397e+00 -2.747116169854382e-02
2.869009375000000e+10 -1.010326631448643e+00 -2.747107932512687e-02
2.873196250000000e+10 -1.010382689865522e+00 -2.747212924062885e-02
2.877383125000000e+10 -1.010438995822850e+00 -2.747430190816799e-02
2.881570000000000e+10 -1.010495539139543e+00 -2.747758698130756e-02
2.885756875000000e+10 -1.010552308749155e+00 -2.748197390214709e-02
2.889943750000000e+10 -1.010609292842409e+00 -2.748745224747351e-02
2.894130625000000e+10 -1.010666479177889e+00 -2.749401163507402e-02
2.898317500000000e+10 -1.010723854946085e+00 -2.750164102912441e-02
2.902504375000000e+10 -1.010781406472942e+00 -2.751032921582393e-02
2.906691250000000e+10 -1.010839119539150e+00 -2.752006524199644e-02
2.910878125000000e+10 -1.010896979438897e+00 -2.753083843930687e-02
2.915065000000000e+10 -1.010954971263271e+00 -2.754263852437874e-02
2.919251875000000e+10 -1.011013080223039e+00 -2.755545496360047e-02
2.923438750000000e+10 -1.011071291796150e+00 -2.756927692610151e-02
2.927625625000000e+10 -1.011129591195178e+00 -2.758409280815906e-02
2.931812500000000e+10 -1.011187963394274e+00 -2.759989080527088e-02
2.935999375000000e+10 -1.011246393171199e+00 -2.761665898838386e-02
2.940186250000000e+10 -1.011304864796241e+00 -2.763438552300053e-02
2.944373125000000e+10 -1.011363362193885e+00 -2.765305944492957e-02
2.948560000000000e+10 -1.011421869513056e+00 -2.767267044396049e-02
2.952746875000000e+10 -1.011480371278047e+00 -2.769320851205165e-02
2.956933750000000e+10 -1.011538852320943e+00 -2.771466359248446e-02
2.961120625000000e+10 -1.011597297490028e+00 -2.773702576261115e-02
2.965307500000000e+10 -1.011655691826112e+00 -2.776028527341436e-02
2.969494375000000e+10 -1.011714020684390e+00 -2.778443277660045e-02
2.973681250000000e+10 -1.011772269745947e+00 -2.780945939281835e-02
2.977868125000000e+10 -1.011830424903268e+00 -2.783535623566523e-02
2.982055000000000e+10 -1.011888472311554e+00 -2.786211545983879e-02
2.986241875000000e+10 -1.011946398652964e+00 -2.788972975074113e-02
2.990428750000000e+10 -1.012004190723558e+00 -2.791819227082781e-02
2.994615625000000e+10 -1.012061835939228e+00 -2.794749714737343e-02
2.998802500000000e+10 -1.012119322528434e+00 -2.797763875815788e-02
3.002989375000000e+10 -1.012176639166381e+00 -2.800861109689427e-02
3.007176250000000e+10 -1.012233774554315e+00 -2.804040784938124e-02
3.011363125000000e+10 -1.012290717404242e+00 -2.807302300698210e-02
3.015550000000000e+10 -1.012347456740077e+00 -2.810645119404154e-02
3.019736875000000e+10 -1.012403982626311e+00 -2.814068697905912e-02
3.023923750000000e+10 -1.012460285748203e+00 -2.817572414645108e-02
3.028110625000000e+10 -1.012516356840896e+00 -2.821155548995763e-02
3.032297500000000e+10 -1.012572186188706e+00 -2.824817347069250e-02
3.036484375000000e+10 -1.012627763561966e+00 -2.828557097836856e-02
3.040671250000000e+10 -1.012683078761374e+00 -2.832374211712796e-02
3.044858125000000e+10 -1.012738121727629e+00 -2.836268202685068e-02
3.049045000000000e+10 -1.012792882823792e+00 -2.840238684108543e-02
3.053231875000000e+10 -1.012847352489789e+00 -2.844285305670052e-02
3.057418750000000e+10 -1.012901521266654e+00 -2.848407775767396e-02
3.061605625000000e+10 -1.012955379719807e+00 -2.852605915917738e-02
3.065792500000000e+10 -1.013008919145564e+00 -2.856879609737744e-02
3.069979375000000e+10 -1.013062131321910e+00 -2.861228815407426e-02
3.074166250000000e+10 -1.013115008507172e+00 -2.865653537891545e-02
3.078353125000000e+10 -1.013167543752527e+00 -2.870153855072725e-02
3.082540000000000e+10 -1.013219730692765e+00 -2.874729886711979e-02
3.086726875000000e+10 -1.013271563788225e+00 -2.879381791419389e-02
3.090913750000000e+10 -1.013323038292487e+00 -2.884109755570686e-02
3.095100625000000e+10 -1.013374150077988e+00 -2.888913947778160e-02
3.099287500000000e+10 -1.013424895504431e+00 -2.893794547349851e-02
3.103474375000000e+10 -1.013475271539023e+00 -2.898751688850876e-02
3.107661250000000e+10 -1.013525275205547e+00 -2.903785472802750e-02
3.111848125000000e+10 -1.013574903489022e+00 -2.908895973999819e-02
3.116035000000000e+10 -1.013624153502001e+00 -2.914083273050647e-02
3.120221875000000e+10 -1.013673022487767e+00 -2.919347483136024e-02
3.124408750000000e+10 -1.013721508311548e+00 -2.924688718558477e-02
3.128595625000000e+10 -1.013769609014975e+00 -2.930107092087424e-02
3.132782500000000e+10 -1.013817323027850e+00 -2.935602759821483e-02
3.136969375000000e+10 -1.013864649544882e+00 -2.941175865970663e-02
3.141156250000000e+10 -1.013911588191764e+00 -2.946826484690641e-02
3.145343125000000e+10 -1.013958138876811e+00 -2.952554663274935e-02
3.149530000000000e+10 -1.014004301655207e+00 -2.958360452671118e-02
3.153716875000000e+10 -1.014050076581484e+00 -2.964243921072874e-02
3.157903750000000e+10 -1.014095464580539e+00 -2.970205158215751e-02
3.162090625000000e+10 -1.014140467077738e+00 -2.976244197338427e-02
3.166277500000000e+10 -1.014185085726541e+00 -2.982361056720682e-02
3.170464375000000e+10 -1.014229322513294e+00 -2.988555690862180e-02
3.174651250000000e+10 -1.014273179592464e+00 -2.994828036759864e-02
3.178838125000000e+10 -1.014316659170644e+00 -3.001178057600992e-02
3.183025000000000e+10 -1.014359763924922e+00 -3.007605701263225e-02
3.187211875000000e+10 -1.014402497357317e+00 -3.014110903194213e-02
3.191398750000000e+10 -1.014444863659185e+00 -3.020693497408842e-02
3.195585625000000e+10 -1.014486866988651e+00 -3.027353183208108e-02
3.199772500000000e+10 -1.014528511372865e+00 -3.034089547578231e-02
3.203959375000000e+10 -1.014569800538466e+00 -3.040902094658085e-02
3.208146250000000e+10 -1.014610737740699e+00 -3.047790276263774e-02
3.212333125000000e+10 -1.014651325842392e+00 -3.054753551352071e-02
3.216520000000000e+10 -1.014691567627579e+00 -3.061791381976128e-02
3.220706875000000e+10 -1.014731465439280e+00 -3.068903224002402e-02
3.224893750000000e+10 -1.014771021449336e+00 -3.076088525923975e-02
3.229080625000000e+10 -1.014810237585969e+00 -3.083346724142725e-02
3.233267500000000e+10 -1.014849115209904e+00 -3.090677263121322e-02
3.237454375000000e+10 -1.014887655204221e+00 -3.098079654916928e-02
3.241641250000000e+10 -1.014925858107378e+00 -3.105553424921420e-02
3.245828125000000e+10 -1.014963724519871e+00 -3.113098169697988e-02
3.250015000000000e+10 -1.015001255028120e+00 -3.120713491325748e-02
3.254201875000000e+10 -1.015038450251507e+00 -3.128398923674762e-02
3.258388750000000e+10 -1.015075310209971e+00 -3.136153936563892e-02
3.262575625000000e+10 -1.015111834483437e+00 -3.143977965870547e-02
3.266762500000000e+10 -1.015148022223525e+00 -3.151870403487692e-02
3.270949375000000e+10 -1.015183871860235e+00 -3.159830560419060e-02
3.275136250000000e+10 -1.015219381020024e+00 -3.167857752341595e-02
3.279323125000000e+10 -1.015254546246187e+00 -3.175951345081291e-02
3.283510000000000e+10 -1.015289363351620e+00 -3.184110727948328e-02
3.287696875000000e+10 -1.015323827880793e+00 -3.192335428274364e-02
3.291883750000000e+10 -1.015357934586753e+00 -3.200625071797757e-02
3.296070625000000e+10 -1.015391677893001e+00 -3.208979452542201e-02
3.300257500000000e+10 -1.015425052303323e+00 -3.217398503583848e-02
3.304444375000000e+10 -1.015458052725798e+00 -3.225882222562892e-02
3.308631250000000e+10 -1.015490674646776e+00 -3.234430633707370e-02
3.312818125000000e+10 -1.015522913925797e+00 -3.243043745255002e-02
3.317005000000000e+10 -1.015554767516290e+00 -3.251721583482064e-02
3.321191875000000e+10 -1.015586232839841e+00 -3.260464165764749e-02
3.325378750000000e+10 -1.015617308147150e+00 -3.269271467127822e-02
3.329565625000000e+10 -1.015647991645951e+00 -3.278143442313118e-02
3.333752500000000e+10 -1.015678281622993e+00 -3.287080067147671e-02
3.337939375000000e+10 -1.015708177061215e+00 -3.296081348616404e-02
3.342126250000000e+10 -1.015737677515250e+00 -3.305147268277276e-02
3.346313125000000e+10 -1.015766782995520e+00 -3.314277733602287e-02
3.350500000000000e+10 -1.015795493926220e+00 -3.323472594597717e-02
3.354686875000000e+10 -1.015823811068904e+00 -3.332731669713078e-02
3.358873750000000e+10 -1.015851735422103e+00 -3.342054720570765e-02
3.363060625000000e+10 -1.015879268174369e+00 -3.351441449828828e-02
3.367247500000000e+10 -1.015906410564727e+00 -3.360891492232387e-02
3.371434375000000e+10 -1.015933163270831e+00 -3.370404364240612e-02
3.375621250000000e+10 -1.015959526328963e+00 -3.379979500197965e-02
3.379808125000000e+10 -1.015985499147331e+00 -3.389616319763666e-02
3.383995000000000e+10 -1.016011080935768e+00 -3.399314293713293e-02
3.388181875000000e+10 -1.016036271038293e+00 -3.409072907523373e-02
3.392368750000000e+10 -1.016061068866854e+00 -3.418891696433073e-02
3.396555625000000e+10 -1.016085474238677e+00 -3.428770220717255e-02
3.400742500000000e+10 -1.016109487707852e+00 -3.438708016814643e-02
3.404929375000000e+10 -1.016133110596917e+00 -3.448704556233258e-02
3.409116250000000e+10 -1.016156344811348e+00 -3.458759219477550e-02
3.413303125000000e+10 -1.016179191861491e+00 -3.468871362718247e-02
3.417490000000000e+10 -1.016201653213369e+00 -3.479040311919946e-02
3.421676875000000e+10 -1.016223730496572e+00 -3.489265394004261e-02
3.425863750000000e+10 -1.016245425407505e+00 -3.499545929826639e-02
3.430050625000000e+10 -1.016266739702885e+00 -3.509881173044967e-02
3.434237500000000e+10 -1.016287674845327e+00 -3.520270292261426e-02
3.438424375000000e+10 -1.016308231479554e+00 -3.530712427500941e-02
3.442611250000000e+10 -1.016328409527032e+00 -3.541206726225651e-02
3.446798125000000e+10 -1.016348208816780e+00 -3.551752329068455e-02
3.450985000000000e+10 -1.016367628856977e+00 -3.562348361919813e-02
3.455171875000000e+10 -1.016386668697837e+00 -3.572993891432780e-02
3.459358750000000e+10 -1.016405327008467e+00 -3.583687964319629e-02
3.463545625000000e+10 -1.016423602159297e+00 -3.594429620317934e-02
3.467732500000000e+10 -1.016441491876949e+00 -3.605217832522206e-02
3.471919375000000e+10 -1.016458992912313e+00 -3.616051568142374e-02
3.476106250000000e+10 -1.016476101112431e+00 -3.626929873122832e-02
3.480293125000000e+10 -1.016492811826951e+00 -3.637851870082617e-02
3.484480000000000e+10 -1.016509120235834e+00 -3.648816694805471e-02
3.488666875000000e+10 -1.016525021280484e+00 -3.659823550054075e-02
3.492853750000000e+10 -1.016540509870545e+00 -3.670871702588430e-02
3.497040625000000e+10 -1.016555580630407e+00 -3.681960443862412e-02
3.501227500000000e+10 -1.016570227810053e+00 -3.693089110223768e-02
3.505414375000000e+10 -1.016584445610336e+00 -3.704257110568072e-02
3.509601250000000e+10 -1.016598228659379e+00 -3.715463897497018e-02
3.513788125000000e+10 -1.016611572011349e+00 -3.726708962743373e-02
3.517975000000000e+10 -1.016624471209947e+00 -3.737991820606378e-02
3.522161875000000e+10 -1.016636922416844e+00 -3.749311965603249e-02
3.526348750000000e+10 -1.016648922100446e+00 -3.760668822708172e-02
3.530535625000000e+10 -1.016660466842960e+00 -3.772061733934504e-02
3.534722500000000e+10 -1.016671553171800e+00 -3.783489954924139e-02
3.538909375000000e+10 -1.016682177538463e+00 -3.794952695698607e-02
3.543096250000000e+10 -1.016692336387958e+00 -3.806449115706200e-02
3.547283125000000e+10 -1.016702026212321e+00 -3.817978298470270e-02
3.551470000000000e+10 -1.016711243720511e+00 -3.829539297754044e-02
3.555656875000000e+10 -1.016719985633789e+00 -3.841131136541391e-02
3.559843750000000e+10 -1.016728248552180e+00 -3.852752831843293e-02
3.564030625000000e+10 -1.016736028491251e+00 -3.864403429043558e-02
3.568217500000000e+10 -1.016743321526665e+00 -3.876082012443192e-02
3.572404375000000e+10 -1.016750123956788e+00 -3.887787698565682e-02
3.576591250000000e+10 -1.016756432429985e+00 -3.899519631282767e-02
3.580778125000000e+10 -1.016762243876052e+00 -3.911276952415338e-02
3.584965000000000e+10 -1.016767555416443e+00 -3.923058824288402e-02
3.589151875000000e+10 -1.016772364346225e+00 -3.934864354372979e-02
3.593338750000000e+10 -1.016776668212821e+00 -3.946692632551617e-02
3.597525625000000e+10 -1.016780464879971e+00 -3.958542748310035e-02
3.601712500000000e+10 -1.016783752679740e+00 -3.970413797041093e-02
3.605899375000000e+10 -1.016786530724803e+00 -3.982304830605448e-02
3.610086250000000e+10 -1.016788798199135e+00 -3.994214817819092e-02
3.614273125000000e+10 -1.016790554472539e+00 -4.006142657866973e-02
3.618460000000000e+10 -1.016791798788807e+00 -4.018087201952307e-02
3.622646875000000e+10 -1.016792530442620e+00 -4.030047317994010e-02
3.626833750000000e+10 -1.016792749131215e+00 -4.042021868805890e-02
3.631020625000000e+10 -1.016792454736789e+00 -4.054009693012841e-02
3.635207500000000e+10 -1.016791647740685e+00 -4.066009551321412e-02
3.639394375000000e+10 -1.016790328518391e+00 -4.078020129594623e-02
3.643581250000000e+10 -1.016788497203851e+00 -4.090040108148964e-02
3.647768125000000e+10 -1.016786154029656e+00 -4.102068153096019e-02
3.651955000000000e+10 -1.016783299493554e+00 -4.114102955839521e-02
3.656141875000000e+10 -1.016779934683036e+00 -4.126143202769400e-02
3.660328750000000e+10 -1.016776061229067e+00 -4.138187579194467e-02
3.664515625000000e+10 -1.016771681718260e+00 -4.150234707781660e-02
3.668702500000000e+10 -1.016766799222402e+00 -4.162283191490652e-02
3.672889375000000e+10 -1.016761417296507e+00 -4.174331606096968e-02
3.677076250000000e+10 -1.016755539967403e+00 -4.186378473124054e-02
3.681263125000000e+10 -1.016749171397536e+00 -4.198422246015643e-02
3.685450000000000e+10 -1.016742315914883e+00 -4.210461346479674e-02
3.689636875000000e+10 -1.016734978123642e+00 -4.222494077769578e-02
3.693823750000000e+10 -1.016727163091092e+00 -4.234518647982798e-02
3.698010625000000e+10 -1.016718875878124e+00 -4.246533133395285e-02
3.702197500000000e+10 -1.016710121925485e+00 -4.258535434892690e-02
3.706384375000000e+10 -1.016700906726853e+00 -4.270523302244454e-02
3.710571250000000e+10 -1.016691235154749e+00 -4.282494334099107e-02
3.714758125000000e+10 -1.016681111665231e+00 -4.294446061983174e-02
3.718945000000000e+10 -1.016670540177667e+00 -4.306375982528336e-02
3.723131875000000e+10 -1.016659524476500e+00 -4.318281502827660e-02
3.727318750000000e+10 -1.016648068118155e+00 -4.330159969071459e-02
3.731505625000000e+10 -1.016636174363371e+00 -4.342008617013307e-02
3.735692500000000e+10 -1.016623846177083e+00 -4.353824571674673e-02
3.739879375000000e+10 -1.016611085964318e+00 -4.365604922774759e-02
3.744066250000000e+10 -1.016597895728788e+00 -4.377346760088054e-02
3.748253125000000e+10 -1.016584277543194e+00 -4.389047144936524e-02
3.752440000000000e+10 -1.016570233964798e+00 -4.400703119076260e-02
3.756626875000000e+10 -1.016555768016189e+00 -4.412311683253396e-02
3.760813750000000e+10 -1.016540882823197e+00 -4.423869765405982e-02
3.765000625000000e+10 -1.016525581528998e+00 -4.435374236836771e-02
3.769187500000000e+10 -1.016509867627946e+00 -4.446821959174592e-02
3.773374375000000e+10 -1.016493744923786e+00 -4.458209812718464e-02
3.777561250000000e+10 -1.016477217461299e+00 -4.469534628952451e-02
3.781748125000000e+10 -1.016460290319978e+00 -4.480793224834872e-02
3.785935000000000e+10 -1.016442969312556e+00 -4.491982303785484e-02
3.790121875000000e+10 -1.016425260343529e+00 -4.503098428500997e-02
3.794308750000000e+10 -1.016407169627135e+00 -4.514138116141724e-02
3.798495625000000e+10 -1.016388703485922e+00 -4.525097733411420e-02
3.802682500000000e+10 -1.016369868314697e+00 -4.535973546406213e-02
3.806869375000000e+10 -1.016350670239617e+00 -4.546761753894454e-02
3.811056250000000e+10 -1.016331115212559e+00 -4.557458546162644e-02
3.815243125000000e+10 -1.016311208861578e+00 -4.568060126388623e-02
3.819430000000000e+10 -1.016290956664807e+00 -4.578562708640863e-02
3.823616875000000e+10 -1.016270364296610e+00 -4.588962520406850e-02
3.827803750000000e+10 -1.016249437229177e+00 -4.599255802047107e-02
3.831990625000000e+10 -1.016228180486148e+00 -4.609438849598081e-02
3.836177500000000e+10 -1.016206598823407e+00 -4.619507968348750e-02
3.840364375000000e+10 -1.016184696720687e+00 -4.629459526646752e-02
3.844551250000000e+10 -1.016162478463565e+00 -4.639289961069885e-02
3.848738125000000e+10 -1.016139948036062e+00 -4.648995768855125e-02
3.852925000000000e+10 -1.016117109091286e+00 -4.658573534495725e-02
3.857111875000000e+10 -1.016093964926834e+00 -4.668019871632871e-02
3.861298750000000e+10 -1.016070518206714e+00 -4.677331491826558e-02
3.865485625000000e+10 -1.016046771495030e+00 -4.686505234214038e-02
3.869672500000000e+10 -1.016022727400257e+00 -4.695538089107266e-02
3.873859375000000e+10 -1.015998388924431e+00 -4.704427157790664e-02
3.878046250000000e+10 -1.015973759045749e+00 -4.713169651309170e-02
3.882233125000000e+10 -1.015948840918440e+00 -4.721762881875409e-02
3.886420000000000e+10 -1.015923637748460e+00 -4.730204268464151e-02
3.890606875000000e+10 -1.015898152859974e+00 -4.738491318631368e-02
3.894793750000000e+10 -1.015872389528645e+00 -4.746621627435224e-02
3.898980625000000e+10 -1.015846350845152e+00 -4.754592862911375e-02
3.903167500000000e+10 -1.015820040100107e+00 -4.762402726977380e-02
3.907354375000000e+10 -1.015793460868987e+00 -4.770048974856777e-02
3.911541250000000e+10 -1.015766617149833e+00 -4.777529466640432e-02
3.915728125000000e+10 -1.015739512923058e+00 -4.784842076295397e-02
3.919915000000000e+10 -1.015712152067458e+00 -4.791984699360120e-02
3.924101875000000e+10 -1.015684538275862e+00 -4.798955300221000e-02
3.928288750000000e+10 -1.015656675106021e+00 -4.805751947524236e-02
3.932475625000000e+10 -1.015628566086961e+00 -4.812372791188915e-02
3.936662500000000e+10 -1.015600214863834e+00 -4.818816020497210e-02
3.940849375000000e+10 -1.015571625118035e+00 -4.825079813115164e-02
3.945036250000000e+10 -1.015542800246326e+00 -4.831162353814347e-02
3.949223125000000e+10 -1.015513742799477e+00 -4.837061940815391e-02
3.953410000000000e+10 -1.015484455077191e+00 -4.842776965834074e-02
3.957596875000000e+10 -1.015454939045427e+00 -4.848305905381433e-02
3.961783750000000e+10 -1.015425196571796e+00 -4.853647364391939e-02
3.965970625000000e+10 -1.015395229784175e+00 -4.858799985659045e-02
3.970157500000000e+10 -1.015365041398798e+00 -4.863762485881583e-02
3.974344375000000e+10 -1.015334633627953e+00 -4.868533693355504e-02
3.978531250000000e+10 -1.015304008477948e+00 -4.873112504160352e-02
3.982718125000000e+10 -1.015273167790748e+00 -4.877497897468839e-02
3.986905000000000e+10 -1.015242113185142e+00 -4.881688935234772e-02
3.991091875000000e+10 -1.015210846597898e+00 -4.885684770119061e-02
3.995278750000000e+10 -1.015179370232099e+00 -4.889484638203561e-02
3.999465625000000e+10 -1.015147686150353e+00 -4.893087846228361e-02
4.003652500000000e+10 -1.015115796349005e+00 -4.896493756693768e-02
4.007839375000000e+10 -1.015083702729670e+00 -4.899701825284102e-02
4.012026250000000e+10 -1.015051407479835e+00 -4.902711591943365e-02
4.016213125000000e+10 -1.015018913085636e+00 -4.905522657014460e-02
4.020400000000000e+10 -1.014986222317933e+00 -4.908134659040803e-02
4.024586875000000e+10 -1.014953337828799e+00 -4.910547283331317e-02
4.028773750000000e+10 -1.014920261964829e+00 -4.912760276275611e-02
4.032960625000000e+10 -1.014886997070910e+00 -4.914773462189938e-02
4.037147500000000e+10 -1.014853545112833e+00 -4.916586774184241e-02
4.041334375000000e+10 -1.014819907860613e+00 -4.918200216517825e-02
4.045521250000000e+10 -1.014786086710209e+00 -4.919613902973567e-02
4.049708125000000e+10 -1.014752082981317e+00 -4.920828095783505e-02
4.053895000000000e+10 -1.014717897974712e+00 -4.921843148484367e-02
4.058081875000000e+10 -1.014683532474777e+00 -4.922659499903115e-02
4.062268750000000e+10 -1.014648987163247e+00 -4.923277679970835e-02
4.066455625000000e+10 -1.014614262304258e+00 -4.923698308484651e-02
4.070642500000000e+10 -1.014579357830278e+00 -4.923922099773984e-02
4.074829375000000e+10 -1.014544273014704e+00 -4.923949892272000e-02
4.079016250000000e+10 -1.014509006890889e+00 -4.923782635849518e-02
4.083203125000000e+10 -1.014473558401979e+00 -4.923421442977072e-02
4.087390000000000e+10 -1.014437926467243e+00 -4.922867563446506e-02
4.091576875000000e+10 -1.014402110041036e+00 -4.922122365619554e-02
4.095763750000000e+10 -1.014366107927234e+00 -4.921187338013330e-02
4.099950625000000e+10 -1.014329918997317e+00 -4.920064101538022e-02
4.104137500000000e+10 -1.014293541834035e+00 -4.918754439399833e-02
4.108324375000000e+10 -1.014256974962857e+00 -4.917260292164301e-02
4.112511250000000e+10 -1.014220217014276e+00 -4.915583745342717e-02
4.116698125000000e+10 -1.014183266773021e+00 -4.913727016808261e-02
4.120885000000000e+10 -1.014146123177106e+00 -4.911692459818272e-02
4.125071875000000e+10 -1.014108785202601e+00 -4.909482555784631e-02
4.129258750000000e+10 -1.014071252067142e+00 -4.907099951006508e-02
4.133445625000000e+10 -1.014033523512459e+00 -4.904547390673120e-02
4.137632500000000e+10 -1.013995599765159e+00 -4.901827715922314e-02
4.141819375000000e+10 -1.013957481314863e+00 -4.898943896004561e-02
4.146006250000000e+10 -1.013919168865313e+00 -4.895899018020654e-02
4.150193125000000e+10 -1.013880663534846e+00 -4.892696258720201e-02
4.154380000000000e+10 -1.013841966656990e+00 -4.889338841543932e-02
4.158566875000000e+10 -1.013803079196425e+00 -4.885830055203026e-02
4.162753750000000e+10 -1.013764001908936e+00 -4.882173277239667e-02
4.166940625000000e+10 -1.013724735353238e+00 -4.878372001383306e-02
4.171127500000000e+10 -1.013685280171853e+00 -4.874429854666829e-02
4.175314375000000e+10 -1.013645636877044e+00 -4.870350615261537e-02
4.179501250000000e+10 -1.013605806398622e+00 -4.866138200123728e-02
4.183688125000000e+10 -1.013565789959357e+00 -4.861796672068779e-02
4.187875000000000e+10 -1.013525589282307e+00 -4.857330229052714e-02
4.192061875000000e+10 -1.013485206550771e+00 -4.852743186075255e-02
4.196248750000000e+10 -1.013444644377939e+00 -4.848039998954686e-02
4.200435625000000e+10 -1.013403906320393e+00 -4.843225303231735e-02
4.204622500000000e+10 -1.013362996806394e+00 -4.838303864263805e-02
4.208809375000000e+10 -1.013321921462502e+00 -4.833280565637265e-02
4.212996250000000e+10 -1.013280687123178e+00 -4.828160298582375e-02
4.217183125000000e+10 -1.013239301819132e+00 -4.822948021684323e-02
4.221370000000000e+10 -1.013197774631132e+00 -4.817648715593740e-02
4.225556875000000e+10 -1.013156115683460e+00 -4.812267387199572e-02
4.229743750000000e+10 -1.013114335966547e+00 -4.806809070531469e-02
4.233930625000000e+10 -1.013072447417486e+00 -4.801278762106614e-02
4.238117500000000e+10 -1.013030462780121e+00 -4.795681406167031e-02
4.242304375000000e+10 -1.012988395450457e+00 -4.790021874990300e-02
4.246491250000000e+10 -1.012946259172213e+00 -4.784305072040348e-02
4.250678125000000e+10 -1.012904068246870e+00 -4.778535765325825e-02
4.254865000000000e+10 -1.012861837423823e+00 -4.772718671054218e-02
4.259051875000000e+10 -1.012819581853316e+00 -4.766858484372698e-02
4.263238750000000e+10 -1.012777317112077e+00 -4.760959921472076e-02
4.267425625000000e+10 -1.012735058845925e+00 -4.755027625223298e-02
4.271612500000000e+10 -1.012692822331416e+00 -4.749066097211599e-02
4.275799375000000e+10 -1.012650622357937e+00 -4.743079728320933e-02
4.279986250000000e+10 -1.012608473553283e+00 -4.737072751131419e-02
4.284173125000000e+10 -1.012566390208788e+00 -4.731049248395302e-02
4.288360000000000e+10 -1.012524386376879e+00 -4.725013202778346e-02
4.292546875000000e+10 -1.012482475947280e+00 -4.718968451873453e-02
4.296733750000000e+10 -1.012440672409207e+00 -4.712918708536634e-02
4.300920625000000e+10 -1.012398988963450e+00 -4.706867545481198e-02
4.305107500000000e+10 -1.012357438355450e+00 -4.700818389289943e-02
4.309294375000000e+10 -1.012316032729008e+00 -4.694774518315335e-02
4.313481250000000e+10 -1.012274783609859e+00 -4.688739081256395e-02
4.317668125000000e+10 -1.012233701925028e+00 -4.682715112486632e-02
4.321855000000000e+10 -1.012192798376806e+00 -4.676705518089029e-02
4.326041875000000e+10 -1.012152083282480e+00 -4.670713079986220e-02
4.330228750000000e+10 -1.012111566353786e+00 -4.664740443367409e-02
4.334415625000000e+10 -1.012071256647985e+00 -4.658790147855697e-02
4.338602500000000e+10 -1.012031162871323e+00 -4.652864680900770e-02
4.342789375000000e+10 -1.011991293007062e+00 -4.646966484479961e-02
4.346976250000000e+10 -1.011951654328753e+00 -4.641097924953824e-02
4.351163125000000e+10 -1.011912253534105e+00 -4.635261294576756e-02
4.355350000000000e+10 -1.011873096704639e+00 -4.629458840671335e-02
4.359536875000000e+10 -1.011834189339509e+00 -4.623692777278037e-02
4.363723750000000e+10 -1.011795536451459e+00 -4.617965281032272e-02
4.367910625000000e+10 -1.011757143050360e+00 -4.612278510064385e-02
4.372097500000000e+10 -1.011719013692299e+00 -4.606634579843323e-02
4.376284375000000e+10 -1.011681152460731e+00 -4.601035576259162e-02
4.380471250000000e+10 -1.011643563239843e+00 -4.595483597342662e-02
4.384658125000000e+10 -1.011606249861493e+00 -4.589980753988240e-02
4.388845000000000e+10 -1.011569216237965e+00 -4.584529143636412e-02
4.393031875000000e+10 -1.011532466053189e+00 -4.579130794923306e-02
4.397218750000000e+10 -1.011496003234751e+00 -4.573787682493911e-02
4.401405625000000e+10 -1.011459831435094e+00 -4.568501721070197e-02
4.405592500000000e+10 -1.011423954311029e+00 -4.563274783981828e-02
4.409779375000000e+10 -1.011388375438775e+00 -4.558108714529797e-02
4.413966250000000e+10 -1.011353098034179e+00 -4.553005337983550e-02
4.418153125000000e+10 -1.011318125142073e+00 -4.547966439840790e-02
4.422340000000000e+10 -1.011283459735988e+00 -4.542993775784469e-02
4.426526875000000e+10 -1.011249104752145e+00 -4.538089093853478e-02
4.430713750000000e+10 -1.011215062839428e+00 -4.533254114764298e-02
4.434900625000000e+10 -1.011181336385989e+00 -4.528490506767162e-02
4.439087500000000e+10 -1.011147927733042e+00 -4.523799907075587e-02
4.443274375000000e+10 -1.011114838842542e+00 -4.519183942446505e-02
4.447461250000000e+10 -1.011082071621578e+00 -4.514644274915572e-02
4.451648125000000e+10 -1.011049627670181e+00 -4.510182524459438e-02
4.455835000000000e+10 -1.011017508862537e+00 -4.505800329105285e-02
4.460021875000000e+10 -1.010985717181094e+00 -4.501499300263777e-02
4.464208750000000e+10 -1.010954255018083e+00 -4.497281014218270e-02
4.468395625000000e+10 -1.010923124799867e+00 -4.493146992386039e-02
4.472582500000000e+10 -1.010892329290715e+00 -4.489098679856093e-02
4.476769375000000e+10 -1.010861871488016e+00 -4.485137516015178e-02
4.480956250000000e+10 -1.010831754636816e+00 -4.481264843546588e-02
4.485143125000000e+10 -1.010801981608924e+00 -4.477481879201557e-02
4.489330000000000e+10 -1.010772555003267e+00 -4.473789728002833e-02
4.493516875000000e+10 -1.010743476748520e+00 -4.470189460424739e-02
4.497703750000000e+10 -1.010714748307290e+00 -4.466682087112400e-02
4.501890625000000e+10 -1.010686370760606e+00 -4.463268625597430e-02
4.506077500000000e+10 -1.010658345142052e+00 -4.459950102538646e-02
4.510264375000000e+10 -1.010630672730792e+00 -4.456727514576204e-02
4.514451250000000e+10 -1.010603354687812e+00 -4.453601776666404e-02
4.518638125000000e+10 -1.010576392267344e+00 -4.450573730136467e-02
4.522825000000000e+10 -1.010549786691130e+00 -4.447644137768981e-02
4.527011875000000e+10 -1.010523539288470e+00 -4.444813675458911e-02
4.531198750000000e+10 -1.010497650917502e+00 -4.442082964122666e-02
4.535385625000000e+10 -1.010472122138854e+00 -4.439452617658819e-02
4.539572500000000e+10 -1.010446953370538e+00 -4.436923190244846e-02
4.543759375000000e+10 -1.010422144537807e+00 -4.434495158018664e-02
4.547946250000000e+10 -1.010397695177007e+00 -4.432168940840254e-02
4.552133125000000e+10 -1.010373604551752e+00 -4.429944938136657e-02
4.556320000000000e+10 -1.010349871933316e+00 -4.427823511653581e-02
4.560506875000000e+10 -1.010326496327113e+00 -4.425804919788293e-02
4.564693750000000e+10 -1.010303476624770e+00 -4.423889365976054e-02
4.568880625000000e+10 -1.010280811515283e+00 -4.422076954382404e-02
4.573067500000000e+10 -1.010258499243668e+00 -4.420367754750487e-02
4.577254375000000e+10 -1.010236537808834e+00 -4.418761823014757e-02
4.581441250000000e+10 -1.010214924976138e+00 -4.417259158421947e-02
4.585628125000000e+10 -1.010193658292140e+00 -4.415859674982724e-02
4.589815000000000e+10 -1.010172735039346e+00 -4.414563189537835e-02
4.594001875000000e+10 -1.010152152185150e+00 -4.413369488573777e-02
4.598188750000000e+10 -1.010131906555548e+00 -4.412278255277086e-02
4.602375625000000e+10 -1.010111994550155e+00 -4.411289152955474e-02
4.606562500000000e+10 -1.010092412167697e+00 -4.410401787523271e-02
4.610749375000000e+10 -1.010073155010809e+00 -4.409615726952124e-02
4.614936250000000e+10 -1.010054218480701e+00 -4.408930491171051e-02
4.619123125000000e+10 -1.010035597821168e+00 -4.408345543573197e-02
4.623310000000000e+10 -1.010017288101555e+00 -4.407860326473654e-02
4.627496875000000e+10 -1.009999284116296e+00 -4.407474222426396e-02
4.631683750000000e+10 -1.009981580073381e+00 -4.407186653625287e-02
4.635870625000000e+10 -1.009964169862821e+00 -4.406997040609078e-02
4.640057500000000e+10 -1.009947047167377e+00 -4.406904845839249e-02
4.644244375000000e+10 -1.009930205576250e+00 -4.406909582170038e-02
4.648431250000000e+10 -1.009913638760549e+00 -4.407010781662172e-02
4.652618125000000e+10 -1.009897340483891e+00 -4.407207962239220e-02
4.656805000000000e+10 -1.009881304503526e+00 -4.407500627288037e-02
4.660991875000000e+10 -1.009865524502778e+00 -4.407888248568140e-02
4.665178750000000e+10 -1.009849994341649e+00 -4.408370265935335e-02
4.669365625000000e+10 -1.009834707859431e+00 -4.408946075969265e-02
4.673552500000000e+10 -1.009819658770888e+00 -4.409615056587445e-02
4.677739375000000e+10 -1.009804840549342e+00 -4.410376590430431e-02
4.681926250000000e+10 -1.009790246872106e+00 -4.411230085045038e-02
4.686113125000000e+10 -1.009775871678907e+00 -4.412174935276156e-02
4.690300000000000e+10 -1.009761709017336e+00 -4.413210515276911e-02
4.694486875000000e+10 -1.009747753322886e+00 -4.414336183679296e-02
4.698673750000000e+10 -1.009733999067350e+00 -4.415551283265739e-02
4.702860625000000e+10 -1.009720440991756e+00 -4.416855175296445e-02
4.707047500000000e+10 -1.009707073791600e+00 -4.418247222272516e-02
4.711234375000000e+10 -1.009693892606055e+00 -4.419726786301281e-02
4.715421250000000e+10 -1.009680893024424e+00 -4.421293201887331e-02
4.719608125000000e+10 -1.009668070847805e+00 -4.422945789126351e-02
4.723795000000000e+10 -1.009655421897538e+00 -4.424683851921678e-02
4.727981875000000e+10 -1.009642942448929e+00 -4.426506655684789e-02
4.732168750000000e+10 -1.009630629096894e+00 -4.428413420784754e-02
4.736355625000000e+10 -1.009618478181101e+00 -4.430403326552398e-02
4.740542500000000e+10 -1.009606485867571e+00 -4.432475579057924e-02
4.744729375000000e+10 -1.009594648619306e+00 -4.434629431383481e-02
4.748916250000000e+10 -1.009582963433515e+00 -4.436864153681213e-02
4.753103125000000e+10 -1.009571427517565e+00 -4.439178973506422e-02
4.757290000000000e+10 -1.009560038392987e+00 -4.441573072748648e-02
4.761476875000000e+10 -1.009548793889144e+00 -4.444045602186267e-02
4.765663750000000e+10 -1.009537692145370e+00 -4.446595701639874e-02
4.769850625000000e+10 -1.009526731595760e+00 -4.449222467902319e-02
4.774037500000000e+10 -1.009515911064930e+00 -4.451924979662280e-02
4.778224375000000e+10 -1.009505229523003e+00 -4.454702278860068e-02
4.782411250000000e+10 -1.009494685935171e+00 -4.457553365867808e-02
4.786598125000000e+10 -1.009484279289250e+00 -4.460477191323971e-02
4.790785000000000e+10 -1.009474008768479e+00 -4.463472685327421e-02
4.794971875000000e+10 -1.009463873568816e+00 -4.466538729820978e-02
4.799158750000000e+10 -1.009453872935504e+00 -4.469674182114484e-02
4.803345625000000e+10 -1.009444006059099e+00 -4.472877905078772e-02
4.807532500000000e+10 -1.009434272160176e+00 -4.476148736578093e-02
4.811719375000000e+10 -1.009424670242773e+00 -4.479485511807909e-02
4.815906250000000e+10 -1.009415199453069e+00 -4.482887083109979e-02
4.820093125000000e+10 -1.009405858952354e+00 -4.486352285132492e-02
4.824280000000000e+10 -1.009396648073663e+00 -4.489879941554761e-02
4.828466875000000e+10 -1.009387566273771e+00 -4.493468858431622e-02
4.832653750000000e+10 -1.009378612947380e+00 -4.497117813925239e-02
4.836840625000000e+10 -1.009369787377963e+00 -4.500825593924463e-02
4.841027500000000e+10 -1.009361088679634e+00 -4.504591010067672e-02
4.845214375000000e+10 -1.009352516253532e+00 -4.508412922372142e-02
4.849401250000000e+10 -1.009344069645516e+00 -4.512290175251524e-02
4.853588125000000e+10 -1.009335748138670e+00 -4.516221638480934e-02
4.857775000000000e+10 -1.009327550907375e+00 -4.520206135852002e-02
4.861961875000000e+10 -1.009319476899822e+00 -4.524242543046107e-02
4.866148750000000e+10 -1.009311525169248e+00 -4.528329756664227e-02
4.870335625000000e+10 -1.009303694684234e+00 -4.532466729853211e-02
4.874522500000000e+10 -1.009295984452920e+00 -4.536652440176173e-02
4.878709375000000e+10 -1.009288393248953e+00 -4.540885824719515e-02
4.882896250000000e+10 -1.009280919817216e+00 -4.545165848139158e-02
4.887083125000000e+10 -1.009273562800603e+00 -4.549491450895535e-02
4.891270000000000e+10 -1.009266320633148e+00 -4.553861591405878e-02
4.895456875000000e+10 -1.009259191600528e+00 -4.558275212142390e-02
4.899643750000000e+10 -1.009252173453019e+00 -4.562731256608266e-02
4.903830625000000e+10 -1.009245263890017e+00 -4.567228714020240e-02
4.908017500000000e+10 -1.009238460198630e+00 -4.571766591259738e-02
4.912204375000000e+10 -1.009231759387383e+00 -4.576343988501358e-02
4.916391250000000e+10 -1.009225158351235e+00 -4.580960066994290e-02
4.920578125000000e+10 -1.009218653830991e+00 -4.585614059040999e-02
4.924765000000000e+10 -1.009212242652493e+00 -4.590305257970339e-02
4.928951875000000e+10 -1.009205921327735e+00 -4.595033011299091e-02
4.933138750000000e+10 -1.009199686386162e+00 -4.599796703207268e-02
4.937325625000000e+10 -1.009193534273937e+00 -4.604595743377363e-02
4.941512500000000e+10 -1.009187461577764e+00 -4.609429585419429e-02
4.945699375000000e+10 -1.009181464692140e+00 -4.614297721856654e-02
4.949886250000000e+10 -1.009175539958675e+00 -4.619199731502521e-02
4.954073125000000e+10 -1.009169684109776e+00 -4.624135230722096e-02
4.958260000000000e+10 -1.009163893916272e+00 -4.629103867230763e-02
4.962446875000000e+10 -1.009158166210357e+00 -4.634105321616075e-02
4.966633750000000e+10 -1.009152497901672e+00 -4.639139284131914e-02
4.970820625000000e+10 -1.009146886112340e+00 -4.644205475604363e-02
4.975007500000000e+10 -1.009141327995102e+00 -4.649303639667953e-02
4.979194375000000e+10 -1.009135821066404e+00 -4.654433587895086e-02
4.983381250000000e+10 -1.009130363432990e+00 -4.659595184226884e-02
4.987568125000000e+10 -1.009124953351751e+00 -4.664788288237878e-02
4.991755000000000e+10 -1.009119589477760e+00 -4.670012809112855e-02
4.995941875000000e+10 -1.009114270843141e+00 -4.675268682429951e-02
5.000128750000000e+10 -1.009108997246954e+00 -4.680555825130368e-02
5.004315625000000e+10 -1.009103769146254e+00 -4.685874118909266e-02
5.008502500000000e+10 -1.009098587529124e+00 -4.691223414418660e-02
5.012689375000000e+10 -1.009093453534950e+00 -4.696603474052476e-02
5.016876250000000e+10 -1.009088368190762e+00 -4.702013992738716e-02
5.021063125000000e+10 -1.009083332373962e+00 -4.707454581664542e-02
5.025250000000000e+10 -1.009078346642189e+00 -4.712924791327298e-02
5.029436875000000e+10 -1.009073411362290e+00 -4.718424134643640e-02
5.033623750000000e+10 -1.009068527012435e+00 -4.723952091643001e-02
5.037810625000000e+10 -1.009063694274425e+00 -4.729508141933976e-02
5.041997500000000e+10 -1.009058914174009e+00 -4.735091688610257e-02
5.046184375000000e+10 -1.009054187563250e+00 -4.740702110554059e-02
5.050371250000000e+10 -1.009049515186036e+00 -4.746338791594060e-02
5.054558125000000e+10 -1.009044897529915e+00 -4.752001142503484e-02
5.058745000000000e+10 -1.009040335181346e+00 -4.757688599264694e-02
5.062931875000000e+10 -1.009035829082782e+00 -4.763400636638834e-02
5.067118750000000e+10 -1.009031380605746e+00 -4.769136718144738e-02
5.071305625000000e+10 -1.009026991194781e+00 -4.774896261159850e-02
5.075492500000000e+10 -1.009022662191283e+00 -4.780678602331648e-02
5.079679375000000e+10 -1.009018395020726e+00 -4.786483020953750e-02
5.083866250000000e+10 -1.009014190852067e+00 -4.792308744632843e-02
5.088053125000000e+10 -1.009010051069272e+00 -4.798154988248778e-02
5.092240000000000e+10 -1.009005977069919e+00 -4.804020937493161e-02
5.096426875000000e+10 -1.009001970136231e+00 -4.809905743367282e-02
5.100613750000000e+10 -1.008998031126451e+00 -4.815808580756511e-02
5.104800625000000e+10 -1.008994161168418e+00 -4.821728679850110e-02
5.108987500000000e+10 -1.008990361467568e+00 -4.827665259755623e-02
5.113174375000000e+10 -1.008986633421356e+00 -4.833617541166586e-02
5.117361250000000e+10 -1.008982978257372e+00 -4.839584731735860e-02
5.121548125000000e+10 -1.008979397142731e+00 -4.845566080024355e-02
5.125735000000000e+10 -1.008975891197182e+00 -4.851560904093630e-02
5.129921875000000e+10 -1.008972461618343e+00 -4.857568541302925e-02
5.134108750000000e+10 -1.008969109587154e+00 -4.863588371343967e-02
5.138295625000000e+10 -1.008965836478976e+00 -4.869619773133906e-02
5.142482500000000e+10 -1.008962643658633e+00 -4.875662144483828e-02
5.146669375000000e+10 -1.008959532677926e+00 -4.881714916568721e-02
5.150856250000000e+10 -1.008956505451969e+00 -4.887777561548954e-02
5.155043125000000e+10 -1.008953564379374e+00 -4.893849555882657e-02
5.159230000000000e+10 -1.008950712135902e+00 -4.899930347073980e-02
5.163416875000000e+10 -1.008947951224976e+00 -4.906019375120160e-02
5.167603750000000e+10 -1.008945283925040e+00 -4.912116057853642e-02
5.171790625000000e+10 -1.008942712308484e+00 -4.918219822156662e-02
5.175977500000000e+10 -1.008940238113615e+00 -4.924330119334346e-02
5.180164375000000e+10 -1.008937862806858e+00 -4.930446398988056e-02
5.184351250000000e+10 -1.008935587668323e+00 -4.936568140943148e-02
5.188538125000000e+10 -1.008933413666225e+00 -4.942694840153364e-02
5.192725000000000e+10 -1.008931341468828e+00 -4.948826030233906e-02
5.196911875000000e+10 -1.008929371387015e+00 -4.954961261613060e-02
5.201098750000000e+10 -1.008927503417617e+00 -4.961100141286212e-02
5.205285625000000e+10 -1.008925737187159e+00 -4.967242299246297e-02
5.209472500000000e+10 -1.008924071947172e+00 -4.973387412967154e-02
5.213659375000000e+10 -1.008922506695086e+00 -4.979535250245129e-02
5.217846250000000e+10 -1.008921040301072e+00 -4.985685714501875e-02
5.222033125000000e+10 -1.008919671772790e+00 -4.991838808413591e-02
5.226220000000000e+10 -1.008918400562973e+00 -4.997994601255363e-02
5.230406875000000e+10 -1.008917226239644e+00 -5.004153203785893e-02
5.234593750000000e+10 -1.008916148598784e+00 -5.010314704774829e-02
5.238780625000000e+10 -1.008915166955458e+00 -5.016479210981427e-02
5.242967500000000e+10 -1.008914280652762e+00 -5.022646839739439e-02
5.247154375000000e+10 -1.008913489071882e+00 -5.028817679035141e-02
5.251341250000000e+10 -1.008912791147021e+00 -5.034991815122932e-02
5.255528125000000e+10 -1.008912185508579e+00 -5.041169345707324e-02
5.259715000000000e+10 -1.008911670811009e+00 -5.047350455308459e-02
5.263901875000000e+10 -1.008911245939749e+00 -5.053535346806532e-02
5.268088750000000e+10 -1.008910909527460e+00 -5.059724246957140e-02
5.272275625000000e+10 -1.008910660281187e+00 -5.065917398542860e-02
5.276462500000000e+10 -1.008910496892020e+00 -5.072115063612177e-02
5.280649375000000e+10 -1.008910418302904e+00 -5.078317465106150e-02
5.284836250000000e+10 -1.008910423337985e+00 -5.084524745030429e-02
5.289023125000000e+10 -1.008910510498832e+00 -5.090737004734840e-02
5.293210000000000e+10 -1.008910678089810e+00 -5.096954278747490e-02
5.297396875000000e+10 -1.008910923751739e+00 -5.103176585948659e-02
5.301583750000000e+10 -1.008911244768012e+00 -5.109403968627443e-02
5.305770625000000e+10 -1.008911638062156e+00 -5.115636505131339e-02
5.309957500000000e+10 -1.008912100648934e+00 -5.121874302868424e-02
5.314144375000000e+10 -1.008912629556863e+00 -5.128117473278396e-02
5.318331250000000e+10 -1.008913221857106e+00 -5.134366125301229e-02
5.322518125000000e+10 -1.008913874552468e+00 -5.140620360423680e-02
5.326705000000000e+10 -1.008914585040570e+00 -5.146880267637997e-02
5.330891875000000e+10 -1.008915350740592e+00 -5.153145865316372e-02
5.335078750000000e+10 -1.008916169335799e+00 -5.159417155984885e-02
5.339265625000000e+10 -1.008917038753512e+00 -5.165694106056234e-02
5.343452500000000e+10 -1.008917956972086e+00 -5.171976601547190e-02
5.347639375000000e+10 -1.008918921899392e+00 -5.178264443939978e-02
5.351826250000000e+10 -1.008919931149702e+00 -5.184557373930827e-02
5.356013125000000e+10 -1.008920981931024e+00 -5.190855083247502e-02
5.360200000000000e+10 -1.008922071200258e+00 -5.197157222683473e-02
5.364386875000000e+10 -1.008923195949753e+00 -5.203463447374799e-02
5.368573750000000e+10 -1.008924352734392e+00 -5.209773383463158e-02
5.372760625000000e+10 -1.008925537503165e+00 -5.216086654533326e-02
5.376947500000000e+10 -1.008926745852068e+00 -5.222402913236785e-02
5.381134375000000e+10 -1.008927973420585e+00 -5.228721745798420e-02
5.385321250000000e+10 -1.008929215761922e+00 -5.235042717170176e-02
5.389508125000000e+10 -1.008930468364965e+00 -5.241365388709542e-02
5.393695000000000e+10 -1.008931727101358e+00 -5.247689374601720e-02
5.397881875000000e+10 -1.008932988157514e+00 -5.254014272343267e-02
5.402068750000000e+10 -1.008934247704863e+00 -5.260339603541146e-02
5.406255625000000e+10 -1.008935502057529e+00 -5.266664886612326e-02
5.410442500000000e+10 -1.008936747717698e+00 -5.272989661287733e-02
5.414629375000000e+10 -1.008937981564310e+00 -5.279313442984439e-02
5.418816250000000e+10 -1.008939200806456e+00 -5.285635695825835e-02
5.423003125000000e+10 -1.008940402902730e+00 -5.291955900803511e-02
5.427190000000000e+10 -1.008941585599601e+00 -5.298273532424402e-02
5.431376875000000e+10 -1.008942746812700e+00 -5.304588020666230e-02
5.435563750000000e+10 -1.008943884797975e+00 -5.310898754979038e-02
5.439750625000000e+10 -1.008944997389510e+00 -5.317205110867084e-02
5.443937500000000e+10 -1.008946082547478e+00 -5.323506399867815e-02
5.448124375000000e+10 -1.008947137816847e+00 -5.329801899351524e-02
5.452311250000000e+10 -1.008948160252845e+00 -5.336090914349531e-02
5.456498125000000e+10 -1.008949146869764e+00 -5.342372790421122e-02
5.460685000000000e+10 -1.008950094648626e+00 -5.348646891509182e-02
5.464871875000000e+10 -1.008951000553917e+00 -5.354912664202810e-02
5.469058750000000e+10 -1.008951861052407e+00 -5.361169619966587e-02
5.473245625000000e+10 -1.008952673473733e+00 -5.367417374643570e-02
5.477432500000000e+10 -1.008953435640435e+00 -5.373655564290912e-02
5.481619375000000e+10 -1.008954146173676e+00 -5.379883817753456e-02
5.485806250000000e+10 -1.008954803672536e+00 -5.386101791590889e-02
5.489993125000000e+10 -1.008955406925749e+00 -5.392309147318906e-02
5.494180000000000e+10 -1.008955955019270e+00 -5.398505583968054e-02
5.498366875000000e+10 -1.008956446923856e+00 -5.404690786010257e-02
5.502553750000000e+10 -1.008956882150905e+00 -5.410864443541861e-02
5.506740625000000e+10 -1.008957260016317e+00 -5.417026248759495e-02
5.510927500000000e+10 -1.008957580073658e+00 -5.423175902221677e-02
5.515114375000000e+10 -1.008957841723823e+00 -5.429313105888992e-02
5.519301250000000e+10 -1.008958044319572e+00 -5.435437597647531e-02
5.523488125000000e+10 -1.008958187540768e+00 -5.441549142351412e-02
5.527675000000000e+10 -1.008958270975356e+00 -5.447647510691841e-02
5.531861875000000e+10 -1.008958294474502e+00 -5.453732527527292e-02
5.536048750000000e+10 -1.008958258180894e+00 -5.459804063094197e-02
5.540235625000000e+10 -1.008958162364742e+00 -5.465862044589655e-02
5.544422500000000e+10 -1.008958007891291e+00 -5.471906417435508e-02
5.548609375000000e+10 -1.008957795985995e+00 -5.477937153247395e-02
5.552796250000000e+10 -1.008957528036183e+00 -5.483954218211648e-02
5.556983125000000e+10 -1.008957205245629e+00 -5.489957573693974e-02
5.561170000000000e+10 -1.008956828838302e+00 -5.495947238658181e-02
5.565356875000000e+10 -1.008956399835530e+00 -5.501923215773651e-02
5.569543750000000e+10 -1.008955918994834e+00 -5.507885507948120e-02
5.573730625000000e+10 -1.008955386682451e+00 -5.513834170981315e-02
5.577917500000000e+10 -1.008954803274287e+00 -5.519769357331339e-02
5.582104375000000e+10 -1.008954169381463e+00 -5.525691221843704e-02
5.586291250000000e+10 -1.008953485233519e+00 -5.531599967393479e-02
5.590478125000000e+10 -1.008952751314982e+00 -5.537495830760771e-02
5.594665000000000e+10 -1.008951968193126e+00 -5.543379044762077e-02
5.598851875000000e+10 -1.008951136278234e+00 -5.549249896670509e-02
5.603038750000000e+10 -1.008950256124989e+00 -5.555108757601830e-02
5.607225625000000e+10 -1.008949328496414e+00 -5.560956083897317e-02
5.611412500000000e+10 -1.008948354383895e+00 -5.566792323344848e-02
5.615599375000000e+10 -1.008947334475810e+00 -5.572617922697764e-02
5.619786250000000e+10 -1.008946269297788e+00 -5.578433327349120e-02
5.623973125000000e+10 -1.008945159050753e+00 -5.584239018505410e-02
5.628160000000000e+10 -1.008944003454987e+00 -5.590035504299153e-02
5.632346875000000e+10 -1.008942801626449e+00 -5.595823360010453e-02
5.636533750000000e+10 -1.008941552162730e+00 -5.601603309501664e-02
5.640720625000000e+10 -1.008940253784701e+00 -5.607376220560722e-02
5.644907500000000e+10 -1.008938905517287e+00 -5.613143052176341e-02
5.649094375000000e+10 -1.008937507066222e+00 -5.618904828179962e-02
5.653281250000000e+10 -1.008936058370519e+00 -5.624662627474351e-02
5.657468125000000e+10 -1.008934559808387e+00 -5.630417601737046e-02
5.661655000000000e+10 -1.008933012250386e+00 -5.636170898042495e-02
5.665841875000000e+10 -1.008931416877651e+00 -5.641923674173172e-02
5.670028750000000e+10 -1.008929775009013e+00 -5.647677084398446e-02
5.674215625000000e+10 -1.008928088364164e+00 -5.653432304578698e-02
5.678402500000000e+10 -1.008926359083246e+00 -5.659190540472053e-02
5.682589375000000e+10 -1.008924589742035e+00 -5.664952977217409e-02
5.686776250000000e+10 -1.008922782994669e+00 -5.670720783278290e-02
5.690963125000000e+10 -1.008920942164767e+00 -5.676495117286470e-02
5.695150000000000e+10 -1.008919070831147e+00 -5.682277133400408e-02
5.699336875000000e+10 -1.008917173009466e+00 -5.688067958848467e-02
5.703523750000000e+10 -1.008915252816061e+00 -5.693868677278887e-02
5.707710625000000e+10 -1.008913314260000e+00 -5.699680355744333e-02
5.711897500000000e+10 -1.008911361216057e+00 -5.705504055213083e-02
5.716084375000000e+10 -1.008909397607683e+00 -5.711340866158601e-02
5.720271250000000e+10 -1.008907427810906e+00 -5.717191875522880e-02
5.724458125000000e+10 -1.008905456196506e+00 -5.723058137091087e-02
5.728645000000000e+10 -1.008903487085739e+00 -5.728940697573206e-02
5.732831875000000e+10 -1.008901524769868e+00 -5.734840591743948e-02
5.737018750000000e+10 -1.008899573577208e+00 -5.740758817535808e-02
5.741205625000000e+10 -1.008897637845779e+00 -5.746696309714430e-02
5.745392500000000e+10 -1.008895721965593e+00 -5.752653884481256e-02
5.749579375000000e+10 -1.008893830885268e+00 -5.758632240653386e-02
5.753766250000000e+10 -1.008891969134866e+00 -5.764631970436051e-02
5.757953125000000e+10 -1.008890140866346e+00 -5.770653602515216e-02
5.762140000000000e+10 -1.008888349923210e+00 -5.776697615105366e-02
5.766326875000000e+10 -1.008886599986769e+00 -5.782764425707226e-02
5.770513750000000e+10 -1.008884894953273e+00 -5.788854436300413e-02
5.774700625000000e+10 -1.008883238903339e+00 -5.794967940103581e-02
5.778887500000000e+10 -1.008881635797717e+00 -5.801105170697184e-02
5.783074375000000e+10 -1.008880089442031e+00 -5.807266290855614e-02
5.787261250000000e+10 -1.008878603466606e+00 -5.813451403407875e-02
5.791448125000000e+10 -1.008877181174387e+00 -5.819660565776336e-02
5.795635000000000e+10 -1.008875825534856e+00 -5.825893761822853e-02
5.799821875000000e+10 -1.008874539409944e+00 -5.832150906727890e-02
5.804008750000000e+10 -1.008873325234021e+00 -5.838431805964481e-02
5.808195625000000e+10 -1.008872185131697e+00 -5.844736233556677e-02
5.812382500000000e+10 -1.008871120970221e+00 -5.851063911915953e-02
5.816569375000000e+10 -1.008870134345920e+00 -5.857414577652754e-02
5.820756250000000e+10 -1.008869226957213e+00 -5.863787967051555e-02
5.824943125000000e+10 -1.008868400657213e+00 -5.870183743292422e-02
5.829130000000000e+10 -1.008867657646256e+00 -5.876601510957323e-02
5.833316875000000e+10 -1.008867000237311e+00 -5.883040777088484e-02
5.837503750000000e+10 -1.008866430593141e+00 -5.889500956235846e-02
5.841690625000000e+10 -1.008865950668044e+00 -5.895981365174224e-02
5.845877500000000e+10 -1.008865561799454e+00 -5.902481200613668e-02
5.850064375000000e+10 -1.008865264948126e+00 -5.908999615027964e-02
5.854251250000000e+10 -1.008865060704348e+00 -5.915535702835446e-02
5.858438125000000e+10 -1.008864949492390e+00 -5.922088586110725e-02
5.862625000000000e+10 -1.008864931332597e+00 -5.928657348959768e-02
5.866811875000000e+10 -1.008865006160824e+00 -5.935241091115920e-02
5.870998750000000e+10 -1.008865174567366e+00 -5.941838789804584e-02
5.875185625000000e+10 -1.008865436895122e+00 -5.948449281277668e-02
5.879372500000000e+10 -1.008865793371624e+00 -5.955071378241740e-02
5.883559375000000e+10 -1.008866243372164e+00 -5.961703804668848e-02
5.887746250000000e+10 -1.008866785973578e+00 -5.968345262225867e-02
5.891933125000000e+10 -1.008867419910423e+00 -5.974994326289433e-02
5.896120000000000e+10 -1.008868143312963e+00 -5.981649583206860e-02
5.900306875000000e+10 -1.008868953908262e+00 -5.988309565990467e-02
5.904493750000000e+10 -1.008869848905379e+00 -5.994972855563011e-02
5.908680625000000e+10 -1.008870825603642e+00 -6.001638135276487e-02
5.912867500000000e+10 -1.008871881268795e+00 -6.008304148663184e-02
5.917054375000000e+10 -1.008873013352151e+00 -6.014969680374328e-02
5.921241250000000e+10 -1.008874219773292e+00 -6.021633562119098e-02
5.925428125000000e+10 -1.008875498333071e+00 -6.028294672623694e-02
5.929615000000000e+10 -1.008876847498694e+00 -6.034951828382159e-02
5.933801875000000e+10 -1.008878265373627e+00 -6.041603765138994e-02
5.937988750000000e+10 -1.008879750136486e+00 -6.048249177064503e-02
5.942175625000000e+10 -1.008881299297429e+00 -6.054886736793166e-02
5.946362500000000e+10 -1.008882910115564e+00 -6.061515168133722e-02
5.950549375000000e+10 -1.008884579841890e+00 -6.068133179064342e-02
5.954736250000000e+10 -1.008886305472643e+00 -6.074739473112091e-02
5.958923125000000e+10 -1.008888083764268e+00 -6.081332725516313e-02
5.963110000000000e+10 -1.008889911111474e+00 -6.087911609433456e-02
5.967296875000000e+10 -1.008891783948258e+00 -6.094474835558548e-02
5.971483750000000e+10 -1.008893698131969e+00 -6.101021158518200e-02
5.975670625000000e+10 -1.008895649339978e+00 -6.107549411355777e-02
5.979857500000000e+10 -1.008897633094741e+00 -6.114058411722429e-02
5.984044375000000e+10 -1.008899644564133e+00 -6.120547088294453e-02
5.988231250000000e+10 -1.008901678580822e+00 -6.127014408802266e-02
5.992418125000000e+10 -1.008903729342147e+00 -6.133459391985953e-02
5.996605000000000e+10 -1.008905790551007e+00 -6.139881184903433e-02
6.000791875000000e+10 -1.008907855371805e+00 -6.146279058659347e-02
6.004978750000000e+10 -1.008909917271477e+00 -6.152652453509282e-02
6.009165625000000e+10 -1.008911969960219e+00 -6.159000941240555e-02
6.013352500000000e+10 -1.008914007504884e+00 -6.165324202344199e-02
6.017539375000000e+10 -1.008916024177268e+00 -6.171621984090304e-02
6.021726250000000e+10 -1.008918014540797e+00 -6.177894055290468e-02
6.025913125000000e+10 -1.008919973620318e+00 -6.184140227793946e-02
6.030100000000000e+10 -1.008921896587008e+00 -6.190360299865057e-02
6.034286875000000e+10 -1.008923779104933e+00 -6.196554083256819e-02
6.038473750000000e+10 -1.008925616807045e+00 -6.202721327446392e-02
6.042660625000000e+10 -1.008927405356133e+00 -6.208861761134960e-02
6.046847500000000e+10 -1.008929140169554e+00 -6.214975159313085e-02
6.051034375000000e+10 -1.008930816415257e+00 -6.221061328003127e-02
6.055221250000000e+10 -1.008932428705916e+00 -6.227120133374880e-02
6.059408125000000e+10 -1.008933971427276e+00 -6.233151507110570e-02
6.063595000000000e+10 -1.008935438558500e+00 -6.239155535536114e-02
6.067781875000000e+10 -1.008936823880214e+00 -6.245132423280850e-02
6.071968750000000e+10 -1.008938121389404e+00 -6.251082468844837e-02
6.076155625000000e+10 -1.008939325670714e+00 -6.257006082733958e-02
6.080342500000000e+10 -1.008940432071203e+00 -6.262903699258072e-02
6.084529375000000e+10 -1.008941436123377e+00 -6.268775799437634e-02
6.088716250000000e+10 -1.008942334178433e+00 -6.274622922856656e-02
6.092903125000000e+10 -1.008943123068466e+00 -6.280445610469415e-02
6.097090000000000e+10 -1.008943800802617e+00 -6.286244358381757e-02
6.101276875000000e+10 -1.008944366048516e+00 -6.292019488321229e-02
6.105463750000000e+10 -1.008944817617873e+00 -6.297771237690084e-02
6.109650625000000e+10 -1.008945154406223e+00 -6.303499689192545e-02
6.113837500000000e+10 -1.008945375459908e+00 -6.309204821052784e-02
6.118024375000000e+10 -1.008945479707610e+00 -6.314886569702184e-02
6.122211250000000e+10 -1.008945465655816e+00 -6.320544787125461e-02
6.126398125000000e+10 -1.008945331879088e+00 -6.326179252484433e-02
6.130585000000000e+10 -1.008945076832780e+00 -6.331789629818631e-02
6.134771875000000e+10 -1.008944698749366e+00 -6.337375497362566e-02
6.138958750000000e+10 -1.008944195388652e+00 -6.342936318046218e-02
6.143145625000000e+10 -1.008943563846044e+00 -6.348471536910331e-02
6.147332500000000e+10 -1.008942800814801e+00 -6.353980588693932e-02
6.151519375000000e+10 -1.008941902699456e+00 -6.359462857308128e-02
6.155706250000000e+10 -1.008940866187963e+00 -6.364917791830543e-02
6.159893125000000e+10 -1.008939688058638e+00 -6.370344768496561e-02
6.164080000000000e+10 -1.008938364548586e+00 -6.375743156475347e-02
6.168266875000000e+10 -1.008936891519210e+00 -6.381112319644919e-02
6.172453750000000e+10 -1.008935264683223e+00 -6.386451773888799e-02
6.176640625000000e+10 -1.008933480357455e+00 -6.391761117059844e-02
6.180827500000000e+10 -1.008931535324264e+00 -6.397039875522692e-02
6.185014375000000e+10 -1.008929426534955e+00 -6.402287569721939e-02
6.189201250000000e+10 -1.008927150343369e+00 -6.407503666455495e-02
6.193388125000000e+10 -1.008924702751416e+00 -6.412687687884619e-02
6.197575000000000e+10 -1.008922080173281e+00 -6.417839153102499e-02
6.201761875000000e+10 -1.008919278856655e+00 -6.422957641360366e-02
6.205948750000000e+10 -1.008916295362517e+00 -6.428042673496885e-02
6.210135625000000e+10 -1.008913126076380e+00 -6.433093777173461e-02
6.214322500000000e+10 -1.008909767499339e+00 -6.438110498389557e-02
6.218509375000000e+10 -1.008906215860688e+00 -6.443092463381771e-02
6.222696250000000e+10 -1.008902467621680e+00 -6.448039335204472e-02
6.226883125000000e+10 -1.008898519578600e+00 -6.452950900250679e-02
6.231070000000000e+10 -1.008894368746940e+00 -6.457826977343256e-02
6.235256875000000e+10 -1.008890012635451e+00 -6.462667406602311e-02
6.239443750000000e+10 -1.008885448862712e+00 -6.467472013912315e-02
6.243630625000000e+10 -1.008880675252615e+00 -6.472240663267406e-02
6.247817500000000e+10 -1.008875689704024e+00 -6.476973222887139e-02
6.252004375000000e+10 -1.008870490321957e+00 -6.481669544492796e-02
6.256191250000000e+10 -1.008865075140922e+00 -6.486329412063548e-02
6.260378125000000e+10 -1.008859441695104e+00 -6.490952609050026e-02
6.264565000000000e+10 -1.008853587226316e+00 -6.495539034705777e-02
6.268751875000000e+10 -1.008847509212506e+00 -6.500088652851936e-02
6.272938750000000e+10 -1.008841205267067e+00 -6.504601503416768e-02
6.277125625000000e+10 -1.008834673498328e+00 -6.509077666858859e-02
6.281312500000000e+10 -1.008827912668272e+00 -6.513517283912870e-02
6.285499375000000e+10 -1.008820922230493e+00 -6.517920537435030e-02
6.289686250000000e+10 -1.008813701850608e+00 -6.522287596927764e-02
6.293873125000000e+10 -1.008806251718231e+00 -6.526618674538844e-02
6.298060000000000e+10 -1.008798572832274e+00 -6.530913944883608e-02
6.302246875000000e+10 -1.008790666216387e+00 -6.535173520449991e-02
6.306433750000000e+10 -1.008782533509080e+00 -6.539397477920023e-02
6.310620625000000e+10 -1.008774176714461e+00 -6.543585776763416e-02
6.314807500000000e+10 -1.008765598409440e+00 -6.547738268960045e-02
6.318994375000000e+10 -1.008756801178488e+00 -6.551854663308401e-02
6.323181250000000e+10 -1.008747787339436e+00 -6.555934611819836e-02
6.327368125000000e+10 -1.008738559135407e+00 -6.559977717422842e-02
6.331555000000000e+10 -1.008729118144324e+00 -6.563983551702861e-02
6.335741875000000e+10 -1.008719465750640e+00 -6.567951658633400e-02
6.339928750000000e+10 -1.008709602716400e+00 -6.571881610891595e-02
6.344115625000000e+10 -1.008699529475156e+00 -6.575773025490721e-02
6.348302500000000e+10 -1.008689246055919e+00 -6.579625549500637e-02
6.352489375000000e+10 -1.008678752219441e+00 -6.583438936387567e-02
6.356676250000000e+10 -1.008668048193397e+00 -6.587212930875783e-02
6.360863125000000e+10 -1.008657134643633e+00 -6.590947286880704e-02
6.365050000000000e+10 -1.008646012946392e+00 -6.594641743288848e-02
6.369236875000000e+10 -1.008634685034628e+00 -6.598295920226611e-02
6.373423750000000e+10 -1.008623153482295e+00 -6.601909302175168e-02
6.377610625000000e+10 -1.008611420654266e+00 -6.605481188337553e-02
6.381797500000000e+10 -1.008599488714423e+00 -6.609010805088443e-02
6.385984375000000e+10 -1.008587359909950e+00 -6.612497252129358e-02
6.390171250000000e+10 -1.008575035712784e+00 -6.615939488043771e-02
6.394358125000000e+10 -1.008562517219767e+00 -6.619336396104392e-02
6.398545000000000e+10 -1.008549804884170e+00 -6.622686737274780e-02
6.402731875000000e+10 -1.008536898550028e+00 -6.625989237441859e-02
6.406918750000000e+10 -1.008523797627705e+00 -6.629242516142039e-02
6.411105625000000e+10 -1.008510500435004e+00 -6.632445160514694e-02
6.415292500000000e+10 -1.008497004264806e+00 -6.635595725245330e-02
6.419479375000000e+10 -1.008483305249576e+00 -6.638692847972312e-02
6.423666250000000e+10 -1.008469399037484e+00 -6.641735195292382e-02
6.427853125000000e+10 -1.008455280525885e+00 -6.644721431156018e-02
6.432040000000000e+10 -1.008440943778196e+00 -6.647650296516974e-02
6.436226875000000e+10 -1.008426382449991e+00 -6.650520605250210e-02
6.440413750000000e+10 -1.008411589950481e+00 -6.653331262826664e-02
6.444600625000000e+10 -1.008396560044631e+00 -6.656081190694188e-02
6.448787500000000e+10 -1.008381286118785e+00 -6.658769345500810e-02
6.452974375000000e+10 -1.008365761784972e+00 -6.661394723484308e-02
6.457161250000000e+10 -1.008349980490674e+00 -6.663956304082613e-02
6.461348125000000e+10 -1.008333935117553e+00 -6.666453098837606e-02
6.465535000000000e+10 -1.008317617816898e+00 -6.668884187397174e-02
6.469721875000000e+10 -1.008301020184637e+00 -6.671248784982275e-02
6.473908750000000e+10 -1.008284133923766e+00 -6.673546219719211e-02
6.478095625000000e+10 -1.008266951042801e+00 -6.675775923992458e-02
6.482282500000000e+10 -1.008249463883769e+00 -6.677937355839710e-02
6.486469375000000e+10 -1.008231664663406e+00 -6.680030039751597e-02
6.490656250000000e+10 -1.008213545324291e+00 -6.682053565598842e-02
6.494843125000000e+10 -1.008195097723632e+00 -6.684007692068934e-02
6.499030000000000e+10 -1.008176313621535e+00 -6.685892318803974e-02
6.503216875000000e+10 -1.008157184768239e+00 -6.687707496762536e-02
6.507403750000000e+10 -1.008137703084250e+00 -6.689453408178947e-02
6.511590625000000e+10 -1.008117860159657e+00 -6.691130391294015e-02
6.515777500000000e+10 -1.008097647796176e+00 -6.692738998459014e-02
6.519964375000000e+10 -1.008077058433502e+00 -6.694279918384026e-02
6.524151250000000e+10 -1.008056085116107e+00 -6.695753942994676e-02
6.528338125000000e+10 -1.008034720988763e+00 -6.697161906197983e-02
6.532525000000000e+10 -1.008012959251447e+00 -6.698504759464956e-02
6.536711875000000e+10 -1.007990793272813e+00 -6.699783572656189e-02
6.540898750000000e+10 -1.007968216958358e+00 -6.700999500897926e-02
6.545085625000000e+10 -1.007945224540147e+00 -6.702153841469238e-02
6.549272500000000e+10 -1.007921810465641e+00 -6.703247999210304e-02
6.553459375000000e+10 -1.007897969558044e+00 -6.704283528535035e-02
6.557646250000000e+10 -1.007873697211872e+00 -6.705262060545787e-02
6.561833125000000e+10 -1.007848989506060e+00 -6.706185339738331e-02
6.566020000000000e+10 -1.007823843394003e+00 -6.707055199667242e-02
6.570206875000000e+10 -1.007798256282589e+00 -6.707873534091725e-02
6.574393750000000e+10 -1.007772226274457e+00 -6.708642273283934e-02
6.578580625000000e+10 -1.007745751697064e+00 -6.709363391715287e-02
6.582767500000000e+10 -1.007718831742238e+00 -6.710038951338311e-02
6.586954375000000e+10 -1.007691466609199e+00 -6.710671032630187e-02
6.591141250000000e+10 -1.007663657496993e+00 -6.711261696715999e-02
6.595328125000000e+10 -1.007635406117052e+00 -6.711812965059230e-02
6.599515000000000e+10 -1.007606714152407e+00 -6.712326868213654e-02
6.603701875000000e+10 -1.007577583956536e+00 -6.712805499139078e-02
6.607888750000000e+10 -1.007548017880672e+00 -6.713250964198747e-02
6.612075625000000e+10 -1.007518018923399e+00 -6.713665463981904e-02
6.616262500000000e+10 -1.007487590270311e+00 -6.714051130082573e-02
6.620449375000000e+10 -1.007456735153718e+00 -6.714410184292210e-02
6.624636250000000e+10 -1.007425457212056e+00 -6.714744850309813e-02
6.628823125000000e+10 -1.007393759856949e+00 -6.715057409657466e-02
6.633010000000000e+10 -1.007361647246860e+00 -6.715350154267394e-02
6.637196875000000e+10 -1.007329124020905e+00 -6.715625387624997e-02
6.641383750000000e+10 -1.007296195425985e+00 -6.715885362522311e-02
6.645570625000000e+10 -1.007262866751241e+00 -6.716132285465533e-02
6.649757500000000e+10 -1.007229142996194e+00 -6.716368454531811e-02
6.653944375000000e+10 -1.007195029481991e+00 -6.716596125157299e-02
6.658131250000000e+10 -1.007160531233684e+00 -6.716817560159151e-02
6.662318125000000e+10 -1.007125653639572e+00 -6.717034935951423e-02
6.666505000000000e+10 -1.007090401986960e+00 -6.717250395759647e-02
6.670691875000000e+10 -1.007054781464616e+00 -6.717466105683426e-02
6.674878750000000e+10 -1.007018797235879e+00 -6.717684203323017e-02
6.679065625000000e+10 -1.006982454439735e+00 -6.717906900188879e-02
6.683252500000000e+10 -1.006945758021645e+00 -6.718136307507856e-02
6.687439375000000e+10 -1.006908712083990e+00 -6.718374496279138e-02
6.691626250000000e+10 -1.006871320487967e+00 -6.718623529380890e-02
6.695813125000000e+10 -1.006833585675333e+00 -6.718885574720619e-02
6.700000000000000e+10 -1.006795509957761e+00 -6.719162869839548e-02
